 <VTKFile type="UnstructuredGrid"  version="0.1"   >
 <UnstructuredGrid>
 <Piece  NumberOfPoints="          1600 "  NumberOfCells="         1024 ">
 <Points>
 <DataArray  type="Float64" NumberOfComponents="3"  format="ascii" >
   0.0000000000000000        0.0000000000000000        0.0000000000000000     
   3.1250000000000000E-002   0.0000000000000000        0.0000000000000000     
   6.2500000000000000E-002   0.0000000000000000        0.0000000000000000     
   9.3750000000000000E-002   0.0000000000000000        0.0000000000000000     
  0.12500000000000000        0.0000000000000000        0.0000000000000000     
   0.0000000000000000        3.1250000000000000E-002   0.0000000000000000     
   3.1250000000000000E-002   3.1250000000000000E-002   0.0000000000000000     
   6.2500000000000000E-002   3.1250000000000000E-002   0.0000000000000000     
   9.3750000000000000E-002   3.1250000000000000E-002   0.0000000000000000     
  0.12500000000000000        3.1250000000000000E-002   0.0000000000000000     
   0.0000000000000000        6.2500000000000000E-002   0.0000000000000000     
   3.1250000000000000E-002   6.2500000000000000E-002   0.0000000000000000     
   6.2500000000000000E-002   6.2500000000000000E-002   0.0000000000000000     
   9.3750000000000000E-002   6.2500000000000000E-002   0.0000000000000000     
  0.12500000000000000        6.2500000000000000E-002   0.0000000000000000     
   0.0000000000000000        9.3750000000000000E-002   0.0000000000000000     
   3.1250000000000000E-002   9.3750000000000000E-002   0.0000000000000000     
   6.2500000000000000E-002   9.3750000000000000E-002   0.0000000000000000     
   9.3750000000000000E-002   9.3750000000000000E-002   0.0000000000000000     
  0.12500000000000000        9.3750000000000000E-002   0.0000000000000000     
   0.0000000000000000       0.12500000000000000        0.0000000000000000     
   3.1250000000000000E-002  0.12500000000000000        0.0000000000000000     
   6.2500000000000000E-002  0.12500000000000000        0.0000000000000000     
   9.3750000000000000E-002  0.12500000000000000        0.0000000000000000     
  0.12500000000000000       0.12500000000000000        0.0000000000000000     
  0.12500000000000000        0.0000000000000000        0.0000000000000000     
  0.15625000000000000        0.0000000000000000        0.0000000000000000     
  0.18750000000000000        0.0000000000000000        0.0000000000000000     
  0.21875000000000000        0.0000000000000000        0.0000000000000000     
  0.25000000000000000        0.0000000000000000        0.0000000000000000     
  0.12500000000000000        3.1250000000000000E-002   0.0000000000000000     
  0.15625000000000000        3.1250000000000000E-002   0.0000000000000000     
  0.18750000000000000        3.1250000000000000E-002   0.0000000000000000     
  0.21875000000000000        3.1250000000000000E-002   0.0000000000000000     
  0.25000000000000000        3.1250000000000000E-002   0.0000000000000000     
  0.12500000000000000        6.2500000000000000E-002   0.0000000000000000     
  0.15625000000000000        6.2500000000000000E-002   0.0000000000000000     
  0.18750000000000000        6.2500000000000000E-002   0.0000000000000000     
  0.21875000000000000        6.2500000000000000E-002   0.0000000000000000     
  0.25000000000000000        6.2500000000000000E-002   0.0000000000000000     
  0.12500000000000000        9.3750000000000000E-002   0.0000000000000000     
  0.15625000000000000        9.3750000000000000E-002   0.0000000000000000     
  0.18750000000000000        9.3750000000000000E-002   0.0000000000000000     
  0.21875000000000000        9.3750000000000000E-002   0.0000000000000000     
  0.25000000000000000        9.3750000000000000E-002   0.0000000000000000     
  0.12500000000000000       0.12500000000000000        0.0000000000000000     
  0.15625000000000000       0.12500000000000000        0.0000000000000000     
  0.18750000000000000       0.12500000000000000        0.0000000000000000     
  0.21875000000000000       0.12500000000000000        0.0000000000000000     
  0.25000000000000000       0.12500000000000000        0.0000000000000000     
  0.25000000000000000        0.0000000000000000        0.0000000000000000     
  0.28125000000000000        0.0000000000000000        0.0000000000000000     
  0.31250000000000000        0.0000000000000000        0.0000000000000000     
  0.34375000000000000        0.0000000000000000        0.0000000000000000     
  0.37500000000000000        0.0000000000000000        0.0000000000000000     
  0.25000000000000000        3.1250000000000000E-002   0.0000000000000000     
  0.28125000000000000        3.1250000000000000E-002   0.0000000000000000     
  0.31250000000000000        3.1250000000000000E-002   0.0000000000000000     
  0.34375000000000000        3.1250000000000000E-002   0.0000000000000000     
  0.37500000000000000        3.1250000000000000E-002   0.0000000000000000     
  0.25000000000000000        6.2500000000000000E-002   0.0000000000000000     
  0.28125000000000000        6.2500000000000000E-002   0.0000000000000000     
  0.31250000000000000        6.2500000000000000E-002   0.0000000000000000     
  0.34375000000000000        6.2500000000000000E-002   0.0000000000000000     
  0.37500000000000000        6.2500000000000000E-002   0.0000000000000000     
  0.25000000000000000        9.3750000000000000E-002   0.0000000000000000     
  0.28125000000000000        9.3750000000000000E-002   0.0000000000000000     
  0.31250000000000000        9.3750000000000000E-002   0.0000000000000000     
  0.34375000000000000        9.3750000000000000E-002   0.0000000000000000     
  0.37500000000000000        9.3750000000000000E-002   0.0000000000000000     
  0.25000000000000000       0.12500000000000000        0.0000000000000000     
  0.28125000000000000       0.12500000000000000        0.0000000000000000     
  0.31250000000000000       0.12500000000000000        0.0000000000000000     
  0.34375000000000000       0.12500000000000000        0.0000000000000000     
  0.37500000000000000       0.12500000000000000        0.0000000000000000     
  0.37500000000000000        0.0000000000000000        0.0000000000000000     
  0.40625000000000000        0.0000000000000000        0.0000000000000000     
  0.43750000000000000        0.0000000000000000        0.0000000000000000     
  0.46875000000000000        0.0000000000000000        0.0000000000000000     
  0.50000000000000000        0.0000000000000000        0.0000000000000000     
  0.37500000000000000        3.1250000000000000E-002   0.0000000000000000     
  0.40625000000000000        3.1250000000000000E-002   0.0000000000000000     
  0.43750000000000000        3.1250000000000000E-002   0.0000000000000000     
  0.46875000000000000        3.1250000000000000E-002   0.0000000000000000     
  0.50000000000000000        3.1250000000000000E-002   0.0000000000000000     
  0.37500000000000000        6.2500000000000000E-002   0.0000000000000000     
  0.40625000000000000        6.2500000000000000E-002   0.0000000000000000     
  0.43750000000000000        6.2500000000000000E-002   0.0000000000000000     
  0.46875000000000000        6.2500000000000000E-002   0.0000000000000000     
  0.50000000000000000        6.2500000000000000E-002   0.0000000000000000     
  0.37500000000000000        9.3750000000000000E-002   0.0000000000000000     
  0.40625000000000000        9.3750000000000000E-002   0.0000000000000000     
  0.43750000000000000        9.3750000000000000E-002   0.0000000000000000     
  0.46875000000000000        9.3750000000000000E-002   0.0000000000000000     
  0.50000000000000000        9.3750000000000000E-002   0.0000000000000000     
  0.37500000000000000       0.12500000000000000        0.0000000000000000     
  0.40625000000000000       0.12500000000000000        0.0000000000000000     
  0.43750000000000000       0.12500000000000000        0.0000000000000000     
  0.46875000000000000       0.12500000000000000        0.0000000000000000     
  0.50000000000000000       0.12500000000000000        0.0000000000000000     
  0.50000000000000000        0.0000000000000000        0.0000000000000000     
  0.53125000000000000        0.0000000000000000        0.0000000000000000     
  0.56250000000000000        0.0000000000000000        0.0000000000000000     
  0.59375000000000000        0.0000000000000000        0.0000000000000000     
  0.62500000000000000        0.0000000000000000        0.0000000000000000     
  0.50000000000000000        3.1250000000000000E-002   0.0000000000000000     
  0.53125000000000000        3.1250000000000000E-002   0.0000000000000000     
  0.56250000000000000        3.1250000000000000E-002   0.0000000000000000     
  0.59375000000000000        3.1250000000000000E-002   0.0000000000000000     
  0.62500000000000000        3.1250000000000000E-002   0.0000000000000000     
  0.50000000000000000        6.2500000000000000E-002   0.0000000000000000     
  0.53125000000000000        6.2500000000000000E-002   0.0000000000000000     
  0.56250000000000000        6.2500000000000000E-002   0.0000000000000000     
  0.59375000000000000        6.2500000000000000E-002   0.0000000000000000     
  0.62500000000000000        6.2500000000000000E-002   0.0000000000000000     
  0.50000000000000000        9.3750000000000000E-002   0.0000000000000000     
  0.53125000000000000        9.3750000000000000E-002   0.0000000000000000     
  0.56250000000000000        9.3750000000000000E-002   0.0000000000000000     
  0.59375000000000000        9.3750000000000000E-002   0.0000000000000000     
  0.62500000000000000        9.3750000000000000E-002   0.0000000000000000     
  0.50000000000000000       0.12500000000000000        0.0000000000000000     
  0.53125000000000000       0.12500000000000000        0.0000000000000000     
  0.56250000000000000       0.12500000000000000        0.0000000000000000     
  0.59375000000000000       0.12500000000000000        0.0000000000000000     
  0.62500000000000000       0.12500000000000000        0.0000000000000000     
  0.62500000000000000        0.0000000000000000        0.0000000000000000     
  0.65625000000000000        0.0000000000000000        0.0000000000000000     
  0.68750000000000000        0.0000000000000000        0.0000000000000000     
  0.71875000000000000        0.0000000000000000        0.0000000000000000     
  0.75000000000000000        0.0000000000000000        0.0000000000000000     
  0.62500000000000000        3.1250000000000000E-002   0.0000000000000000     
  0.65625000000000000        3.1250000000000000E-002   0.0000000000000000     
  0.68750000000000000        3.1250000000000000E-002   0.0000000000000000     
  0.71875000000000000        3.1250000000000000E-002   0.0000000000000000     
  0.75000000000000000        3.1250000000000000E-002   0.0000000000000000     
  0.62500000000000000        6.2500000000000000E-002   0.0000000000000000     
  0.65625000000000000        6.2500000000000000E-002   0.0000000000000000     
  0.68750000000000000        6.2500000000000000E-002   0.0000000000000000     
  0.71875000000000000        6.2500000000000000E-002   0.0000000000000000     
  0.75000000000000000        6.2500000000000000E-002   0.0000000000000000     
  0.62500000000000000        9.3750000000000000E-002   0.0000000000000000     
  0.65625000000000000        9.3750000000000000E-002   0.0000000000000000     
  0.68750000000000000        9.3750000000000000E-002   0.0000000000000000     
  0.71875000000000000        9.3750000000000000E-002   0.0000000000000000     
  0.75000000000000000        9.3750000000000000E-002   0.0000000000000000     
  0.62500000000000000       0.12500000000000000        0.0000000000000000     
  0.65625000000000000       0.12500000000000000        0.0000000000000000     
  0.68750000000000000       0.12500000000000000        0.0000000000000000     
  0.71875000000000000       0.12500000000000000        0.0000000000000000     
  0.75000000000000000       0.12500000000000000        0.0000000000000000     
  0.75000000000000000        0.0000000000000000        0.0000000000000000     
  0.78125000000000000        0.0000000000000000        0.0000000000000000     
  0.81250000000000000        0.0000000000000000        0.0000000000000000     
  0.84375000000000000        0.0000000000000000        0.0000000000000000     
  0.87500000000000000        0.0000000000000000        0.0000000000000000     
  0.75000000000000000        3.1250000000000000E-002   0.0000000000000000     
  0.78125000000000000        3.1250000000000000E-002   0.0000000000000000     
  0.81250000000000000        3.1250000000000000E-002   0.0000000000000000     
  0.84375000000000000        3.1250000000000000E-002   0.0000000000000000     
  0.87500000000000000        3.1250000000000000E-002   0.0000000000000000     
  0.75000000000000000        6.2500000000000000E-002   0.0000000000000000     
  0.78125000000000000        6.2500000000000000E-002   0.0000000000000000     
  0.81250000000000000        6.2500000000000000E-002   0.0000000000000000     
  0.84375000000000000        6.2500000000000000E-002   0.0000000000000000     
  0.87500000000000000        6.2500000000000000E-002   0.0000000000000000     
  0.75000000000000000        9.3750000000000000E-002   0.0000000000000000     
  0.78125000000000000        9.3750000000000000E-002   0.0000000000000000     
  0.81250000000000000        9.3750000000000000E-002   0.0000000000000000     
  0.84375000000000000        9.3750000000000000E-002   0.0000000000000000     
  0.87500000000000000        9.3750000000000000E-002   0.0000000000000000     
  0.75000000000000000       0.12500000000000000        0.0000000000000000     
  0.78125000000000000       0.12500000000000000        0.0000000000000000     
  0.81250000000000000       0.12500000000000000        0.0000000000000000     
  0.84375000000000000       0.12500000000000000        0.0000000000000000     
  0.87500000000000000       0.12500000000000000        0.0000000000000000     
  0.87500000000000000        0.0000000000000000        0.0000000000000000     
  0.90625000000000000        0.0000000000000000        0.0000000000000000     
  0.93750000000000000        0.0000000000000000        0.0000000000000000     
  0.96875000000000000        0.0000000000000000        0.0000000000000000     
   1.0000000000000000        0.0000000000000000        0.0000000000000000     
  0.87500000000000000        3.1250000000000000E-002   0.0000000000000000     
  0.90625000000000000        3.1250000000000000E-002   0.0000000000000000     
  0.93750000000000000        3.1250000000000000E-002   0.0000000000000000     
  0.96875000000000000        3.1250000000000000E-002   0.0000000000000000     
   1.0000000000000000        3.1250000000000000E-002   0.0000000000000000     
  0.87500000000000000        6.2500000000000000E-002   0.0000000000000000     
  0.90625000000000000        6.2500000000000000E-002   0.0000000000000000     
  0.93750000000000000        6.2500000000000000E-002   0.0000000000000000     
  0.96875000000000000        6.2500000000000000E-002   0.0000000000000000     
   1.0000000000000000        6.2500000000000000E-002   0.0000000000000000     
  0.87500000000000000        9.3750000000000000E-002   0.0000000000000000     
  0.90625000000000000        9.3750000000000000E-002   0.0000000000000000     
  0.93750000000000000        9.3750000000000000E-002   0.0000000000000000     
  0.96875000000000000        9.3750000000000000E-002   0.0000000000000000     
   1.0000000000000000        9.3750000000000000E-002   0.0000000000000000     
  0.87500000000000000       0.12500000000000000        0.0000000000000000     
  0.90625000000000000       0.12500000000000000        0.0000000000000000     
  0.93750000000000000       0.12500000000000000        0.0000000000000000     
  0.96875000000000000       0.12500000000000000        0.0000000000000000     
   1.0000000000000000       0.12500000000000000        0.0000000000000000     
   0.0000000000000000       0.12500000000000000        0.0000000000000000     
   3.1250000000000000E-002  0.12500000000000000        0.0000000000000000     
   6.2500000000000000E-002  0.12500000000000000        0.0000000000000000     
   9.3750000000000000E-002  0.12500000000000000        0.0000000000000000     
  0.12500000000000000       0.12500000000000000        0.0000000000000000     
   0.0000000000000000       0.15625000000000000        0.0000000000000000     
   3.1250000000000000E-002  0.15625000000000000        0.0000000000000000     
   6.2500000000000000E-002  0.15625000000000000        0.0000000000000000     
   9.3750000000000000E-002  0.15625000000000000        0.0000000000000000     
  0.12500000000000000       0.15625000000000000        0.0000000000000000     
   0.0000000000000000       0.18750000000000000        0.0000000000000000     
   3.1250000000000000E-002  0.18750000000000000        0.0000000000000000     
   6.2500000000000000E-002  0.18750000000000000        0.0000000000000000     
   9.3750000000000000E-002  0.18750000000000000        0.0000000000000000     
  0.12500000000000000       0.18750000000000000        0.0000000000000000     
   0.0000000000000000       0.21875000000000000        0.0000000000000000     
   3.1250000000000000E-002  0.21875000000000000        0.0000000000000000     
   6.2500000000000000E-002  0.21875000000000000        0.0000000000000000     
   9.3750000000000000E-002  0.21875000000000000        0.0000000000000000     
  0.12500000000000000       0.21875000000000000        0.0000000000000000     
   0.0000000000000000       0.25000000000000000        0.0000000000000000     
   3.1250000000000000E-002  0.25000000000000000        0.0000000000000000     
   6.2500000000000000E-002  0.25000000000000000        0.0000000000000000     
   9.3750000000000000E-002  0.25000000000000000        0.0000000000000000     
  0.12500000000000000       0.25000000000000000        0.0000000000000000     
  0.12500000000000000       0.12500000000000000        0.0000000000000000     
  0.15625000000000000       0.12500000000000000        0.0000000000000000     
  0.18750000000000000       0.12500000000000000        0.0000000000000000     
  0.21875000000000000       0.12500000000000000        0.0000000000000000     
  0.25000000000000000       0.12500000000000000        0.0000000000000000     
  0.12500000000000000       0.15625000000000000        0.0000000000000000     
  0.15625000000000000       0.15625000000000000        0.0000000000000000     
  0.18750000000000000       0.15625000000000000        0.0000000000000000     
  0.21875000000000000       0.15625000000000000        0.0000000000000000     
  0.25000000000000000       0.15625000000000000        0.0000000000000000     
  0.12500000000000000       0.18750000000000000        0.0000000000000000     
  0.15625000000000000       0.18750000000000000        0.0000000000000000     
  0.18750000000000000       0.18750000000000000        0.0000000000000000     
  0.21875000000000000       0.18750000000000000        0.0000000000000000     
  0.25000000000000000       0.18750000000000000        0.0000000000000000     
  0.12500000000000000       0.21875000000000000        0.0000000000000000     
  0.15625000000000000       0.21875000000000000        0.0000000000000000     
  0.18750000000000000       0.21875000000000000        0.0000000000000000     
  0.21875000000000000       0.21875000000000000        0.0000000000000000     
  0.25000000000000000       0.21875000000000000        0.0000000000000000     
  0.12500000000000000       0.25000000000000000        0.0000000000000000     
  0.15625000000000000       0.25000000000000000        0.0000000000000000     
  0.18750000000000000       0.25000000000000000        0.0000000000000000     
  0.21875000000000000       0.25000000000000000        0.0000000000000000     
  0.25000000000000000       0.25000000000000000        0.0000000000000000     
  0.25000000000000000       0.12500000000000000        0.0000000000000000     
  0.28125000000000000       0.12500000000000000        0.0000000000000000     
  0.31250000000000000       0.12500000000000000        0.0000000000000000     
  0.34375000000000000       0.12500000000000000        0.0000000000000000     
  0.37500000000000000       0.12500000000000000        0.0000000000000000     
  0.25000000000000000       0.15625000000000000        0.0000000000000000     
  0.28125000000000000       0.15625000000000000        0.0000000000000000     
  0.31250000000000000       0.15625000000000000        0.0000000000000000     
  0.34375000000000000       0.15625000000000000        0.0000000000000000     
  0.37500000000000000       0.15625000000000000        0.0000000000000000     
  0.25000000000000000       0.18750000000000000        0.0000000000000000     
  0.28125000000000000       0.18750000000000000        0.0000000000000000     
  0.31250000000000000       0.18750000000000000        0.0000000000000000     
  0.34375000000000000       0.18750000000000000        0.0000000000000000     
  0.37500000000000000       0.18750000000000000        0.0000000000000000     
  0.25000000000000000       0.21875000000000000        0.0000000000000000     
  0.28125000000000000       0.21875000000000000        0.0000000000000000     
  0.31250000000000000       0.21875000000000000        0.0000000000000000     
  0.34375000000000000       0.21875000000000000        0.0000000000000000     
  0.37500000000000000       0.21875000000000000        0.0000000000000000     
  0.25000000000000000       0.25000000000000000        0.0000000000000000     
  0.28125000000000000       0.25000000000000000        0.0000000000000000     
  0.31250000000000000       0.25000000000000000        0.0000000000000000     
  0.34375000000000000       0.25000000000000000        0.0000000000000000     
  0.37500000000000000       0.25000000000000000        0.0000000000000000     
  0.37500000000000000       0.12500000000000000        0.0000000000000000     
  0.40625000000000000       0.12500000000000000        0.0000000000000000     
  0.43750000000000000       0.12500000000000000        0.0000000000000000     
  0.46875000000000000       0.12500000000000000        0.0000000000000000     
  0.50000000000000000       0.12500000000000000        0.0000000000000000     
  0.37500000000000000       0.15625000000000000        0.0000000000000000     
  0.40625000000000000       0.15625000000000000        0.0000000000000000     
  0.43750000000000000       0.15625000000000000        0.0000000000000000     
  0.46875000000000000       0.15625000000000000        0.0000000000000000     
  0.50000000000000000       0.15625000000000000        0.0000000000000000     
  0.37500000000000000       0.18750000000000000        0.0000000000000000     
  0.40625000000000000       0.18750000000000000        0.0000000000000000     
  0.43750000000000000       0.18750000000000000        0.0000000000000000     
  0.46875000000000000       0.18750000000000000        0.0000000000000000     
  0.50000000000000000       0.18750000000000000        0.0000000000000000     
  0.37500000000000000       0.21875000000000000        0.0000000000000000     
  0.40625000000000000       0.21875000000000000        0.0000000000000000     
  0.43750000000000000       0.21875000000000000        0.0000000000000000     
  0.46875000000000000       0.21875000000000000        0.0000000000000000     
  0.50000000000000000       0.21875000000000000        0.0000000000000000     
  0.37500000000000000       0.25000000000000000        0.0000000000000000     
  0.40625000000000000       0.25000000000000000        0.0000000000000000     
  0.43750000000000000       0.25000000000000000        0.0000000000000000     
  0.46875000000000000       0.25000000000000000        0.0000000000000000     
  0.50000000000000000       0.25000000000000000        0.0000000000000000     
  0.50000000000000000       0.12500000000000000        0.0000000000000000     
  0.53125000000000000       0.12500000000000000        0.0000000000000000     
  0.56250000000000000       0.12500000000000000        0.0000000000000000     
  0.59375000000000000       0.12500000000000000        0.0000000000000000     
  0.62500000000000000       0.12500000000000000        0.0000000000000000     
  0.50000000000000000       0.15625000000000000        0.0000000000000000     
  0.53125000000000000       0.15625000000000000        0.0000000000000000     
  0.56250000000000000       0.15625000000000000        0.0000000000000000     
  0.59375000000000000       0.15625000000000000        0.0000000000000000     
  0.62500000000000000       0.15625000000000000        0.0000000000000000     
  0.50000000000000000       0.18750000000000000        0.0000000000000000     
  0.53125000000000000       0.18750000000000000        0.0000000000000000     
  0.56250000000000000       0.18750000000000000        0.0000000000000000     
  0.59375000000000000       0.18750000000000000        0.0000000000000000     
  0.62500000000000000       0.18750000000000000        0.0000000000000000     
  0.50000000000000000       0.21875000000000000        0.0000000000000000     
  0.53125000000000000       0.21875000000000000        0.0000000000000000     
  0.56250000000000000       0.21875000000000000        0.0000000000000000     
  0.59375000000000000       0.21875000000000000        0.0000000000000000     
  0.62500000000000000       0.21875000000000000        0.0000000000000000     
  0.50000000000000000       0.25000000000000000        0.0000000000000000     
  0.53125000000000000       0.25000000000000000        0.0000000000000000     
  0.56250000000000000       0.25000000000000000        0.0000000000000000     
  0.59375000000000000       0.25000000000000000        0.0000000000000000     
  0.62500000000000000       0.25000000000000000        0.0000000000000000     
  0.62500000000000000       0.12500000000000000        0.0000000000000000     
  0.65625000000000000       0.12500000000000000        0.0000000000000000     
  0.68750000000000000       0.12500000000000000        0.0000000000000000     
  0.71875000000000000       0.12500000000000000        0.0000000000000000     
  0.75000000000000000       0.12500000000000000        0.0000000000000000     
  0.62500000000000000       0.15625000000000000        0.0000000000000000     
  0.65625000000000000       0.15625000000000000        0.0000000000000000     
  0.68750000000000000       0.15625000000000000        0.0000000000000000     
  0.71875000000000000       0.15625000000000000        0.0000000000000000     
  0.75000000000000000       0.15625000000000000        0.0000000000000000     
  0.62500000000000000       0.18750000000000000        0.0000000000000000     
  0.65625000000000000       0.18750000000000000        0.0000000000000000     
  0.68750000000000000       0.18750000000000000        0.0000000000000000     
  0.71875000000000000       0.18750000000000000        0.0000000000000000     
  0.75000000000000000       0.18750000000000000        0.0000000000000000     
  0.62500000000000000       0.21875000000000000        0.0000000000000000     
  0.65625000000000000       0.21875000000000000        0.0000000000000000     
  0.68750000000000000       0.21875000000000000        0.0000000000000000     
  0.71875000000000000       0.21875000000000000        0.0000000000000000     
  0.75000000000000000       0.21875000000000000        0.0000000000000000     
  0.62500000000000000       0.25000000000000000        0.0000000000000000     
  0.65625000000000000       0.25000000000000000        0.0000000000000000     
  0.68750000000000000       0.25000000000000000        0.0000000000000000     
  0.71875000000000000       0.25000000000000000        0.0000000000000000     
  0.75000000000000000       0.25000000000000000        0.0000000000000000     
  0.75000000000000000       0.12500000000000000        0.0000000000000000     
  0.78125000000000000       0.12500000000000000        0.0000000000000000     
  0.81250000000000000       0.12500000000000000        0.0000000000000000     
  0.84375000000000000       0.12500000000000000        0.0000000000000000     
  0.87500000000000000       0.12500000000000000        0.0000000000000000     
  0.75000000000000000       0.15625000000000000        0.0000000000000000     
  0.78125000000000000       0.15625000000000000        0.0000000000000000     
  0.81250000000000000       0.15625000000000000        0.0000000000000000     
  0.84375000000000000       0.15625000000000000        0.0000000000000000     
  0.87500000000000000       0.15625000000000000        0.0000000000000000     
  0.75000000000000000       0.18750000000000000        0.0000000000000000     
  0.78125000000000000       0.18750000000000000        0.0000000000000000     
  0.81250000000000000       0.18750000000000000        0.0000000000000000     
  0.84375000000000000       0.18750000000000000        0.0000000000000000     
  0.87500000000000000       0.18750000000000000        0.0000000000000000     
  0.75000000000000000       0.21875000000000000        0.0000000000000000     
  0.78125000000000000       0.21875000000000000        0.0000000000000000     
  0.81250000000000000       0.21875000000000000        0.0000000000000000     
  0.84375000000000000       0.21875000000000000        0.0000000000000000     
  0.87500000000000000       0.21875000000000000        0.0000000000000000     
  0.75000000000000000       0.25000000000000000        0.0000000000000000     
  0.78125000000000000       0.25000000000000000        0.0000000000000000     
  0.81250000000000000       0.25000000000000000        0.0000000000000000     
  0.84375000000000000       0.25000000000000000        0.0000000000000000     
  0.87500000000000000       0.25000000000000000        0.0000000000000000     
  0.87500000000000000       0.12500000000000000        0.0000000000000000     
  0.90625000000000000       0.12500000000000000        0.0000000000000000     
  0.93750000000000000       0.12500000000000000        0.0000000000000000     
  0.96875000000000000       0.12500000000000000        0.0000000000000000     
   1.0000000000000000       0.12500000000000000        0.0000000000000000     
  0.87500000000000000       0.15625000000000000        0.0000000000000000     
  0.90625000000000000       0.15625000000000000        0.0000000000000000     
  0.93750000000000000       0.15625000000000000        0.0000000000000000     
  0.96875000000000000       0.15625000000000000        0.0000000000000000     
   1.0000000000000000       0.15625000000000000        0.0000000000000000     
  0.87500000000000000       0.18750000000000000        0.0000000000000000     
  0.90625000000000000       0.18750000000000000        0.0000000000000000     
  0.93750000000000000       0.18750000000000000        0.0000000000000000     
  0.96875000000000000       0.18750000000000000        0.0000000000000000     
   1.0000000000000000       0.18750000000000000        0.0000000000000000     
  0.87500000000000000       0.21875000000000000        0.0000000000000000     
  0.90625000000000000       0.21875000000000000        0.0000000000000000     
  0.93750000000000000       0.21875000000000000        0.0000000000000000     
  0.96875000000000000       0.21875000000000000        0.0000000000000000     
   1.0000000000000000       0.21875000000000000        0.0000000000000000     
  0.87500000000000000       0.25000000000000000        0.0000000000000000     
  0.90625000000000000       0.25000000000000000        0.0000000000000000     
  0.93750000000000000       0.25000000000000000        0.0000000000000000     
  0.96875000000000000       0.25000000000000000        0.0000000000000000     
   1.0000000000000000       0.25000000000000000        0.0000000000000000     
   0.0000000000000000       0.25000000000000000        0.0000000000000000     
   3.1250000000000000E-002  0.25000000000000000        0.0000000000000000     
   6.2500000000000000E-002  0.25000000000000000        0.0000000000000000     
   9.3750000000000000E-002  0.25000000000000000        0.0000000000000000     
  0.12500000000000000       0.25000000000000000        0.0000000000000000     
   0.0000000000000000       0.28125000000000000        0.0000000000000000     
   3.1250000000000000E-002  0.28125000000000000        0.0000000000000000     
   6.2500000000000000E-002  0.28125000000000000        0.0000000000000000     
   9.3750000000000000E-002  0.28125000000000000        0.0000000000000000     
  0.12500000000000000       0.28125000000000000        0.0000000000000000     
   0.0000000000000000       0.31250000000000000        0.0000000000000000     
   3.1250000000000000E-002  0.31250000000000000        0.0000000000000000     
   6.2500000000000000E-002  0.31250000000000000        0.0000000000000000     
   9.3750000000000000E-002  0.31250000000000000        0.0000000000000000     
  0.12500000000000000       0.31250000000000000        0.0000000000000000     
   0.0000000000000000       0.34375000000000000        0.0000000000000000     
   3.1250000000000000E-002  0.34375000000000000        0.0000000000000000     
   6.2500000000000000E-002  0.34375000000000000        0.0000000000000000     
   9.3750000000000000E-002  0.34375000000000000        0.0000000000000000     
  0.12500000000000000       0.34375000000000000        0.0000000000000000     
   0.0000000000000000       0.37500000000000000        0.0000000000000000     
   3.1250000000000000E-002  0.37500000000000000        0.0000000000000000     
   6.2500000000000000E-002  0.37500000000000000        0.0000000000000000     
   9.3750000000000000E-002  0.37500000000000000        0.0000000000000000     
  0.12500000000000000       0.37500000000000000        0.0000000000000000     
  0.12500000000000000       0.25000000000000000        0.0000000000000000     
  0.15625000000000000       0.25000000000000000        0.0000000000000000     
  0.18750000000000000       0.25000000000000000        0.0000000000000000     
  0.21875000000000000       0.25000000000000000        0.0000000000000000     
  0.25000000000000000       0.25000000000000000        0.0000000000000000     
  0.12500000000000000       0.28125000000000000        0.0000000000000000     
  0.15625000000000000       0.28125000000000000        0.0000000000000000     
  0.18750000000000000       0.28125000000000000        0.0000000000000000     
  0.21875000000000000       0.28125000000000000        0.0000000000000000     
  0.25000000000000000       0.28125000000000000        0.0000000000000000     
  0.12500000000000000       0.31250000000000000        0.0000000000000000     
  0.15625000000000000       0.31250000000000000        0.0000000000000000     
  0.18750000000000000       0.31250000000000000        0.0000000000000000     
  0.21875000000000000       0.31250000000000000        0.0000000000000000     
  0.25000000000000000       0.31250000000000000        0.0000000000000000     
  0.12500000000000000       0.34375000000000000        0.0000000000000000     
  0.15625000000000000       0.34375000000000000        0.0000000000000000     
  0.18750000000000000       0.34375000000000000        0.0000000000000000     
  0.21875000000000000       0.34375000000000000        0.0000000000000000     
  0.25000000000000000       0.34375000000000000        0.0000000000000000     
  0.12500000000000000       0.37500000000000000        0.0000000000000000     
  0.15625000000000000       0.37500000000000000        0.0000000000000000     
  0.18750000000000000       0.37500000000000000        0.0000000000000000     
  0.21875000000000000       0.37500000000000000        0.0000000000000000     
  0.25000000000000000       0.37500000000000000        0.0000000000000000     
  0.25000000000000000       0.25000000000000000        0.0000000000000000     
  0.28125000000000000       0.25000000000000000        0.0000000000000000     
  0.31250000000000000       0.25000000000000000        0.0000000000000000     
  0.34375000000000000       0.25000000000000000        0.0000000000000000     
  0.37500000000000000       0.25000000000000000        0.0000000000000000     
  0.25000000000000000       0.28125000000000000        0.0000000000000000     
  0.28125000000000000       0.28125000000000000        0.0000000000000000     
  0.31250000000000000       0.28125000000000000        0.0000000000000000     
  0.34375000000000000       0.28125000000000000        0.0000000000000000     
  0.37500000000000000       0.28125000000000000        0.0000000000000000     
  0.25000000000000000       0.31250000000000000        0.0000000000000000     
  0.28125000000000000       0.31250000000000000        0.0000000000000000     
  0.31250000000000000       0.31250000000000000        0.0000000000000000     
  0.34375000000000000       0.31250000000000000        0.0000000000000000     
  0.37500000000000000       0.31250000000000000        0.0000000000000000     
  0.25000000000000000       0.34375000000000000        0.0000000000000000     
  0.28125000000000000       0.34375000000000000        0.0000000000000000     
  0.31250000000000000       0.34375000000000000        0.0000000000000000     
  0.34375000000000000       0.34375000000000000        0.0000000000000000     
  0.37500000000000000       0.34375000000000000        0.0000000000000000     
  0.25000000000000000       0.37500000000000000        0.0000000000000000     
  0.28125000000000000       0.37500000000000000        0.0000000000000000     
  0.31250000000000000       0.37500000000000000        0.0000000000000000     
  0.34375000000000000       0.37500000000000000        0.0000000000000000     
  0.37500000000000000       0.37500000000000000        0.0000000000000000     
  0.37500000000000000       0.25000000000000000        0.0000000000000000     
  0.40625000000000000       0.25000000000000000        0.0000000000000000     
  0.43750000000000000       0.25000000000000000        0.0000000000000000     
  0.46875000000000000       0.25000000000000000        0.0000000000000000     
  0.50000000000000000       0.25000000000000000        0.0000000000000000     
  0.37500000000000000       0.28125000000000000        0.0000000000000000     
  0.40625000000000000       0.28125000000000000        0.0000000000000000     
  0.43750000000000000       0.28125000000000000        0.0000000000000000     
  0.46875000000000000       0.28125000000000000        0.0000000000000000     
  0.50000000000000000       0.28125000000000000        0.0000000000000000     
  0.37500000000000000       0.31250000000000000        0.0000000000000000     
  0.40625000000000000       0.31250000000000000        0.0000000000000000     
  0.43750000000000000       0.31250000000000000        0.0000000000000000     
  0.46875000000000000       0.31250000000000000        0.0000000000000000     
  0.50000000000000000       0.31250000000000000        0.0000000000000000     
  0.37500000000000000       0.34375000000000000        0.0000000000000000     
  0.40625000000000000       0.34375000000000000        0.0000000000000000     
  0.43750000000000000       0.34375000000000000        0.0000000000000000     
  0.46875000000000000       0.34375000000000000        0.0000000000000000     
  0.50000000000000000       0.34375000000000000        0.0000000000000000     
  0.37500000000000000       0.37500000000000000        0.0000000000000000     
  0.40625000000000000       0.37500000000000000        0.0000000000000000     
  0.43750000000000000       0.37500000000000000        0.0000000000000000     
  0.46875000000000000       0.37500000000000000        0.0000000000000000     
  0.50000000000000000       0.37500000000000000        0.0000000000000000     
  0.50000000000000000       0.25000000000000000        0.0000000000000000     
  0.53125000000000000       0.25000000000000000        0.0000000000000000     
  0.56250000000000000       0.25000000000000000        0.0000000000000000     
  0.59375000000000000       0.25000000000000000        0.0000000000000000     
  0.62500000000000000       0.25000000000000000        0.0000000000000000     
  0.50000000000000000       0.28125000000000000        0.0000000000000000     
  0.53125000000000000       0.28125000000000000        0.0000000000000000     
  0.56250000000000000       0.28125000000000000        0.0000000000000000     
  0.59375000000000000       0.28125000000000000        0.0000000000000000     
  0.62500000000000000       0.28125000000000000        0.0000000000000000     
  0.50000000000000000       0.31250000000000000        0.0000000000000000     
  0.53125000000000000       0.31250000000000000        0.0000000000000000     
  0.56250000000000000       0.31250000000000000        0.0000000000000000     
  0.59375000000000000       0.31250000000000000        0.0000000000000000     
  0.62500000000000000       0.31250000000000000        0.0000000000000000     
  0.50000000000000000       0.34375000000000000        0.0000000000000000     
  0.53125000000000000       0.34375000000000000        0.0000000000000000     
  0.56250000000000000       0.34375000000000000        0.0000000000000000     
  0.59375000000000000       0.34375000000000000        0.0000000000000000     
  0.62500000000000000       0.34375000000000000        0.0000000000000000     
  0.50000000000000000       0.37500000000000000        0.0000000000000000     
  0.53125000000000000       0.37500000000000000        0.0000000000000000     
  0.56250000000000000       0.37500000000000000        0.0000000000000000     
  0.59375000000000000       0.37500000000000000        0.0000000000000000     
  0.62500000000000000       0.37500000000000000        0.0000000000000000     
  0.62500000000000000       0.25000000000000000        0.0000000000000000     
  0.65625000000000000       0.25000000000000000        0.0000000000000000     
  0.68750000000000000       0.25000000000000000        0.0000000000000000     
  0.71875000000000000       0.25000000000000000        0.0000000000000000     
  0.75000000000000000       0.25000000000000000        0.0000000000000000     
  0.62500000000000000       0.28125000000000000        0.0000000000000000     
  0.65625000000000000       0.28125000000000000        0.0000000000000000     
  0.68750000000000000       0.28125000000000000        0.0000000000000000     
  0.71875000000000000       0.28125000000000000        0.0000000000000000     
  0.75000000000000000       0.28125000000000000        0.0000000000000000     
  0.62500000000000000       0.31250000000000000        0.0000000000000000     
  0.65625000000000000       0.31250000000000000        0.0000000000000000     
  0.68750000000000000       0.31250000000000000        0.0000000000000000     
  0.71875000000000000       0.31250000000000000        0.0000000000000000     
  0.75000000000000000       0.31250000000000000        0.0000000000000000     
  0.62500000000000000       0.34375000000000000        0.0000000000000000     
  0.65625000000000000       0.34375000000000000        0.0000000000000000     
  0.68750000000000000       0.34375000000000000        0.0000000000000000     
  0.71875000000000000       0.34375000000000000        0.0000000000000000     
  0.75000000000000000       0.34375000000000000        0.0000000000000000     
  0.62500000000000000       0.37500000000000000        0.0000000000000000     
  0.65625000000000000       0.37500000000000000        0.0000000000000000     
  0.68750000000000000       0.37500000000000000        0.0000000000000000     
  0.71875000000000000       0.37500000000000000        0.0000000000000000     
  0.75000000000000000       0.37500000000000000        0.0000000000000000     
  0.75000000000000000       0.25000000000000000        0.0000000000000000     
  0.78125000000000000       0.25000000000000000        0.0000000000000000     
  0.81250000000000000       0.25000000000000000        0.0000000000000000     
  0.84375000000000000       0.25000000000000000        0.0000000000000000     
  0.87500000000000000       0.25000000000000000        0.0000000000000000     
  0.75000000000000000       0.28125000000000000        0.0000000000000000     
  0.78125000000000000       0.28125000000000000        0.0000000000000000     
  0.81250000000000000       0.28125000000000000        0.0000000000000000     
  0.84375000000000000       0.28125000000000000        0.0000000000000000     
  0.87500000000000000       0.28125000000000000        0.0000000000000000     
  0.75000000000000000       0.31250000000000000        0.0000000000000000     
  0.78125000000000000       0.31250000000000000        0.0000000000000000     
  0.81250000000000000       0.31250000000000000        0.0000000000000000     
  0.84375000000000000       0.31250000000000000        0.0000000000000000     
  0.87500000000000000       0.31250000000000000        0.0000000000000000     
  0.75000000000000000       0.34375000000000000        0.0000000000000000     
  0.78125000000000000       0.34375000000000000        0.0000000000000000     
  0.81250000000000000       0.34375000000000000        0.0000000000000000     
  0.84375000000000000       0.34375000000000000        0.0000000000000000     
  0.87500000000000000       0.34375000000000000        0.0000000000000000     
  0.75000000000000000       0.37500000000000000        0.0000000000000000     
  0.78125000000000000       0.37500000000000000        0.0000000000000000     
  0.81250000000000000       0.37500000000000000        0.0000000000000000     
  0.84375000000000000       0.37500000000000000        0.0000000000000000     
  0.87500000000000000       0.37500000000000000        0.0000000000000000     
  0.87500000000000000       0.25000000000000000        0.0000000000000000     
  0.90625000000000000       0.25000000000000000        0.0000000000000000     
  0.93750000000000000       0.25000000000000000        0.0000000000000000     
  0.96875000000000000       0.25000000000000000        0.0000000000000000     
   1.0000000000000000       0.25000000000000000        0.0000000000000000     
  0.87500000000000000       0.28125000000000000        0.0000000000000000     
  0.90625000000000000       0.28125000000000000        0.0000000000000000     
  0.93750000000000000       0.28125000000000000        0.0000000000000000     
  0.96875000000000000       0.28125000000000000        0.0000000000000000     
   1.0000000000000000       0.28125000000000000        0.0000000000000000     
  0.87500000000000000       0.31250000000000000        0.0000000000000000     
  0.90625000000000000       0.31250000000000000        0.0000000000000000     
  0.93750000000000000       0.31250000000000000        0.0000000000000000     
  0.96875000000000000       0.31250000000000000        0.0000000000000000     
   1.0000000000000000       0.31250000000000000        0.0000000000000000     
  0.87500000000000000       0.34375000000000000        0.0000000000000000     
  0.90625000000000000       0.34375000000000000        0.0000000000000000     
  0.93750000000000000       0.34375000000000000        0.0000000000000000     
  0.96875000000000000       0.34375000000000000        0.0000000000000000     
   1.0000000000000000       0.34375000000000000        0.0000000000000000     
  0.87500000000000000       0.37500000000000000        0.0000000000000000     
  0.90625000000000000       0.37500000000000000        0.0000000000000000     
  0.93750000000000000       0.37500000000000000        0.0000000000000000     
  0.96875000000000000       0.37500000000000000        0.0000000000000000     
   1.0000000000000000       0.37500000000000000        0.0000000000000000     
   0.0000000000000000       0.37500000000000000        0.0000000000000000     
   3.1250000000000000E-002  0.37500000000000000        0.0000000000000000     
   6.2500000000000000E-002  0.37500000000000000        0.0000000000000000     
   9.3750000000000000E-002  0.37500000000000000        0.0000000000000000     
  0.12500000000000000       0.37500000000000000        0.0000000000000000     
   0.0000000000000000       0.40625000000000000        0.0000000000000000     
   3.1250000000000000E-002  0.40625000000000000        0.0000000000000000     
   6.2500000000000000E-002  0.40625000000000000        0.0000000000000000     
   9.3750000000000000E-002  0.40625000000000000        0.0000000000000000     
  0.12500000000000000       0.40625000000000000        0.0000000000000000     
   0.0000000000000000       0.43750000000000000        0.0000000000000000     
   3.1250000000000000E-002  0.43750000000000000        0.0000000000000000     
   6.2500000000000000E-002  0.43750000000000000        0.0000000000000000     
   9.3750000000000000E-002  0.43750000000000000        0.0000000000000000     
  0.12500000000000000       0.43750000000000000        0.0000000000000000     
   0.0000000000000000       0.46875000000000000        0.0000000000000000     
   3.1250000000000000E-002  0.46875000000000000        0.0000000000000000     
   6.2500000000000000E-002  0.46875000000000000        0.0000000000000000     
   9.3750000000000000E-002  0.46875000000000000        0.0000000000000000     
  0.12500000000000000       0.46875000000000000        0.0000000000000000     
   0.0000000000000000       0.50000000000000000        0.0000000000000000     
   3.1250000000000000E-002  0.50000000000000000        0.0000000000000000     
   6.2500000000000000E-002  0.50000000000000000        0.0000000000000000     
   9.3750000000000000E-002  0.50000000000000000        0.0000000000000000     
  0.12500000000000000       0.50000000000000000        0.0000000000000000     
  0.12500000000000000       0.37500000000000000        0.0000000000000000     
  0.15625000000000000       0.37500000000000000        0.0000000000000000     
  0.18750000000000000       0.37500000000000000        0.0000000000000000     
  0.21875000000000000       0.37500000000000000        0.0000000000000000     
  0.25000000000000000       0.37500000000000000        0.0000000000000000     
  0.12500000000000000       0.40625000000000000        0.0000000000000000     
  0.15625000000000000       0.40625000000000000        0.0000000000000000     
  0.18750000000000000       0.40625000000000000        0.0000000000000000     
  0.21875000000000000       0.40625000000000000        0.0000000000000000     
  0.25000000000000000       0.40625000000000000        0.0000000000000000     
  0.12500000000000000       0.43750000000000000        0.0000000000000000     
  0.15625000000000000       0.43750000000000000        0.0000000000000000     
  0.18750000000000000       0.43750000000000000        0.0000000000000000     
  0.21875000000000000       0.43750000000000000        0.0000000000000000     
  0.25000000000000000       0.43750000000000000        0.0000000000000000     
  0.12500000000000000       0.46875000000000000        0.0000000000000000     
  0.15625000000000000       0.46875000000000000        0.0000000000000000     
  0.18750000000000000       0.46875000000000000        0.0000000000000000     
  0.21875000000000000       0.46875000000000000        0.0000000000000000     
  0.25000000000000000       0.46875000000000000        0.0000000000000000     
  0.12500000000000000       0.50000000000000000        0.0000000000000000     
  0.15625000000000000       0.50000000000000000        0.0000000000000000     
  0.18750000000000000       0.50000000000000000        0.0000000000000000     
  0.21875000000000000       0.50000000000000000        0.0000000000000000     
  0.25000000000000000       0.50000000000000000        0.0000000000000000     
  0.25000000000000000       0.37500000000000000        0.0000000000000000     
  0.28125000000000000       0.37500000000000000        0.0000000000000000     
  0.31250000000000000       0.37500000000000000        0.0000000000000000     
  0.34375000000000000       0.37500000000000000        0.0000000000000000     
  0.37500000000000000       0.37500000000000000        0.0000000000000000     
  0.25000000000000000       0.40625000000000000        0.0000000000000000     
  0.28125000000000000       0.40625000000000000        0.0000000000000000     
  0.31250000000000000       0.40625000000000000        0.0000000000000000     
  0.34375000000000000       0.40625000000000000        0.0000000000000000     
  0.37500000000000000       0.40625000000000000        0.0000000000000000     
  0.25000000000000000       0.43750000000000000        0.0000000000000000     
  0.28125000000000000       0.43750000000000000        0.0000000000000000     
  0.31250000000000000       0.43750000000000000        0.0000000000000000     
  0.34375000000000000       0.43750000000000000        0.0000000000000000     
  0.37500000000000000       0.43750000000000000        0.0000000000000000     
  0.25000000000000000       0.46875000000000000        0.0000000000000000     
  0.28125000000000000       0.46875000000000000        0.0000000000000000     
  0.31250000000000000       0.46875000000000000        0.0000000000000000     
  0.34375000000000000       0.46875000000000000        0.0000000000000000     
  0.37500000000000000       0.46875000000000000        0.0000000000000000     
  0.25000000000000000       0.50000000000000000        0.0000000000000000     
  0.28125000000000000       0.50000000000000000        0.0000000000000000     
  0.31250000000000000       0.50000000000000000        0.0000000000000000     
  0.34375000000000000       0.50000000000000000        0.0000000000000000     
  0.37500000000000000       0.50000000000000000        0.0000000000000000     
  0.37500000000000000       0.37500000000000000        0.0000000000000000     
  0.40625000000000000       0.37500000000000000        0.0000000000000000     
  0.43750000000000000       0.37500000000000000        0.0000000000000000     
  0.46875000000000000       0.37500000000000000        0.0000000000000000     
  0.50000000000000000       0.37500000000000000        0.0000000000000000     
  0.37500000000000000       0.40625000000000000        0.0000000000000000     
  0.40625000000000000       0.40625000000000000        0.0000000000000000     
  0.43750000000000000       0.40625000000000000        0.0000000000000000     
  0.46875000000000000       0.40625000000000000        0.0000000000000000     
  0.50000000000000000       0.40625000000000000        0.0000000000000000     
  0.37500000000000000       0.43750000000000000        0.0000000000000000     
  0.40625000000000000       0.43750000000000000        0.0000000000000000     
  0.43750000000000000       0.43750000000000000        0.0000000000000000     
  0.46875000000000000       0.43750000000000000        0.0000000000000000     
  0.50000000000000000       0.43750000000000000        0.0000000000000000     
  0.37500000000000000       0.46875000000000000        0.0000000000000000     
  0.40625000000000000       0.46875000000000000        0.0000000000000000     
  0.43750000000000000       0.46875000000000000        0.0000000000000000     
  0.46875000000000000       0.46875000000000000        0.0000000000000000     
  0.50000000000000000       0.46875000000000000        0.0000000000000000     
  0.37500000000000000       0.50000000000000000        0.0000000000000000     
  0.40625000000000000       0.50000000000000000        0.0000000000000000     
  0.43750000000000000       0.50000000000000000        0.0000000000000000     
  0.46875000000000000       0.50000000000000000        0.0000000000000000     
  0.50000000000000000       0.50000000000000000        0.0000000000000000     
  0.50000000000000000       0.37500000000000000        0.0000000000000000     
  0.53125000000000000       0.37500000000000000        0.0000000000000000     
  0.56250000000000000       0.37500000000000000        0.0000000000000000     
  0.59375000000000000       0.37500000000000000        0.0000000000000000     
  0.62500000000000000       0.37500000000000000        0.0000000000000000     
  0.50000000000000000       0.40625000000000000        0.0000000000000000     
  0.53125000000000000       0.40625000000000000        0.0000000000000000     
  0.56250000000000000       0.40625000000000000        0.0000000000000000     
  0.59375000000000000       0.40625000000000000        0.0000000000000000     
  0.62500000000000000       0.40625000000000000        0.0000000000000000     
  0.50000000000000000       0.43750000000000000        0.0000000000000000     
  0.53125000000000000       0.43750000000000000        0.0000000000000000     
  0.56250000000000000       0.43750000000000000        0.0000000000000000     
  0.59375000000000000       0.43750000000000000        0.0000000000000000     
  0.62500000000000000       0.43750000000000000        0.0000000000000000     
  0.50000000000000000       0.46875000000000000        0.0000000000000000     
  0.53125000000000000       0.46875000000000000        0.0000000000000000     
  0.56250000000000000       0.46875000000000000        0.0000000000000000     
  0.59375000000000000       0.46875000000000000        0.0000000000000000     
  0.62500000000000000       0.46875000000000000        0.0000000000000000     
  0.50000000000000000       0.50000000000000000        0.0000000000000000     
  0.53125000000000000       0.50000000000000000        0.0000000000000000     
  0.56250000000000000       0.50000000000000000        0.0000000000000000     
  0.59375000000000000       0.50000000000000000        0.0000000000000000     
  0.62500000000000000       0.50000000000000000        0.0000000000000000     
  0.62500000000000000       0.37500000000000000        0.0000000000000000     
  0.65625000000000000       0.37500000000000000        0.0000000000000000     
  0.68750000000000000       0.37500000000000000        0.0000000000000000     
  0.71875000000000000       0.37500000000000000        0.0000000000000000     
  0.75000000000000000       0.37500000000000000        0.0000000000000000     
  0.62500000000000000       0.40625000000000000        0.0000000000000000     
  0.65625000000000000       0.40625000000000000        0.0000000000000000     
  0.68750000000000000       0.40625000000000000        0.0000000000000000     
  0.71875000000000000       0.40625000000000000        0.0000000000000000     
  0.75000000000000000       0.40625000000000000        0.0000000000000000     
  0.62500000000000000       0.43750000000000000        0.0000000000000000     
  0.65625000000000000       0.43750000000000000        0.0000000000000000     
  0.68750000000000000       0.43750000000000000        0.0000000000000000     
  0.71875000000000000       0.43750000000000000        0.0000000000000000     
  0.75000000000000000       0.43750000000000000        0.0000000000000000     
  0.62500000000000000       0.46875000000000000        0.0000000000000000     
  0.65625000000000000       0.46875000000000000        0.0000000000000000     
  0.68750000000000000       0.46875000000000000        0.0000000000000000     
  0.71875000000000000       0.46875000000000000        0.0000000000000000     
  0.75000000000000000       0.46875000000000000        0.0000000000000000     
  0.62500000000000000       0.50000000000000000        0.0000000000000000     
  0.65625000000000000       0.50000000000000000        0.0000000000000000     
  0.68750000000000000       0.50000000000000000        0.0000000000000000     
  0.71875000000000000       0.50000000000000000        0.0000000000000000     
  0.75000000000000000       0.50000000000000000        0.0000000000000000     
  0.75000000000000000       0.37500000000000000        0.0000000000000000     
  0.78125000000000000       0.37500000000000000        0.0000000000000000     
  0.81250000000000000       0.37500000000000000        0.0000000000000000     
  0.84375000000000000       0.37500000000000000        0.0000000000000000     
  0.87500000000000000       0.37500000000000000        0.0000000000000000     
  0.75000000000000000       0.40625000000000000        0.0000000000000000     
  0.78125000000000000       0.40625000000000000        0.0000000000000000     
  0.81250000000000000       0.40625000000000000        0.0000000000000000     
  0.84375000000000000       0.40625000000000000        0.0000000000000000     
  0.87500000000000000       0.40625000000000000        0.0000000000000000     
  0.75000000000000000       0.43750000000000000        0.0000000000000000     
  0.78125000000000000       0.43750000000000000        0.0000000000000000     
  0.81250000000000000       0.43750000000000000        0.0000000000000000     
  0.84375000000000000       0.43750000000000000        0.0000000000000000     
  0.87500000000000000       0.43750000000000000        0.0000000000000000     
  0.75000000000000000       0.46875000000000000        0.0000000000000000     
  0.78125000000000000       0.46875000000000000        0.0000000000000000     
  0.81250000000000000       0.46875000000000000        0.0000000000000000     
  0.84375000000000000       0.46875000000000000        0.0000000000000000     
  0.87500000000000000       0.46875000000000000        0.0000000000000000     
  0.75000000000000000       0.50000000000000000        0.0000000000000000     
  0.78125000000000000       0.50000000000000000        0.0000000000000000     
  0.81250000000000000       0.50000000000000000        0.0000000000000000     
  0.84375000000000000       0.50000000000000000        0.0000000000000000     
  0.87500000000000000       0.50000000000000000        0.0000000000000000     
  0.87500000000000000       0.37500000000000000        0.0000000000000000     
  0.90625000000000000       0.37500000000000000        0.0000000000000000     
  0.93750000000000000       0.37500000000000000        0.0000000000000000     
  0.96875000000000000       0.37500000000000000        0.0000000000000000     
   1.0000000000000000       0.37500000000000000        0.0000000000000000     
  0.87500000000000000       0.40625000000000000        0.0000000000000000     
  0.90625000000000000       0.40625000000000000        0.0000000000000000     
  0.93750000000000000       0.40625000000000000        0.0000000000000000     
  0.96875000000000000       0.40625000000000000        0.0000000000000000     
   1.0000000000000000       0.40625000000000000        0.0000000000000000     
  0.87500000000000000       0.43750000000000000        0.0000000000000000     
  0.90625000000000000       0.43750000000000000        0.0000000000000000     
  0.93750000000000000       0.43750000000000000        0.0000000000000000     
  0.96875000000000000       0.43750000000000000        0.0000000000000000     
   1.0000000000000000       0.43750000000000000        0.0000000000000000     
  0.87500000000000000       0.46875000000000000        0.0000000000000000     
  0.90625000000000000       0.46875000000000000        0.0000000000000000     
  0.93750000000000000       0.46875000000000000        0.0000000000000000     
  0.96875000000000000       0.46875000000000000        0.0000000000000000     
   1.0000000000000000       0.46875000000000000        0.0000000000000000     
  0.87500000000000000       0.50000000000000000        0.0000000000000000     
  0.90625000000000000       0.50000000000000000        0.0000000000000000     
  0.93750000000000000       0.50000000000000000        0.0000000000000000     
  0.96875000000000000       0.50000000000000000        0.0000000000000000     
   1.0000000000000000       0.50000000000000000        0.0000000000000000     
   0.0000000000000000       0.50000000000000000        0.0000000000000000     
   3.1250000000000000E-002  0.50000000000000000        0.0000000000000000     
   6.2500000000000000E-002  0.50000000000000000        0.0000000000000000     
   9.3750000000000000E-002  0.50000000000000000        0.0000000000000000     
  0.12500000000000000       0.50000000000000000        0.0000000000000000     
   0.0000000000000000       0.53125000000000000        0.0000000000000000     
   3.1250000000000000E-002  0.53125000000000000        0.0000000000000000     
   6.2500000000000000E-002  0.53125000000000000        0.0000000000000000     
   9.3750000000000000E-002  0.53125000000000000        0.0000000000000000     
  0.12500000000000000       0.53125000000000000        0.0000000000000000     
   0.0000000000000000       0.56250000000000000        0.0000000000000000     
   3.1250000000000000E-002  0.56250000000000000        0.0000000000000000     
   6.2500000000000000E-002  0.56250000000000000        0.0000000000000000     
   9.3750000000000000E-002  0.56250000000000000        0.0000000000000000     
  0.12500000000000000       0.56250000000000000        0.0000000000000000     
   0.0000000000000000       0.59375000000000000        0.0000000000000000     
   3.1250000000000000E-002  0.59375000000000000        0.0000000000000000     
   6.2500000000000000E-002  0.59375000000000000        0.0000000000000000     
   9.3750000000000000E-002  0.59375000000000000        0.0000000000000000     
  0.12500000000000000       0.59375000000000000        0.0000000000000000     
   0.0000000000000000       0.62500000000000000        0.0000000000000000     
   3.1250000000000000E-002  0.62500000000000000        0.0000000000000000     
   6.2500000000000000E-002  0.62500000000000000        0.0000000000000000     
   9.3750000000000000E-002  0.62500000000000000        0.0000000000000000     
  0.12500000000000000       0.62500000000000000        0.0000000000000000     
  0.12500000000000000       0.50000000000000000        0.0000000000000000     
  0.15625000000000000       0.50000000000000000        0.0000000000000000     
  0.18750000000000000       0.50000000000000000        0.0000000000000000     
  0.21875000000000000       0.50000000000000000        0.0000000000000000     
  0.25000000000000000       0.50000000000000000        0.0000000000000000     
  0.12500000000000000       0.53125000000000000        0.0000000000000000     
  0.15625000000000000       0.53125000000000000        0.0000000000000000     
  0.18750000000000000       0.53125000000000000        0.0000000000000000     
  0.21875000000000000       0.53125000000000000        0.0000000000000000     
  0.25000000000000000       0.53125000000000000        0.0000000000000000     
  0.12500000000000000       0.56250000000000000        0.0000000000000000     
  0.15625000000000000       0.56250000000000000        0.0000000000000000     
  0.18750000000000000       0.56250000000000000        0.0000000000000000     
  0.21875000000000000       0.56250000000000000        0.0000000000000000     
  0.25000000000000000       0.56250000000000000        0.0000000000000000     
  0.12500000000000000       0.59375000000000000        0.0000000000000000     
  0.15625000000000000       0.59375000000000000        0.0000000000000000     
  0.18750000000000000       0.59375000000000000        0.0000000000000000     
  0.21875000000000000       0.59375000000000000        0.0000000000000000     
  0.25000000000000000       0.59375000000000000        0.0000000000000000     
  0.12500000000000000       0.62500000000000000        0.0000000000000000     
  0.15625000000000000       0.62500000000000000        0.0000000000000000     
  0.18750000000000000       0.62500000000000000        0.0000000000000000     
  0.21875000000000000       0.62500000000000000        0.0000000000000000     
  0.25000000000000000       0.62500000000000000        0.0000000000000000     
  0.25000000000000000       0.50000000000000000        0.0000000000000000     
  0.28125000000000000       0.50000000000000000        0.0000000000000000     
  0.31250000000000000       0.50000000000000000        0.0000000000000000     
  0.34375000000000000       0.50000000000000000        0.0000000000000000     
  0.37500000000000000       0.50000000000000000        0.0000000000000000     
  0.25000000000000000       0.53125000000000000        0.0000000000000000     
  0.28125000000000000       0.53125000000000000        0.0000000000000000     
  0.31250000000000000       0.53125000000000000        0.0000000000000000     
  0.34375000000000000       0.53125000000000000        0.0000000000000000     
  0.37500000000000000       0.53125000000000000        0.0000000000000000     
  0.25000000000000000       0.56250000000000000        0.0000000000000000     
  0.28125000000000000       0.56250000000000000        0.0000000000000000     
  0.31250000000000000       0.56250000000000000        0.0000000000000000     
  0.34375000000000000       0.56250000000000000        0.0000000000000000     
  0.37500000000000000       0.56250000000000000        0.0000000000000000     
  0.25000000000000000       0.59375000000000000        0.0000000000000000     
  0.28125000000000000       0.59375000000000000        0.0000000000000000     
  0.31250000000000000       0.59375000000000000        0.0000000000000000     
  0.34375000000000000       0.59375000000000000        0.0000000000000000     
  0.37500000000000000       0.59375000000000000        0.0000000000000000     
  0.25000000000000000       0.62500000000000000        0.0000000000000000     
  0.28125000000000000       0.62500000000000000        0.0000000000000000     
  0.31250000000000000       0.62500000000000000        0.0000000000000000     
  0.34375000000000000       0.62500000000000000        0.0000000000000000     
  0.37500000000000000       0.62500000000000000        0.0000000000000000     
  0.37500000000000000       0.50000000000000000        0.0000000000000000     
  0.40625000000000000       0.50000000000000000        0.0000000000000000     
  0.43750000000000000       0.50000000000000000        0.0000000000000000     
  0.46875000000000000       0.50000000000000000        0.0000000000000000     
  0.50000000000000000       0.50000000000000000        0.0000000000000000     
  0.37500000000000000       0.53125000000000000        0.0000000000000000     
  0.40625000000000000       0.53125000000000000        0.0000000000000000     
  0.43750000000000000       0.53125000000000000        0.0000000000000000     
  0.46875000000000000       0.53125000000000000        0.0000000000000000     
  0.50000000000000000       0.53125000000000000        0.0000000000000000     
  0.37500000000000000       0.56250000000000000        0.0000000000000000     
  0.40625000000000000       0.56250000000000000        0.0000000000000000     
  0.43750000000000000       0.56250000000000000        0.0000000000000000     
  0.46875000000000000       0.56250000000000000        0.0000000000000000     
  0.50000000000000000       0.56250000000000000        0.0000000000000000     
  0.37500000000000000       0.59375000000000000        0.0000000000000000     
  0.40625000000000000       0.59375000000000000        0.0000000000000000     
  0.43750000000000000       0.59375000000000000        0.0000000000000000     
  0.46875000000000000       0.59375000000000000        0.0000000000000000     
  0.50000000000000000       0.59375000000000000        0.0000000000000000     
  0.37500000000000000       0.62500000000000000        0.0000000000000000     
  0.40625000000000000       0.62500000000000000        0.0000000000000000     
  0.43750000000000000       0.62500000000000000        0.0000000000000000     
  0.46875000000000000       0.62500000000000000        0.0000000000000000     
  0.50000000000000000       0.62500000000000000        0.0000000000000000     
  0.50000000000000000       0.50000000000000000        0.0000000000000000     
  0.53125000000000000       0.50000000000000000        0.0000000000000000     
  0.56250000000000000       0.50000000000000000        0.0000000000000000     
  0.59375000000000000       0.50000000000000000        0.0000000000000000     
  0.62500000000000000       0.50000000000000000        0.0000000000000000     
  0.50000000000000000       0.53125000000000000        0.0000000000000000     
  0.53125000000000000       0.53125000000000000        0.0000000000000000     
  0.56250000000000000       0.53125000000000000        0.0000000000000000     
  0.59375000000000000       0.53125000000000000        0.0000000000000000     
  0.62500000000000000       0.53125000000000000        0.0000000000000000     
  0.50000000000000000       0.56250000000000000        0.0000000000000000     
  0.53125000000000000       0.56250000000000000        0.0000000000000000     
  0.56250000000000000       0.56250000000000000        0.0000000000000000     
  0.59375000000000000       0.56250000000000000        0.0000000000000000     
  0.62500000000000000       0.56250000000000000        0.0000000000000000     
  0.50000000000000000       0.59375000000000000        0.0000000000000000     
  0.53125000000000000       0.59375000000000000        0.0000000000000000     
  0.56250000000000000       0.59375000000000000        0.0000000000000000     
  0.59375000000000000       0.59375000000000000        0.0000000000000000     
  0.62500000000000000       0.59375000000000000        0.0000000000000000     
  0.50000000000000000       0.62500000000000000        0.0000000000000000     
  0.53125000000000000       0.62500000000000000        0.0000000000000000     
  0.56250000000000000       0.62500000000000000        0.0000000000000000     
  0.59375000000000000       0.62500000000000000        0.0000000000000000     
  0.62500000000000000       0.62500000000000000        0.0000000000000000     
  0.62500000000000000       0.50000000000000000        0.0000000000000000     
  0.65625000000000000       0.50000000000000000        0.0000000000000000     
  0.68750000000000000       0.50000000000000000        0.0000000000000000     
  0.71875000000000000       0.50000000000000000        0.0000000000000000     
  0.75000000000000000       0.50000000000000000        0.0000000000000000     
  0.62500000000000000       0.53125000000000000        0.0000000000000000     
  0.65625000000000000       0.53125000000000000        0.0000000000000000     
  0.68750000000000000       0.53125000000000000        0.0000000000000000     
  0.71875000000000000       0.53125000000000000        0.0000000000000000     
  0.75000000000000000       0.53125000000000000        0.0000000000000000     
  0.62500000000000000       0.56250000000000000        0.0000000000000000     
  0.65625000000000000       0.56250000000000000        0.0000000000000000     
  0.68750000000000000       0.56250000000000000        0.0000000000000000     
  0.71875000000000000       0.56250000000000000        0.0000000000000000     
  0.75000000000000000       0.56250000000000000        0.0000000000000000     
  0.62500000000000000       0.59375000000000000        0.0000000000000000     
  0.65625000000000000       0.59375000000000000        0.0000000000000000     
  0.68750000000000000       0.59375000000000000        0.0000000000000000     
  0.71875000000000000       0.59375000000000000        0.0000000000000000     
  0.75000000000000000       0.59375000000000000        0.0000000000000000     
  0.62500000000000000       0.62500000000000000        0.0000000000000000     
  0.65625000000000000       0.62500000000000000        0.0000000000000000     
  0.68750000000000000       0.62500000000000000        0.0000000000000000     
  0.71875000000000000       0.62500000000000000        0.0000000000000000     
  0.75000000000000000       0.62500000000000000        0.0000000000000000     
  0.75000000000000000       0.50000000000000000        0.0000000000000000     
  0.78125000000000000       0.50000000000000000        0.0000000000000000     
  0.81250000000000000       0.50000000000000000        0.0000000000000000     
  0.84375000000000000       0.50000000000000000        0.0000000000000000     
  0.87500000000000000       0.50000000000000000        0.0000000000000000     
  0.75000000000000000       0.53125000000000000        0.0000000000000000     
  0.78125000000000000       0.53125000000000000        0.0000000000000000     
  0.81250000000000000       0.53125000000000000        0.0000000000000000     
  0.84375000000000000       0.53125000000000000        0.0000000000000000     
  0.87500000000000000       0.53125000000000000        0.0000000000000000     
  0.75000000000000000       0.56250000000000000        0.0000000000000000     
  0.78125000000000000       0.56250000000000000        0.0000000000000000     
  0.81250000000000000       0.56250000000000000        0.0000000000000000     
  0.84375000000000000       0.56250000000000000        0.0000000000000000     
  0.87500000000000000       0.56250000000000000        0.0000000000000000     
  0.75000000000000000       0.59375000000000000        0.0000000000000000     
  0.78125000000000000       0.59375000000000000        0.0000000000000000     
  0.81250000000000000       0.59375000000000000        0.0000000000000000     
  0.84375000000000000       0.59375000000000000        0.0000000000000000     
  0.87500000000000000       0.59375000000000000        0.0000000000000000     
  0.75000000000000000       0.62500000000000000        0.0000000000000000     
  0.78125000000000000       0.62500000000000000        0.0000000000000000     
  0.81250000000000000       0.62500000000000000        0.0000000000000000     
  0.84375000000000000       0.62500000000000000        0.0000000000000000     
  0.87500000000000000       0.62500000000000000        0.0000000000000000     
  0.87500000000000000       0.50000000000000000        0.0000000000000000     
  0.90625000000000000       0.50000000000000000        0.0000000000000000     
  0.93750000000000000       0.50000000000000000        0.0000000000000000     
  0.96875000000000000       0.50000000000000000        0.0000000000000000     
   1.0000000000000000       0.50000000000000000        0.0000000000000000     
  0.87500000000000000       0.53125000000000000        0.0000000000000000     
  0.90625000000000000       0.53125000000000000        0.0000000000000000     
  0.93750000000000000       0.53125000000000000        0.0000000000000000     
  0.96875000000000000       0.53125000000000000        0.0000000000000000     
   1.0000000000000000       0.53125000000000000        0.0000000000000000     
  0.87500000000000000       0.56250000000000000        0.0000000000000000     
  0.90625000000000000       0.56250000000000000        0.0000000000000000     
  0.93750000000000000       0.56250000000000000        0.0000000000000000     
  0.96875000000000000       0.56250000000000000        0.0000000000000000     
   1.0000000000000000       0.56250000000000000        0.0000000000000000     
  0.87500000000000000       0.59375000000000000        0.0000000000000000     
  0.90625000000000000       0.59375000000000000        0.0000000000000000     
  0.93750000000000000       0.59375000000000000        0.0000000000000000     
  0.96875000000000000       0.59375000000000000        0.0000000000000000     
   1.0000000000000000       0.59375000000000000        0.0000000000000000     
  0.87500000000000000       0.62500000000000000        0.0000000000000000     
  0.90625000000000000       0.62500000000000000        0.0000000000000000     
  0.93750000000000000       0.62500000000000000        0.0000000000000000     
  0.96875000000000000       0.62500000000000000        0.0000000000000000     
   1.0000000000000000       0.62500000000000000        0.0000000000000000     
   0.0000000000000000       0.62500000000000000        0.0000000000000000     
   3.1250000000000000E-002  0.62500000000000000        0.0000000000000000     
   6.2500000000000000E-002  0.62500000000000000        0.0000000000000000     
   9.3750000000000000E-002  0.62500000000000000        0.0000000000000000     
  0.12500000000000000       0.62500000000000000        0.0000000000000000     
   0.0000000000000000       0.65625000000000000        0.0000000000000000     
   3.1250000000000000E-002  0.65625000000000000        0.0000000000000000     
   6.2500000000000000E-002  0.65625000000000000        0.0000000000000000     
   9.3750000000000000E-002  0.65625000000000000        0.0000000000000000     
  0.12500000000000000       0.65625000000000000        0.0000000000000000     
   0.0000000000000000       0.68750000000000000        0.0000000000000000     
   3.1250000000000000E-002  0.68750000000000000        0.0000000000000000     
   6.2500000000000000E-002  0.68750000000000000        0.0000000000000000     
   9.3750000000000000E-002  0.68750000000000000        0.0000000000000000     
  0.12500000000000000       0.68750000000000000        0.0000000000000000     
   0.0000000000000000       0.71875000000000000        0.0000000000000000     
   3.1250000000000000E-002  0.71875000000000000        0.0000000000000000     
   6.2500000000000000E-002  0.71875000000000000        0.0000000000000000     
   9.3750000000000000E-002  0.71875000000000000        0.0000000000000000     
  0.12500000000000000       0.71875000000000000        0.0000000000000000     
   0.0000000000000000       0.75000000000000000        0.0000000000000000     
   3.1250000000000000E-002  0.75000000000000000        0.0000000000000000     
   6.2500000000000000E-002  0.75000000000000000        0.0000000000000000     
   9.3750000000000000E-002  0.75000000000000000        0.0000000000000000     
  0.12500000000000000       0.75000000000000000        0.0000000000000000     
  0.12500000000000000       0.62500000000000000        0.0000000000000000     
  0.15625000000000000       0.62500000000000000        0.0000000000000000     
  0.18750000000000000       0.62500000000000000        0.0000000000000000     
  0.21875000000000000       0.62500000000000000        0.0000000000000000     
  0.25000000000000000       0.62500000000000000        0.0000000000000000     
  0.12500000000000000       0.65625000000000000        0.0000000000000000     
  0.15625000000000000       0.65625000000000000        0.0000000000000000     
  0.18750000000000000       0.65625000000000000        0.0000000000000000     
  0.21875000000000000       0.65625000000000000        0.0000000000000000     
  0.25000000000000000       0.65625000000000000        0.0000000000000000     
  0.12500000000000000       0.68750000000000000        0.0000000000000000     
  0.15625000000000000       0.68750000000000000        0.0000000000000000     
  0.18750000000000000       0.68750000000000000        0.0000000000000000     
  0.21875000000000000       0.68750000000000000        0.0000000000000000     
  0.25000000000000000       0.68750000000000000        0.0000000000000000     
  0.12500000000000000       0.71875000000000000        0.0000000000000000     
  0.15625000000000000       0.71875000000000000        0.0000000000000000     
  0.18750000000000000       0.71875000000000000        0.0000000000000000     
  0.21875000000000000       0.71875000000000000        0.0000000000000000     
  0.25000000000000000       0.71875000000000000        0.0000000000000000     
  0.12500000000000000       0.75000000000000000        0.0000000000000000     
  0.15625000000000000       0.75000000000000000        0.0000000000000000     
  0.18750000000000000       0.75000000000000000        0.0000000000000000     
  0.21875000000000000       0.75000000000000000        0.0000000000000000     
  0.25000000000000000       0.75000000000000000        0.0000000000000000     
  0.25000000000000000       0.62500000000000000        0.0000000000000000     
  0.28125000000000000       0.62500000000000000        0.0000000000000000     
  0.31250000000000000       0.62500000000000000        0.0000000000000000     
  0.34375000000000000       0.62500000000000000        0.0000000000000000     
  0.37500000000000000       0.62500000000000000        0.0000000000000000     
  0.25000000000000000       0.65625000000000000        0.0000000000000000     
  0.28125000000000000       0.65625000000000000        0.0000000000000000     
  0.31250000000000000       0.65625000000000000        0.0000000000000000     
  0.34375000000000000       0.65625000000000000        0.0000000000000000     
  0.37500000000000000       0.65625000000000000        0.0000000000000000     
  0.25000000000000000       0.68750000000000000        0.0000000000000000     
  0.28125000000000000       0.68750000000000000        0.0000000000000000     
  0.31250000000000000       0.68750000000000000        0.0000000000000000     
  0.34375000000000000       0.68750000000000000        0.0000000000000000     
  0.37500000000000000       0.68750000000000000        0.0000000000000000     
  0.25000000000000000       0.71875000000000000        0.0000000000000000     
  0.28125000000000000       0.71875000000000000        0.0000000000000000     
  0.31250000000000000       0.71875000000000000        0.0000000000000000     
  0.34375000000000000       0.71875000000000000        0.0000000000000000     
  0.37500000000000000       0.71875000000000000        0.0000000000000000     
  0.25000000000000000       0.75000000000000000        0.0000000000000000     
  0.28125000000000000       0.75000000000000000        0.0000000000000000     
  0.31250000000000000       0.75000000000000000        0.0000000000000000     
  0.34375000000000000       0.75000000000000000        0.0000000000000000     
  0.37500000000000000       0.75000000000000000        0.0000000000000000     
  0.37500000000000000       0.62500000000000000        0.0000000000000000     
  0.40625000000000000       0.62500000000000000        0.0000000000000000     
  0.43750000000000000       0.62500000000000000        0.0000000000000000     
  0.46875000000000000       0.62500000000000000        0.0000000000000000     
  0.50000000000000000       0.62500000000000000        0.0000000000000000     
  0.37500000000000000       0.65625000000000000        0.0000000000000000     
  0.40625000000000000       0.65625000000000000        0.0000000000000000     
  0.43750000000000000       0.65625000000000000        0.0000000000000000     
  0.46875000000000000       0.65625000000000000        0.0000000000000000     
  0.50000000000000000       0.65625000000000000        0.0000000000000000     
  0.37500000000000000       0.68750000000000000        0.0000000000000000     
  0.40625000000000000       0.68750000000000000        0.0000000000000000     
  0.43750000000000000       0.68750000000000000        0.0000000000000000     
  0.46875000000000000       0.68750000000000000        0.0000000000000000     
  0.50000000000000000       0.68750000000000000        0.0000000000000000     
  0.37500000000000000       0.71875000000000000        0.0000000000000000     
  0.40625000000000000       0.71875000000000000        0.0000000000000000     
  0.43750000000000000       0.71875000000000000        0.0000000000000000     
  0.46875000000000000       0.71875000000000000        0.0000000000000000     
  0.50000000000000000       0.71875000000000000        0.0000000000000000     
  0.37500000000000000       0.75000000000000000        0.0000000000000000     
  0.40625000000000000       0.75000000000000000        0.0000000000000000     
  0.43750000000000000       0.75000000000000000        0.0000000000000000     
  0.46875000000000000       0.75000000000000000        0.0000000000000000     
  0.50000000000000000       0.75000000000000000        0.0000000000000000     
  0.50000000000000000       0.62500000000000000        0.0000000000000000     
  0.53125000000000000       0.62500000000000000        0.0000000000000000     
  0.56250000000000000       0.62500000000000000        0.0000000000000000     
  0.59375000000000000       0.62500000000000000        0.0000000000000000     
  0.62500000000000000       0.62500000000000000        0.0000000000000000     
  0.50000000000000000       0.65625000000000000        0.0000000000000000     
  0.53125000000000000       0.65625000000000000        0.0000000000000000     
  0.56250000000000000       0.65625000000000000        0.0000000000000000     
  0.59375000000000000       0.65625000000000000        0.0000000000000000     
  0.62500000000000000       0.65625000000000000        0.0000000000000000     
  0.50000000000000000       0.68750000000000000        0.0000000000000000     
  0.53125000000000000       0.68750000000000000        0.0000000000000000     
  0.56250000000000000       0.68750000000000000        0.0000000000000000     
  0.59375000000000000       0.68750000000000000        0.0000000000000000     
  0.62500000000000000       0.68750000000000000        0.0000000000000000     
  0.50000000000000000       0.71875000000000000        0.0000000000000000     
  0.53125000000000000       0.71875000000000000        0.0000000000000000     
  0.56250000000000000       0.71875000000000000        0.0000000000000000     
  0.59375000000000000       0.71875000000000000        0.0000000000000000     
  0.62500000000000000       0.71875000000000000        0.0000000000000000     
  0.50000000000000000       0.75000000000000000        0.0000000000000000     
  0.53125000000000000       0.75000000000000000        0.0000000000000000     
  0.56250000000000000       0.75000000000000000        0.0000000000000000     
  0.59375000000000000       0.75000000000000000        0.0000000000000000     
  0.62500000000000000       0.75000000000000000        0.0000000000000000     
  0.62500000000000000       0.62500000000000000        0.0000000000000000     
  0.65625000000000000       0.62500000000000000        0.0000000000000000     
  0.68750000000000000       0.62500000000000000        0.0000000000000000     
  0.71875000000000000       0.62500000000000000        0.0000000000000000     
  0.75000000000000000       0.62500000000000000        0.0000000000000000     
  0.62500000000000000       0.65625000000000000        0.0000000000000000     
  0.65625000000000000       0.65625000000000000        0.0000000000000000     
  0.68750000000000000       0.65625000000000000        0.0000000000000000     
  0.71875000000000000       0.65625000000000000        0.0000000000000000     
  0.75000000000000000       0.65625000000000000        0.0000000000000000     
  0.62500000000000000       0.68750000000000000        0.0000000000000000     
  0.65625000000000000       0.68750000000000000        0.0000000000000000     
  0.68750000000000000       0.68750000000000000        0.0000000000000000     
  0.71875000000000000       0.68750000000000000        0.0000000000000000     
  0.75000000000000000       0.68750000000000000        0.0000000000000000     
  0.62500000000000000       0.71875000000000000        0.0000000000000000     
  0.65625000000000000       0.71875000000000000        0.0000000000000000     
  0.68750000000000000       0.71875000000000000        0.0000000000000000     
  0.71875000000000000       0.71875000000000000        0.0000000000000000     
  0.75000000000000000       0.71875000000000000        0.0000000000000000     
  0.62500000000000000       0.75000000000000000        0.0000000000000000     
  0.65625000000000000       0.75000000000000000        0.0000000000000000     
  0.68750000000000000       0.75000000000000000        0.0000000000000000     
  0.71875000000000000       0.75000000000000000        0.0000000000000000     
  0.75000000000000000       0.75000000000000000        0.0000000000000000     
  0.75000000000000000       0.62500000000000000        0.0000000000000000     
  0.78125000000000000       0.62500000000000000        0.0000000000000000     
  0.81250000000000000       0.62500000000000000        0.0000000000000000     
  0.84375000000000000       0.62500000000000000        0.0000000000000000     
  0.87500000000000000       0.62500000000000000        0.0000000000000000     
  0.75000000000000000       0.65625000000000000        0.0000000000000000     
  0.78125000000000000       0.65625000000000000        0.0000000000000000     
  0.81250000000000000       0.65625000000000000        0.0000000000000000     
  0.84375000000000000       0.65625000000000000        0.0000000000000000     
  0.87500000000000000       0.65625000000000000        0.0000000000000000     
  0.75000000000000000       0.68750000000000000        0.0000000000000000     
  0.78125000000000000       0.68750000000000000        0.0000000000000000     
  0.81250000000000000       0.68750000000000000        0.0000000000000000     
  0.84375000000000000       0.68750000000000000        0.0000000000000000     
  0.87500000000000000       0.68750000000000000        0.0000000000000000     
  0.75000000000000000       0.71875000000000000        0.0000000000000000     
  0.78125000000000000       0.71875000000000000        0.0000000000000000     
  0.81250000000000000       0.71875000000000000        0.0000000000000000     
  0.84375000000000000       0.71875000000000000        0.0000000000000000     
  0.87500000000000000       0.71875000000000000        0.0000000000000000     
  0.75000000000000000       0.75000000000000000        0.0000000000000000     
  0.78125000000000000       0.75000000000000000        0.0000000000000000     
  0.81250000000000000       0.75000000000000000        0.0000000000000000     
  0.84375000000000000       0.75000000000000000        0.0000000000000000     
  0.87500000000000000       0.75000000000000000        0.0000000000000000     
  0.87500000000000000       0.62500000000000000        0.0000000000000000     
  0.90625000000000000       0.62500000000000000        0.0000000000000000     
  0.93750000000000000       0.62500000000000000        0.0000000000000000     
  0.96875000000000000       0.62500000000000000        0.0000000000000000     
   1.0000000000000000       0.62500000000000000        0.0000000000000000     
  0.87500000000000000       0.65625000000000000        0.0000000000000000     
  0.90625000000000000       0.65625000000000000        0.0000000000000000     
  0.93750000000000000       0.65625000000000000        0.0000000000000000     
  0.96875000000000000       0.65625000000000000        0.0000000000000000     
   1.0000000000000000       0.65625000000000000        0.0000000000000000     
  0.87500000000000000       0.68750000000000000        0.0000000000000000     
  0.90625000000000000       0.68750000000000000        0.0000000000000000     
  0.93750000000000000       0.68750000000000000        0.0000000000000000     
  0.96875000000000000       0.68750000000000000        0.0000000000000000     
   1.0000000000000000       0.68750000000000000        0.0000000000000000     
  0.87500000000000000       0.71875000000000000        0.0000000000000000     
  0.90625000000000000       0.71875000000000000        0.0000000000000000     
  0.93750000000000000       0.71875000000000000        0.0000000000000000     
  0.96875000000000000       0.71875000000000000        0.0000000000000000     
   1.0000000000000000       0.71875000000000000        0.0000000000000000     
  0.87500000000000000       0.75000000000000000        0.0000000000000000     
  0.90625000000000000       0.75000000000000000        0.0000000000000000     
  0.93750000000000000       0.75000000000000000        0.0000000000000000     
  0.96875000000000000       0.75000000000000000        0.0000000000000000     
   1.0000000000000000       0.75000000000000000        0.0000000000000000     
   0.0000000000000000       0.75000000000000000        0.0000000000000000     
   3.1250000000000000E-002  0.75000000000000000        0.0000000000000000     
   6.2500000000000000E-002  0.75000000000000000        0.0000000000000000     
   9.3750000000000000E-002  0.75000000000000000        0.0000000000000000     
  0.12500000000000000       0.75000000000000000        0.0000000000000000     
   0.0000000000000000       0.78125000000000000        0.0000000000000000     
   3.1250000000000000E-002  0.78125000000000000        0.0000000000000000     
   6.2500000000000000E-002  0.78125000000000000        0.0000000000000000     
   9.3750000000000000E-002  0.78125000000000000        0.0000000000000000     
  0.12500000000000000       0.78125000000000000        0.0000000000000000     
   0.0000000000000000       0.81250000000000000        0.0000000000000000     
   3.1250000000000000E-002  0.81250000000000000        0.0000000000000000     
   6.2500000000000000E-002  0.81250000000000000        0.0000000000000000     
   9.3750000000000000E-002  0.81250000000000000        0.0000000000000000     
  0.12500000000000000       0.81250000000000000        0.0000000000000000     
   0.0000000000000000       0.84375000000000000        0.0000000000000000     
   3.1250000000000000E-002  0.84375000000000000        0.0000000000000000     
   6.2500000000000000E-002  0.84375000000000000        0.0000000000000000     
   9.3750000000000000E-002  0.84375000000000000        0.0000000000000000     
  0.12500000000000000       0.84375000000000000        0.0000000000000000     
   0.0000000000000000       0.87500000000000000        0.0000000000000000     
   3.1250000000000000E-002  0.87500000000000000        0.0000000000000000     
   6.2500000000000000E-002  0.87500000000000000        0.0000000000000000     
   9.3750000000000000E-002  0.87500000000000000        0.0000000000000000     
  0.12500000000000000       0.87500000000000000        0.0000000000000000     
  0.12500000000000000       0.75000000000000000        0.0000000000000000     
  0.15625000000000000       0.75000000000000000        0.0000000000000000     
  0.18750000000000000       0.75000000000000000        0.0000000000000000     
  0.21875000000000000       0.75000000000000000        0.0000000000000000     
  0.25000000000000000       0.75000000000000000        0.0000000000000000     
  0.12500000000000000       0.78125000000000000        0.0000000000000000     
  0.15625000000000000       0.78125000000000000        0.0000000000000000     
  0.18750000000000000       0.78125000000000000        0.0000000000000000     
  0.21875000000000000       0.78125000000000000        0.0000000000000000     
  0.25000000000000000       0.78125000000000000        0.0000000000000000     
  0.12500000000000000       0.81250000000000000        0.0000000000000000     
  0.15625000000000000       0.81250000000000000        0.0000000000000000     
  0.18750000000000000       0.81250000000000000        0.0000000000000000     
  0.21875000000000000       0.81250000000000000        0.0000000000000000     
  0.25000000000000000       0.81250000000000000        0.0000000000000000     
  0.12500000000000000       0.84375000000000000        0.0000000000000000     
  0.15625000000000000       0.84375000000000000        0.0000000000000000     
  0.18750000000000000       0.84375000000000000        0.0000000000000000     
  0.21875000000000000       0.84375000000000000        0.0000000000000000     
  0.25000000000000000       0.84375000000000000        0.0000000000000000     
  0.12500000000000000       0.87500000000000000        0.0000000000000000     
  0.15625000000000000       0.87500000000000000        0.0000000000000000     
  0.18750000000000000       0.87500000000000000        0.0000000000000000     
  0.21875000000000000       0.87500000000000000        0.0000000000000000     
  0.25000000000000000       0.87500000000000000        0.0000000000000000     
  0.25000000000000000       0.75000000000000000        0.0000000000000000     
  0.28125000000000000       0.75000000000000000        0.0000000000000000     
  0.31250000000000000       0.75000000000000000        0.0000000000000000     
  0.34375000000000000       0.75000000000000000        0.0000000000000000     
  0.37500000000000000       0.75000000000000000        0.0000000000000000     
  0.25000000000000000       0.78125000000000000        0.0000000000000000     
  0.28125000000000000       0.78125000000000000        0.0000000000000000     
  0.31250000000000000       0.78125000000000000        0.0000000000000000     
  0.34375000000000000       0.78125000000000000        0.0000000000000000     
  0.37500000000000000       0.78125000000000000        0.0000000000000000     
  0.25000000000000000       0.81250000000000000        0.0000000000000000     
  0.28125000000000000       0.81250000000000000        0.0000000000000000     
  0.31250000000000000       0.81250000000000000        0.0000000000000000     
  0.34375000000000000       0.81250000000000000        0.0000000000000000     
  0.37500000000000000       0.81250000000000000        0.0000000000000000     
  0.25000000000000000       0.84375000000000000        0.0000000000000000     
  0.28125000000000000       0.84375000000000000        0.0000000000000000     
  0.31250000000000000       0.84375000000000000        0.0000000000000000     
  0.34375000000000000       0.84375000000000000        0.0000000000000000     
  0.37500000000000000       0.84375000000000000        0.0000000000000000     
  0.25000000000000000       0.87500000000000000        0.0000000000000000     
  0.28125000000000000       0.87500000000000000        0.0000000000000000     
  0.31250000000000000       0.87500000000000000        0.0000000000000000     
  0.34375000000000000       0.87500000000000000        0.0000000000000000     
  0.37500000000000000       0.87500000000000000        0.0000000000000000     
  0.37500000000000000       0.75000000000000000        0.0000000000000000     
  0.40625000000000000       0.75000000000000000        0.0000000000000000     
  0.43750000000000000       0.75000000000000000        0.0000000000000000     
  0.46875000000000000       0.75000000000000000        0.0000000000000000     
  0.50000000000000000       0.75000000000000000        0.0000000000000000     
  0.37500000000000000       0.78125000000000000        0.0000000000000000     
  0.40625000000000000       0.78125000000000000        0.0000000000000000     
  0.43750000000000000       0.78125000000000000        0.0000000000000000     
  0.46875000000000000       0.78125000000000000        0.0000000000000000     
  0.50000000000000000       0.78125000000000000        0.0000000000000000     
  0.37500000000000000       0.81250000000000000        0.0000000000000000     
  0.40625000000000000       0.81250000000000000        0.0000000000000000     
  0.43750000000000000       0.81250000000000000        0.0000000000000000     
  0.46875000000000000       0.81250000000000000        0.0000000000000000     
  0.50000000000000000       0.81250000000000000        0.0000000000000000     
  0.37500000000000000       0.84375000000000000        0.0000000000000000     
  0.40625000000000000       0.84375000000000000        0.0000000000000000     
  0.43750000000000000       0.84375000000000000        0.0000000000000000     
  0.46875000000000000       0.84375000000000000        0.0000000000000000     
  0.50000000000000000       0.84375000000000000        0.0000000000000000     
  0.37500000000000000       0.87500000000000000        0.0000000000000000     
  0.40625000000000000       0.87500000000000000        0.0000000000000000     
  0.43750000000000000       0.87500000000000000        0.0000000000000000     
  0.46875000000000000       0.87500000000000000        0.0000000000000000     
  0.50000000000000000       0.87500000000000000        0.0000000000000000     
  0.50000000000000000       0.75000000000000000        0.0000000000000000     
  0.53125000000000000       0.75000000000000000        0.0000000000000000     
  0.56250000000000000       0.75000000000000000        0.0000000000000000     
  0.59375000000000000       0.75000000000000000        0.0000000000000000     
  0.62500000000000000       0.75000000000000000        0.0000000000000000     
  0.50000000000000000       0.78125000000000000        0.0000000000000000     
  0.53125000000000000       0.78125000000000000        0.0000000000000000     
  0.56250000000000000       0.78125000000000000        0.0000000000000000     
  0.59375000000000000       0.78125000000000000        0.0000000000000000     
  0.62500000000000000       0.78125000000000000        0.0000000000000000     
  0.50000000000000000       0.81250000000000000        0.0000000000000000     
  0.53125000000000000       0.81250000000000000        0.0000000000000000     
  0.56250000000000000       0.81250000000000000        0.0000000000000000     
  0.59375000000000000       0.81250000000000000        0.0000000000000000     
  0.62500000000000000       0.81250000000000000        0.0000000000000000     
  0.50000000000000000       0.84375000000000000        0.0000000000000000     
  0.53125000000000000       0.84375000000000000        0.0000000000000000     
  0.56250000000000000       0.84375000000000000        0.0000000000000000     
  0.59375000000000000       0.84375000000000000        0.0000000000000000     
  0.62500000000000000       0.84375000000000000        0.0000000000000000     
  0.50000000000000000       0.87500000000000000        0.0000000000000000     
  0.53125000000000000       0.87500000000000000        0.0000000000000000     
  0.56250000000000000       0.87500000000000000        0.0000000000000000     
  0.59375000000000000       0.87500000000000000        0.0000000000000000     
  0.62500000000000000       0.87500000000000000        0.0000000000000000     
  0.62500000000000000       0.75000000000000000        0.0000000000000000     
  0.65625000000000000       0.75000000000000000        0.0000000000000000     
  0.68750000000000000       0.75000000000000000        0.0000000000000000     
  0.71875000000000000       0.75000000000000000        0.0000000000000000     
  0.75000000000000000       0.75000000000000000        0.0000000000000000     
  0.62500000000000000       0.78125000000000000        0.0000000000000000     
  0.65625000000000000       0.78125000000000000        0.0000000000000000     
  0.68750000000000000       0.78125000000000000        0.0000000000000000     
  0.71875000000000000       0.78125000000000000        0.0000000000000000     
  0.75000000000000000       0.78125000000000000        0.0000000000000000     
  0.62500000000000000       0.81250000000000000        0.0000000000000000     
  0.65625000000000000       0.81250000000000000        0.0000000000000000     
  0.68750000000000000       0.81250000000000000        0.0000000000000000     
  0.71875000000000000       0.81250000000000000        0.0000000000000000     
  0.75000000000000000       0.81250000000000000        0.0000000000000000     
  0.62500000000000000       0.84375000000000000        0.0000000000000000     
  0.65625000000000000       0.84375000000000000        0.0000000000000000     
  0.68750000000000000       0.84375000000000000        0.0000000000000000     
  0.71875000000000000       0.84375000000000000        0.0000000000000000     
  0.75000000000000000       0.84375000000000000        0.0000000000000000     
  0.62500000000000000       0.87500000000000000        0.0000000000000000     
  0.65625000000000000       0.87500000000000000        0.0000000000000000     
  0.68750000000000000       0.87500000000000000        0.0000000000000000     
  0.71875000000000000       0.87500000000000000        0.0000000000000000     
  0.75000000000000000       0.87500000000000000        0.0000000000000000     
  0.75000000000000000       0.75000000000000000        0.0000000000000000     
  0.78125000000000000       0.75000000000000000        0.0000000000000000     
  0.81250000000000000       0.75000000000000000        0.0000000000000000     
  0.84375000000000000       0.75000000000000000        0.0000000000000000     
  0.87500000000000000       0.75000000000000000        0.0000000000000000     
  0.75000000000000000       0.78125000000000000        0.0000000000000000     
  0.78125000000000000       0.78125000000000000        0.0000000000000000     
  0.81250000000000000       0.78125000000000000        0.0000000000000000     
  0.84375000000000000       0.78125000000000000        0.0000000000000000     
  0.87500000000000000       0.78125000000000000        0.0000000000000000     
  0.75000000000000000       0.81250000000000000        0.0000000000000000     
  0.78125000000000000       0.81250000000000000        0.0000000000000000     
  0.81250000000000000       0.81250000000000000        0.0000000000000000     
  0.84375000000000000       0.81250000000000000        0.0000000000000000     
  0.87500000000000000       0.81250000000000000        0.0000000000000000     
  0.75000000000000000       0.84375000000000000        0.0000000000000000     
  0.78125000000000000       0.84375000000000000        0.0000000000000000     
  0.81250000000000000       0.84375000000000000        0.0000000000000000     
  0.84375000000000000       0.84375000000000000        0.0000000000000000     
  0.87500000000000000       0.84375000000000000        0.0000000000000000     
  0.75000000000000000       0.87500000000000000        0.0000000000000000     
  0.78125000000000000       0.87500000000000000        0.0000000000000000     
  0.81250000000000000       0.87500000000000000        0.0000000000000000     
  0.84375000000000000       0.87500000000000000        0.0000000000000000     
  0.87500000000000000       0.87500000000000000        0.0000000000000000     
  0.87500000000000000       0.75000000000000000        0.0000000000000000     
  0.90625000000000000       0.75000000000000000        0.0000000000000000     
  0.93750000000000000       0.75000000000000000        0.0000000000000000     
  0.96875000000000000       0.75000000000000000        0.0000000000000000     
   1.0000000000000000       0.75000000000000000        0.0000000000000000     
  0.87500000000000000       0.78125000000000000        0.0000000000000000     
  0.90625000000000000       0.78125000000000000        0.0000000000000000     
  0.93750000000000000       0.78125000000000000        0.0000000000000000     
  0.96875000000000000       0.78125000000000000        0.0000000000000000     
   1.0000000000000000       0.78125000000000000        0.0000000000000000     
  0.87500000000000000       0.81250000000000000        0.0000000000000000     
  0.90625000000000000       0.81250000000000000        0.0000000000000000     
  0.93750000000000000       0.81250000000000000        0.0000000000000000     
  0.96875000000000000       0.81250000000000000        0.0000000000000000     
   1.0000000000000000       0.81250000000000000        0.0000000000000000     
  0.87500000000000000       0.84375000000000000        0.0000000000000000     
  0.90625000000000000       0.84375000000000000        0.0000000000000000     
  0.93750000000000000       0.84375000000000000        0.0000000000000000     
  0.96875000000000000       0.84375000000000000        0.0000000000000000     
   1.0000000000000000       0.84375000000000000        0.0000000000000000     
  0.87500000000000000       0.87500000000000000        0.0000000000000000     
  0.90625000000000000       0.87500000000000000        0.0000000000000000     
  0.93750000000000000       0.87500000000000000        0.0000000000000000     
  0.96875000000000000       0.87500000000000000        0.0000000000000000     
   1.0000000000000000       0.87500000000000000        0.0000000000000000     
   0.0000000000000000       0.87500000000000000        0.0000000000000000     
   3.1250000000000000E-002  0.87500000000000000        0.0000000000000000     
   6.2500000000000000E-002  0.87500000000000000        0.0000000000000000     
   9.3750000000000000E-002  0.87500000000000000        0.0000000000000000     
  0.12500000000000000       0.87500000000000000        0.0000000000000000     
   0.0000000000000000       0.90625000000000000        0.0000000000000000     
   3.1250000000000000E-002  0.90625000000000000        0.0000000000000000     
   6.2500000000000000E-002  0.90625000000000000        0.0000000000000000     
   9.3750000000000000E-002  0.90625000000000000        0.0000000000000000     
  0.12500000000000000       0.90625000000000000        0.0000000000000000     
   0.0000000000000000       0.93750000000000000        0.0000000000000000     
   3.1250000000000000E-002  0.93750000000000000        0.0000000000000000     
   6.2500000000000000E-002  0.93750000000000000        0.0000000000000000     
   9.3750000000000000E-002  0.93750000000000000        0.0000000000000000     
  0.12500000000000000       0.93750000000000000        0.0000000000000000     
   0.0000000000000000       0.96875000000000000        0.0000000000000000     
   3.1250000000000000E-002  0.96875000000000000        0.0000000000000000     
   6.2500000000000000E-002  0.96875000000000000        0.0000000000000000     
   9.3750000000000000E-002  0.96875000000000000        0.0000000000000000     
  0.12500000000000000       0.96875000000000000        0.0000000000000000     
   0.0000000000000000        1.0000000000000000        0.0000000000000000     
   3.1250000000000000E-002   1.0000000000000000        0.0000000000000000     
   6.2500000000000000E-002   1.0000000000000000        0.0000000000000000     
   9.3750000000000000E-002   1.0000000000000000        0.0000000000000000     
  0.12500000000000000        1.0000000000000000        0.0000000000000000     
  0.12500000000000000       0.87500000000000000        0.0000000000000000     
  0.15625000000000000       0.87500000000000000        0.0000000000000000     
  0.18750000000000000       0.87500000000000000        0.0000000000000000     
  0.21875000000000000       0.87500000000000000        0.0000000000000000     
  0.25000000000000000       0.87500000000000000        0.0000000000000000     
  0.12500000000000000       0.90625000000000000        0.0000000000000000     
  0.15625000000000000       0.90625000000000000        0.0000000000000000     
  0.18750000000000000       0.90625000000000000        0.0000000000000000     
  0.21875000000000000       0.90625000000000000        0.0000000000000000     
  0.25000000000000000       0.90625000000000000        0.0000000000000000     
  0.12500000000000000       0.93750000000000000        0.0000000000000000     
  0.15625000000000000       0.93750000000000000        0.0000000000000000     
  0.18750000000000000       0.93750000000000000        0.0000000000000000     
  0.21875000000000000       0.93750000000000000        0.0000000000000000     
  0.25000000000000000       0.93750000000000000        0.0000000000000000     
  0.12500000000000000       0.96875000000000000        0.0000000000000000     
  0.15625000000000000       0.96875000000000000        0.0000000000000000     
  0.18750000000000000       0.96875000000000000        0.0000000000000000     
  0.21875000000000000       0.96875000000000000        0.0000000000000000     
  0.25000000000000000       0.96875000000000000        0.0000000000000000     
  0.12500000000000000        1.0000000000000000        0.0000000000000000     
  0.15625000000000000        1.0000000000000000        0.0000000000000000     
  0.18750000000000000        1.0000000000000000        0.0000000000000000     
  0.21875000000000000        1.0000000000000000        0.0000000000000000     
  0.25000000000000000        1.0000000000000000        0.0000000000000000     
  0.25000000000000000       0.87500000000000000        0.0000000000000000     
  0.28125000000000000       0.87500000000000000        0.0000000000000000     
  0.31250000000000000       0.87500000000000000        0.0000000000000000     
  0.34375000000000000       0.87500000000000000        0.0000000000000000     
  0.37500000000000000       0.87500000000000000        0.0000000000000000     
  0.25000000000000000       0.90625000000000000        0.0000000000000000     
  0.28125000000000000       0.90625000000000000        0.0000000000000000     
  0.31250000000000000       0.90625000000000000        0.0000000000000000     
  0.34375000000000000       0.90625000000000000        0.0000000000000000     
  0.37500000000000000       0.90625000000000000        0.0000000000000000     
  0.25000000000000000       0.93750000000000000        0.0000000000000000     
  0.28125000000000000       0.93750000000000000        0.0000000000000000     
  0.31250000000000000       0.93750000000000000        0.0000000000000000     
  0.34375000000000000       0.93750000000000000        0.0000000000000000     
  0.37500000000000000       0.93750000000000000        0.0000000000000000     
  0.25000000000000000       0.96875000000000000        0.0000000000000000     
  0.28125000000000000       0.96875000000000000        0.0000000000000000     
  0.31250000000000000       0.96875000000000000        0.0000000000000000     
  0.34375000000000000       0.96875000000000000        0.0000000000000000     
  0.37500000000000000       0.96875000000000000        0.0000000000000000     
  0.25000000000000000        1.0000000000000000        0.0000000000000000     
  0.28125000000000000        1.0000000000000000        0.0000000000000000     
  0.31250000000000000        1.0000000000000000        0.0000000000000000     
  0.34375000000000000        1.0000000000000000        0.0000000000000000     
  0.37500000000000000        1.0000000000000000        0.0000000000000000     
  0.37500000000000000       0.87500000000000000        0.0000000000000000     
  0.40625000000000000       0.87500000000000000        0.0000000000000000     
  0.43750000000000000       0.87500000000000000        0.0000000000000000     
  0.46875000000000000       0.87500000000000000        0.0000000000000000     
  0.50000000000000000       0.87500000000000000        0.0000000000000000     
  0.37500000000000000       0.90625000000000000        0.0000000000000000     
  0.40625000000000000       0.90625000000000000        0.0000000000000000     
  0.43750000000000000       0.90625000000000000        0.0000000000000000     
  0.46875000000000000       0.90625000000000000        0.0000000000000000     
  0.50000000000000000       0.90625000000000000        0.0000000000000000     
  0.37500000000000000       0.93750000000000000        0.0000000000000000     
  0.40625000000000000       0.93750000000000000        0.0000000000000000     
  0.43750000000000000       0.93750000000000000        0.0000000000000000     
  0.46875000000000000       0.93750000000000000        0.0000000000000000     
  0.50000000000000000       0.93750000000000000        0.0000000000000000     
  0.37500000000000000       0.96875000000000000        0.0000000000000000     
  0.40625000000000000       0.96875000000000000        0.0000000000000000     
  0.43750000000000000       0.96875000000000000        0.0000000000000000     
  0.46875000000000000       0.96875000000000000        0.0000000000000000     
  0.50000000000000000       0.96875000000000000        0.0000000000000000     
  0.37500000000000000        1.0000000000000000        0.0000000000000000     
  0.40625000000000000        1.0000000000000000        0.0000000000000000     
  0.43750000000000000        1.0000000000000000        0.0000000000000000     
  0.46875000000000000        1.0000000000000000        0.0000000000000000     
  0.50000000000000000        1.0000000000000000        0.0000000000000000     
  0.50000000000000000       0.87500000000000000        0.0000000000000000     
  0.53125000000000000       0.87500000000000000        0.0000000000000000     
  0.56250000000000000       0.87500000000000000        0.0000000000000000     
  0.59375000000000000       0.87500000000000000        0.0000000000000000     
  0.62500000000000000       0.87500000000000000        0.0000000000000000     
  0.50000000000000000       0.90625000000000000        0.0000000000000000     
  0.53125000000000000       0.90625000000000000        0.0000000000000000     
  0.56250000000000000       0.90625000000000000        0.0000000000000000     
  0.59375000000000000       0.90625000000000000        0.0000000000000000     
  0.62500000000000000       0.90625000000000000        0.0000000000000000     
  0.50000000000000000       0.93750000000000000        0.0000000000000000     
  0.53125000000000000       0.93750000000000000        0.0000000000000000     
  0.56250000000000000       0.93750000000000000        0.0000000000000000     
  0.59375000000000000       0.93750000000000000        0.0000000000000000     
  0.62500000000000000       0.93750000000000000        0.0000000000000000     
  0.50000000000000000       0.96875000000000000        0.0000000000000000     
  0.53125000000000000       0.96875000000000000        0.0000000000000000     
  0.56250000000000000       0.96875000000000000        0.0000000000000000     
  0.59375000000000000       0.96875000000000000        0.0000000000000000     
  0.62500000000000000       0.96875000000000000        0.0000000000000000     
  0.50000000000000000        1.0000000000000000        0.0000000000000000     
  0.53125000000000000        1.0000000000000000        0.0000000000000000     
  0.56250000000000000        1.0000000000000000        0.0000000000000000     
  0.59375000000000000        1.0000000000000000        0.0000000000000000     
  0.62500000000000000        1.0000000000000000        0.0000000000000000     
  0.62500000000000000       0.87500000000000000        0.0000000000000000     
  0.65625000000000000       0.87500000000000000        0.0000000000000000     
  0.68750000000000000       0.87500000000000000        0.0000000000000000     
  0.71875000000000000       0.87500000000000000        0.0000000000000000     
  0.75000000000000000       0.87500000000000000        0.0000000000000000     
  0.62500000000000000       0.90625000000000000        0.0000000000000000     
  0.65625000000000000       0.90625000000000000        0.0000000000000000     
  0.68750000000000000       0.90625000000000000        0.0000000000000000     
  0.71875000000000000       0.90625000000000000        0.0000000000000000     
  0.75000000000000000       0.90625000000000000        0.0000000000000000     
  0.62500000000000000       0.93750000000000000        0.0000000000000000     
  0.65625000000000000       0.93750000000000000        0.0000000000000000     
  0.68750000000000000       0.93750000000000000        0.0000000000000000     
  0.71875000000000000       0.93750000000000000        0.0000000000000000     
  0.75000000000000000       0.93750000000000000        0.0000000000000000     
  0.62500000000000000       0.96875000000000000        0.0000000000000000     
  0.65625000000000000       0.96875000000000000        0.0000000000000000     
  0.68750000000000000       0.96875000000000000        0.0000000000000000     
  0.71875000000000000       0.96875000000000000        0.0000000000000000     
  0.75000000000000000       0.96875000000000000        0.0000000000000000     
  0.62500000000000000        1.0000000000000000        0.0000000000000000     
  0.65625000000000000        1.0000000000000000        0.0000000000000000     
  0.68750000000000000        1.0000000000000000        0.0000000000000000     
  0.71875000000000000        1.0000000000000000        0.0000000000000000     
  0.75000000000000000        1.0000000000000000        0.0000000000000000     
  0.75000000000000000       0.87500000000000000        0.0000000000000000     
  0.78125000000000000       0.87500000000000000        0.0000000000000000     
  0.81250000000000000       0.87500000000000000        0.0000000000000000     
  0.84375000000000000       0.87500000000000000        0.0000000000000000     
  0.87500000000000000       0.87500000000000000        0.0000000000000000     
  0.75000000000000000       0.90625000000000000        0.0000000000000000     
  0.78125000000000000       0.90625000000000000        0.0000000000000000     
  0.81250000000000000       0.90625000000000000        0.0000000000000000     
  0.84375000000000000       0.90625000000000000        0.0000000000000000     
  0.87500000000000000       0.90625000000000000        0.0000000000000000     
  0.75000000000000000       0.93750000000000000        0.0000000000000000     
  0.78125000000000000       0.93750000000000000        0.0000000000000000     
  0.81250000000000000       0.93750000000000000        0.0000000000000000     
  0.84375000000000000       0.93750000000000000        0.0000000000000000     
  0.87500000000000000       0.93750000000000000        0.0000000000000000     
  0.75000000000000000       0.96875000000000000        0.0000000000000000     
  0.78125000000000000       0.96875000000000000        0.0000000000000000     
  0.81250000000000000       0.96875000000000000        0.0000000000000000     
  0.84375000000000000       0.96875000000000000        0.0000000000000000     
  0.87500000000000000       0.96875000000000000        0.0000000000000000     
  0.75000000000000000        1.0000000000000000        0.0000000000000000     
  0.78125000000000000        1.0000000000000000        0.0000000000000000     
  0.81250000000000000        1.0000000000000000        0.0000000000000000     
  0.84375000000000000        1.0000000000000000        0.0000000000000000     
  0.87500000000000000        1.0000000000000000        0.0000000000000000     
  0.87500000000000000       0.87500000000000000        0.0000000000000000     
  0.90625000000000000       0.87500000000000000        0.0000000000000000     
  0.93750000000000000       0.87500000000000000        0.0000000000000000     
  0.96875000000000000       0.87500000000000000        0.0000000000000000     
   1.0000000000000000       0.87500000000000000        0.0000000000000000     
  0.87500000000000000       0.90625000000000000        0.0000000000000000     
  0.90625000000000000       0.90625000000000000        0.0000000000000000     
  0.93750000000000000       0.90625000000000000        0.0000000000000000     
  0.96875000000000000       0.90625000000000000        0.0000000000000000     
   1.0000000000000000       0.90625000000000000        0.0000000000000000     
  0.87500000000000000       0.93750000000000000        0.0000000000000000     
  0.90625000000000000       0.93750000000000000        0.0000000000000000     
  0.93750000000000000       0.93750000000000000        0.0000000000000000     
  0.96875000000000000       0.93750000000000000        0.0000000000000000     
   1.0000000000000000       0.93750000000000000        0.0000000000000000     
  0.87500000000000000       0.96875000000000000        0.0000000000000000     
  0.90625000000000000       0.96875000000000000        0.0000000000000000     
  0.93750000000000000       0.96875000000000000        0.0000000000000000     
  0.96875000000000000       0.96875000000000000        0.0000000000000000     
   1.0000000000000000       0.96875000000000000        0.0000000000000000     
  0.87500000000000000        1.0000000000000000        0.0000000000000000     
  0.90625000000000000        1.0000000000000000        0.0000000000000000     
  0.93750000000000000        1.0000000000000000        0.0000000000000000     
  0.96875000000000000        1.0000000000000000        0.0000000000000000     
   1.0000000000000000        1.0000000000000000        0.0000000000000000     
 </DataArray>
 </Points>
 <Cells>
 <DataArray  type="Int32"  Name="connectivity"  format="ascii">
           0           1           6           5
           1           2           7           6
           2           3           8           7
           3           4           9           8
           5           6          11          10
           6           7          12          11
           7           8          13          12
           8           9          14          13
          10          11          16          15
          11          12          17          16
          12          13          18          17
          13          14          19          18
          15          16          21          20
          16          17          22          21
          17          18          23          22
          18          19          24          23
          25          26          31          30
          26          27          32          31
          27          28          33          32
          28          29          34          33
          30          31          36          35
          31          32          37          36
          32          33          38          37
          33          34          39          38
          35          36          41          40
          36          37          42          41
          37          38          43          42
          38          39          44          43
          40          41          46          45
          41          42          47          46
          42          43          48          47
          43          44          49          48
          50          51          56          55
          51          52          57          56
          52          53          58          57
          53          54          59          58
          55          56          61          60
          56          57          62          61
          57          58          63          62
          58          59          64          63
          60          61          66          65
          61          62          67          66
          62          63          68          67
          63          64          69          68
          65          66          71          70
          66          67          72          71
          67          68          73          72
          68          69          74          73
          75          76          81          80
          76          77          82          81
          77          78          83          82
          78          79          84          83
          80          81          86          85
          81          82          87          86
          82          83          88          87
          83          84          89          88
          85          86          91          90
          86          87          92          91
          87          88          93          92
          88          89          94          93
          90          91          96          95
          91          92          97          96
          92          93          98          97
          93          94          99          98
         100         101         106         105
         101         102         107         106
         102         103         108         107
         103         104         109         108
         105         106         111         110
         106         107         112         111
         107         108         113         112
         108         109         114         113
         110         111         116         115
         111         112         117         116
         112         113         118         117
         113         114         119         118
         115         116         121         120
         116         117         122         121
         117         118         123         122
         118         119         124         123
         125         126         131         130
         126         127         132         131
         127         128         133         132
         128         129         134         133
         130         131         136         135
         131         132         137         136
         132         133         138         137
         133         134         139         138
         135         136         141         140
         136         137         142         141
         137         138         143         142
         138         139         144         143
         140         141         146         145
         141         142         147         146
         142         143         148         147
         143         144         149         148
         150         151         156         155
         151         152         157         156
         152         153         158         157
         153         154         159         158
         155         156         161         160
         156         157         162         161
         157         158         163         162
         158         159         164         163
         160         161         166         165
         161         162         167         166
         162         163         168         167
         163         164         169         168
         165         166         171         170
         166         167         172         171
         167         168         173         172
         168         169         174         173
         175         176         181         180
         176         177         182         181
         177         178         183         182
         178         179         184         183
         180         181         186         185
         181         182         187         186
         182         183         188         187
         183         184         189         188
         185         186         191         190
         186         187         192         191
         187         188         193         192
         188         189         194         193
         190         191         196         195
         191         192         197         196
         192         193         198         197
         193         194         199         198
         200         201         206         205
         201         202         207         206
         202         203         208         207
         203         204         209         208
         205         206         211         210
         206         207         212         211
         207         208         213         212
         208         209         214         213
         210         211         216         215
         211         212         217         216
         212         213         218         217
         213         214         219         218
         215         216         221         220
         216         217         222         221
         217         218         223         222
         218         219         224         223
         225         226         231         230
         226         227         232         231
         227         228         233         232
         228         229         234         233
         230         231         236         235
         231         232         237         236
         232         233         238         237
         233         234         239         238
         235         236         241         240
         236         237         242         241
         237         238         243         242
         238         239         244         243
         240         241         246         245
         241         242         247         246
         242         243         248         247
         243         244         249         248
         250         251         256         255
         251         252         257         256
         252         253         258         257
         253         254         259         258
         255         256         261         260
         256         257         262         261
         257         258         263         262
         258         259         264         263
         260         261         266         265
         261         262         267         266
         262         263         268         267
         263         264         269         268
         265         266         271         270
         266         267         272         271
         267         268         273         272
         268         269         274         273
         275         276         281         280
         276         277         282         281
         277         278         283         282
         278         279         284         283
         280         281         286         285
         281         282         287         286
         282         283         288         287
         283         284         289         288
         285         286         291         290
         286         287         292         291
         287         288         293         292
         288         289         294         293
         290         291         296         295
         291         292         297         296
         292         293         298         297
         293         294         299         298
         300         301         306         305
         301         302         307         306
         302         303         308         307
         303         304         309         308
         305         306         311         310
         306         307         312         311
         307         308         313         312
         308         309         314         313
         310         311         316         315
         311         312         317         316
         312         313         318         317
         313         314         319         318
         315         316         321         320
         316         317         322         321
         317         318         323         322
         318         319         324         323
         325         326         331         330
         326         327         332         331
         327         328         333         332
         328         329         334         333
         330         331         336         335
         331         332         337         336
         332         333         338         337
         333         334         339         338
         335         336         341         340
         336         337         342         341
         337         338         343         342
         338         339         344         343
         340         341         346         345
         341         342         347         346
         342         343         348         347
         343         344         349         348
         350         351         356         355
         351         352         357         356
         352         353         358         357
         353         354         359         358
         355         356         361         360
         356         357         362         361
         357         358         363         362
         358         359         364         363
         360         361         366         365
         361         362         367         366
         362         363         368         367
         363         364         369         368
         365         366         371         370
         366         367         372         371
         367         368         373         372
         368         369         374         373
         375         376         381         380
         376         377         382         381
         377         378         383         382
         378         379         384         383
         380         381         386         385
         381         382         387         386
         382         383         388         387
         383         384         389         388
         385         386         391         390
         386         387         392         391
         387         388         393         392
         388         389         394         393
         390         391         396         395
         391         392         397         396
         392         393         398         397
         393         394         399         398
         400         401         406         405
         401         402         407         406
         402         403         408         407
         403         404         409         408
         405         406         411         410
         406         407         412         411
         407         408         413         412
         408         409         414         413
         410         411         416         415
         411         412         417         416
         412         413         418         417
         413         414         419         418
         415         416         421         420
         416         417         422         421
         417         418         423         422
         418         419         424         423
         425         426         431         430
         426         427         432         431
         427         428         433         432
         428         429         434         433
         430         431         436         435
         431         432         437         436
         432         433         438         437
         433         434         439         438
         435         436         441         440
         436         437         442         441
         437         438         443         442
         438         439         444         443
         440         441         446         445
         441         442         447         446
         442         443         448         447
         443         444         449         448
         450         451         456         455
         451         452         457         456
         452         453         458         457
         453         454         459         458
         455         456         461         460
         456         457         462         461
         457         458         463         462
         458         459         464         463
         460         461         466         465
         461         462         467         466
         462         463         468         467
         463         464         469         468
         465         466         471         470
         466         467         472         471
         467         468         473         472
         468         469         474         473
         475         476         481         480
         476         477         482         481
         477         478         483         482
         478         479         484         483
         480         481         486         485
         481         482         487         486
         482         483         488         487
         483         484         489         488
         485         486         491         490
         486         487         492         491
         487         488         493         492
         488         489         494         493
         490         491         496         495
         491         492         497         496
         492         493         498         497
         493         494         499         498
         500         501         506         505
         501         502         507         506
         502         503         508         507
         503         504         509         508
         505         506         511         510
         506         507         512         511
         507         508         513         512
         508         509         514         513
         510         511         516         515
         511         512         517         516
         512         513         518         517
         513         514         519         518
         515         516         521         520
         516         517         522         521
         517         518         523         522
         518         519         524         523
         525         526         531         530
         526         527         532         531
         527         528         533         532
         528         529         534         533
         530         531         536         535
         531         532         537         536
         532         533         538         537
         533         534         539         538
         535         536         541         540
         536         537         542         541
         537         538         543         542
         538         539         544         543
         540         541         546         545
         541         542         547         546
         542         543         548         547
         543         544         549         548
         550         551         556         555
         551         552         557         556
         552         553         558         557
         553         554         559         558
         555         556         561         560
         556         557         562         561
         557         558         563         562
         558         559         564         563
         560         561         566         565
         561         562         567         566
         562         563         568         567
         563         564         569         568
         565         566         571         570
         566         567         572         571
         567         568         573         572
         568         569         574         573
         575         576         581         580
         576         577         582         581
         577         578         583         582
         578         579         584         583
         580         581         586         585
         581         582         587         586
         582         583         588         587
         583         584         589         588
         585         586         591         590
         586         587         592         591
         587         588         593         592
         588         589         594         593
         590         591         596         595
         591         592         597         596
         592         593         598         597
         593         594         599         598
         600         601         606         605
         601         602         607         606
         602         603         608         607
         603         604         609         608
         605         606         611         610
         606         607         612         611
         607         608         613         612
         608         609         614         613
         610         611         616         615
         611         612         617         616
         612         613         618         617
         613         614         619         618
         615         616         621         620
         616         617         622         621
         617         618         623         622
         618         619         624         623
         625         626         631         630
         626         627         632         631
         627         628         633         632
         628         629         634         633
         630         631         636         635
         631         632         637         636
         632         633         638         637
         633         634         639         638
         635         636         641         640
         636         637         642         641
         637         638         643         642
         638         639         644         643
         640         641         646         645
         641         642         647         646
         642         643         648         647
         643         644         649         648
         650         651         656         655
         651         652         657         656
         652         653         658         657
         653         654         659         658
         655         656         661         660
         656         657         662         661
         657         658         663         662
         658         659         664         663
         660         661         666         665
         661         662         667         666
         662         663         668         667
         663         664         669         668
         665         666         671         670
         666         667         672         671
         667         668         673         672
         668         669         674         673
         675         676         681         680
         676         677         682         681
         677         678         683         682
         678         679         684         683
         680         681         686         685
         681         682         687         686
         682         683         688         687
         683         684         689         688
         685         686         691         690
         686         687         692         691
         687         688         693         692
         688         689         694         693
         690         691         696         695
         691         692         697         696
         692         693         698         697
         693         694         699         698
         700         701         706         705
         701         702         707         706
         702         703         708         707
         703         704         709         708
         705         706         711         710
         706         707         712         711
         707         708         713         712
         708         709         714         713
         710         711         716         715
         711         712         717         716
         712         713         718         717
         713         714         719         718
         715         716         721         720
         716         717         722         721
         717         718         723         722
         718         719         724         723
         725         726         731         730
         726         727         732         731
         727         728         733         732
         728         729         734         733
         730         731         736         735
         731         732         737         736
         732         733         738         737
         733         734         739         738
         735         736         741         740
         736         737         742         741
         737         738         743         742
         738         739         744         743
         740         741         746         745
         741         742         747         746
         742         743         748         747
         743         744         749         748
         750         751         756         755
         751         752         757         756
         752         753         758         757
         753         754         759         758
         755         756         761         760
         756         757         762         761
         757         758         763         762
         758         759         764         763
         760         761         766         765
         761         762         767         766
         762         763         768         767
         763         764         769         768
         765         766         771         770
         766         767         772         771
         767         768         773         772
         768         769         774         773
         775         776         781         780
         776         777         782         781
         777         778         783         782
         778         779         784         783
         780         781         786         785
         781         782         787         786
         782         783         788         787
         783         784         789         788
         785         786         791         790
         786         787         792         791
         787         788         793         792
         788         789         794         793
         790         791         796         795
         791         792         797         796
         792         793         798         797
         793         794         799         798
         800         801         806         805
         801         802         807         806
         802         803         808         807
         803         804         809         808
         805         806         811         810
         806         807         812         811
         807         808         813         812
         808         809         814         813
         810         811         816         815
         811         812         817         816
         812         813         818         817
         813         814         819         818
         815         816         821         820
         816         817         822         821
         817         818         823         822
         818         819         824         823
         825         826         831         830
         826         827         832         831
         827         828         833         832
         828         829         834         833
         830         831         836         835
         831         832         837         836
         832         833         838         837
         833         834         839         838
         835         836         841         840
         836         837         842         841
         837         838         843         842
         838         839         844         843
         840         841         846         845
         841         842         847         846
         842         843         848         847
         843         844         849         848
         850         851         856         855
         851         852         857         856
         852         853         858         857
         853         854         859         858
         855         856         861         860
         856         857         862         861
         857         858         863         862
         858         859         864         863
         860         861         866         865
         861         862         867         866
         862         863         868         867
         863         864         869         868
         865         866         871         870
         866         867         872         871
         867         868         873         872
         868         869         874         873
         875         876         881         880
         876         877         882         881
         877         878         883         882
         878         879         884         883
         880         881         886         885
         881         882         887         886
         882         883         888         887
         883         884         889         888
         885         886         891         890
         886         887         892         891
         887         888         893         892
         888         889         894         893
         890         891         896         895
         891         892         897         896
         892         893         898         897
         893         894         899         898
         900         901         906         905
         901         902         907         906
         902         903         908         907
         903         904         909         908
         905         906         911         910
         906         907         912         911
         907         908         913         912
         908         909         914         913
         910         911         916         915
         911         912         917         916
         912         913         918         917
         913         914         919         918
         915         916         921         920
         916         917         922         921
         917         918         923         922
         918         919         924         923
         925         926         931         930
         926         927         932         931
         927         928         933         932
         928         929         934         933
         930         931         936         935
         931         932         937         936
         932         933         938         937
         933         934         939         938
         935         936         941         940
         936         937         942         941
         937         938         943         942
         938         939         944         943
         940         941         946         945
         941         942         947         946
         942         943         948         947
         943         944         949         948
         950         951         956         955
         951         952         957         956
         952         953         958         957
         953         954         959         958
         955         956         961         960
         956         957         962         961
         957         958         963         962
         958         959         964         963
         960         961         966         965
         961         962         967         966
         962         963         968         967
         963         964         969         968
         965         966         971         970
         966         967         972         971
         967         968         973         972
         968         969         974         973
         975         976         981         980
         976         977         982         981
         977         978         983         982
         978         979         984         983
         980         981         986         985
         981         982         987         986
         982         983         988         987
         983         984         989         988
         985         986         991         990
         986         987         992         991
         987         988         993         992
         988         989         994         993
         990         991         996         995
         991         992         997         996
         992         993         998         997
         993         994         999         998
        1000        1001        1006        1005
        1001        1002        1007        1006
        1002        1003        1008        1007
        1003        1004        1009        1008
        1005        1006        1011        1010
        1006        1007        1012        1011
        1007        1008        1013        1012
        1008        1009        1014        1013
        1010        1011        1016        1015
        1011        1012        1017        1016
        1012        1013        1018        1017
        1013        1014        1019        1018
        1015        1016        1021        1020
        1016        1017        1022        1021
        1017        1018        1023        1022
        1018        1019        1024        1023
        1025        1026        1031        1030
        1026        1027        1032        1031
        1027        1028        1033        1032
        1028        1029        1034        1033
        1030        1031        1036        1035
        1031        1032        1037        1036
        1032        1033        1038        1037
        1033        1034        1039        1038
        1035        1036        1041        1040
        1036        1037        1042        1041
        1037        1038        1043        1042
        1038        1039        1044        1043
        1040        1041        1046        1045
        1041        1042        1047        1046
        1042        1043        1048        1047
        1043        1044        1049        1048
        1050        1051        1056        1055
        1051        1052        1057        1056
        1052        1053        1058        1057
        1053        1054        1059        1058
        1055        1056        1061        1060
        1056        1057        1062        1061
        1057        1058        1063        1062
        1058        1059        1064        1063
        1060        1061        1066        1065
        1061        1062        1067        1066
        1062        1063        1068        1067
        1063        1064        1069        1068
        1065        1066        1071        1070
        1066        1067        1072        1071
        1067        1068        1073        1072
        1068        1069        1074        1073
        1075        1076        1081        1080
        1076        1077        1082        1081
        1077        1078        1083        1082
        1078        1079        1084        1083
        1080        1081        1086        1085
        1081        1082        1087        1086
        1082        1083        1088        1087
        1083        1084        1089        1088
        1085        1086        1091        1090
        1086        1087        1092        1091
        1087        1088        1093        1092
        1088        1089        1094        1093
        1090        1091        1096        1095
        1091        1092        1097        1096
        1092        1093        1098        1097
        1093        1094        1099        1098
        1100        1101        1106        1105
        1101        1102        1107        1106
        1102        1103        1108        1107
        1103        1104        1109        1108
        1105        1106        1111        1110
        1106        1107        1112        1111
        1107        1108        1113        1112
        1108        1109        1114        1113
        1110        1111        1116        1115
        1111        1112        1117        1116
        1112        1113        1118        1117
        1113        1114        1119        1118
        1115        1116        1121        1120
        1116        1117        1122        1121
        1117        1118        1123        1122
        1118        1119        1124        1123
        1125        1126        1131        1130
        1126        1127        1132        1131
        1127        1128        1133        1132
        1128        1129        1134        1133
        1130        1131        1136        1135
        1131        1132        1137        1136
        1132        1133        1138        1137
        1133        1134        1139        1138
        1135        1136        1141        1140
        1136        1137        1142        1141
        1137        1138        1143        1142
        1138        1139        1144        1143
        1140        1141        1146        1145
        1141        1142        1147        1146
        1142        1143        1148        1147
        1143        1144        1149        1148
        1150        1151        1156        1155
        1151        1152        1157        1156
        1152        1153        1158        1157
        1153        1154        1159        1158
        1155        1156        1161        1160
        1156        1157        1162        1161
        1157        1158        1163        1162
        1158        1159        1164        1163
        1160        1161        1166        1165
        1161        1162        1167        1166
        1162        1163        1168        1167
        1163        1164        1169        1168
        1165        1166        1171        1170
        1166        1167        1172        1171
        1167        1168        1173        1172
        1168        1169        1174        1173
        1175        1176        1181        1180
        1176        1177        1182        1181
        1177        1178        1183        1182
        1178        1179        1184        1183
        1180        1181        1186        1185
        1181        1182        1187        1186
        1182        1183        1188        1187
        1183        1184        1189        1188
        1185        1186        1191        1190
        1186        1187        1192        1191
        1187        1188        1193        1192
        1188        1189        1194        1193
        1190        1191        1196        1195
        1191        1192        1197        1196
        1192        1193        1198        1197
        1193        1194        1199        1198
        1200        1201        1206        1205
        1201        1202        1207        1206
        1202        1203        1208        1207
        1203        1204        1209        1208
        1205        1206        1211        1210
        1206        1207        1212        1211
        1207        1208        1213        1212
        1208        1209        1214        1213
        1210        1211        1216        1215
        1211        1212        1217        1216
        1212        1213        1218        1217
        1213        1214        1219        1218
        1215        1216        1221        1220
        1216        1217        1222        1221
        1217        1218        1223        1222
        1218        1219        1224        1223
        1225        1226        1231        1230
        1226        1227        1232        1231
        1227        1228        1233        1232
        1228        1229        1234        1233
        1230        1231        1236        1235
        1231        1232        1237        1236
        1232        1233        1238        1237
        1233        1234        1239        1238
        1235        1236        1241        1240
        1236        1237        1242        1241
        1237        1238        1243        1242
        1238        1239        1244        1243
        1240        1241        1246        1245
        1241        1242        1247        1246
        1242        1243        1248        1247
        1243        1244        1249        1248
        1250        1251        1256        1255
        1251        1252        1257        1256
        1252        1253        1258        1257
        1253        1254        1259        1258
        1255        1256        1261        1260
        1256        1257        1262        1261
        1257        1258        1263        1262
        1258        1259        1264        1263
        1260        1261        1266        1265
        1261        1262        1267        1266
        1262        1263        1268        1267
        1263        1264        1269        1268
        1265        1266        1271        1270
        1266        1267        1272        1271
        1267        1268        1273        1272
        1268        1269        1274        1273
        1275        1276        1281        1280
        1276        1277        1282        1281
        1277        1278        1283        1282
        1278        1279        1284        1283
        1280        1281        1286        1285
        1281        1282        1287        1286
        1282        1283        1288        1287
        1283        1284        1289        1288
        1285        1286        1291        1290
        1286        1287        1292        1291
        1287        1288        1293        1292
        1288        1289        1294        1293
        1290        1291        1296        1295
        1291        1292        1297        1296
        1292        1293        1298        1297
        1293        1294        1299        1298
        1300        1301        1306        1305
        1301        1302        1307        1306
        1302        1303        1308        1307
        1303        1304        1309        1308
        1305        1306        1311        1310
        1306        1307        1312        1311
        1307        1308        1313        1312
        1308        1309        1314        1313
        1310        1311        1316        1315
        1311        1312        1317        1316
        1312        1313        1318        1317
        1313        1314        1319        1318
        1315        1316        1321        1320
        1316        1317        1322        1321
        1317        1318        1323        1322
        1318        1319        1324        1323
        1325        1326        1331        1330
        1326        1327        1332        1331
        1327        1328        1333        1332
        1328        1329        1334        1333
        1330        1331        1336        1335
        1331        1332        1337        1336
        1332        1333        1338        1337
        1333        1334        1339        1338
        1335        1336        1341        1340
        1336        1337        1342        1341
        1337        1338        1343        1342
        1338        1339        1344        1343
        1340        1341        1346        1345
        1341        1342        1347        1346
        1342        1343        1348        1347
        1343        1344        1349        1348
        1350        1351        1356        1355
        1351        1352        1357        1356
        1352        1353        1358        1357
        1353        1354        1359        1358
        1355        1356        1361        1360
        1356        1357        1362        1361
        1357        1358        1363        1362
        1358        1359        1364        1363
        1360        1361        1366        1365
        1361        1362        1367        1366
        1362        1363        1368        1367
        1363        1364        1369        1368
        1365        1366        1371        1370
        1366        1367        1372        1371
        1367        1368        1373        1372
        1368        1369        1374        1373
        1375        1376        1381        1380
        1376        1377        1382        1381
        1377        1378        1383        1382
        1378        1379        1384        1383
        1380        1381        1386        1385
        1381        1382        1387        1386
        1382        1383        1388        1387
        1383        1384        1389        1388
        1385        1386        1391        1390
        1386        1387        1392        1391
        1387        1388        1393        1392
        1388        1389        1394        1393
        1390        1391        1396        1395
        1391        1392        1397        1396
        1392        1393        1398        1397
        1393        1394        1399        1398
        1400        1401        1406        1405
        1401        1402        1407        1406
        1402        1403        1408        1407
        1403        1404        1409        1408
        1405        1406        1411        1410
        1406        1407        1412        1411
        1407        1408        1413        1412
        1408        1409        1414        1413
        1410        1411        1416        1415
        1411        1412        1417        1416
        1412        1413        1418        1417
        1413        1414        1419        1418
        1415        1416        1421        1420
        1416        1417        1422        1421
        1417        1418        1423        1422
        1418        1419        1424        1423
        1425        1426        1431        1430
        1426        1427        1432        1431
        1427        1428        1433        1432
        1428        1429        1434        1433
        1430        1431        1436        1435
        1431        1432        1437        1436
        1432        1433        1438        1437
        1433        1434        1439        1438
        1435        1436        1441        1440
        1436        1437        1442        1441
        1437        1438        1443        1442
        1438        1439        1444        1443
        1440        1441        1446        1445
        1441        1442        1447        1446
        1442        1443        1448        1447
        1443        1444        1449        1448
        1450        1451        1456        1455
        1451        1452        1457        1456
        1452        1453        1458        1457
        1453        1454        1459        1458
        1455        1456        1461        1460
        1456        1457        1462        1461
        1457        1458        1463        1462
        1458        1459        1464        1463
        1460        1461        1466        1465
        1461        1462        1467        1466
        1462        1463        1468        1467
        1463        1464        1469        1468
        1465        1466        1471        1470
        1466        1467        1472        1471
        1467        1468        1473        1472
        1468        1469        1474        1473
        1475        1476        1481        1480
        1476        1477        1482        1481
        1477        1478        1483        1482
        1478        1479        1484        1483
        1480        1481        1486        1485
        1481        1482        1487        1486
        1482        1483        1488        1487
        1483        1484        1489        1488
        1485        1486        1491        1490
        1486        1487        1492        1491
        1487        1488        1493        1492
        1488        1489        1494        1493
        1490        1491        1496        1495
        1491        1492        1497        1496
        1492        1493        1498        1497
        1493        1494        1499        1498
        1500        1501        1506        1505
        1501        1502        1507        1506
        1502        1503        1508        1507
        1503        1504        1509        1508
        1505        1506        1511        1510
        1506        1507        1512        1511
        1507        1508        1513        1512
        1508        1509        1514        1513
        1510        1511        1516        1515
        1511        1512        1517        1516
        1512        1513        1518        1517
        1513        1514        1519        1518
        1515        1516        1521        1520
        1516        1517        1522        1521
        1517        1518        1523        1522
        1518        1519        1524        1523
        1525        1526        1531        1530
        1526        1527        1532        1531
        1527        1528        1533        1532
        1528        1529        1534        1533
        1530        1531        1536        1535
        1531        1532        1537        1536
        1532        1533        1538        1537
        1533        1534        1539        1538
        1535        1536        1541        1540
        1536        1537        1542        1541
        1537        1538        1543        1542
        1538        1539        1544        1543
        1540        1541        1546        1545
        1541        1542        1547        1546
        1542        1543        1548        1547
        1543        1544        1549        1548
        1550        1551        1556        1555
        1551        1552        1557        1556
        1552        1553        1558        1557
        1553        1554        1559        1558
        1555        1556        1561        1560
        1556        1557        1562        1561
        1557        1558        1563        1562
        1558        1559        1564        1563
        1560        1561        1566        1565
        1561        1562        1567        1566
        1562        1563        1568        1567
        1563        1564        1569        1568
        1565        1566        1571        1570
        1566        1567        1572        1571
        1567        1568        1573        1572
        1568        1569        1574        1573
        1575        1576        1581        1580
        1576        1577        1582        1581
        1577        1578        1583        1582
        1578        1579        1584        1583
        1580        1581        1586        1585
        1581        1582        1587        1586
        1582        1583        1588        1587
        1583        1584        1589        1588
        1585        1586        1591        1590
        1586        1587        1592        1591
        1587        1588        1593        1592
        1588        1589        1594        1593
        1590        1591        1596        1595
        1591        1592        1597        1596
        1592        1593        1598        1597
        1593        1594        1599        1598
 </DataArray>
 <DataArray  type="Int32"  Name="offsets"  format="ascii"> 
           4
           8
          12
          16
          20
          24
          28
          32
          36
          40
          44
          48
          52
          56
          60
          64
          68
          72
          76
          80
          84
          88
          92
          96
         100
         104
         108
         112
         116
         120
         124
         128
         132
         136
         140
         144
         148
         152
         156
         160
         164
         168
         172
         176
         180
         184
         188
         192
         196
         200
         204
         208
         212
         216
         220
         224
         228
         232
         236
         240
         244
         248
         252
         256
         260
         264
         268
         272
         276
         280
         284
         288
         292
         296
         300
         304
         308
         312
         316
         320
         324
         328
         332
         336
         340
         344
         348
         352
         356
         360
         364
         368
         372
         376
         380
         384
         388
         392
         396
         400
         404
         408
         412
         416
         420
         424
         428
         432
         436
         440
         444
         448
         452
         456
         460
         464
         468
         472
         476
         480
         484
         488
         492
         496
         500
         504
         508
         512
         516
         520
         524
         528
         532
         536
         540
         544
         548
         552
         556
         560
         564
         568
         572
         576
         580
         584
         588
         592
         596
         600
         604
         608
         612
         616
         620
         624
         628
         632
         636
         640
         644
         648
         652
         656
         660
         664
         668
         672
         676
         680
         684
         688
         692
         696
         700
         704
         708
         712
         716
         720
         724
         728
         732
         736
         740
         744
         748
         752
         756
         760
         764
         768
         772
         776
         780
         784
         788
         792
         796
         800
         804
         808
         812
         816
         820
         824
         828
         832
         836
         840
         844
         848
         852
         856
         860
         864
         868
         872
         876
         880
         884
         888
         892
         896
         900
         904
         908
         912
         916
         920
         924
         928
         932
         936
         940
         944
         948
         952
         956
         960
         964
         968
         972
         976
         980
         984
         988
         992
         996
        1000
        1004
        1008
        1012
        1016
        1020
        1024
        1028
        1032
        1036
        1040
        1044
        1048
        1052
        1056
        1060
        1064
        1068
        1072
        1076
        1080
        1084
        1088
        1092
        1096
        1100
        1104
        1108
        1112
        1116
        1120
        1124
        1128
        1132
        1136
        1140
        1144
        1148
        1152
        1156
        1160
        1164
        1168
        1172
        1176
        1180
        1184
        1188
        1192
        1196
        1200
        1204
        1208
        1212
        1216
        1220
        1224
        1228
        1232
        1236
        1240
        1244
        1248
        1252
        1256
        1260
        1264
        1268
        1272
        1276
        1280
        1284
        1288
        1292
        1296
        1300
        1304
        1308
        1312
        1316
        1320
        1324
        1328
        1332
        1336
        1340
        1344
        1348
        1352
        1356
        1360
        1364
        1368
        1372
        1376
        1380
        1384
        1388
        1392
        1396
        1400
        1404
        1408
        1412
        1416
        1420
        1424
        1428
        1432
        1436
        1440
        1444
        1448
        1452
        1456
        1460
        1464
        1468
        1472
        1476
        1480
        1484
        1488
        1492
        1496
        1500
        1504
        1508
        1512
        1516
        1520
        1524
        1528
        1532
        1536
        1540
        1544
        1548
        1552
        1556
        1560
        1564
        1568
        1572
        1576
        1580
        1584
        1588
        1592
        1596
        1600
        1604
        1608
        1612
        1616
        1620
        1624
        1628
        1632
        1636
        1640
        1644
        1648
        1652
        1656
        1660
        1664
        1668
        1672
        1676
        1680
        1684
        1688
        1692
        1696
        1700
        1704
        1708
        1712
        1716
        1720
        1724
        1728
        1732
        1736
        1740
        1744
        1748
        1752
        1756
        1760
        1764
        1768
        1772
        1776
        1780
        1784
        1788
        1792
        1796
        1800
        1804
        1808
        1812
        1816
        1820
        1824
        1828
        1832
        1836
        1840
        1844
        1848
        1852
        1856
        1860
        1864
        1868
        1872
        1876
        1880
        1884
        1888
        1892
        1896
        1900
        1904
        1908
        1912
        1916
        1920
        1924
        1928
        1932
        1936
        1940
        1944
        1948
        1952
        1956
        1960
        1964
        1968
        1972
        1976
        1980
        1984
        1988
        1992
        1996
        2000
        2004
        2008
        2012
        2016
        2020
        2024
        2028
        2032
        2036
        2040
        2044
        2048
        2052
        2056
        2060
        2064
        2068
        2072
        2076
        2080
        2084
        2088
        2092
        2096
        2100
        2104
        2108
        2112
        2116
        2120
        2124
        2128
        2132
        2136
        2140
        2144
        2148
        2152
        2156
        2160
        2164
        2168
        2172
        2176
        2180
        2184
        2188
        2192
        2196
        2200
        2204
        2208
        2212
        2216
        2220
        2224
        2228
        2232
        2236
        2240
        2244
        2248
        2252
        2256
        2260
        2264
        2268
        2272
        2276
        2280
        2284
        2288
        2292
        2296
        2300
        2304
        2308
        2312
        2316
        2320
        2324
        2328
        2332
        2336
        2340
        2344
        2348
        2352
        2356
        2360
        2364
        2368
        2372
        2376
        2380
        2384
        2388
        2392
        2396
        2400
        2404
        2408
        2412
        2416
        2420
        2424
        2428
        2432
        2436
        2440
        2444
        2448
        2452
        2456
        2460
        2464
        2468
        2472
        2476
        2480
        2484
        2488
        2492
        2496
        2500
        2504
        2508
        2512
        2516
        2520
        2524
        2528
        2532
        2536
        2540
        2544
        2548
        2552
        2556
        2560
        2564
        2568
        2572
        2576
        2580
        2584
        2588
        2592
        2596
        2600
        2604
        2608
        2612
        2616
        2620
        2624
        2628
        2632
        2636
        2640
        2644
        2648
        2652
        2656
        2660
        2664
        2668
        2672
        2676
        2680
        2684
        2688
        2692
        2696
        2700
        2704
        2708
        2712
        2716
        2720
        2724
        2728
        2732
        2736
        2740
        2744
        2748
        2752
        2756
        2760
        2764
        2768
        2772
        2776
        2780
        2784
        2788
        2792
        2796
        2800
        2804
        2808
        2812
        2816
        2820
        2824
        2828
        2832
        2836
        2840
        2844
        2848
        2852
        2856
        2860
        2864
        2868
        2872
        2876
        2880
        2884
        2888
        2892
        2896
        2900
        2904
        2908
        2912
        2916
        2920
        2924
        2928
        2932
        2936
        2940
        2944
        2948
        2952
        2956
        2960
        2964
        2968
        2972
        2976
        2980
        2984
        2988
        2992
        2996
        3000
        3004
        3008
        3012
        3016
        3020
        3024
        3028
        3032
        3036
        3040
        3044
        3048
        3052
        3056
        3060
        3064
        3068
        3072
        3076
        3080
        3084
        3088
        3092
        3096
        3100
        3104
        3108
        3112
        3116
        3120
        3124
        3128
        3132
        3136
        3140
        3144
        3148
        3152
        3156
        3160
        3164
        3168
        3172
        3176
        3180
        3184
        3188
        3192
        3196
        3200
        3204
        3208
        3212
        3216
        3220
        3224
        3228
        3232
        3236
        3240
        3244
        3248
        3252
        3256
        3260
        3264
        3268
        3272
        3276
        3280
        3284
        3288
        3292
        3296
        3300
        3304
        3308
        3312
        3316
        3320
        3324
        3328
        3332
        3336
        3340
        3344
        3348
        3352
        3356
        3360
        3364
        3368
        3372
        3376
        3380
        3384
        3388
        3392
        3396
        3400
        3404
        3408
        3412
        3416
        3420
        3424
        3428
        3432
        3436
        3440
        3444
        3448
        3452
        3456
        3460
        3464
        3468
        3472
        3476
        3480
        3484
        3488
        3492
        3496
        3500
        3504
        3508
        3512
        3516
        3520
        3524
        3528
        3532
        3536
        3540
        3544
        3548
        3552
        3556
        3560
        3564
        3568
        3572
        3576
        3580
        3584
        3588
        3592
        3596
        3600
        3604
        3608
        3612
        3616
        3620
        3624
        3628
        3632
        3636
        3640
        3644
        3648
        3652
        3656
        3660
        3664
        3668
        3672
        3676
        3680
        3684
        3688
        3692
        3696
        3700
        3704
        3708
        3712
        3716
        3720
        3724
        3728
        3732
        3736
        3740
        3744
        3748
        3752
        3756
        3760
        3764
        3768
        3772
        3776
        3780
        3784
        3788
        3792
        3796
        3800
        3804
        3808
        3812
        3816
        3820
        3824
        3828
        3832
        3836
        3840
        3844
        3848
        3852
        3856
        3860
        3864
        3868
        3872
        3876
        3880
        3884
        3888
        3892
        3896
        3900
        3904
        3908
        3912
        3916
        3920
        3924
        3928
        3932
        3936
        3940
        3944
        3948
        3952
        3956
        3960
        3964
        3968
        3972
        3976
        3980
        3984
        3988
        3992
        3996
        4000
        4004
        4008
        4012
        4016
        4020
        4024
        4028
        4032
        4036
        4040
        4044
        4048
        4052
        4056
        4060
        4064
        4068
        4072
        4076
        4080
        4084
        4088
        4092
        4096
 </DataArray>
 <DataArray  type="UInt8"  Name="types"  format="ascii">
 9
 9
 9
 9
 9
 9
 9
 9
 9
 9
 9
 9
 9
 9
 9
 9
 9
 9
 9
 9
 9
 9
 9
 9
 9
 9
 9
 9
 9
 9
 9
 9
 9
 9
 9
 9
 9
 9
 9
 9
 9
 9
 9
 9
 9
 9
 9
 9
 9
 9
 9
 9
 9
 9
 9
 9
 9
 9
 9
 9
 9
 9
 9
 9
 9
 9
 9
 9
 9
 9
 9
 9
 9
 9
 9
 9
 9
 9
 9
 9
 9
 9
 9
 9
 9
 9
 9
 9
 9
 9
 9
 9
 9
 9
 9
 9
 9
 9
 9
 9
 9
 9
 9
 9
 9
 9
 9
 9
 9
 9
 9
 9
 9
 9
 9
 9
 9
 9
 9
 9
 9
 9
 9
 9
 9
 9
 9
 9
 9
 9
 9
 9
 9
 9
 9
 9
 9
 9
 9
 9
 9
 9
 9
 9
 9
 9
 9
 9
 9
 9
 9
 9
 9
 9
 9
 9
 9
 9
 9
 9
 9
 9
 9
 9
 9
 9
 9
 9
 9
 9
 9
 9
 9
 9
 9
 9
 9
 9
 9
 9
 9
 9
 9
 9
 9
 9
 9
 9
 9
 9
 9
 9
 9
 9
 9
 9
 9
 9
 9
 9
 9
 9
 9
 9
 9
 9
 9
 9
 9
 9
 9
 9
 9
 9
 9
 9
 9
 9
 9
 9
 9
 9
 9
 9
 9
 9
 9
 9
 9
 9
 9
 9
 9
 9
 9
 9
 9
 9
 9
 9
 9
 9
 9
 9
 9
 9
 9
 9
 9
 9
 9
 9
 9
 9
 9
 9
 9
 9
 9
 9
 9
 9
 9
 9
 9
 9
 9
 9
 9
 9
 9
 9
 9
 9
 9
 9
 9
 9
 9
 9
 9
 9
 9
 9
 9
 9
 9
 9
 9
 9
 9
 9
 9
 9
 9
 9
 9
 9
 9
 9
 9
 9
 9
 9
 9
 9
 9
 9
 9
 9
 9
 9
 9
 9
 9
 9
 9
 9
 9
 9
 9
 9
 9
 9
 9
 9
 9
 9
 9
 9
 9
 9
 9
 9
 9
 9
 9
 9
 9
 9
 9
 9
 9
 9
 9
 9
 9
 9
 9
 9
 9
 9
 9
 9
 9
 9
 9
 9
 9
 9
 9
 9
 9
 9
 9
 9
 9
 9
 9
 9
 9
 9
 9
 9
 9
 9
 9
 9
 9
 9
 9
 9
 9
 9
 9
 9
 9
 9
 9
 9
 9
 9
 9
 9
 9
 9
 9
 9
 9
 9
 9
 9
 9
 9
 9
 9
 9
 9
 9
 9
 9
 9
 9
 9
 9
 9
 9
 9
 9
 9
 9
 9
 9
 9
 9
 9
 9
 9
 9
 9
 9
 9
 9
 9
 9
 9
 9
 9
 9
 9
 9
 9
 9
 9
 9
 9
 9
 9
 9
 9
 9
 9
 9
 9
 9
 9
 9
 9
 9
 9
 9
 9
 9
 9
 9
 9
 9
 9
 9
 9
 9
 9
 9
 9
 9
 9
 9
 9
 9
 9
 9
 9
 9
 9
 9
 9
 9
 9
 9
 9
 9
 9
 9
 9
 9
 9
 9
 9
 9
 9
 9
 9
 9
 9
 9
 9
 9
 9
 9
 9
 9
 9
 9
 9
 9
 9
 9
 9
 9
 9
 9
 9
 9
 9
 9
 9
 9
 9
 9
 9
 9
 9
 9
 9
 9
 9
 9
 9
 9
 9
 9
 9
 9
 9
 9
 9
 9
 9
 9
 9
 9
 9
 9
 9
 9
 9
 9
 9
 9
 9
 9
 9
 9
 9
 9
 9
 9
 9
 9
 9
 9
 9
 9
 9
 9
 9
 9
 9
 9
 9
 9
 9
 9
 9
 9
 9
 9
 9
 9
 9
 9
 9
 9
 9
 9
 9
 9
 9
 9
 9
 9
 9
 9
 9
 9
 9
 9
 9
 9
 9
 9
 9
 9
 9
 9
 9
 9
 9
 9
 9
 9
 9
 9
 9
 9
 9
 9
 9
 9
 9
 9
 9
 9
 9
 9
 9
 9
 9
 9
 9
 9
 9
 9
 9
 9
 9
 9
 9
 9
 9
 9
 9
 9
 9
 9
 9
 9
 9
 9
 9
 9
 9
 9
 9
 9
 9
 9
 9
 9
 9
 9
 9
 9
 9
 9
 9
 9
 9
 9
 9
 9
 9
 9
 9
 9
 9
 9
 9
 9
 9
 9
 9
 9
 9
 9
 9
 9
 9
 9
 9
 9
 9
 9
 9
 9
 9
 9
 9
 9
 9
 9
 9
 9
 9
 9
 9
 9
 9
 9
 9
 9
 9
 9
 9
 9
 9
 9
 9
 9
 9
 9
 9
 9
 9
 9
 9
 9
 9
 9
 9
 9
 9
 9
 9
 9
 9
 9
 9
 9
 9
 9
 9
 9
 9
 9
 9
 9
 9
 9
 9
 9
 9
 9
 9
 9
 9
 9
 9
 9
 9
 9
 9
 9
 9
 9
 9
 9
 9
 9
 9
 9
 9
 9
 9
 9
 9
 9
 9
 9
 9
 9
 9
 9
 9
 9
 9
 9
 9
 9
 9
 9
 9
 9
 9
 9
 9
 9
 9
 9
 9
 9
 9
 9
 9
 9
 9
 9
 9
 9
 9
 9
 9
 9
 9
 9
 9
 9
 9
 9
 9
 9
 9
 9
 9
 9
 9
 9
 9
 9
 9
 9
 9
 9
 9
 9
 9
 9
 9
 9
 9
 9
 9
 9
 9
 9
 9
 9
 9
 9
 9
 9
 9
 9
 9
 9
 9
 9
 9
 9
 9
 9
 9
 9
 9
 9
 9
 9
 9
 9
 9
 9
 9
 9
 9
 9
 9
 9
 9
 9
 9
 9
 9
 9
 9
 9
 9
 9
 9
 9
 9
 9
 9
 9
 9
 9
 9
 9
 9
 9
 9
 9
 9
 9
 9
 9
 9
 9
 9
 9
 9
 9
 9
 9
 9
 9
 9
 9
 9
 9
 9
 9
 9
 9
 9
 9
 9
 9
 9
 9
 9
 9
 9
 9
 9
 9
 9
 9
 9
 9
 9
 9
 9
 9
 9
 9
 9
 9
 9
 9
 9
 9
 9
 9
 9
 9
 9
 9
 9
 9
 9
 9
 9
 9
 9
 9
 9
 9
 9
 9
 9
 9
 9
 9
 9
 9
 9
 9
 9
 9
 9
 9
 9
 9
 9
 9
 9
 9
 9
 9
 9
 9
 9
 9
 9
 9
 9
 9
 9
 9
 9
 9
 9
 9
 9
 9
 9
 9
 9
 9
 9
 9
 9
 9
 9
 </DataArray>
 </Cells> 
 <PointData>
 <DataArray  type="Float64" Name="disp" NumberOfComponents="3" format="ascii">
   0.0000000000000000        0.0000000000000000        0.0000000000000000     
   6.0959767002469441E-003   3.7905889490335585E-003   0.0000000000000000     
   1.1665952733001599E-002   7.3241544241983729E-003   0.0000000000000000     
   1.6709928098263958E-002   1.0600696425494445E-002   0.0000000000000000     
   2.1227902796034030E-002   1.3620214952921771E-002   0.0000000000000000     
   0.0000000000000000        0.0000000000000000        0.0000000000000000     
   4.8911104947041359E-003   3.0223237050726482E-003   0.0000000000000000     
   9.5735040913302420E-003   6.0608856612434682E-003   0.0000000000000000     
   1.4047180789878320E-002   9.1156858685124582E-003   0.0000000000000000     
   1.8312140590348368E-002   1.2186724326879622E-002   0.0000000000000000     
   0.0000000000000000        0.0000000000000000        0.0000000000000000     
   3.9534992551302885E-003   2.4253064871962004E-003   0.0000000000000000     
   7.9104606708273358E-003   5.0632675962091322E-003   0.0000000000000000     
   1.1870884247091141E-002   7.9138833270387954E-003   0.0000000000000000     
   1.5834769983921707E-002   1.0977153679685190E-002   0.0000000000000000     
   0.0000000000000000        0.0000000000000000        0.0000000000000000     
   3.2831429815254032E-003   1.9995372954042137E-003   0.0000000000000000     
   6.6768224714928784E-003   4.3313002290953639E-003   0.0000000000000000     
   1.0181038469902424E-002   6.9952888010734529E-003   0.0000000000000000     
   1.3795790976754041E-002   9.9915030113384793E-003   0.0000000000000000     
   0.0000000000000000        0.0000000000000000        0.0000000000000000     
   2.8800416738894797E-003   1.7450161296966883E-003   0.0000000000000000     
   5.8725894933268699E-003   3.8649835599021661E-003   0.0000000000000000     
   8.9776434583121699E-003   6.3599022906164326E-003   0.0000000000000000     
   1.2195203568845382E-002   9.2297723218394898E-003   0.0000000000000000     
   2.1227902796034030E-002   1.3620214952921771E-002   0.0000000000000000     
   2.5432765435984318E-002   1.6613327248862393E-002   0.0000000000000000     
   2.9537404627787315E-002   1.9810650555698348E-002   0.0000000000000000     
   3.3541820371443043E-002   2.3212184873429631E-002   0.0000000000000000     
   3.7446012666951474E-002   2.6817930202056254E-002   0.0000000000000000     
   1.8312140590348368E-002   1.2186724326879622E-002   0.0000000000000000     
   2.2406592292077625E-002   1.5342365758696011E-002   0.0000000000000000     
   2.6368744694403329E-002   1.8650974886312691E-002   0.0000000000000000     
   3.0198597797325494E-002   2.2112551709729648E-002   0.0000000000000000     
   3.3896151600844103E-002   2.5727096228946898E-002   0.0000000000000000     
   1.5834769983921707E-002   1.0977153679685190E-002   0.0000000000000000     
   1.9730331816062655E-002   1.4211909454032013E-002   0.0000000000000000     
   2.3485783678257630E-002   1.7576981449962968E-002   0.0000000000000000     
   2.7101125570506625E-002   2.1072369667478056E-002   0.0000000000000000     
   3.0576357492809642E-002   2.4698074106577272E-002   0.0000000000000000     
   1.3795790976754041E-002   9.9915030113384793E-003   0.0000000000000000     
   1.7403984007939414E-002   1.3221958334870405E-002   0.0000000000000000     
   2.0888521579350210E-002   1.6588670246649201E-002   0.0000000000000000     
   2.4249403690986441E-002   2.0091638746674852E-002   0.0000000000000000     
   2.7486630342848106E-002   2.3730863834947373E-002   0.0000000000000000     
   1.2195203568845382E-002   9.2297723218394898E-003   0.0000000000000000     
   1.5427548867707887E-002   1.2372512401211185E-002   0.0000000000000000     
   1.8576958397681070E-002   1.5686041276371368E-002   0.0000000000000000     
   2.1643432158764939E-002   1.9170358947320044E-002   0.0000000000000000     
   2.4626970150959479E-002   2.2825465414057208E-002   0.0000000000000000     
   3.7446012666951474E-002   2.6817930202056254E-002   0.0000000000000000     
   4.1254103126504772E-002   3.0623143395125032E-002   0.0000000000000000     
   4.4970213362295078E-002   3.4623081306182794E-002   0.0000000000000000     
   4.8594343374322377E-002   3.8817743935229548E-002   0.0000000000000000     
   5.2126493162586683E-002   4.3207131282265283E-002   0.0000000000000000     
   3.3896151600844103E-002   2.5727096228946898E-002   0.0000000000000000     
   3.7484418344145197E-002   2.9523389665024911E-002   0.0000000000000000     
   4.0986410266414808E-002   3.3530213239024179E-002   0.0000000000000000     
   4.4402127367652949E-002   3.7747566950944680E-002   0.0000000000000000     
   4.7731569647859608E-002   4.2175450800786447E-002   0.0000000000000000     
   3.0576357492809642E-002   2.4698074106577272E-002   0.0000000000000000     
   3.3940800064552495E-002   2.8498632578831021E-002   0.0000000000000000     
   3.7223773905120994E-002   3.2518582895809722E-002   0.0000000000000000     
   4.0425279014515141E-002   3.6757925057513359E-002   0.0000000000000000     
   4.3545315392734929E-002   4.1216659063941945E-002   0.0000000000000000     
   2.7486630342848106E-002   2.3730863834947373E-002   0.0000000000000000     
   3.0623248287726671E-002   2.7548872136543365E-002   0.0000000000000000     
   3.3682304278413622E-002   3.1588190276539432E-002   0.0000000000000000     
   3.6663798314908951E-002   3.5848818254935577E-002   0.0000000000000000     
   3.9567730397212647E-002   4.0330756071731803E-002   0.0000000000000000     
   2.4626970150959479E-002   2.2825465414057208E-002   0.0000000000000000     
   2.7531763013667727E-002   2.6674108338161941E-002   0.0000000000000000     
   3.0362001386292688E-002   3.0739035381213319E-002   0.0000000000000000     
   3.3117685268834379E-002   3.5020246543211342E-002   0.0000000000000000     
   3.5798814661292783E-002   3.9517741824156016E-002   0.0000000000000000     
   5.2126493162586683E-002   4.3207131282265283E-002   0.0000000000000000     
   5.5564659745026286E-002   4.7795655865797183E-002   0.0000000000000000     
   5.8906840139579489E-002   5.2587730204332432E-002   0.0000000000000000     
   6.2153034346246284E-002   5.7583354297871016E-002   0.0000000000000000     
   6.5303242365026673E-002   6.2782528146412955E-002   0.0000000000000000     
   4.7731569647859608E-002   4.2175450800786447E-002   0.0000000000000000     
   5.0970826548240547E-002   4.6807132287033620E-002   0.0000000000000000     
   5.4115987510001559E-002   5.1635878908170403E-002   0.0000000000000000     
   5.7167052533142616E-002   5.6661690664196782E-002   0.0000000000000000     
   6.0124021617663739E-002   6.1884567555112763E-002   0.0000000000000000     
   4.3545315392734929E-002   4.1216659063941945E-002   0.0000000000000000     
   4.6579641427400564E-002   4.5881987134391490E-002   0.0000000000000000     
   4.9524015506132217E-002   5.0741111488157985E-002   0.0000000000000000     
   5.2378437628929908E-002   5.5794032125241443E-002   0.0000000000000000     
   5.5142907795793630E-002   6.1040749045641871E-002   0.0000000000000000     
   3.9567730397212647E-002   4.0330756071731803E-002   0.0000000000000000     
   4.2391104382506310E-002   4.5020220407870792E-002   0.0000000000000000     
   4.5130924127971470E-002   4.9903427944295184E-002   0.0000000000000000     
   4.7787189633608139E-002   5.4980378681005013E-002   0.0000000000000000     
   5.0359900899416325E-002   6.0251072618000272E-002   0.0000000000000000     
   3.5798814661292783E-002   3.9517741824156016E-002   0.0000000000000000     
   3.8405215413557792E-002   4.4221832107471507E-002   0.0000000000000000     
   4.0936713375519317E-002   4.9122828276582001E-002   0.0000000000000000     
   4.3393308547177337E-002   5.4220730331487485E-002   0.0000000000000000     
   4.5775000928531852E-002   5.9515538272187987E-002   0.0000000000000000     
   6.5303242365026673E-002   6.2782528146412955E-002   0.0000000000000000     
   6.8359768885497940E-002   6.8172393674961418E-002   0.0000000000000000     
   7.1324918597237344E-002   7.3740092808519564E-002   0.0000000000000000     
   7.4198691500244884E-002   7.9485625547087407E-002   0.0000000000000000     
   7.6981087594520548E-002   8.5408991890664948E-002   0.0000000000000000     
   6.0124021617663739E-002   6.1884567555112763E-002   0.0000000000000000     
   6.2990791891469583E-002   6.7296306298305325E-002   0.0000000000000000     
   6.5771260482464761E-002   7.2888703611161482E-002   0.0000000000000000     
   6.8465427390649300E-002   7.8661759493681219E-002   0.0000000000000000     
   7.1073292616023187E-002   8.4615473945864522E-002   0.0000000000000000     
   5.5142907795793630E-002   6.1040749045641871E-002   0.0000000000000000     
   5.7821692867792068E-002   6.6475492790609519E-002   0.0000000000000000     
   6.0419059705993892E-002   7.2092493901394716E-002   0.0000000000000000     
   6.2935008310399138E-002   7.7891752377997406E-002   0.0000000000000000     
   6.5369538681007769E-002   8.3873268220417602E-002   0.0000000000000000     
   5.0359900899416325E-002   6.0251072618000272E-002   0.0000000000000000     
   5.2852471814465410E-002   6.5709953151874001E-002   0.0000000000000000     
   5.5268316267824760E-002   7.1351463679219226E-002   0.0000000000000000     
   5.7607434259494383E-002   7.7175604200035969E-002   0.0000000000000000     
   5.9869825789474279E-002   8.3182374714324214E-002   0.0000000000000000     
   4.5775000928531852E-002   5.9515538272187987E-002   0.0000000000000000     
   4.8083128731489601E-002   6.4999687382098742E-002   0.0000000000000000     
   5.0319030167957343E-002   7.0665612944635053E-002   0.0000000000000000     
   5.2482705237935044E-002   7.6513314959796908E-002   0.0000000000000000     
   5.4574153941422732E-002   8.2542793427584304E-002   0.0000000000000000     
   7.6981087594520548E-002   8.5408991890664948E-002   0.0000000000000000     
   7.9665564164756814E-002   9.1500695154082629E-002   0.0000000000000000     
   8.2245578495646066E-002   9.7751238652170863E-002   0.0000000000000000     
   8.4721130587188387E-002  0.10416062238492969        0.0000000000000000     
   8.7092220439383694E-002  0.11072884635235908        0.0000000000000000     
   7.1073292616023187E-002   8.4615473945864522E-002   0.0000000000000000     
   7.3588987445617426E-002   9.0738141550524787E-002   0.0000000000000000     
   7.6006643166463023E-002   9.7018056890475421E-002   0.0000000000000000     
   7.8326259778559920E-002  0.10345521996571638        0.0000000000000000     
   8.0547837281908161E-002  0.11004963077624770        0.0000000000000000     
   6.5369538681007769E-002   8.3873268220417602E-002   0.0000000000000000     
   6.7717597190662698E-002   9.0024034289828914E-002   0.0000000000000000     
   6.9974130212206845E-002   9.6331043447404896E-002   0.0000000000000000     
   7.2139137745640181E-002  0.10279429569314551        0.0000000000000000     
   7.4212619790962719E-002  0.10941379102705079        0.0000000000000000     
   5.9869825789474279E-002   8.3182374714324214E-002   0.0000000000000000     
   6.2051393399892629E-002   8.9358373371994967E-002   0.0000000000000000     
   6.4148039632877574E-002   9.5690198322959233E-002   0.0000000000000000     
   6.6159764488429154E-002  0.10217784956721704        0.0000000000000000     
   6.8086567966547371E-002  0.10882132710476838        0.0000000000000000     
   5.4574153941422732E-002   8.2542793427584304E-002   0.0000000000000000     
   5.6590376073307191E-002   8.8741158797022948E-002   0.0000000000000000     
   5.8528371428475237E-002   9.5095521517138501E-002   0.0000000000000000     
   6.0388140006926855E-002  0.10160588158793098        0.0000000000000000     
   6.2169681808662072E-002  0.10827223900940040        0.0000000000000000     
   8.7092220439383694E-002  0.11072884635235908        0.0000000000000000     
   8.9371474116745148E-002  0.11744331714477486        0.0000000000000000     
   9.1571517683785880E-002  0.12429144135249280        0.0000000000000000     
   9.3692351140505878E-002  0.13127321897551289        0.0000000000000000     
   9.5733974486905127E-002  0.13838865001383521        0.0000000000000000     
   8.0547837281908161E-002  0.11004963077624770        0.0000000000000000     
   8.2681677609975898E-002  0.11679007533184130        0.0000000000000000     
   8.4738082696231273E-002  0.12366533964226906        0.0000000000000000     
   8.6717052540674272E-002  0.13067542370753105        0.0000000000000000     
   8.8618587143304894E-002  0.13782032752762718        0.0000000000000000     
   7.4212619790962719E-002  0.10941379102705079        0.0000000000000000     
   7.6203255676014936E-002  0.11617924061404176        0.0000000000000000     
   7.8119724728637277E-002  0.12308035561903942        0.0000000000000000     
   7.9962026948829742E-002  0.13011713604204372        0.0000000000000000     
   8.1730162336592319E-002  0.13728958188305479        0.0000000000000000     
   6.8086567966547371E-002  0.10882132710476838        0.0000000000000000     
   6.9936208314862247E-002  0.11561081299137628        0.0000000000000000     
   7.1716443781003864E-002  0.12253648928280386        0.0000000000000000     
   7.3427274364972275E-002  0.12959835597905109        0.0000000000000000     
   7.5068700066767399E-002  0.13679641308011800        0.0000000000000000     
   6.2169681808662072E-002  0.10827223900940040        0.0000000000000000     
   6.3880535526517832E-002  0.11508479246384484        0.0000000000000000     
   6.5528239853331088E-002  0.12203374063356240        0.0000000000000000     
   6.7112794789101829E-002  0.12911908351855306        0.0000000000000000     
   6.8634200333830095E-002  0.13634082111881685        0.0000000000000000     
   9.5733974486905127E-002  0.13838865001383521        0.0000000000000000     
   9.7680935106000732E-002  0.14562618788311024        0.0000000000000000     
   9.9517780380809759E-002  0.15297428599898860        0.0000000000000000     
  0.10124451031133223       0.16043294436147029        0.0000000000000000     
  0.10286112489756812       0.16800216297055529        0.0000000000000000     
   8.8618587143304894E-002  0.13782032752762718        0.0000000000000000     
   9.0428929187689494E-002  0.14508662370899703        0.0000000000000000     
   9.2134321357394341E-002  0.15246088485808001        0.0000000000000000     
   9.3734763652419451E-002  0.15994311097487621        0.0000000000000000     
   9.5230256072764821E-002  0.16753330205938552        0.0000000000000000     
   8.1730162336592319E-002  0.13728958188305479        0.0000000000000000     
   8.3411613912126564E-002  0.14458300176789629        0.0000000000000000     
   8.4993864695633969E-002  0.15198270432239216        0.0000000000000000     
   8.6476914687114534E-002  0.15948868954654233        0.0000000000000000     
   8.7860763886568272E-002  0.16710095744034684        0.0000000000000000     
   7.5068700066767399E-002  0.13679641308011800        0.0000000000000000     
   7.6628989279311971E-002  0.14411532205980815        0.0000000000000000     
   7.8096410395528656E-002  0.15153974439192508        0.0000000000000000     
   7.9470963415417498E-002  0.15906968007646879        0.0000000000000000     
   8.0752648338978480E-002  0.16670512911343929        0.0000000000000000     
   6.8634200333830095E-002  0.13634082111881685        0.0000000000000000     
   7.0081055289245686E-002  0.14368358458473249        0.0000000000000000     
   7.1441958457078444E-002  0.15113200506667868        0.0000000000000000     
   7.2716909837328356E-002  0.15868608256465544        0.0000000000000000     
   7.3905909429995448E-002  0.16634581707866281        0.0000000000000000     
   0.0000000000000000        0.0000000000000000        0.0000000000000000     
   2.8800416738894797E-003   1.7450161296966883E-003   0.0000000000000000     
   5.8725894933268699E-003   3.8649835599021661E-003   0.0000000000000000     
   8.9776434583121699E-003   6.3599022906164326E-003   0.0000000000000000     
   1.2195203568845382E-002   9.2297723218394898E-003   0.0000000000000000     
   0.0000000000000000        0.0000000000000000        0.0000000000000000     
   2.6103344468162972E-003   1.5890851115756531E-003   0.0000000000000000     
   5.2897509033863234E-003   3.5570063309601145E-003   0.0000000000000000     
   8.0382493697100793E-003   5.9037636581533836E-003   0.0000000000000000     
   1.0855829845787566E-002   8.6293570931554615E-003   0.0000000000000000     
   0.0000000000000000        0.0000000000000000        0.0000000000000000     
   2.3401604148996355E-003   1.4590863625431369E-003   0.0000000000000000     
   4.7202958687282536E-003   3.3000572845997898E-003   0.0000000000000000     
   7.1404063614858536E-003   5.5229127661699570E-003   0.0000000000000000     
   9.6004918931724380E-003   8.1276528072536432E-003   0.0000000000000000     
   0.0000000000000000        0.0000000000000000        0.0000000000000000     
   2.0695195781394952E-003   1.3550198825991392E-003   0.0000000000000000     
   4.1642243893526597E-003   3.0941364208211908E-003   0.0000000000000000     
   6.2841144336394953E-003   5.2173496146661561E-003   0.0000000000000000     
   8.4291897110000003E-003   7.7246594641340325E-003   0.0000000000000000     
   0.0000000000000000        0.0000000000000000        0.0000000000000000     
   1.7984119365358760E-003   1.2768856717436604E-003   0.0000000000000000     
   3.6215364652595426E-003   2.9392437396243186E-003   0.0000000000000000     
   5.4693735861710002E-003   4.9870742036419750E-003   0.0000000000000000     
   7.3419232992702503E-003   7.4203770637966283E-003   0.0000000000000000     
   1.2195203568845382E-002   9.2297723218394898E-003   0.0000000000000000     
   1.5427548867707887E-002   1.2372512401211185E-002   0.0000000000000000     
   1.8576958397681070E-002   1.5686041276371368E-002   0.0000000000000000     
   2.1643432158764939E-002   1.9170358947320044E-002   0.0000000000000000     
   2.4626970150959479E-002   2.2825465414057208E-002   0.0000000000000000     
   1.0855829845787566E-002   8.6293570931554615E-003   0.0000000000000000     
   1.3689189849438933E-002   1.1651505547684578E-002   0.0000000000000000     
   1.6485026898484335E-002   1.4887927933458965E-002   0.0000000000000000     
   1.9243340992923776E-002   1.8338624250478618E-002   0.0000000000000000     
   2.1964132132757247E-002   2.2003594498743544E-002   0.0000000000000000     
   9.6004918931724380E-003   8.1276528072536432E-003   0.0000000000000000     
   1.2077070407203397E-002   1.1046871668920820E-002   0.0000000000000000     
   1.4546659846994126E-002   1.4213163612241462E-002   0.0000000000000000     
   1.7009260212544623E-002   1.7626528637215574E-002   0.0000000000000000     
   1.9464871503854887E-002   2.1286966743843151E-002   0.0000000000000000     
   8.4291897110000003E-003   7.7246594641340325E-003   0.0000000000000000     
   1.0591190541001279E-002   1.0558610764919906E-002   0.0000000000000000     
   1.2761857243210436E-002   1.3661748312718864E-002   0.0000000000000000     
   1.4941189817627475E-002   1.7034072107530905E-002   0.0000000000000000     
   1.7129188264252394E-002   2.0675582149356029E-002   0.0000000000000000     
   7.3419232992702503E-003   7.4203770637966283E-003   0.0000000000000000     
   9.2315502508325768E-003   1.0186722835681838E-002   0.0000000000000000     
   1.1130619087133278E-002   1.3233682034891170E-002   0.0000000000000000     
   1.3039129808172342E-002   1.6561254661424617E-002   0.0000000000000000     
   1.4957082413949776E-002   2.0169440715282181E-002   0.0000000000000000     
   2.4626970150959479E-002   2.2825465414057208E-002   0.0000000000000000     
   2.7531763013667727E-002   2.6674108338161941E-002   0.0000000000000000     
   3.0362001386292688E-002   3.0739035381213319E-002   0.0000000000000000     
   3.3117685268834379E-002   3.5020246543211342E-002   0.0000000000000000     
   3.5798814661292783E-002   3.9517741824156016E-002   0.0000000000000000     
   2.1964132132757247E-002   2.2003594498743544E-002   0.0000000000000000     
   2.4630884406941788E-002   2.5880881941905756E-002   0.0000000000000000     
   2.7227081904434423E-002   2.9968529843617288E-002   0.0000000000000000     
   2.9752724625235150E-002   3.4266538203878122E-002   0.0000000000000000     
   3.2207812569343977E-002   3.8774907022688272E-002   0.0000000000000000     
   1.9464871503854887E-002   2.1286966743843151E-002   0.0000000000000000     
   2.1885152632115004E-002   2.5175733705993832E-002   0.0000000000000000     
   2.4241762508515039E-002   2.9274085297537240E-002   0.0000000000000000     
   2.6534701133055009E-002   3.3582021518473386E-002   0.0000000000000000     
   2.8763968505734899E-002   3.8099542368802253E-002   0.0000000000000000     
   1.7129188264252394E-002   2.0675582149356029E-002   0.0000000000000000     
   1.9294567689187365E-002   2.4558663630426154E-002   0.0000000000000000     
   2.1406043198534550E-002   2.8655701742973185E-002   0.0000000000000000     
   2.3463614792293946E-002   3.2966696486997127E-002   0.0000000000000000     
   2.5467282470465560E-002   3.7491647862497986E-002   0.0000000000000000     
   1.4957082413949776E-002   2.0169440715282181E-002   0.0000000000000000     
   1.6859129578158875E-002   2.4029671715202726E-002   0.0000000000000000     
   1.8719923974492941E-002   2.8113379179925121E-002   0.0000000000000000     
   2.0539465602951969E-002   3.2420563109449359E-002   0.0000000000000000     
   2.2317754463535958E-002   3.6951223503775450E-002   0.0000000000000000     
   3.5798814661292783E-002   3.9517741824156016E-002   0.0000000000000000     
   3.8405215413557792E-002   4.4221832107471507E-002   0.0000000000000000     
   4.0936713375519317E-002   4.9122828276582001E-002   0.0000000000000000     
   4.3393308547177337E-002   5.4220730331487485E-002   0.0000000000000000     
   4.5775000928531852E-002   5.9515538272187987E-002   0.0000000000000000     
   3.2207812569343977E-002   3.8774907022688272E-002   0.0000000000000000     
   3.4594729138695803E-002   4.3488980863250801E-002   0.0000000000000000     
   3.6915857735225564E-002   4.8404104288768804E-002   0.0000000000000000     
   3.9171198358933242E-002   5.3520277299242275E-002   0.0000000000000000     
   4.1360751009818848E-002   5.8837499894671207E-002   0.0000000000000000     
   2.8763968505734899E-002   3.8099542368802253E-002   0.0000000000000000     
   3.0932400176061112E-002   4.2823825305265809E-002   0.0000000000000000     
   3.3042831693540026E-002   4.7752047784605976E-002   0.0000000000000000     
   3.5095263058171663E-002   5.2884209806822770E-002   0.0000000000000000     
   3.7089694269955988E-002   5.8220311371916161E-002   0.0000000000000000     
   2.5467282470465560E-002   3.7491647862497986E-002   0.0000000000000000     
   2.7418228525653714E-002   4.2226365433516530E-002   0.0000000000000000     
   2.9317635250462715E-002   4.7166658764093525E-002   0.0000000000000000     
   3.1165502644892568E-002   5.2312527854228977E-002   0.0000000000000000     
   3.2961830708943270E-002   5.7663972703922886E-002   0.0000000000000000     
   2.2317754463535958E-002   3.6951223503775450E-002   0.0000000000000000     
   2.4052214187473608E-002   4.1696601248002951E-002   0.0000000000000000     
   2.5740268405993617E-002   4.6647937227231435E-002   0.0000000000000000     
   2.7381917119095985E-002   5.1805231441460889E-002   0.0000000000000000     
   2.8977160326780708E-002   5.7168483890691332E-002   0.0000000000000000     
   4.5775000928531852E-002   5.9515538272187987E-002   0.0000000000000000     
   4.8083128731489601E-002   6.4999687382098742E-002   0.0000000000000000     
   5.0319030167957343E-002   7.0665612944635053E-002   0.0000000000000000     
   5.2482705237935044E-002   7.6513314959796908E-002   0.0000000000000000     
   5.4574153941422732E-002   8.2542793427584304E-002   0.0000000000000000     
   4.1360751009818848E-002   5.8837499894671207E-002   0.0000000000000000     
   4.3483682997337188E-002   6.4345591788277270E-002   0.0000000000000000     
   4.5539161630943098E-002   7.0034372693282165E-002   0.0000000000000000     
   4.7527186910636558E-002   7.5903842609685884E-002   0.0000000000000000     
   4.9447758836417582E-002   8.1954001537488400E-002   0.0000000000000000     
   3.7089694269955988E-002   5.8220311371916161E-002   0.0000000000000000     
   3.9024153990480710E-002   6.3748562677403128E-002   0.0000000000000000     
   4.0896670881333495E-002   6.9457173920800586E-002   0.0000000000000000     
   4.2707244942514364E-002   7.5346145102108519E-002   0.0000000000000000     
   4.4455876174023301E-002   8.1415476221326957E-002   0.0000000000000000     
   3.2961830708943270E-002   5.7663972703922886E-002   0.0000000000000000     
   3.4704541710920168E-002   6.3208600049476302E-002   0.0000000000000000     
   3.6391557919128563E-002   6.8934016627190300E-002   0.0000000000000000     
   3.8022879333568467E-002   7.4840222437064827E-002   0.0000000000000000     
   3.9598505954239888E-002   8.0927217479099964E-002   0.0000000000000000     
   2.8977160326780708E-002   5.7168483890691332E-002   0.0000000000000000     
   3.0524846158655548E-002   6.2725703904496777E-002   0.0000000000000000     
   3.2023822744328266E-002   6.8464900812451282E-002   0.0000000000000000     
   3.3474090083798869E-002   7.4386074614554848E-002   0.0000000000000000     
   3.4875648177067349E-002   8.0489225310807447E-002   0.0000000000000000     
   5.4574153941422732E-002   8.2542793427584304E-002   0.0000000000000000     
   5.6590376073307191E-002   8.8741158797022948E-002   0.0000000000000000     
   5.8528371428475237E-002   9.5095521517138501E-002   0.0000000000000000     
   6.0388140006926855E-002  0.10160588158793098        0.0000000000000000     
   6.2169681808662072E-002  0.10827223900940040        0.0000000000000000     
   4.9447758836417582E-002   8.1954001537488400E-002   0.0000000000000000     
   5.1298793280446071E-002   8.8172700704117896E-002   0.0000000000000000     
   5.3078206114881968E-002   9.4547791337002474E-002   0.0000000000000000     
   5.4785997339725279E-002  0.10107927343614220        0.0000000000000000     
   5.6422166954975983E-002  0.10776714700153700        0.0000000000000000     
   4.4455876174023301E-002   8.1415476221326957E-002   0.0000000000000000     
   4.6140893090848949E-002   8.7653309232484780E-002   0.0000000000000000     
   4.7760624207979982E-002   9.4047786089610952E-002   0.0000000000000000     
   4.9315069525416394E-002  0.10059890679270543        0.0000000000000000     
   5.0804229043158192E-002  0.10730667134176826        0.0000000000000000     
   3.9598505954239888E-002   8.0927217479099964E-002   0.0000000000000000     
   4.1116675504515816E-002   8.7182984382123671E-002   0.0000000000000000     
   4.2575625707769266E-002   9.3595505774963908E-002   0.0000000000000000     
   4.3975356564000236E-002  0.10016478165762074        0.0000000000000000     
   4.5315868073208719E-002  0.10689081203009414        0.0000000000000000     
   3.4875648177067349E-002   8.0489225310807447E-002   0.0000000000000000     
   3.6226140521446681E-002   8.6761726153034513E-002   0.0000000000000000     
   3.7523210614249819E-002   9.3190950393061384E-002   0.0000000000000000     
   3.8766858455476789E-002   9.9776898030888114E-002   0.0000000000000000     
   3.9957084045127558E-002  0.10651956906651465        0.0000000000000000     
   6.2169681808662072E-002  0.10827223900940040        0.0000000000000000     
   6.3880535526517832E-002  0.11508479246384484        0.0000000000000000     
   6.5528239853331088E-002  0.12203374063356240        0.0000000000000000     
   6.7112794789101829E-002  0.12911908351855306        0.0000000000000000     
   6.8634200333830095E-002  0.13634082111881685        0.0000000000000000     
   5.6422166954975983E-002  0.10776714700153700        0.0000000000000000     
   5.7994212960718029E-002  0.11460146276556284        0.0000000000000000     
   5.9509633357035407E-002  0.12157227146059554        0.0000000000000000     
   6.0968428143928083E-002  0.12867957308663514        0.0000000000000000     
   6.2370597321396062E-002  0.13592336764368160        0.0000000000000000     
   5.0804229043158192E-002  0.10730667134176826        0.0000000000000000     
   5.2235216267199229E-002  0.11416110763064563        0.0000000000000000     
   5.3615144703533346E-002  0.12115224355318380        0.0000000000000000     
   5.4944014352160571E-002  0.12828007910938274        0.0000000000000000     
   5.6221825213080896E-002  0.13554461429924250        0.0000000000000000     
   4.5315868073208719E-002  0.10689081203009414        0.0000000000000000     
   4.6603545445961403E-002  0.11376372705909323        0.0000000000000000     
   4.7844773892824939E-002  0.12077365691132715        0.0000000000000000     
   4.9039553413799328E-002  0.12792060158679591        0.0000000000000000     
   5.0187884008884596E-002  0.13520456108549953        0.0000000000000000     
   3.9957084045127558E-002  0.10651956906651465        0.0000000000000000     
   4.1099200497004544E-002  0.11340932105090562        0.0000000000000000     
   4.2198520924910138E-002  0.12043651153502562        0.0000000000000000     
   4.3255045328844346E-002  0.12760114051887464        0.0000000000000000     
   4.4268773708807163E-002  0.13490320800245270        0.0000000000000000     
   6.8634200333830095E-002  0.13634082111881685        0.0000000000000000     
   7.0081055289245686E-002  0.14368358458473249        0.0000000000000000     
   7.1441958457078444E-002  0.15113200506667868        0.0000000000000000     
   7.2716909837328356E-002  0.15868608256465544        0.0000000000000000     
   7.3905909429995448E-002  0.16634581707866281        0.0000000000000000     
   6.2370597321396062E-002  0.13592336764368160        0.0000000000000000     
   6.3704869000571721E-002  0.14328850464097376        0.0000000000000000     
   6.4959971292587446E-002  0.15075983358775047        0.0000000000000000     
   6.6135904197443238E-002  0.15833735448401171        0.0000000000000000     
   6.7232667715139069E-002  0.16602106732975747        0.0000000000000000     
   5.6221825213080896E-002  0.13554461429924250        0.0000000000000000     
   5.7437487471934071E-002  0.14293079752683635        0.0000000000000000     
   5.8579911314359863E-002  0.15042357719623783        0.0000000000000000     
   5.9649096740358259E-002  0.15802295330744678        0.0000000000000000     
   6.0645043749929274E-002  0.16572892586046326        0.0000000000000000     
   5.0187884008884596E-002  0.13520456108549953        0.0000000000000000     
   5.1278910703332695E-002  0.14261046324232032        0.0000000000000000     
   5.2301778522395648E-002  0.15012323589214074        0.0000000000000000     
   5.3256487466073435E-002  0.15774287903496068        0.0000000000000000     
   5.4143037534366063E-002  0.16546939267078026        0.0000000000000000     
   4.4268773708807163E-002  0.13490320800245270        0.0000000000000000     
   4.5229138694767634E-002  0.14232750178742562        0.0000000000000000     
   4.6125572916694849E-002  0.14985880967545920        0.0000000000000000     
   4.6958076374588771E-002  0.15749713166655346        0.0000000000000000     
   4.7726649068449430E-002  0.16524246776070839        0.0000000000000000     
   0.0000000000000000        0.0000000000000000        0.0000000000000000     
   1.7984119365358760E-003   1.2768856717436604E-003   0.0000000000000000     
   3.6215364652595426E-003   2.9392437396243186E-003   0.0000000000000000     
   5.4693735861710002E-003   4.9870742036419750E-003   0.0000000000000000     
   7.3419232992702503E-003   7.4203770637966283E-003   0.0000000000000000     
   0.0000000000000000        0.0000000000000000        0.0000000000000000     
   1.5351153175213491E-003   1.2175696842805391E-003   0.0000000000000000     
   3.0995886482019243E-003   2.8208721350872971E-003   0.0000000000000000     
   4.6934199920417256E-003   4.8099073524202748E-003   0.0000000000000000     
   6.3166093490407520E-003   7.1846753362794710E-003   0.0000000000000000     
   0.0000000000000000        0.0000000000000000        0.0000000000000000     
   1.2879075485284857E-003   1.1699578745136144E-003   0.0000000000000000     
   2.6057374899328268E-003   2.7245145012882522E-003   0.0000000000000000     
   3.9534898242130226E-003   4.6636698803239124E-003   0.0000000000000000     
   5.3311645513690730E-003   6.9874240116205950E-003   0.0000000000000000     
   0.0000000000000000        0.0000000000000000        0.0000000000000000     
   1.0567886295572860E-003   1.1340502424428856E-003   0.0000000000000000     
   2.1399829904522501E-003   2.6501708382271815E-003   0.0000000000000000     
   3.2495830826848918E-003   4.5483617873528876E-003   0.0000000000000000     
   4.3855889062552108E-003   6.8286230898200028E-003   0.0000000000000000     
   0.0000000000000000        0.0000000000000000        0.0000000000000000     
   8.4175856060774985E-004   1.1098467880683537E-003   0.0000000000000000     
   1.7023251497601940E-003   2.5978411459040875E-003   0.0000000000000000     
   2.5816997674573327E-003   4.4639830735072007E-003   0.0000000000000000     
   3.4798824136991662E-003   6.7082725708776936E-003   0.0000000000000000     
   7.3419232992702503E-003   7.4203770637966283E-003   0.0000000000000000     
   9.2315502508325768E-003   1.0186722835681838E-002   0.0000000000000000     
   1.1130619087133278E-002   1.3233682034891170E-002   0.0000000000000000     
   1.3039129808172342E-002   1.6561254661424617E-002   0.0000000000000000     
   1.4957082413949776E-002   2.0169440715282181E-002   0.0000000000000000     
   6.3166093490407520E-003   7.1846753362794710E-003   0.0000000000000000     
   7.9564773731129364E-003   9.8956120132446552E-003   0.0000000000000000     
   9.6003447181721990E-003   1.2893153309895603E-002   0.0000000000000000     
   1.1248211384218549E-002   1.6177299226232310E-002   0.0000000000000000     
   1.2900077371251980E-002   1.9748049762254784E-002   0.0000000000000000     
   5.3311645513690730E-003   6.9874240116205950E-003   0.0000000000000000     
   6.7242997442579881E-003   9.6496824296463928E-003   0.0000000000000000     
   8.1184334757367742E-003   1.2604350668869398E-002   0.0000000000000000     
   9.5135657458054312E-003   1.5851428729289605E-002   0.0000000000000000     
   1.0909696554463959E-002   1.9390916610907017E-002   0.0000000000000000     
   4.3855889062552108E-003   6.8286230898200028E-003   0.0000000000000000     
   5.5350173642677372E-003   9.4489340848870496E-003   0.0000000000000000     
   6.6848853598269970E-003   1.2367274111812548E-002   0.0000000000000000     
   7.8351928929329909E-003   1.5583643170596491E-002   0.0000000000000000     
   8.9859399635857217E-003   1.9098041261238888E-002   0.0000000000000000     
   3.4798824136991662E-003   6.7082725708776936E-003   0.0000000000000000     
   4.3886302331421819E-003   9.2933669789666256E-003   0.0000000000000000     
   5.2997003704428692E-003   1.2181923638725053E-002   0.0000000000000000     
   6.2130928256012288E-003   1.5373942550152975E-002   0.0000000000000000     
   7.1288075986172591E-003   1.8869423713250396E-002   0.0000000000000000     
   1.4957082413949776E-002   2.0169440715282181E-002   0.0000000000000000     
   1.6859129578158875E-002   2.4029671715202726E-002   0.0000000000000000     
   1.8719923974492941E-002   2.8113379179925121E-002   0.0000000000000000     
   2.0539465602951969E-002   3.2420563109449359E-002   0.0000000000000000     
   2.2317754463535958E-002   3.6951223503775450E-002   0.0000000000000000     
   1.2900077371251980E-002   1.9748049762254784E-002   0.0000000000000000     
   1.4539552083562737E-002   2.3579257853384477E-002   0.0000000000000000     
   1.6150244925441058E-002   2.7644776435042866E-002   0.0000000000000000     
   1.7732155896886957E-002   3.1944605507229953E-002   0.0000000000000000     
   1.9285284997900422E-002   3.6478745069945723E-002   0.0000000000000000     
   1.0909696554463959E-002   1.9390916610907017E-002   0.0000000000000000     
   1.2296548989932144E-002   2.3197921938032339E-002   0.0000000000000000     
   1.3663846140429758E-002   2.7247552334976249E-002   0.0000000000000000     
   1.5011588005956806E-002   3.1539807801738755E-002   0.0000000000000000     
   1.6339774586513287E-002   3.6074688338319866E-002   0.0000000000000000     
   8.9859399635857217E-003   1.9098041261238888E-002   0.0000000000000000     
   1.0130120297267096E-002   2.2885663969146295E-002   0.0000000000000000     
   1.1260727619459026E-002   2.6921706879725258E-002   0.0000000000000000     
   1.2377761930161515E-002   3.1206169992975780E-002   0.0000000000000000     
   1.3481223229374558E-002   3.5739053308897872E-002   0.0000000000000000     
   7.1288075986172591E-003   1.8869423713250396E-002   0.0000000000000000     
   8.0402660055675958E-003   2.2642483946726352E-002   0.0000000000000000     
   8.9408893625288685E-003   2.6667240069289899E-002   0.0000000000000000     
   9.8306776695010808E-003   3.0943692080941030E-002   0.0000000000000000     
   1.0709630926484231E-002   3.5471839981679749E-002   0.0000000000000000     
   2.2317754463535958E-002   3.6951223503775450E-002   0.0000000000000000     
   2.4052214187473608E-002   4.1696601248002951E-002   0.0000000000000000     
   2.5740268405993617E-002   4.6647937227231435E-002   0.0000000000000000     
   2.7381917119095985E-002   5.1805231441460889E-002   0.0000000000000000     
   2.8977160326780708E-002   5.7168483890691332E-002   0.0000000000000000     
   1.9285284997900422E-002   3.6478745069945723E-002   0.0000000000000000     
   2.0803249453292524E-002   4.1233091211971905E-002   0.0000000000000000     
   2.2279666487874338E-002   4.6193540022090217E-002   0.0000000000000000     
   2.3714536101645856E-002   5.1360091500300666E-002   0.0000000000000000     
   2.5107858294607082E-002   5.6732745646603244E-002   0.0000000000000000     
   1.6339774586513287E-002   3.6074688338319866E-002   0.0000000000000000     
   1.7640226614882182E-002   4.0834393788670188E-002   0.0000000000000000     
   1.8904764823846468E-002   4.5801123996740377E-002   0.0000000000000000     
   2.0133389213406142E-002   5.0974878962530439E-002   0.0000000000000000     
   2.1326099783561207E-002   5.6355658686040352E-002   0.0000000000000000     
   1.3481223229374558E-002   3.5739053308897872E-002   0.0000000000000000     
   1.4563145672242584E-002   4.0500508978097823E-002   0.0000000000000000     
   1.5615563413910011E-002   4.5470689151181923E-002   0.0000000000000000     
   1.6638476454376841E-002   5.0649593828150201E-002   0.0000000000000000     
   1.7631884793643079E-002   5.6037223009002636E-002   0.0000000000000000     
   1.0709630926484231E-002   3.5471839981679749E-002   0.0000000000000000     
   1.1572006625373724E-002   4.0231436780254787E-002   0.0000000000000000     
   1.2412062258064967E-002   4.5202235485414854E-002   0.0000000000000000     
   1.3229797824557958E-002   5.0384236097159966E-002   0.0000000000000000     
   1.4025213324852697E-002   5.5777438615490123E-002   0.0000000000000000     
   2.8977160326780708E-002   5.7168483890691332E-002   0.0000000000000000     
   3.0524846158655548E-002   6.2725703904496777E-002   0.0000000000000000     
   3.2023822744328266E-002   6.8464900812451282E-002   0.0000000000000000     
   3.3474090083798869E-002   7.4386074614554848E-002   0.0000000000000000     
   3.4875648177067349E-002   8.0489225310807447E-002   0.0000000000000000     
   2.5107858294607082E-002   5.6732745646603244E-002   0.0000000000000000     
   2.6459587038370664E-002   6.2300133054473329E-002   0.0000000000000000     
   2.7769676304549247E-002   6.8050884317386276E-002   0.0000000000000000     
   2.9038126093142828E-002   7.3984999435342105E-002   0.0000000000000000     
   3.0264936404151406E-002   8.0102478408340810E-002   0.0000000000000000     
   2.1326099783561207E-002   5.6355658686040352E-002   0.0000000000000000     
   2.2483284054749312E-002   6.1932146311414679E-002   0.0000000000000000     
   2.3605329547408106E-002   6.7693024982797986E-002   0.0000000000000000     
   2.4692236261537593E-002   7.3638294700190260E-002   0.0000000000000000     
   2.5744004197137769E-002   7.9767955463591514E-002   0.0000000000000000     
   1.7631884793643079E-002   5.6037223009002636E-002   0.0000000000000000     
   1.8595937207791492E-002   6.1621743675320834E-002   0.0000000000000000     
   1.9530782472904858E-002   6.7391322808686385E-002   0.0000000000000000     
   2.0436420588983172E-002   7.3345960409099270E-002   0.0000000000000000     
   2.1312851556026441E-002   7.9485656476559544E-002   0.0000000000000000     
   1.4025213324852697E-002   5.5777438615490123E-002   0.0000000000000000     
   1.4797546497497201E-002   6.1368925146191800E-002   0.0000000000000000     
   1.5546035081039491E-002   6.7145777795051473E-002   0.0000000000000000     
   1.6270679075479567E-002   7.3107996562069177E-002   0.0000000000000000     
   1.6971478480817419E-002   7.9255581447244872E-002   0.0000000000000000     
   3.4875648177067349E-002   8.0489225310807447E-002   0.0000000000000000     
   3.6226140521446681E-002   8.6761726153034513E-002   0.0000000000000000     
   3.7523210614249819E-002   9.3190950393061384E-002   0.0000000000000000     
   3.8766858455476789E-002   9.9776898030888114E-002   0.0000000000000000     
   3.9957084045127558E-002  0.10651956906651465        0.0000000000000000     
   3.0264936404151406E-002   8.0102478408340810E-002   0.0000000000000000     
   3.1447150467710412E-002   8.6389988893739195E-002   0.0000000000000000     
   3.2581811513955256E-002   9.2834198548894034E-002   0.0000000000000000     
   3.3668919542885950E-002   9.9435107373805343E-002   0.0000000000000000     
   3.4708474554502496E-002  0.10619271536847309        0.0000000000000000     
   2.5744004197137769E-002   7.9767955463591514E-002   0.0000000000000000     
   2.6757567669375884E-002   8.6068226952759647E-002   0.0000000000000000     
   2.7729860993419182E-002   9.2525328847452598E-002   0.0000000000000000     
   2.8660884169267660E-002   9.9139261147670313E-002   0.0000000000000000     
   2.9550637196921331E-002  0.10591002385341280        0.0000000000000000     
   2.1312851556026441E-002   7.9485656476559544E-002   0.0000000000000000     
   2.2157392126443100E-002   8.5796440330095855E-002   0.0000000000000000     
   2.2967359052641592E-002   9.2264341288737006E-002   0.0000000000000000     
   2.3742752334621909E-002   9.8889359352482969E-002   0.0000000000000000     
   2.4483571972384061E-002  0.10567149452133376        0.0000000000000000     
   1.6971478480817419E-002   7.9255581447244872E-002   0.0000000000000000     
   1.7646623838912058E-002   8.5574629025747834E-002   0.0000000000000000     
   1.8294305691622485E-002   9.2051235872747328E-002   0.0000000000000000     
   1.8914524038948693E-002   9.8685401988243354E-002   0.0000000000000000     
   1.9507278880890690E-002  0.10547712737223594        0.0000000000000000     
   3.9957084045127558E-002  0.10651956906651465        0.0000000000000000     
   4.1099200497004544E-002  0.11340932105090562        0.0000000000000000     
   4.2198520924910138E-002  0.12043651153502562        0.0000000000000000     
   4.3255045328844346E-002  0.12760114051887464        0.0000000000000000     
   4.4268773708807163E-002  0.13490320800245270        0.0000000000000000     
   3.4708474554502496E-002  0.10619271536847309        0.0000000000000000     
   3.5704674392912458E-002  0.11309760234764347        0.0000000000000000     
   3.6661716902223425E-002  0.12014034812606261        0.0000000000000000     
   3.7579602082435402E-002  0.12732095270373053        0.0000000000000000     
   3.8458329933548377E-002  0.13463941608064720        0.0000000000000000     
   2.9550637196921331E-002  0.10591002385341280        0.0000000000000000     
   3.0402460106268941E-002  0.11282828369086743        0.0000000000000000     
   3.1219692927199266E-002  0.11988470738622151        0.0000000000000000     
   3.2002335659712292E-002  0.12707929493947506        0.0000000000000000     
   3.2750388303808033E-002  0.13441204635062806        0.0000000000000000     
   2.4483571972384061E-002  0.10567149452133376        0.0000000000000000     
   2.5192557637073988E-002  0.11260136508057747        0.0000000000000000     
   2.5872448999837643E-002  0.11966958931550231        0.0000000000000000     
   2.6523246060675024E-002  0.12687616722610826        0.0000000000000000     
   2.7144948819586127E-002  0.13422109881239533        0.0000000000000000     
   1.9507278880890690E-002  0.10547712737223594        0.0000000000000000     
   2.0074966985327604E-002  0.11241684651677362        0.0000000000000000     
   2.0619985120138570E-002  0.11949499391390503        0.0000000000000000     
   2.1142333285323583E-002  0.12671156956363014        0.0000000000000000     
   2.1642011480882656E-002  0.13406657346594897        0.0000000000000000     
   4.4268773708807163E-002  0.13490320800245270        0.0000000000000000     
   4.5229138694767634E-002  0.14232750178742562        0.0000000000000000     
   4.6125572916694849E-002  0.14985880967545920        0.0000000000000000     
   4.6958076374588771E-002  0.15749713166655346        0.0000000000000000     
   4.7726649068449430E-002  0.16524246776070839        0.0000000000000000     
   3.8458329933548377E-002  0.13463941608064720        0.0000000000000000     
   3.9287837389611321E-002  0.14208038176317173        0.0000000000000000     
   4.0058061384673202E-002  0.14962849325766320        0.0000000000000000     
   4.0769001918734005E-002  0.15728375056412167        0.0000000000000000     
   4.1420658991793750E-002  0.16504615368254708        0.0000000000000000     
   3.2750388303808033E-002  0.13441204635062806        0.0000000000000000     
   3.3454672731236194E-002  0.14186757177057807        0.0000000000000000     
   3.4106010813746472E-002  0.14943048135022272        0.0000000000000000     
   3.4704402551338873E-002  0.15710077508956188        0.0000000000000000     
   3.5249847944013396E-002  0.16487845298859571        0.0000000000000000     
   2.7144948819586127E-002  0.13422109881239533        0.0000000000000000     
   2.7729644719642239E-002  0.14168907180964471        0.0000000000000000     
   2.8269421203914652E-002  0.14926477395313767        0.0000000000000000     
   2.8764278272403365E-002  0.15694820524287414        0.0000000000000000     
   2.9214215925108374E-002  0.16473936567885425        0.0000000000000000     
   2.1642011480882656E-002  0.13406657346594897        0.0000000000000000     
   2.2112753354829477E-002  0.14154488188037162        0.0000000000000000     
   2.2548292555177755E-002  0.14913137106640809        0.0000000000000000     
   2.2948629081927484E-002  0.15682604102405845        0.0000000000000000     
   2.3313762935078676E-002  0.16462889175332274        0.0000000000000000     
   0.0000000000000000        0.0000000000000000        0.0000000000000000     
   8.4175856060774985E-004   1.1098467880683537E-003   0.0000000000000000     
   1.7023251497601940E-003   2.5978411459040875E-003   0.0000000000000000     
   2.5816997674573327E-003   4.4639830735072007E-003   0.0000000000000000     
   3.4798824136991662E-003   6.7082725708776936E-003   0.0000000000000000     
   0.0000000000000000        0.0000000000000000        0.0000000000000000     
   6.3390941762818810E-004   1.0937893432288097E-003   0.0000000000000000     
   1.2782226944536362E-003   2.5616837773113623E-003   0.0000000000000000     
   1.9329398304763442E-003   4.4036833022476577E-003   0.0000000000000000     
   2.5980608256963118E-003   6.6197879180376938E-003   0.0000000000000000     
   0.0000000000000000        0.0000000000000000        0.0000000000000000     
   4.2433327656691210E-004   1.0823197397630457E-003   0.0000000000000000     
   8.5313435112955357E-004   2.5358570854413999E-003   0.0000000000000000     
   1.2864032236879243E-003   4.3606120370350632E-003   0.0000000000000000     
   1.7241398942420244E-003   6.5565845945440345E-003   0.0000000000000000     
   0.0000000000000000        0.0000000000000000        0.0000000000000000     
   2.1303013742392167E-004   1.0754379776710613E-003   0.0000000000000000     
   4.2706011978794600E-004   2.5203610702942002E-003   0.0000000000000000     
   6.4208994709207294E-004   4.3347692778694163E-003   0.0000000000000000     
   8.5811961933630236E-004   6.5186626003967112E-003   0.0000000000000000     
   0.0000000000000000        0.0000000000000000        0.0000000000000000     
   1.9921689081367489E-013   1.0731440569528565E-003   0.0000000000000000     
   4.2881361439137122E-013   2.5151957318697632E-003   0.0000000000000000     
   6.8879006231287176E-013   4.3261550247507196E-003   0.0000000000000000     
   9.7914626168323082E-013   6.5060219355957257E-003   0.0000000000000000     
   3.4798824136991662E-003   6.7082725708776936E-003   0.0000000000000000     
   4.3886302331421819E-003   9.2933669789666256E-003   0.0000000000000000     
   5.2997003704428692E-003   1.2181923638725053E-002   0.0000000000000000     
   6.2130928256012288E-003   1.5373942550152975E-002   0.0000000000000000     
   7.1288075986172591E-003   1.8869423713250396E-002   0.0000000000000000     
   2.5980608256963118E-003   6.6197879180376938E-003   0.0000000000000000     
   3.2706362136307203E-003   9.1770125532606092E-003   0.0000000000000000     
   3.9477165277967512E-003   1.2042372136495534E-002   0.0000000000000000     
   4.6293017681944019E-003   1.5215866667742474E-002   0.0000000000000000     
   5.3153919348236742E-003   1.8697496147001422E-002   0.0000000000000000     
   1.7241398942420244E-003   6.5565845945440345E-003   0.0000000000000000     
   2.1665331684827499E-003   9.0939022491444942E-003   0.0000000000000000     
   2.6137718521009991E-003   1.1942692492012618E-002   0.0000000000000000     
   3.0658559450967697E-003   1.5102955323148410E-002   0.0000000000000000     
   3.5227854474700628E-003   1.8574690742551869E-002   0.0000000000000000     
   8.5811961933630236E-004   6.5186626003967112E-003   0.0000000000000000     
   1.0763210976982708E-003   9.0440360666182752E-003   0.0000000000000000     
   1.2978663433556139E-003   1.1882884705276297E-002   0.0000000000000000     
   1.5227553563083318E-003   1.5035208516370786E-002   0.0000000000000000     
   1.7509881365564244E-003   1.8501007499901728E-002   0.0000000000000000     
   9.7914626168323082E-013   6.5060219355957257E-003   0.0000000000000000     
   1.2772816929563363E-012   9.0274140056819559E-003   0.0000000000000000     
   1.5605960873078285E-012   1.1862948776286578E-002   0.0000000000000000     
   1.8290883757821281E-012   1.5012626247409596E-002   0.0000000000000000     
   2.0827596374992097E-012   1.8476446419051010E-002   0.0000000000000000     
   7.1288075986172591E-003   1.8869423713250396E-002   0.0000000000000000     
   8.0402660055675958E-003   2.2642483946726352E-002   0.0000000000000000     
   8.9408893625288685E-003   2.6667240069289899E-002   0.0000000000000000     
   9.8306776695010808E-003   3.0943692080941030E-002   0.0000000000000000     
   1.0709630926484231E-002   3.5471839981679749E-002   0.0000000000000000     
   5.3153919348236742E-003   1.8697496147001422E-002   0.0000000000000000     
   5.9990740619531120E-003   2.2459923028705395E-002   0.0000000000000000     
   6.6734351838512599E-003   2.6475809767287407E-002   0.0000000000000000     
   7.3384753005181179E-003   3.0745156362747449E-002   0.0000000000000000     
   7.9941944119536860E-003   3.5267962815085541E-002   0.0000000000000000     
   3.5227854474700628E-003   1.8574690742551869E-002   0.0000000000000000     
   3.9786324135431183E-003   2.2329522373016296E-002   0.0000000000000000     
   4.4274688976381768E-003   2.6339073837335011E-002   0.0000000000000000     
   4.8692948997552379E-003   3.0603345135507998E-002   0.0000000000000000     
   5.3041104198943007E-003   3.5122336267535262E-002   0.0000000000000000     
   1.7509881365564244E-003   1.8501007499901728E-002   0.0000000000000000     
   1.9789410603376126E-003   2.2251281979659060E-002   0.0000000000000000     
   2.2029905038896181E-003   2.6257032279432709E-002   0.0000000000000000     
   2.4231364672124395E-003   3.0518258399222665E-002   0.0000000000000000     
   2.6393789503060777E-003   3.5034960339028934E-002   0.0000000000000000     
   2.0827596374992097E-012   1.8476446419051010E-002   0.0000000000000000     
   2.3365961943078162E-012   2.2225201848633681E-002   0.0000000000000000     
   2.6055845035819619E-012   2.6229685093580504E-002   0.0000000000000000     
   2.8897244094675846E-012   3.0489896153891451E-002   0.0000000000000000     
   3.1890161084763280E-012   3.5005835029566543E-002   0.0000000000000000     
   1.0709630926484231E-002   3.5471839981679749E-002   0.0000000000000000     
   1.1572006625373724E-002   4.0231436780254787E-002   0.0000000000000000     
   1.2412062258064967E-002   4.5202235485414854E-002   0.0000000000000000     
   1.3229797824557958E-002   5.0384236097159966E-002   0.0000000000000000     
   1.4025213324852697E-002   5.5777438615490123E-002   0.0000000000000000     
   7.9941944119536860E-003   3.5267962815085541E-002   0.0000000000000000     
   8.6376301372612305E-003   4.0024354125217695E-002   0.0000000000000000     
   9.2658200955440216E-003   4.4994455294059973E-002   0.0000000000000000     
   9.8787642868020595E-003   5.0178266321612368E-002   0.0000000000000000     
   1.0476462711035341E-002   5.5575787207874872E-002   0.0000000000000000     
   5.3041104198943007E-003   3.5122336267535262E-002   0.0000000000000000     
   5.7308368708907237E-003   3.9876437943063177E-002   0.0000000000000000     
   6.1483956655798621E-003   4.4846040871738088E-002   0.0000000000000000     
   6.5567868039617177E-003   5.0031145053560024E-002   0.0000000000000000     
   6.9560102860362887E-003   5.5431750488528969E-002   0.0000000000000000     
   2.6393789503060777E-003   3.5034960339028934E-002   0.0000000000000000     
   2.8516268262622044E-003   3.9787688233791224E-002   0.0000000000000000     
   3.0597889681724900E-003   4.4756992218449226E-002   0.0000000000000000     
   3.2638653760369354E-003   4.9942872293002975E-002   0.0000000000000000     
   3.4638560498555402E-003   5.5345328457452429E-002   0.0000000000000000     
   3.1890161084763280E-012   3.5005835029566543E-002   0.0000000000000000     
   3.3756713787094772E-012   3.9758104997401837E-002   0.0000000000000000     
   3.3219027572098381E-012   4.4727309334193381E-002   0.0000000000000000     
   3.0277108131835512E-012   4.9913448039941181E-002   0.0000000000000000     
   2.4930940558526293E-012   5.5316521114645231E-002   0.0000000000000000     
   1.4025213324852697E-002   5.5777438615490123E-002   0.0000000000000000     
   1.4797546497497201E-002   6.1368925146191800E-002   0.0000000000000000     
   1.5546035081039491E-002   6.7145777795051473E-002   0.0000000000000000     
   1.6270679075479567E-002   7.3107996562069177E-002   0.0000000000000000     
   1.6971478480817419E-002   7.9255581447244872E-002   0.0000000000000000     
   1.0476462711035341E-002   5.5575787207874872E-002   0.0000000000000000     
   1.1057265360038079E-002   6.1172901980250736E-002   0.0000000000000000     
   1.1619522225604480E-002   6.6955494666143228E-002   0.0000000000000000     
   1.2163233307734545E-002   7.2923565265552340E-002   0.0000000000000000     
   1.2688398606428269E-002   7.9077113778478064E-002   0.0000000000000000     
   6.9560102860362887E-003   5.5431750488528969E-002   0.0000000000000000     
   7.3442472315857531E-003   6.1032885433720853E-002   0.0000000000000000     
   7.7196787603922845E-003   6.6819578146211617E-002   0.0000000000000000     
   8.0823048724558855E-003   7.2791828626001240E-002   0.0000000000000000     
   8.4321255677765571E-003   7.8949636873089743E-002   0.0000000000000000     
   3.4638560498555402E-003   5.5345328457452429E-002   0.0000000000000000     
   3.6584921121402244E-003   6.0948875506602121E-002   0.0000000000000000     
   3.8465046854029099E-003   6.6738028235256597E-002   0.0000000000000000     
   4.0278937696435939E-003   7.2712786643415850E-002   0.0000000000000000     
   4.2026593648622794E-003   7.8873150731079852E-002   0.0000000000000000     
   2.4930940558526293E-012   5.5316521114645231E-002   0.0000000000000000     
   1.7014936551720816E-012   6.0920872198894568E-002   0.0000000000000000     
   6.3635116056767749E-013   6.6710844933278210E-002   0.0000000000000000     
  -7.0233382098387059E-013   7.2686439317796170E-002   0.0000000000000000     
  -2.3145613030350898E-012   7.8847655352448420E-002   0.0000000000000000     
   1.6971478480817419E-002   7.9255581447244872E-002   0.0000000000000000     
   1.7646623838912058E-002   8.5574629025747834E-002   0.0000000000000000     
   1.8294305691622485E-002   9.2051235872747328E-002   0.0000000000000000     
   1.8914524038948693E-002   9.8685401988243354E-002   0.0000000000000000     
   1.9507278880890690E-002  0.10547712737223594        0.0000000000000000     
   1.2688398606428269E-002   7.9077113778478064E-002   0.0000000000000000     
   1.3194161353854369E-002   8.5402408336593724E-002   0.0000000000000000     
   1.3679664782181553E-002   9.1885717071572573E-002   0.0000000000000000     
   1.4144908891409820E-002   9.8527039983414583E-002   0.0000000000000000     
   1.4589893681539175E-002  0.10532637707211982        0.0000000000000000     
   8.4321255677765571E-003   7.8949636873089743E-002   0.0000000000000000     
   8.7689032183416414E-003   8.5279393559511710E-002   0.0000000000000000     
   9.0924001961384913E-003   9.1767489357301710E-002   0.0000000000000000     
   9.4026165011671034E-003   9.8413924266459771E-002   0.0000000000000000     
   9.6995521334274793E-003  0.10521869828698588        0.0000000000000000     
   4.2026593648622794E-003   7.8873150731079852E-002   0.0000000000000000     
   4.3708494323738750E-003   8.5205584694501790E-002   0.0000000000000000     
   4.5325119334932934E-003   9.1696552729934822E-002   0.0000000000000000     
   4.6876468682205356E-003   9.8346054837378905E-002   0.0000000000000000     
   4.8362542365555997E-003  0.10515409101683411        0.0000000000000000     
  -2.3145613030350898E-012   7.8847655352448420E-002   0.0000000000000000     
  -4.0489293775397561E-012   8.5180981741563966E-002   0.0000000000000000     
  -5.7540350522494732E-012   9.1672907189471853E-002   0.0000000000000000     
  -7.4298789234754359E-012   9.8323431696172026E-002   0.0000000000000000     
  -9.0764609370075355E-012  0.10513255526166448        0.0000000000000000     
   1.9507278880890690E-002  0.10547712737223594        0.0000000000000000     
   2.0074966985327604E-002  0.11241684651677362        0.0000000000000000     
   2.0619985120138570E-002  0.11949499391390503        0.0000000000000000     
   2.1142333285323583E-002  0.12671156956363014        0.0000000000000000     
   2.1642011480882656E-002  0.13406657346594897        0.0000000000000000     
   1.4589893681539175E-002  0.10532637707211982        0.0000000000000000     
   1.5016705490830808E-002  0.11227394279397737        0.0000000000000000     
   1.5427430657545914E-002  0.11935995160527636        0.0000000000000000     
   1.5822069181684495E-002  0.12658440350601682        0.0000000000000000     
   1.6200621063246552E-002  0.13394729849619866        0.0000000000000000     
   9.6995521334274793E-003  0.10521869828698588        0.0000000000000000     
   9.9847904933846269E-003  0.11217186870671024        0.0000000000000000     
   1.0259914981503554E-002  0.11926349281346306        0.0000000000000000     
   1.0524925597784261E-002  0.12649357060724428        0.0000000000000000     
   1.0779822342226747E-002  0.13386210208805396        0.0000000000000000     
   4.8362542365555997E-003  0.10515409101683411        0.0000000000000000     
   4.9792219929890589E-003  0.11211062425497219        0.0000000000000000     
   5.1174380920114854E-003  0.11920561753846504        0.0000000000000000     
   5.2509025336228820E-003  0.12643907086731263        0.0000000000000000     
   5.3796153178232442E-003  0.13381098424151491        0.0000000000000000     
  -9.0764609370075355E-012  0.10513255526166448        0.0000000000000000     
  -1.0355893009447725E-011  0.11209020943876327        0.0000000000000000     
  -1.0930286515296872E-011  0.11918632578028235        0.0000000000000000     
  -1.0799641644290356E-011  0.12642090428622174        0.0000000000000000     
  -9.9639584777433399E-012  0.13379394495658148        0.0000000000000000     
   2.1642011480882656E-002  0.13406657346594897        0.0000000000000000     
   2.2112753354829477E-002  0.14154488188037162        0.0000000000000000     
   2.2548292555177755E-002  0.14913137106640809        0.0000000000000000     
   2.2948629081927484E-002  0.15682604102405845        0.0000000000000000     
   2.3313762935078676E-002  0.16462889175332274        0.0000000000000000     
   1.6200621063246552E-002  0.13394729849619866        0.0000000000000000     
   1.6558588988539683E-002  0.14143372633065027        0.0000000000000000     
   1.6891475643871497E-002  0.14902877676419987        0.0000000000000000     
   1.7199281029241998E-002  0.15673244979684750        0.0000000000000000     
   1.7482005144651182E-002  0.16454474542859318        0.0000000000000000     
   1.0779822342226747E-002  0.13386210208805396        0.0000000000000000     
   1.1021741972514655E-002  0.14135432950837215        0.0000000000000000     
   1.1247821246331627E-002  0.14895549512067879        0.0000000000000000     
   1.1458060163677661E-002  0.15666559892497398        0.0000000000000000     
   1.1652458724552759E-002  0.16448464092125764        0.0000000000000000     
   5.3796153178232442E-003  0.13381098424151491        0.0000000000000000     
   5.5022123067543895E-003  0.14130669141353724        0.0000000000000000     
   5.6173293625581336E-003  0.14891152613584491        0.0000000000000000     
   5.7249664852344773E-003  0.15662548840843785        0.0000000000000000     
   5.8251236747834181E-003  0.16444857823131614        0.0000000000000000     
  -9.9639584777433399E-012  0.13379394495658148        0.0000000000000000     
  -8.7411113503660376E-012  0.14129081204614560        0.0000000000000000     
  -7.4489779578953974E-012  0.14889686980969818        0.0000000000000000     
  -6.0875562132422373E-012  0.15661211824723920        0.0000000000000000     
  -4.6568469566632409E-012  0.16443655735876866        0.0000000000000000     
   0.0000000000000000        0.0000000000000000        0.0000000000000000     
   1.9921689081367489E-013   1.0731440569528565E-003   0.0000000000000000     
   4.2881361439137122E-013   2.5151957318697632E-003   0.0000000000000000     
   6.8879006231287176E-013   4.3261550247507196E-003   0.0000000000000000     
   9.7914626168323082E-013   6.5060219355957257E-003   0.0000000000000000     
   0.0000000000000000        0.0000000000000000        0.0000000000000000     
  -2.1303013702990501E-004   1.0754379776053908E-003   0.0000000000000000     
  -4.2706011894124059E-004   2.5203610701660800E-003   0.0000000000000000     
  -6.4208994573400650E-004   4.3347692776820670E-003   0.0000000000000000     
  -8.5811961740820308E-004   6.5186626001533529E-003   0.0000000000000000     
   0.0000000000000000        0.0000000000000000        0.0000000000000000     
  -4.2433327618614664E-004   1.0823197396256233E-003   0.0000000000000000     
  -8.5313435031561297E-004   2.5358570851811411E-003   0.0000000000000000     
  -1.2864032223883987E-003   4.3606120366665550E-003   0.0000000000000000     
  -1.7241398924045046E-003   6.5565845940818625E-003   0.0000000000000000     
   0.0000000000000000        0.0000000000000000        0.0000000000000000     
  -6.3390941726950811E-004   1.0937893430135537E-003   0.0000000000000000     
  -1.2782226936943039E-003   2.5616837769149472E-003   0.0000000000000000     
  -1.9329398292743875E-003   4.4036833017041819E-003   0.0000000000000000     
  -2.5980608240097577E-003   6.6197879173812563E-003   0.0000000000000000     
   0.0000000000000000        0.0000000000000000        0.0000000000000000     
  -8.4175856027998935E-004   1.1098467877691822E-003   0.0000000000000000     
  -1.7023251490773132E-003   2.5978411453674989E-003   0.0000000000000000     
  -2.5816997663919718E-003   4.4639830727949492E-003   0.0000000000000000     
  -3.4798824122239647E-003   6.7082725700515341E-003   0.0000000000000000     
   9.7914626168323082E-013   6.5060219355957257E-003   0.0000000000000000     
   1.2772816929563363E-012   9.0274140056819559E-003   0.0000000000000000     
   1.5605960873078285E-012   1.1862948776286578E-002   0.0000000000000000     
   1.8290883757821281E-012   1.5012626247409596E-002   0.0000000000000000     
   2.0827596374992097E-012   1.8476446419051010E-002   0.0000000000000000     
  -8.5811961740820308E-004   6.5186626001533529E-003   0.0000000000000000     
  -1.0763210951832097E-003   9.0440360663524670E-003   0.0000000000000000     
  -1.2978663402784054E-003   1.1882884705051942E-002   0.0000000000000000     
  -1.5227553526937908E-003   1.5035208516251777E-002   0.0000000000000000     
  -1.7509881324293661E-003   1.8501007499951972E-002   0.0000000000000000     
  -1.7241398924045046E-003   6.5565845940818625E-003   0.0000000000000000     
  -2.1665331660861964E-003   9.0939022486467447E-003   0.0000000000000000     
  -2.6137718491557401E-003   1.1942692491580878E-002   0.0000000000000000     
  -3.0658559416131374E-003   1.5102955322884267E-002   0.0000000000000000     
  -3.5227854434583886E-003   1.8574690742556910E-002   0.0000000000000000     
  -2.5980608240097577E-003   6.6197879173812563E-003   0.0000000000000000     
  -3.2706362114316790E-003   9.1770125525647856E-003   0.0000000000000000     
  -3.9477165250714104E-003   1.2042372135873388E-002   0.0000000000000000     
  -4.6293017649289524E-003   1.5215866667307060E-002   0.0000000000000000     
  -5.3153919310043049E-003   1.8697496146865802E-002   0.0000000000000000     
  -3.4798824122239647E-003   6.7082725700515341E-003   0.0000000000000000     
  -4.3886302312196564E-003   9.2933669781065931E-003   0.0000000000000000     
  -5.2997003680254132E-003   1.2181923637929467E-002   0.0000000000000000     
  -6.2130928226412337E-003   1.5373942549520157E-002   0.0000000000000000     
  -7.1288075950671180E-003   1.8869423712878662E-002   0.0000000000000000     
   2.0827596374992097E-012   1.8476446419051010E-002   0.0000000000000000     
   2.3365961943078162E-012   2.2225201848633681E-002   0.0000000000000000     
   2.6055845035819619E-012   2.6229685093580504E-002   0.0000000000000000     
   2.8897244094675846E-012   3.0489896153891451E-002   0.0000000000000000     
   3.1890161084763280E-012   3.5005835029566543E-002   0.0000000000000000     
  -1.7509881324293661E-003   1.8501007499951972E-002   0.0000000000000000     
  -1.9789410556970703E-003   2.2251281979866956E-002   0.0000000000000000     
  -2.2029904987088404E-003   2.6257032279711157E-002   0.0000000000000000     
  -2.4231364614646796E-003   3.0518258399484563E-002   0.0000000000000000     
  -2.6393789439645866E-003   3.5034960339187196E-002   0.0000000000000000     
  -3.5227854434583886E-003   1.8574690742556910E-002   0.0000000000000000     
  -3.9786324090005229E-003   2.2329522373285674E-002   0.0000000000000000     
  -4.4274688925485745E-003   2.6339073837757437E-002   0.0000000000000000     
  -4.8692948941025443E-003   3.0603345135972203E-002   0.0000000000000000     
  -5.3041104136624306E-003   3.5122336267929967E-002   0.0000000000000000     
  -5.3153919310043049E-003   1.8697496146865802E-002   0.0000000000000000     
  -5.9990740575737618E-003   2.2459923028889831E-002   0.0000000000000000     
  -6.6734351789136167E-003   2.6475809767719353E-002   0.0000000000000000     
  -7.3384752950238679E-003   3.0745156363354363E-002   0.0000000000000000     
  -7.9941944059045179E-003   3.5267962815794883E-002   0.0000000000000000     
  -7.1288075950671180E-003   1.8869423712878662E-002   0.0000000000000000     
  -8.0402660014167876E-003   2.2642483946679424E-002   0.0000000000000000     
  -8.9408893578039658E-003   2.6667240069596889E-002   0.0000000000000000     
  -9.8306776642286525E-003   3.0943692081631051E-002   0.0000000000000000     
  -1.0709630920690846E-002   3.5471839982781916E-002   0.0000000000000000     
   3.1890161084763280E-012   3.5005835029566543E-002   0.0000000000000000     
   3.3756713787094772E-012   3.9758104997401837E-002   0.0000000000000000     
   3.3219027572098381E-012   4.4727309334193381E-002   0.0000000000000000     
   3.0277108131835512E-012   4.9913448039941181E-002   0.0000000000000000     
   2.4930940558526293E-012   5.5316521114645231E-002   0.0000000000000000     
  -2.6393789439645866E-003   3.5034960339187196E-002   0.0000000000000000     
  -2.8516268195374586E-003   3.9787688233983237E-002   0.0000000000000000     
  -3.0597889615121931E-003   4.4756992219036916E-002   0.0000000000000000     
  -3.2638653698887927E-003   4.9942872294348205E-002   0.0000000000000000     
  -3.4638560446672547E-003   5.5345328459917138E-002   0.0000000000000000     
  -5.3041104136624306E-003   3.5122336267929967E-002   0.0000000000000000     
  -5.7308368642457691E-003   3.9876437943623666E-002   0.0000000000000000     
  -6.1483956588700966E-003   4.4846040873046215E-002   0.0000000000000000     
  -6.5567867975354086E-003   5.0031145056197615E-002   0.0000000000000000     
  -6.9560102802417104E-003   5.5431750493077900E-002   0.0000000000000000     
  -7.9941944059045179E-003   3.5267962815794883E-002   0.0000000000000000     
  -8.6376301307492624E-003   4.0024354126323103E-002   0.0000000000000000     
  -9.2658200887518055E-003   4.4994455296221286E-002   0.0000000000000000     
  -9.8787642799121403E-003   5.0178266325489419E-002   0.0000000000000000     
  -1.0476462704230272E-002   5.5575787214127509E-002   0.0000000000000000     
  -1.0709630920690846E-002   3.5471839982781916E-002   0.0000000000000000     
  -1.1572006619047935E-002   4.0231436782081575E-002   0.0000000000000000     
  -1.2412062251157317E-002   4.5202235488562142E-002   0.0000000000000000     
  -1.3229797817018987E-002   5.0384236102223603E-002   0.0000000000000000     
  -1.4025213316632944E-002   5.5777438623065966E-002   0.0000000000000000     
   2.4930940558526293E-012   5.5316521114645231E-002   0.0000000000000000     
   1.7014936551720816E-012   6.0920872198894568E-002   0.0000000000000000     
   6.3635116056767749E-013   6.6710844933278210E-002   0.0000000000000000     
  -7.0233382098387059E-013   7.2686439317796170E-002   0.0000000000000000     
  -2.3145613030350898E-012   7.8847655352448420E-002   0.0000000000000000     
  -3.4638560446672547E-003   5.5345328459917138E-002   0.0000000000000000     
  -3.6584921083975871E-003   6.0948875510240780E-002   0.0000000000000000     
  -3.8465046836297931E-003   6.6738028239816199E-002   0.0000000000000000     
  -4.0278937703638763E-003   7.2712786648643418E-002   0.0000000000000000     
  -4.2026593685998339E-003   7.8873150736722436E-002   0.0000000000000000     
  -6.9560102802417104E-003   5.5431750493077900E-002   0.0000000000000000     
  -7.3442472268241618E-003   6.1032885440283353E-002   0.0000000000000000     
  -7.7196787571179306E-003   6.6819578154410364E-002   0.0000000000000000     
  -8.0823048711230125E-003   7.2791828635458883E-002   0.0000000000000000     
  -8.4321255688394100E-003   7.8949636883428931E-002   0.0000000000000000     
  -1.0476462704230272E-002   5.5575787214127509E-002   0.0000000000000000     
  -1.1057265353578231E-002   6.1172901989022324E-002   0.0000000000000000     
  -1.1619522219828057E-002   6.6955494677060662E-002   0.0000000000000000     
  -1.2163233302979739E-002   7.2923565278242508E-002   0.0000000000000000     
  -1.2688398603033290E-002   7.9077113792567891E-002   0.0000000000000000     
  -1.4025213316632944E-002   5.5777438623065966E-002   0.0000000000000000     
  -1.4797546488659800E-002   6.1368925156457657E-002   0.0000000000000000     
  -1.5546035071760174E-002   6.7145777807767121E-002   0.0000000000000000     
  -1.6270679065934063E-002   7.3107996576994336E-002   0.0000000000000000     
  -1.6971478471181470E-002   7.9255581464139316E-002   0.0000000000000000     
  -2.3145613030350898E-012   7.8847655352448420E-002   0.0000000000000000     
  -4.0489293775397561E-012   8.5180981741563966E-002   0.0000000000000000     
  -5.7540350522494732E-012   9.1672907189471853E-002   0.0000000000000000     
  -7.4298789234754359E-012   9.8323431696172026E-002   0.0000000000000000     
  -9.0764609370075355E-012  0.10513255526166448        0.0000000000000000     
  -4.2026593685998339E-003   7.8873150736722436E-002   0.0000000000000000     
  -4.3708494393825377E-003   8.5205584700295239E-002   0.0000000000000000     
  -4.5325119437568525E-003   9.1696552735603884E-002   0.0000000000000000     
  -4.6876468817227826E-003   9.8346054842648301E-002   0.0000000000000000     
  -4.8362542532803254E-003  0.10515409102142853        0.0000000000000000     
  -8.4321255688394100E-003   7.8949636883428931E-002   0.0000000000000000     
  -8.7689032220827166E-003   8.5279393570292600E-002   0.0000000000000000     
  -9.0924002026685161E-003   9.1767489368021954E-002   0.0000000000000000     
  -9.4026165105968208E-003   9.8413924276617021E-002   0.0000000000000000     
  -9.6995521458676133E-003  0.10521869829607776        0.0000000000000000     
  -1.2688398603033290E-002   7.9077113792567891E-002   0.0000000000000000     
  -1.3194161352149465E-002   8.5402408351556020E-002   0.0000000000000000     
  -1.3679664782489030E-002   9.1885717086726090E-002   0.0000000000000000     
  -1.4144908894051985E-002   9.8527039998078131E-002   0.0000000000000000     
  -1.4589893686838327E-002  0.10532637708561211        0.0000000000000000     
  -1.6971478471181470E-002   7.9255581464139316E-002   0.0000000000000000     
  -1.7646623829582785E-002   8.5574629044085485E-002   0.0000000000000000     
  -1.8294305683218381E-002   9.2051235891716265E-002   0.0000000000000000     
  -1.8914524032088278E-002   9.8685402007031672E-002   0.0000000000000000     
  -1.9507278876192465E-002  0.10547712739003169        0.0000000000000000     
  -9.0764609370075355E-012  0.10513255526166448        0.0000000000000000     
  -1.0355893009447725E-011  0.11209020943876327        0.0000000000000000     
  -1.0930286515296872E-011  0.11918632578028235        0.0000000000000000     
  -1.0799641644290356E-011  0.12642090428622174        0.0000000000000000     
  -9.9639584777433399E-012  0.13379394495658148        0.0000000000000000     
  -4.8362542532803254E-003  0.10515409102142853        0.0000000000000000     
  -4.9792220122820176E-003  0.11211062425829328        0.0000000000000000     
  -5.1174381125803966E-003  0.11920561753959130        0.0000000000000000     
  -5.2509025541754625E-003  0.12643907086532255        0.0000000000000000     
  -5.3796153370672178E-003  0.13381098423548701        0.0000000000000000     
  -9.6995521458676133E-003  0.10521869829607776        0.0000000000000000     
  -9.9847905084211024E-003  0.11217186871377215        0.0000000000000000     
  -1.0259914998197480E-002  0.11926349281706812        0.0000000000000000     
  -1.0524925615196742E-002  0.12649357060596569        0.0000000000000000     
  -1.0779822359418890E-002  0.13386210208046484        0.0000000000000000     
  -1.4589893686838327E-002  0.10532637708561211        0.0000000000000000     
  -1.5016705498773150E-002  0.11227394280519980        0.0000000000000000     
  -1.5427430667781532E-002  0.11935995161271283        0.0000000000000000     
  -1.5822069193863472E-002  0.12658440350815123        0.0000000000000000     
  -1.6200621077018973E-002  0.13394729849151496        0.0000000000000000     
  -1.9507278876192465E-002  0.10547712739003169        0.0000000000000000     
  -2.0074966983338154E-002  0.11241684653257629        0.0000000000000000     
  -2.0619985121332552E-002  0.11949499392652545        0.0000000000000000     
  -2.1142333290175661E-002  0.12671156957187912        0.0000000000000000     
  -2.1642011489867476E-002  0.13406657346863740        0.0000000000000000     
  -9.9639584777433399E-012  0.13379394495658148        0.0000000000000000     
  -8.7411113503660376E-012  0.14129081204614560        0.0000000000000000     
  -7.4489779578953974E-012  0.14889686980969818        0.0000000000000000     
  -6.0875562132422373E-012  0.15661211824723920        0.0000000000000000     
  -4.6568469566632409E-012  0.16443655735876866        0.0000000000000000     
  -5.3796153370672178E-003  0.13381098423548701        0.0000000000000000     
  -5.5022123239424695E-003  0.14130669140823651        0.0000000000000000     
  -5.6173293774880329E-003  0.14891152614172273        0.0000000000000000     
  -5.7249664977039065E-003  0.15662548843594573        0.0000000000000000     
  -5.8251236845900918E-003  0.16444857829090548        0.0000000000000000     
  -1.0779822359418890E-002  0.13386210208046484        0.0000000000000000     
  -1.1021741988820302E-002  0.14135432950184931        0.0000000000000000     
  -1.1247821261357349E-002  0.14895549513140277        0.0000000000000000     
  -1.1458060177030044E-002  0.15666559896912521        0.0000000000000000     
  -1.1652458735838372E-002  0.16448464101501670        0.0000000000000000     
  -1.6200621077018973E-002  0.13394729849151496        0.0000000000000000     
  -1.6558589003374612E-002  0.14143372632698401        0.0000000000000000     
  -1.6891475659056937E-002  0.14902877677873827        0.0000000000000000     
  -1.7199281044065963E-002  0.15673244984677778        0.0000000000000000     
  -1.7482005158401689E-002  0.16454474553110246        0.0000000000000000     
  -2.1642011489867476E-002  0.13406657346863740        0.0000000000000000     
  -2.2112753367605393E-002  0.14154488188364062        0.0000000000000000     
  -2.2548292570586787E-002  0.14913137108372923        0.0000000000000000     
  -2.2948629098811672E-002  0.15682604106890324        0.0000000000000000     
  -2.3313762952280045E-002  0.16462889183916268        0.0000000000000000     
   0.0000000000000000        0.0000000000000000        0.0000000000000000     
  -8.4175856027998935E-004   1.1098467877691822E-003   0.0000000000000000     
  -1.7023251490773132E-003   2.5978411453674989E-003   0.0000000000000000     
  -2.5816997663919718E-003   4.4639830727949492E-003   0.0000000000000000     
  -3.4798824122239647E-003   6.7082725700515341E-003   0.0000000000000000     
   0.0000000000000000        0.0000000000000000        0.0000000000000000     
  -1.0567886292734078E-003   1.1340502420651120E-003   0.0000000000000000     
  -2.1399829898714000E-003   2.6501708375612498E-003   0.0000000000000000     
  -3.2495830817939760E-003   4.5483617864884134E-003   0.0000000000000000     
  -4.3855889050411368E-003   6.8286230888466044E-003   0.0000000000000000     
   0.0000000000000000        0.0000000000000000        0.0000000000000000     
  -1.2879075483055804E-003   1.1699578740739466E-003   0.0000000000000000     
  -2.6057374894833223E-003   2.7245145005186577E-003   0.0000000000000000     
  -3.9534898235332253E-003   4.6636698793341346E-003   0.0000000000000000     
  -5.3311645504552901E-003   6.9874240105203761E-003   0.0000000000000000     
   0.0000000000000000        0.0000000000000000        0.0000000000000000     
  -1.5351153173765073E-003   1.2175696837956854E-003   0.0000000000000000     
  -3.0995886479130807E-003   2.8208721342397216E-003   0.0000000000000000     
  -4.6934199916097187E-003   4.8099073513321097E-003   0.0000000000000000     
  -6.3166093484664249E-003   7.1846753350728494E-003   0.0000000000000000     
   0.0000000000000000        0.0000000000000000        0.0000000000000000     
  -1.7984119364861885E-003   1.2768856712303289E-003   0.0000000000000000     
  -3.6215364651606746E-003   2.9392437387244425E-003   0.0000000000000000     
  -5.4693735860234585E-003   4.9870742024823401E-003   0.0000000000000000     
  -7.3419232990745388E-003   7.4203770625040242E-003   0.0000000000000000     
  -3.4798824122239647E-003   6.7082725700515341E-003   0.0000000000000000     
  -4.3886302312196564E-003   9.2933669781065931E-003   0.0000000000000000     
  -5.2997003680254132E-003   1.2181923637929467E-002   0.0000000000000000     
  -6.2130928226412337E-003   1.5373942549520157E-002   0.0000000000000000     
  -7.1288075950671180E-003   1.8869423712878662E-002   0.0000000000000000     
  -4.3855889050411368E-003   6.8286230888466044E-003   0.0000000000000000     
  -5.5350173626852297E-003   9.4489340838866329E-003   0.0000000000000000     
  -6.6848853577985996E-003   1.2367274110859311E-002   0.0000000000000000     
  -7.8351928903812457E-003   1.5583643169764638E-002   0.0000000000000000     
  -8.9859399604331688E-003   1.9098041260602622E-002   0.0000000000000000     
  -5.3311645504552901E-003   6.9874240105203761E-003   0.0000000000000000     
  -6.7242997430634931E-003   9.6496824285193690E-003   0.0000000000000000     
  -8.1184334741718142E-003   1.2604350667773108E-002   0.0000000000000000     
  -9.5135657437802473E-003   1.5851428728281592E-002   0.0000000000000000     
  -1.0909696551888800E-002   1.9390916610044818E-002   0.0000000000000000     
  -6.3166093484664249E-003   7.1846753350728494E-003   0.0000000000000000     
  -7.9564773723544511E-003   9.8956120120048084E-003   0.0000000000000000     
  -9.6003447171450606E-003   1.2893153308670861E-002   0.0000000000000000     
  -1.1248211382838246E-002   1.6177299225071003E-002   0.0000000000000000     
  -1.2900077369434014E-002   1.9748049761205241E-002   0.0000000000000000     
  -7.3419232990745388E-003   7.4203770625040242E-003   0.0000000000000000     
  -9.2315502505581036E-003   1.0186722834342946E-002   0.0000000000000000     
  -1.1130619086718335E-002   1.3233682033552569E-002   0.0000000000000000     
  -1.3039129807555234E-002   1.6561254660132883E-002   0.0000000000000000     
  -1.4957082413068805E-002   2.0169440714083896E-002   0.0000000000000000     
  -7.1288075950671180E-003   1.8869423712878662E-002   0.0000000000000000     
  -8.0402660014167876E-003   2.2642483946679424E-002   0.0000000000000000     
  -8.9408893578039658E-003   2.6667240069596889E-002   0.0000000000000000     
  -9.8306776642286525E-003   3.0943692081631051E-002   0.0000000000000000     
  -1.0709630920690846E-002   3.5471839982781916E-002   0.0000000000000000     
  -8.9859399604331688E-003   1.9098041260602622E-002   0.0000000000000000     
  -1.0130120293501011E-002   2.2885663968817978E-002   0.0000000000000000     
  -1.1260727615131413E-002   2.6921706879855439E-002   0.0000000000000000     
  -1.2377761925324377E-002   3.1206169993714998E-002   0.0000000000000000     
  -1.3481223224079898E-002   3.5739053310396653E-002   0.0000000000000000     
  -1.0909696551888800E-002   1.9390916610044818E-002   0.0000000000000000     
  -1.2296548986797839E-002   2.3197921937469002E-002   0.0000000000000000     
  -1.3663846136807749E-002   2.7247552334960373E-002   0.0000000000000000     
  -1.5011588001918522E-002   3.1539807802518929E-002   0.0000000000000000     
  -1.6339774582130165E-002   3.6074688340144684E-002   0.0000000000000000     
  -1.2900077369434014E-002   1.9748049761205241E-002   0.0000000000000000     
  -1.4539552081307283E-002   2.3579257852632495E-002   0.0000000000000000     
  -1.6150244922832971E-002   2.7644776434911700E-002   0.0000000000000000     
  -1.7732155894011090E-002   3.1944605508042866E-002   0.0000000000000000     
  -1.9285284994841632E-002   3.6478745072025975E-002   0.0000000000000000     
  -1.4957082413068805E-002   2.0169440714083896E-002   0.0000000000000000     
  -1.6859129577029324E-002   2.4029671714308459E-002   0.0000000000000000     
  -1.8719923973207084E-002   2.8113379179709429E-002   0.0000000000000000     
  -2.0539465601602080E-002   3.2420563110286793E-002   0.0000000000000000     
  -2.2317754462214311E-002   3.6951223506040562E-002   0.0000000000000000     
  -1.0709630920690846E-002   3.5471839982781916E-002   0.0000000000000000     
  -1.1572006619047935E-002   4.0231436782081575E-002   0.0000000000000000     
  -1.2412062251157317E-002   4.5202235488562142E-002   0.0000000000000000     
  -1.3229797817018987E-002   5.0384236102223603E-002   0.0000000000000000     
  -1.4025213316632944E-002   5.5777438623065966E-002   0.0000000000000000     
  -1.3481223224079898E-002   3.5739053310396653E-002   0.0000000000000000     
  -1.4563145666380469E-002   4.0500508980657698E-002   0.0000000000000000     
  -1.5615563407208578E-002   4.5470689155255414E-002   0.0000000000000000     
  -1.6638476446564226E-002   5.0649593834189800E-002   0.0000000000000000     
  -1.7631884784447403E-002   5.6037223017460849E-002   0.0000000000000000     
  -1.6339774582130165E-002   3.6074688340144684E-002   0.0000000000000000     
  -1.7640226609985543E-002   4.0834393791810121E-002   0.0000000000000000     
  -1.8904764818027529E-002   4.5801124001487774E-002   0.0000000000000000     
  -2.0133389206256128E-002   5.0974878969177649E-002   0.0000000000000000     
  -2.1326099774671342E-002   5.6355658694879740E-002   0.0000000000000000     
  -1.9285284994841632E-002   3.6478745072025975E-002   0.0000000000000000     
  -2.0803249449863143E-002   4.1233091215538843E-002   0.0000000000000000     
  -2.2279666483614163E-002   4.6193540027259214E-002   0.0000000000000000     
  -2.3714536096094703E-002   5.1360091507187143E-002   0.0000000000000000     
  -2.5107858287304750E-002   5.6732745655322596E-002   0.0000000000000000     
  -2.2317754462214311E-002   3.6951223506040562E-002   0.0000000000000000     
  -2.4052214186013287E-002   4.1696601251843844E-002   0.0000000000000000     
  -2.5740268403968494E-002   4.6647937232569762E-002   0.0000000000000000     
  -2.7381917116079946E-002   5.1805231448218303E-002   0.0000000000000000     
  -2.8977160322347637E-002   5.7168483898789479E-002   0.0000000000000000     
  -1.4025213316632944E-002   5.5777438623065966E-002   0.0000000000000000     
  -1.4797546488659800E-002   6.1368925156457657E-002   0.0000000000000000     
  -1.5546035071760174E-002   6.7145777807767121E-002   0.0000000000000000     
  -1.6270679065934063E-002   7.3107996576994336E-002   0.0000000000000000     
  -1.6971478471181470E-002   7.9255581464139316E-002   0.0000000000000000     
  -1.7631884784447403E-002   5.6037223017460849E-002   0.0000000000000000     
  -1.8595937197089529E-002   6.1621743686415258E-002   0.0000000000000000     
  -1.9530782460722016E-002   6.7391322822399694E-002   0.0000000000000000     
  -2.0436420575344862E-002   7.3345960425414206E-002   0.0000000000000000     
  -2.1312851540958067E-002   7.9485656495458717E-002   0.0000000000000000     
  -2.1326099774671342E-002   5.6355658694879740E-002   0.0000000000000000     
  -2.2483284043888090E-002   6.1932146322720982E-002   0.0000000000000000     
  -2.3605329534521314E-002   6.7693024996828388E-002   0.0000000000000000     
  -2.4692236246571013E-002   7.3638294717201958E-002   0.0000000000000000     
  -2.5744004180037180E-002   7.9767955483841649E-002   0.0000000000000000     
  -2.5107858287304750E-002   5.6732745655322596E-002   0.0000000000000000     
  -2.6459587029055483E-002   6.2300133065374866E-002   0.0000000000000000     
  -2.7769676293158071E-002   6.8050884331053205E-002   0.0000000000000000     
  -2.9038126079612515E-002   7.3984999452357605E-002   0.0000000000000000     
  -3.0264936388418821E-002   8.0102478429288082E-002   0.0000000000000000     
  -2.8977160322347637E-002   5.7168483898789479E-002   0.0000000000000000     
  -3.0524846152591704E-002   6.2725703914376887E-002   0.0000000000000000     
  -3.2023822736632283E-002   6.8464900825074115E-002   0.0000000000000000     
  -3.3474090074469380E-002   7.4386074630881163E-002   0.0000000000000000     
  -3.4875648166102974E-002   8.0489225331798045E-002   0.0000000000000000     
  -1.6971478471181470E-002   7.9255581464139316E-002   0.0000000000000000     
  -1.7646623829582785E-002   8.5574629044085485E-002   0.0000000000000000     
  -1.8294305683218381E-002   9.2051235891716265E-002   0.0000000000000000     
  -1.8914524032088278E-002   9.8685402007031672E-002   0.0000000000000000     
  -1.9507278876192465E-002  0.10547712739003169        0.0000000000000000     
  -2.1312851540958067E-002   7.9485656495458717E-002   0.0000000000000000     
  -2.2157392110405641E-002   8.5796440351131653E-002   0.0000000000000000     
  -2.2967359036531611E-002   9.2264341311031312E-002   0.0000000000000000     
  -2.3742752319335970E-002   9.8889359375157707E-002   0.0000000000000000     
  -2.4483571958818715E-002  0.10567149454351081        0.0000000000000000     
  -2.5744004180037180E-002   7.9767955483841649E-002   0.0000000000000000     
  -2.6757567650641016E-002   8.6068226975945128E-002   0.0000000000000000     
  -2.7729860974103730E-002   9.2525328872709992E-002   0.0000000000000000     
  -2.8660884150425312E-002   9.9139261174136212E-002   0.0000000000000000     
  -2.9550637179605762E-002  0.10591002388022384        0.0000000000000000     
  -3.0264936388418821E-002   8.0102478429288082E-002   0.0000000000000000     
  -3.1447150450288910E-002   8.6389988918525909E-002   0.0000000000000000     
  -3.2581811495934733E-002   9.2834198576752305E-002   0.0000000000000000     
  -3.3668919525356313E-002   9.9435107403967299E-002   0.0000000000000000     
  -3.4708474538553608E-002  0.10619271540017085        0.0000000000000000     
  -3.4875648166102974E-002   8.0489225331798045E-002   0.0000000000000000     
  -3.6226140509349317E-002   8.6761726178873969E-002   0.0000000000000000     
  -3.7523210602024647E-002   9.3190950423158253E-002   0.0000000000000000     
  -3.8766858444128964E-002   9.9776898064650857E-002   0.0000000000000000     
  -3.9957084035662255E-002  0.10651956910335178        0.0000000000000000     
  -1.9507278876192465E-002  0.10547712739003169        0.0000000000000000     
  -2.0074966983338154E-002  0.11241684653257629        0.0000000000000000     
  -2.0619985121332552E-002  0.11949499392652545        0.0000000000000000     
  -2.1142333290175661E-002  0.12671156957187912        0.0000000000000000     
  -2.1642011489867476E-002  0.13406657346863740        0.0000000000000000     
  -2.4483571958818715E-002  0.10567149454351081        0.0000000000000000     
  -2.5192557626286465E-002  0.11260136510143695        0.0000000000000000     
  -2.5872448993045829E-002  0.11966958933428240        0.0000000000000000     
  -2.6523246059096801E-002  0.12687616724204717        0.0000000000000000     
  -2.7144948824439390E-002  0.13422109882473129        0.0000000000000000     
  -2.9550637179605762E-002  0.10591002388022384        0.0000000000000000     
  -3.0402460091788430E-002  0.11282828371731710        0.0000000000000000     
  -3.1219692917116640E-002  0.11988470741176016        0.0000000000000000     
  -3.2002335655590408E-002  0.12707929496355311        0.0000000000000000     
  -3.2750388307209728E-002  0.13441204637269588        0.0000000000000000     
  -3.4708474538553608E-002  0.10619271540017085        0.0000000000000000     
  -3.5704674379844051E-002  0.11309760238021675        0.0000000000000000     
  -3.6661716893544999E-002  0.12014034815895877        0.0000000000000000     
  -3.7579602079656479E-002  0.12732095273639690        0.0000000000000000     
  -3.8458329938178479E-002  0.13463941611253114        0.0000000000000000     
  -3.9957084035662255E-002  0.10651956910335178        0.0000000000000000     
  -4.1099200490453305E-002  0.11340932109013592        0.0000000000000000     
  -4.2198520922330895E-002  0.12043651157587817        0.0000000000000000     
  -4.3255045331294997E-002  0.12760114056057856        0.0000000000000000     
  -4.4268773717345646E-002  0.13490320804423708        0.0000000000000000     
  -2.1642011489867476E-002  0.13406657346863740        0.0000000000000000     
  -2.2112753367605393E-002  0.14154488188364062        0.0000000000000000     
  -2.2548292570586787E-002  0.14913137108372923        0.0000000000000000     
  -2.2948629098811672E-002  0.15682604106890324        0.0000000000000000     
  -2.3313762952280045E-002  0.16462889183916268        0.0000000000000000     
  -2.7144948824439390E-002  0.13422109882473129        0.0000000000000000     
  -2.7729644730748799E-002  0.14168907182197321        0.0000000000000000     
  -2.8269421219700237E-002  0.14926477397341137        0.0000000000000000     
  -2.8764278291293698E-002  0.15694820527904585        0.0000000000000000     
  -2.9214215945529188E-002  0.16473936573887660        0.0000000000000000     
  -3.2750388307209728E-002  0.13441204637269588        0.0000000000000000     
  -3.3454672742040989E-002  0.14186757179213585        0.0000000000000000     
  -3.4106010830150607E-002  0.14943048137482046        0.0000000000000000     
  -3.4704402571538576E-002  0.15710077512074969        0.0000000000000000     
  -3.5249847966204881E-002  0.16487845302992346        0.0000000000000000     
  -3.8458329938178479E-002  0.13463941611253114        0.0000000000000000     
  -3.9287837401481958E-002  0.14208038179412860        0.0000000000000000     
  -4.0058061401937899E-002  0.14962849328795644        0.0000000000000000     
  -4.0769001939546287E-002  0.15728375059401467        0.0000000000000000     
  -4.1420659014307117E-002  0.16504615371230322        0.0000000000000000     
  -4.4268773717345646E-002  0.13490320804423708        0.0000000000000000     
  -4.5229138709071713E-002  0.14232750182795145        0.0000000000000000     
  -4.6125572935062108E-002  0.14985880971281934        0.0000000000000000     
  -4.6958076395316843E-002  0.15749713169884086        0.0000000000000000     
  -4.7726649089835899E-002  0.16524246778601592        0.0000000000000000     
   0.0000000000000000        0.0000000000000000        0.0000000000000000     
  -1.7984119364861885E-003   1.2768856712303289E-003   0.0000000000000000     
  -3.6215364651606746E-003   2.9392437387244425E-003   0.0000000000000000     
  -5.4693735860234585E-003   4.9870742024823401E-003   0.0000000000000000     
  -7.3419232990745388E-003   7.4203770625040242E-003   0.0000000000000000     
   0.0000000000000000        0.0000000000000000        0.0000000000000000     
  -2.0695195781922165E-003   1.3550198820759900E-003   0.0000000000000000     
  -4.1642243894570172E-003   3.0941364198992251E-003   0.0000000000000000     
  -6.2841144337944018E-003   5.2173496134697061E-003   0.0000000000000000     
  -8.4291897112043698E-003   7.7246594627874325E-003   0.0000000000000000     
   0.0000000000000000        0.0000000000000000        0.0000000000000000     
  -2.3401604150521844E-003   1.4590863620307824E-003   0.0000000000000000     
  -4.7202958690330211E-003   3.3000572836904777E-003   0.0000000000000000     
  -7.1404063619425091E-003   5.5229127649790866E-003   0.0000000000000000     
  -9.6004918937806511E-003   8.1276528058966090E-003   0.0000000000000000     
   0.0000000000000000        0.0000000000000000        0.0000000000000000     
  -2.6103344470660922E-003   1.5890851110947055E-003   0.0000000000000000     
  -5.2897509038886872E-003   3.5570063300981985E-003   0.0000000000000000     
  -8.0382493704677840E-003   5.9037636570104810E-003   0.0000000000000000     
  -1.0855829846803383E-002   8.6293570918315483E-003   0.0000000000000000     
   0.0000000000000000        0.0000000000000000        0.0000000000000000     
  -2.8800416742339389E-003   1.7450161292677600E-003   0.0000000000000000     
  -5.8725894940240136E-003   3.8649835591223888E-003   0.0000000000000000     
  -8.9776434593702228E-003   6.3599022895638891E-003   0.0000000000000000     
  -1.2195203570272567E-002   9.2297723205922565E-003   0.0000000000000000     
  -7.3419232990745388E-003   7.4203770625040242E-003   0.0000000000000000     
  -9.2315502505581036E-003   1.0186722834342946E-002   0.0000000000000000     
  -1.1130619086718335E-002   1.3233682033552569E-002   0.0000000000000000     
  -1.3039129807555234E-002   1.6561254660132883E-002   0.0000000000000000     
  -1.4957082413068805E-002   2.0169440714083896E-002   0.0000000000000000     
  -8.4291897112043698E-003   7.7246594627874325E-003   0.0000000000000000     
  -1.0591190541238976E-002   1.0558610763511533E-002   0.0000000000000000     
  -1.2761857243450275E-002   1.3661748311301129E-002   0.0000000000000000     
  -1.4941189817838268E-002   1.7034072106156223E-002   0.0000000000000000     
  -1.7129188264402951E-002   2.0675582148076816E-002   0.0000000000000000     
  -9.6004918937806511E-003   8.1276528058966090E-003   0.0000000000000000     
  -1.2077070407961601E-002   1.1046871667488304E-002   0.0000000000000000     
  -1.4546659847899513E-002   1.4213163610799443E-002   0.0000000000000000     
  -1.7009260213594387E-002   1.7626528635830016E-002   0.0000000000000000     
  -1.9464871505046222E-002   2.1286966742580037E-002   0.0000000000000000     
  -1.0855829846803383E-002   8.6293570918315483E-003   0.0000000000000000     
  -1.3689189850725977E-002   1.1651505546273271E-002   0.0000000000000000     
  -1.6485026900066053E-002   1.4887927932047509E-002   0.0000000000000000     
  -1.9243340994823603E-002   1.8338624249154261E-002   0.0000000000000000     
  -2.1964132134998628E-002   2.2003594497593537E-002   0.0000000000000000     
  -1.2195203570272567E-002   9.2297723205922565E-003   0.0000000000000000     
  -1.5427548869532100E-002   1.2372512399866423E-002   0.0000000000000000     
  -1.8576958399949880E-002   1.5686041275045332E-002   0.0000000000000000     
  -2.1643432161525894E-002   1.9170358946128965E-002   0.0000000000000000     
  -2.4626970154260155E-002   2.2825465413117335E-002   0.0000000000000000     
  -1.4957082413068805E-002   2.0169440714083896E-002   0.0000000000000000     
  -1.6859129577029324E-002   2.4029671714308459E-002   0.0000000000000000     
  -1.8719923973207084E-002   2.8113379179709429E-002   0.0000000000000000     
  -2.0539465601602080E-002   3.2420563110286793E-002   0.0000000000000000     
  -2.2317754462214311E-002   3.6951223506040562E-002   0.0000000000000000     
  -1.7129188264402951E-002   2.0675582148076816E-002   0.0000000000000000     
  -1.9294567689306975E-002   2.4558663629467889E-002   0.0000000000000000     
  -2.1406043198712976E-002   2.8655701742734404E-002   0.0000000000000000     
  -2.3463614792620952E-002   3.2966696487876361E-002   0.0000000000000000     
  -2.5467282471030913E-002   3.7491647864893771E-002   0.0000000000000000     
  -1.9464871505046222E-002   2.1286966742580037E-002   0.0000000000000000     
  -2.1885152633483208E-002   2.5175733705081769E-002   0.0000000000000000     
  -2.4241762510133526E-002   2.9274085297367500E-002   0.0000000000000000     
  -2.6534701134997167E-002   3.3582021519437226E-002   0.0000000000000000     
  -2.8763968508074146E-002   3.8099542371290950E-002   0.0000000000000000     
  -2.1964132134998628E-002   2.2003594497593537E-002   0.0000000000000000     
  -2.4630884409558036E-002   2.5880881941150100E-002   0.0000000000000000     
  -2.7227081907468743E-002   2.9968529843608718E-002   0.0000000000000000     
  -2.9752724628730732E-002   3.4266538204969388E-002   0.0000000000000000     
  -3.2207812573344013E-002   3.8774907025232112E-002   0.0000000000000000     
  -2.4626970154260155E-002   2.2825465413117335E-002   0.0000000000000000     
  -2.7531763017531463E-002   2.6674108337672885E-002   0.0000000000000000     
  -3.0362001390718624E-002   3.0739035381458054E-002   0.0000000000000000     
  -3.3117685273821633E-002   3.5020246544472840E-002   0.0000000000000000     
  -3.5798814666840512E-002   3.9517741826717252E-002   0.0000000000000000     
  -2.2317754462214311E-002   3.6951223506040562E-002   0.0000000000000000     
  -2.4052214186013287E-002   4.1696601251843844E-002   0.0000000000000000     
  -2.5740268403968494E-002   4.6647937232569762E-002   0.0000000000000000     
  -2.7381917116079946E-002   5.1805231448218303E-002   0.0000000000000000     
  -2.8977160322347637E-002   5.7168483898789479E-002   0.0000000000000000     
  -2.5467282471030913E-002   3.7491647864893771E-002   0.0000000000000000     
  -2.7418228526332477E-002   4.2226365437510106E-002   0.0000000000000000     
  -2.9317635250915283E-002   4.7166658769448831E-002   0.0000000000000000     
  -3.1165502644779325E-002   5.2312527860709980E-002   0.0000000000000000     
  -3.2961830707924598E-002   5.7663972711293518E-002   0.0000000000000000     
  -2.8763968508074146E-002   3.8099542371290950E-002   0.0000000000000000     
  -3.0932400178717255E-002   4.2823825309322550E-002   0.0000000000000000     
  -3.3042831696279300E-002   4.7752047789925908E-002   0.0000000000000000     
  -3.5095263060760301E-002   5.2884209813101012E-002   0.0000000000000000     
  -3.7089694272160217E-002   5.8220311378847873E-002   0.0000000000000000     
  -3.2207812573344013E-002   3.8774907025232112E-002   0.0000000000000000     
  -3.4594729143167614E-002   4.3488980867281223E-002   0.0000000000000000     
  -3.6915857740060565E-002   4.8404104294000973E-002   0.0000000000000000     
  -3.9171198364022858E-002   5.3520277305391439E-002   0.0000000000000000     
  -4.1360751015054507E-002   5.8837499901452553E-002   0.0000000000000000     
  -3.5798814666840512E-002   3.9517741826717252E-002   0.0000000000000000     
  -3.8405215419683544E-002   4.4221832111386063E-002   0.0000000000000000     
  -4.0936713382259043E-002   4.9122828281674052E-002   0.0000000000000000     
  -4.3393308554567023E-002   5.4220730337581208E-002   0.0000000000000000     
  -4.5775000936607455E-002   5.9515538279107556E-002   0.0000000000000000     
  -2.8977160322347637E-002   5.7168483898789479E-002   0.0000000000000000     
  -3.0524846152591704E-002   6.2725703914376887E-002   0.0000000000000000     
  -3.2023822736632283E-002   6.8464900825074115E-002   0.0000000000000000     
  -3.3474090074469380E-002   7.4386074630881163E-002   0.0000000000000000     
  -3.4875648166102974E-002   8.0489225331798045E-002   0.0000000000000000     
  -3.2961830707924598E-002   5.7663972711293518E-002   0.0000000000000000     
  -3.4704541708866693E-002   6.3208600058280204E-002   0.0000000000000000     
  -3.6391557916121184E-002   6.8934016638750775E-002   0.0000000000000000     
  -3.8022879329688071E-002   7.4840222452705260E-002   0.0000000000000000     
  -3.9598505949567341E-002   8.0927217500143617E-002   0.0000000000000000     
  -3.7089694272160217E-002   5.8220311378847873E-002   0.0000000000000000     
  -3.9024153992250357E-002   6.3748562685637999E-002   0.0000000000000000     
  -4.0896670882801973E-002   6.9457173931942881E-002   0.0000000000000000     
  -4.2707244943815066E-002   7.5346145117762567E-002   0.0000000000000000     
  -4.4455876175289642E-002   8.1415476243097015E-002   0.0000000000000000     
  -4.1360751015054507E-002   5.8837499901452553E-002   0.0000000000000000     
  -4.3483683002742718E-002   6.4345591796450261E-002   0.0000000000000000     
  -4.5539161636674659E-002   7.0034372704650419E-002   0.0000000000000000     
  -4.7527186916850379E-002   7.5903842626053070E-002   0.0000000000000000     
  -4.9447758843269837E-002   8.1954001560658213E-002   0.0000000000000000     
  -4.5775000936607455E-002   5.9515538279107556E-002   0.0000000000000000     
  -4.8083128740343747E-002   6.4999687390716987E-002   0.0000000000000000     
  -5.0319030177739262E-002   7.0665612956873403E-002   0.0000000000000000     
  -5.2482705248793997E-002   7.6513314977576810E-002   0.0000000000000000     
  -5.4574153953507967E-002   8.2542793452827209E-002   0.0000000000000000     
  -3.4875648166102974E-002   8.0489225331798045E-002   0.0000000000000000     
  -3.6226140509349317E-002   8.6761726178873969E-002   0.0000000000000000     
  -3.7523210602024647E-002   9.3190950423158253E-002   0.0000000000000000     
  -3.8766858444128964E-002   9.9776898064650857E-002   0.0000000000000000     
  -3.9957084035662255E-002  0.10651956910335178        0.0000000000000000     
  -3.9598505949567341E-002   8.0927217500143617E-002   0.0000000000000000     
  -4.1116675499512895E-002   8.7182984409014952E-002   0.0000000000000000     
  -4.2575625703278532E-002   9.3595505807268276E-002   0.0000000000000000     
  -4.3975356560864293E-002  0.10016478169490360        0.0000000000000000     
  -4.5315868072270164E-002  0.10689081207192093        0.0000000000000000     
  -4.4455876175289642E-002   8.1415476243097015E-002   0.0000000000000000     
  -4.6140893092470256E-002   8.7653309260974394E-002   0.0000000000000000     
  -4.7760624210601496E-002   9.4047786124422772E-002   0.0000000000000000     
  -4.9315069529683335E-002  0.10059890683344218        0.0000000000000000     
  -5.0804229049715807E-002  0.10730667138803263        0.0000000000000000     
  -4.9447758843269837E-002   8.1954001560658213E-002   0.0000000000000000     
  -5.1298793288221435E-002   8.8172700734752280E-002   0.0000000000000000     
  -5.3078206123993520E-002   9.4547791374621756E-002   0.0000000000000000     
  -5.4785997350586091E-002  0.10107927348026660        0.0000000000000000     
  -5.6422166967999163E-002  0.10776714705168686        0.0000000000000000     
  -5.4574153953507967E-002   8.2542793452827209E-002   0.0000000000000000     
  -5.6590376086766418E-002   8.8741158830348651E-002   0.0000000000000000     
  -5.8528371443454623E-002   9.5095521557865187E-002   0.0000000000000000     
  -6.0388140023572574E-002  0.10160588163537686        0.0000000000000000     
  -6.2169681827120252E-002  0.10827223906288361        0.0000000000000000     
  -3.9957084035662255E-002  0.10651956910335178        0.0000000000000000     
  -4.1099200490453305E-002  0.11340932109013592        0.0000000000000000     
  -4.2198520922330895E-002  0.12043651157587817        0.0000000000000000     
  -4.3255045331294997E-002  0.12760114056057856        0.0000000000000000     
  -4.4268773717345646E-002  0.13490320804423708        0.0000000000000000     
  -4.5315868072270164E-002  0.10689081207192093        0.0000000000000000     
  -4.6603545447868225E-002  0.11376372710470334        0.0000000000000000     
  -4.7844773898030560E-002  0.12077365695963381        0.0000000000000000     
  -4.9039553422757141E-002  0.12792060163671240        0.0000000000000000     
  -5.0187884022047984E-002  0.13520456113593904        0.0000000000000000     
  -5.0804229049715807E-002  0.10730667138803263        0.0000000000000000     
  -5.2235216276340785E-002  0.11416110768154772        0.0000000000000000     
  -5.3615144715200201E-002  0.12115224360734105        0.0000000000000000     
  -5.4944014366294029E-002  0.12828007916541262        0.0000000000000000     
  -5.6221825229622283E-002  0.13554461435576243        0.0000000000000000     
  -5.6422166967999163E-002  0.10776714705168686        0.0000000000000000     
  -5.7994212975870991E-002  0.11460146282066909        0.0000000000000000     
  -5.9509633373839819E-002  0.12157227151899989        0.0000000000000000     
  -6.0968428161905668E-002  0.12867957314667924        0.0000000000000000     
  -6.2370597340068522E-002  0.13592336770370717        0.0000000000000000     
  -6.2169681827120252E-002  0.10827223906288361        0.0000000000000000     
  -6.3880535546458825E-002  0.11508479252206745        0.0000000000000000     
  -6.5528239873949429E-002  0.12203374069461037        0.0000000000000000     
  -6.7112794809592050E-002  0.12911908358051233        0.0000000000000000     
  -6.8634200353386701E-002  0.13634082117977334        0.0000000000000000     
  -4.4268773717345646E-002  0.13490320804423708        0.0000000000000000     
  -4.5229138709071713E-002  0.14232750182795145        0.0000000000000000     
  -4.6125572935062108E-002  0.14985880971281934        0.0000000000000000     
  -4.6958076395316843E-002  0.15749713169884086        0.0000000000000000     
  -4.7726649089835899E-002  0.16524246778601592        0.0000000000000000     
  -5.0187884022047984E-002  0.13520456113593904        0.0000000000000000     
  -5.1278910720242502E-002  0.14261046329128171        0.0000000000000000     
  -5.2301778541680083E-002  0.15012323593670829        0.0000000000000000     
  -5.3256487486360721E-002  0.15774287907221871        0.0000000000000000     
  -5.4143037554284429E-002  0.16546939269781308        0.0000000000000000     
  -5.6221825229622283E-002  0.13554461435576243        0.0000000000000000     
  -5.7437487490426604E-002  0.14293079758179689        0.0000000000000000     
  -5.8579911333948666E-002  0.15042357724692229        0.0000000000000000     
  -5.9649096760188411E-002  0.15802295335113875        0.0000000000000000     
  -6.0645043769145895E-002  0.16572892589444621        0.0000000000000000     
  -6.2370597340068522E-002  0.13592336770370717        0.0000000000000000     
  -6.3704869019624036E-002  0.14328850469949683        0.0000000000000000     
  -6.4959971311867828E-002  0.15075983364346143        0.0000000000000000     
  -6.6135904216799921E-002  0.15833735453560088        0.0000000000000000     
  -6.7232667734420298E-002  0.16602106737591527        0.0000000000000000     
  -6.8634200353386701E-002  0.13634082117977334        0.0000000000000000     
  -7.0081055307834761E-002  0.14368358464438166        0.0000000000000000     
  -7.1441958475437592E-002  0.15113200512632563        0.0000000000000000     
  -7.2716909856195222E-002  0.15868608262560518        0.0000000000000000     
  -7.3905909450107651E-002  0.16634581714222030        0.0000000000000000     
   0.0000000000000000        0.0000000000000000        0.0000000000000000     
  -2.8800416742339389E-003   1.7450161292677600E-003   0.0000000000000000     
  -5.8725894940240136E-003   3.8649835591223888E-003   0.0000000000000000     
  -8.9776434593702228E-003   6.3599022895638891E-003   0.0000000000000000     
  -1.2195203570272567E-002   9.2297723205922565E-003   0.0000000000000000     
   0.0000000000000000        0.0000000000000000        0.0000000000000000     
  -3.2831429819445471E-003   1.9995372950408034E-003   0.0000000000000000     
  -6.6768224723504806E-003   4.3313002284233824E-003   0.0000000000000000     
  -1.0181038471217797E-002   6.9952888001477385E-003   0.0000000000000000     
  -1.3795790978546500E-002   9.9915030102138702E-003   0.0000000000000000     
   0.0000000000000000        0.0000000000000000        0.0000000000000000     
  -3.9534992555867385E-003   2.4253064869046931E-003   0.0000000000000000     
  -7.9104606717795654E-003   5.0632675956615129E-003   0.0000000000000000     
  -1.1870884248578479E-002   7.9138833262704586E-003   0.0000000000000000     
  -1.5834769985983481E-002   1.0977153678731531E-002   0.0000000000000000     
   0.0000000000000000        0.0000000000000000        0.0000000000000000     
  -4.8911104951605130E-003   3.0223237048594294E-003   0.0000000000000000     
  -9.5735040923112680E-003   6.0608856608367814E-003   0.0000000000000000     
  -1.4047180791452268E-002   9.1156858679320493E-003   0.0000000000000000     
  -1.8312140592583504E-002   1.2186724326145240E-002   0.0000000000000000     
   0.0000000000000000        0.0000000000000000        0.0000000000000000     
  -6.0959767006658712E-003   3.7905889489050133E-003   0.0000000000000000     
  -1.1665952733945592E-002   7.3241544239491842E-003   0.0000000000000000     
  -1.6709928099839164E-002   1.0600696425132511E-002   0.0000000000000000     
  -2.1227902798346583E-002   1.3620214952454995E-002   0.0000000000000000     
  -1.2195203570272567E-002   9.2297723205922565E-003   0.0000000000000000     
  -1.5427548869532100E-002   1.2372512399866423E-002   0.0000000000000000     
  -1.8576958399949880E-002   1.5686041275045332E-002   0.0000000000000000     
  -2.1643432161525894E-002   1.9170358946128965E-002   0.0000000000000000     
  -2.4626970154260155E-002   2.2825465413117335E-002   0.0000000000000000     
  -1.3795790978546500E-002   9.9915030102138702E-003   0.0000000000000000     
  -1.7403984010253112E-002   1.3221958333645157E-002   0.0000000000000000     
  -2.0888521582254151E-002   1.6588670245464968E-002   0.0000000000000000     
  -2.4249403694549629E-002   2.0091638745673306E-002   0.0000000000000000     
  -2.7486630347139537E-002   2.3730863834270175E-002   0.0000000000000000     
  -1.5834769985983481E-002   1.0977153678731531E-002   0.0000000000000000     
  -1.9730331818762142E-002   1.4211909452986837E-002   0.0000000000000000     
  -2.3485783681682030E-002   1.7576981448978481E-002   0.0000000000000000     
  -2.7101125574743149E-002   2.1072369666706468E-002   0.0000000000000000     
  -3.0576357497945492E-002   2.4698074106170788E-002   0.0000000000000000     
  -1.8312140592583504E-002   1.2186724326145240E-002   0.0000000000000000     
  -2.2406592295059188E-002   1.5342365757891474E-002   0.0000000000000000     
  -2.6368744698233502E-002   1.8650974885585883E-002   0.0000000000000000     
  -3.0198597802106451E-002   2.2112551709228444E-002   0.0000000000000000     
  -3.3896151606678034E-002   2.5727096228819187E-002   0.0000000000000000     
  -2.1227902798346583E-002   1.3620214952454995E-002   0.0000000000000000     
  -2.5432765439144252E-002   1.6613327248359067E-002   0.0000000000000000     
  -2.9537404631908574E-002   1.9810650555287152E-002   0.0000000000000000     
  -3.3541820376639539E-002   2.3212184873239256E-002   0.0000000000000000     
  -3.7446012673337158E-002   2.6817930202215366E-002   0.0000000000000000     
  -2.4626970154260155E-002   2.2825465413117335E-002   0.0000000000000000     
  -2.7531763017531463E-002   2.6674108337672885E-002   0.0000000000000000     
  -3.0362001390718624E-002   3.0739035381458054E-002   0.0000000000000000     
  -3.3117685273821633E-002   3.5020246544472840E-002   0.0000000000000000     
  -3.5798814666840512E-002   3.9517741826717252E-002   0.0000000000000000     
  -2.7486630347139537E-002   2.3730863834270175E-002   0.0000000000000000     
  -3.0623248292759635E-002   2.7548872136368044E-002   0.0000000000000000     
  -3.3682304284145703E-002   3.1588190277079410E-002   0.0000000000000000     
  -3.6663798321297736E-002   3.5848818256404270E-002   0.0000000000000000     
  -3.9567730404215740E-002   4.0330756074342618E-002   0.0000000000000000     
  -3.0576357497945492E-002   2.4698074106170788E-002   0.0000000000000000     
  -3.3940800070598728E-002   2.8498632578953510E-002   0.0000000000000000     
  -3.7223773912012523E-002   3.2518582896636693E-002   0.0000000000000000     
  -4.0425279022186872E-002   3.6757925059220348E-002   0.0000000000000000     
  -4.3545315401121776E-002   4.1216659066704450E-002   0.0000000000000000     
  -3.3896151606678034E-002   2.5727096228819187E-002   0.0000000000000000     
  -3.7484418351048751E-002   2.9523389665429275E-002   0.0000000000000000     
  -4.0986410274319089E-002   3.3530213240129905E-002   0.0000000000000000     
  -4.4402127376489055E-002   3.7747566952921065E-002   0.0000000000000000     
  -4.7731569657558634E-002   4.2175450803802771E-002   0.0000000000000000     
  -3.7446012673337158E-002   2.6817930202215366E-002   0.0000000000000000     
  -4.1254103134109689E-002   3.0623143395795346E-002   0.0000000000000000     
  -4.4970213371065389E-002   3.4623081307559041E-002   0.0000000000000000     
  -4.8594343384204271E-002   3.8817743937506435E-002   0.0000000000000000     
  -5.2126493173526314E-002   4.3207131285637551E-002   0.0000000000000000     
  -3.5798814666840512E-002   3.9517741826717252E-002   0.0000000000000000     
  -3.8405215419683544E-002   4.4221832111386063E-002   0.0000000000000000     
  -4.0936713382259043E-002   4.9122828281674052E-002   0.0000000000000000     
  -4.3393308554567023E-002   5.4220730337581208E-002   0.0000000000000000     
  -4.5775000936607455E-002   5.9515538279107556E-002   0.0000000000000000     
  -3.9567730404215740E-002   4.0330756074342618E-002   0.0000000000000000     
  -4.2391104390199275E-002   4.5020220411713829E-002   0.0000000000000000     
  -4.5130924136547949E-002   4.9903427949337290E-002   0.0000000000000000     
  -4.7787189643261736E-002   5.4980378687212984E-002   0.0000000000000000     
  -5.0359900910340649E-002   6.0251072625340935E-002   0.0000000000000000     
  -4.3545315401121776E-002   4.1216659066704450E-002   0.0000000000000000     
  -4.6579641436649034E-002   4.5881987138341226E-002   0.0000000000000000     
  -4.9524015516600434E-002   5.0741111493382854E-002   0.0000000000000000     
  -5.2378437640975960E-002   5.5794032131829374E-002   0.0000000000000000     
  -5.5142907809775633E-002   6.1040749053680732E-002   0.0000000000000000     
  -4.7731569657558634E-002   4.2175450803802771E-002   0.0000000000000000     
  -5.0970826559032803E-002   4.6807132291268254E-002   0.0000000000000000     
  -5.4115987522416489E-002   5.1635878913810780E-002   0.0000000000000000     
  -5.7167052547709693E-002   5.6661690671430356E-002   0.0000000000000000     
  -6.0124021634912428E-002   6.1884567564126976E-002   0.0000000000000000     
  -5.2126493173526314E-002   4.3207131285637551E-002   0.0000000000000000     
  -5.5564659757350587E-002   4.7795655870494905E-002   0.0000000000000000     
  -5.8906840153996137E-002   5.2587730210621027E-002   0.0000000000000000     
  -6.2153034363462950E-002   5.7583354306015931E-002   0.0000000000000000     
  -6.5303242385751026E-002   6.2782528156679618E-002   0.0000000000000000     
  -4.5775000936607455E-002   5.9515538279107556E-002   0.0000000000000000     
  -4.8083128740343747E-002   6.4999687390716987E-002   0.0000000000000000     
  -5.0319030177739262E-002   7.0665612956873403E-002   0.0000000000000000     
  -5.2482705248793997E-002   7.6513314977576810E-002   0.0000000000000000     
  -5.4574153953507967E-002   8.2542793452827209E-002   0.0000000000000000     
  -5.0359900910340649E-002   6.0251072625340935E-002   0.0000000000000000     
  -5.2852471826815739E-002   6.5709953161315310E-002   0.0000000000000000     
  -5.5268316281718070E-002   7.1351463692730294E-002   0.0000000000000000     
  -5.7607434275047630E-002   7.7175604219585858E-002   0.0000000000000000     
  -5.9869825806804444E-002   8.3182374741882059E-002   0.0000000000000000     
  -5.5142907809775633E-002   6.1040749053680732E-002   0.0000000000000000     
  -5.7821692883920944E-002   6.6475492801122360E-002   0.0000000000000000     
  -6.0419059724333410E-002   7.2092493916339553E-002   0.0000000000000000     
  -6.2935008331012982E-002   7.7891752399332381E-002   0.0000000000000000     
  -6.5369538703959729E-002   8.3873268250100816E-002   0.0000000000000000     
  -6.0124021634912428E-002   6.1884567564126976E-002   0.0000000000000000     
  -6.2990791911659391E-002   6.7296306310138110E-002   0.0000000000000000     
  -6.5771260505585266E-002   7.2888703627701223E-002   0.0000000000000000     
  -6.8465427416690067E-002   7.8661759516816365E-002   0.0000000000000000     
  -7.1073292644973779E-002   8.4615473977483507E-002   0.0000000000000000     
  -6.5303242385751026E-002   6.2782528156679618E-002   0.0000000000000000     
  -6.8359768910031038E-002   6.8172393688362559E-002   0.0000000000000000     
  -7.1324918625473632E-002   7.3740092826815304E-002   0.0000000000000000     
  -7.4198691532078850E-002   7.9485625572037824E-002   0.0000000000000000     
  -7.6981087629846651E-002   8.5408991924030134E-002   0.0000000000000000     
  -5.4574153953507967E-002   8.2542793452827209E-002   0.0000000000000000     
  -5.6590376086766418E-002   8.8741158830348651E-002   0.0000000000000000     
  -5.8528371443454623E-002   9.5095521557865187E-002   0.0000000000000000     
  -6.0388140023572574E-002  0.10160588163537686        0.0000000000000000     
  -6.2169681827120252E-002  0.10827223906288361        0.0000000000000000     
  -5.9869825806804444E-002   8.3182374741882059E-002   0.0000000000000000     
  -6.2051393418957011E-002   8.9358373408080130E-002   0.0000000000000000     
  -6.4148039653473862E-002   9.5690198366641402E-002   0.0000000000000000     
  -6.6159764510354976E-002  0.10217784961756586        0.0000000000000000     
  -6.8086567989600388E-002  0.10882132716085351        0.0000000000000000     
  -6.5369538703959729E-002   8.3873268250100816E-002   0.0000000000000000     
  -6.7717597215645020E-002   9.0024034328263391E-002   0.0000000000000000     
  -6.9974130238540294E-002   9.6331043493438642E-002   0.0000000000000000     
  -7.2139137772645620E-002  0.10279429574562658        0.0000000000000000     
  -7.4212619817960901E-002  0.10941379108482718        0.0000000000000000     
  -7.1073292644973779E-002   8.4615473977483507E-002   0.0000000000000000     
  -7.3588987476830417E-002   9.0738141590898422E-002   0.0000000000000000     
  -7.6006643198653967E-002   9.7018056938256922E-002   0.0000000000000000     
  -7.8326259810444415E-002  0.10345522001955898        0.0000000000000000     
  -8.0547837312201789E-002  0.11004963083480457        0.0000000000000000     
  -7.6981087629846651E-002   8.5408991924030134E-002   0.0000000000000000     
  -7.9665564202513237E-002   9.1500695195985249E-002   0.0000000000000000     
  -8.2245578533814839E-002   9.7751238701096241E-002   0.0000000000000000     
  -8.4721130623751431E-002  0.10416062243936307        0.0000000000000000     
  -8.7092220472323068E-002  0.11072884641078576        0.0000000000000000     
  -6.2169681827120252E-002  0.10827223906288361        0.0000000000000000     
  -6.3880535546458825E-002  0.11508479252206745        0.0000000000000000     
  -6.5528239873949429E-002  0.12203374069461037        0.0000000000000000     
  -6.7112794809592050E-002  0.12911908358051233        0.0000000000000000     
  -6.8634200353386701E-002  0.13634082117977334        0.0000000000000000     
  -6.8086567989600388E-002  0.10882132716085351        0.0000000000000000     
  -6.9936208338505376E-002  0.11561081305169632        0.0000000000000000     
  -7.1716443804365190E-002  0.12253648934528626        0.0000000000000000     
  -7.3427274387179886E-002  0.12959835604162329        0.0000000000000000     
  -7.5068700086949436E-002  0.13679641314070745        0.0000000000000000     
  -7.4212619817960901E-002  0.10941379108482718        0.0000000000000000     
  -7.6203255702411654E-002  0.11617924067550921        0.0000000000000000     
  -7.8119724753923314E-002  0.12308035568214135        0.0000000000000000     
  -7.9962026972495881E-002  0.13011713610472364        0.0000000000000000     
  -8.1730162358129313E-002  0.13728958194325611        0.0000000000000000     
  -8.0547837312201789E-002  0.11004963083480457        0.0000000000000000     
  -8.2681677638177700E-002  0.11679007539350604        0.0000000000000000     
  -8.4738082722623786E-002  0.12366533970517565        0.0000000000000000     
  -8.6717052565539993E-002  0.13067542376981339        0.0000000000000000     
  -8.8618587166926402E-002  0.13782032758741930        0.0000000000000000     
  -8.7092220472323068E-002  0.11072884641078576        0.0000000000000000     
  -8.9371474145803514E-002  0.11744331720568692        0.0000000000000000     
  -9.1571517710466566E-002  0.12429144141438919        0.0000000000000000     
  -9.3692351166312277E-002  0.13127321903689254        0.0000000000000000     
  -9.5733974513340619E-002  0.13838865007319701        0.0000000000000000     
  -6.8634200353386701E-002  0.13634082117977334        0.0000000000000000     
  -7.0081055307834761E-002  0.14368358464438166        0.0000000000000000     
  -7.1441958475437592E-002  0.15113200512632563        0.0000000000000000     
  -7.2716909856195222E-002  0.15868608262560518        0.0000000000000000     
  -7.3905909450107651E-002  0.16634581714222030        0.0000000000000000     
  -7.5068700086949436E-002  0.13679641314070745        0.0000000000000000     
  -7.6628989297911940E-002  0.14411532211950098        0.0000000000000000     
  -7.8096410414305581E-002  0.15153974445496621        0.0000000000000000     
  -7.9470963436130318E-002  0.15906968014710307        0.0000000000000000     
  -8.0752648363386179E-002  0.16670512919591160        0.0000000000000000     
  -8.1730162358129313E-002  0.13728958194325611        0.0000000000000000     
  -8.3411613932708795E-002  0.14458300182790448        0.0000000000000000     
  -8.4993864718119413E-002  0.15198270438883446        0.0000000000000000     
  -8.6476914714361183E-002  0.15948868962604615        0.0000000000000000     
  -8.7860763921434090E-002  0.16710095753953949        0.0000000000000000     
  -8.8618587166926402E-002  0.13782032758741930        0.0000000000000000     
  -9.0428929212225298E-002  0.14508662376959203        0.0000000000000000     
  -9.2134321386879117E-002  0.15246088492793039        0.0000000000000000     
  -9.3734763690887804E-002  0.15994311106243436        0.0000000000000000     
  -9.5230256124251400E-002  0.16753330217310394        0.0000000000000000     
  -9.5733974513340619E-002  0.13838865007319701        0.0000000000000000     
  -9.7680935136461478E-002  0.14562618794456375        0.0000000000000000     
  -9.9517780420584664E-002  0.15297428607225400        0.0000000000000000     
 -0.10124451036571022       0.16043294445626774        0.0000000000000000     
 -0.10286112497183811       0.16800216309660496        0.0000000000000000     
 </DataArray>
 <DataArray  type="Float64" Name="stress" NumberOfComponents="3" format="ascii">
   13416742753.040367        4025022825.9121099        2894105121.9455485     
   11766455397.415085        1890469245.7784953        1715877063.5607853     
   10313453993.003502        413535503.02388763        810758758.87374449     
   9057738539.8056202       -405778402.35171366        178750207.88442650     
   7999309037.8214436       -567472470.34830713       -180148589.40716982     
   10539890518.666868        3161967155.6000605        2225874151.0327849     
   9667431405.1295300        1589558258.1749957        1446796879.8006690     
   8943617666.9300175        512633945.20933390        863213575.85189450     
   8368449304.0683212       -68805783.296926498        475124239.18646115     
   7941926316.5444479       -154760927.34378386        282528869.80436885     
   8337796588.6879854        2501338976.6063957        1712476930.1817856     
   8021406327.4832230        1424546944.9632697        1275803107.5804555     
   7805020865.7404013        681104244.85994101        957007465.84808481     
   7688640203.4595156        271010876.29640865        756090004.98467541     
   7672264340.6405706        194266839.27267599        673050724.99022591     
   6810460963.1037216        2043138288.9311166        1353913459.3925500     
   6828380164.4761581        1395435306.1433158        1202895746.9001431     
   6897663589.4346523        918946401.97570777        1092140428.8623161     
   7018311237.9792061        613671576.42829394        1021647505.2790685     
   7190323110.1098146        479610829.50107098        991416976.15039968     
   5957883641.9140730        1787365092.5742221        1150183738.6650784     
   6088352916.1083355        1502223341.7151356        1228074797.7597342     
   6221545838.0127745        1226160416.5566368        1268612464.8945878     
   6357462407.6273880        959176317.09872591        1271796740.0696402     
   6496102624.9521809        701271043.34140396        1237627623.2848909     
   7999309037.8214436       -567472470.34830713       -180148589.40716982     
   7917123567.8270674       -199993968.85362530       -78211699.542839453     
   7793453922.3734951        29203947.777073860       -8921043.4851714559     
   7628300101.4607306        120121279.54379177        27723378.765834332     
   7421662105.0887680        72758026.446525097        31721567.210181113     
   7941926316.5444479       -154760927.34378386        282528869.80436885     
   7739265510.9688129        16418570.253479958        281286254.58882684     
   7513218222.6221571        109643125.28068447        265316308.24761364     
   7263784451.5044870        124912737.73783112        234619030.78072488     
   6990964197.6157961        62227407.624913692        189194422.18816724     
   7672264340.6405706        194266839.27267599        673050724.99022591     
   7400325064.2865000        184506392.41336966        589742579.49768639     
   7123096997.8495884        157116645.27792645        509626005.56046259     
   6840580141.3298368        112097597.86634779        432701003.17855388     
   6552774494.7272434        49449250.178630829        358967572.35196197     
   7190323110.1098146        479610829.50107098        991416976.15039968     
   6900302227.7801352        304269497.62604308        847157275.18373466     
   6623090248.0557890        171624507.76879930        724008048.45337367     
   6358687170.9367819        81675859.929343700        621969295.95931840     
   6107092996.4231071        34423554.107671976        541041017.70156682     
   6496102624.9521809        701271043.34140396        1237627623.2848909     
   6239197001.4497118        375707885.89149809        1053530341.6469738     
   6013197973.2407589        153166712.75330329        908462436.92635000     
   5818105540.3253164        33647523.926815271        802423909.12301874     
   5653919702.7033873        17150319.412038088        735414758.23697984     
   7421662105.0887680        72758026.446525097        31721567.210181113     
   7217775258.8430681       -18191362.289295197        14664013.528806303     
   7026090293.1050682       -68467815.999437332        2151734.3104754821     
   6846607207.8747730       -78071334.683905125       -5815270.4447948579     
   6679326003.1521769       -47001918.342705727       -9237000.7370215282     
   6990964197.6157961        62227407.624913692        189194422.18816724     
   6807460663.5771513        2707815.4308981895        180854380.84615412     
   6631763868.5494442       -30789313.393322468        176395505.99841034     
   6463873812.5326786       -38263978.847737312        175817797.64493442     
   6303790495.5268555       -19716180.932346582        179121255.78572619     
   6552774494.7272434        49449250.178630829        358967572.35196197     
   6387756821.5562744        20790219.124598503        354217378.26975799     
   6226150745.8994856        3503179.7844965458        352684242.71303874     
   6067956267.7568769       -2411867.8416755199        354368165.68180853     
   5913173387.1284437        3045076.2460851669        359269147.17606157     
   6107092996.4231071        34423554.107671976        541041017.70156682     
   5958663732.7804384        36055848.791813374        534753005.79961479     
   5809250925.1551886        34409663.534013748        531017944.45436609     
   5658854573.5473557        29484998.334270477        529835833.66582227     
   5507474677.9569349        21281853.192584038        531206673.43398458     
   5653919702.7033873        17150319.412038088        735414758.23697984     
   5520181397.2496414        48504704.432539463        722461263.43572628     
   5381064406.3165512        61930137.855224609        711396611.22239268     
   5236568729.9041166        57426619.680097342        702220801.59698486     
   5086694368.0123396        34994149.907159328        694933834.55949879     
   6679326003.1521769       -47001918.342705727       -9237000.7370215282     
   6507132450.3541813       -6668825.1963598728       -3587279.0584861292     
   6329816609.0667896        16589972.985310078        2626171.2773077386     
   6147378479.2899923        22774476.202307463        9403350.2703671195     
   5959818061.0237980        11884684.454641104        16744257.920688814     
   6303790495.5268555       -19716180.932346582        179121255.78572619     
   6129565442.8697052        1747650.7114424706        175535922.37227041     
   5952253577.1953259        12922105.631131172        174178613.06432906     
   5771854898.5037193        13807183.826723337        175049327.86190325     
   5588369406.7948847        4402885.2982270718        178148066.76499030     
   5913173387.1284437        3045076.2460851669        359269147.17606157     
   5741671964.4642849        7066185.3429615498        348823480.05481756     
   5569119204.2550726        7582835.9563155174        342270132.48733670     
   5395515106.5008001        4595028.0861446857        339609104.47362822     
   5220859671.2014713       -1897238.2675433159        340840396.01368356     
   5507474677.9569349        21281853.192584038        531206673.43398458     
   5343452015.1379213        9286778.6981976032        516275393.98915297     
   5180413490.2460251        572163.96086144447        506900729.54633760     
   5018359103.2812424       -4861991.0194272995        503082680.10554338     
   4857288854.2435732       -7015686.2426660061        504821245.66676724     
   5086694368.0123396        34994149.907159328        694933834.55949879     
   4934905594.8906193        8409430.7771522999        677891664.17527711     
   4786136435.1681852       -8109910.3552293777        668070404.24132681     
   4640386888.8450384       -14563873.489989758        665470054.75764978     
   4497656955.9211788       -10952458.627124310        670090615.72424459     
   5959818061.0237980        11884684.454641104        16744257.920688814     
   5780509867.8107367       -997717.03831291199        7285921.3658012124     
   5603377846.2115479       -6626213.1517014503        1646143.1184512973     
   5428421996.2262306       -5000803.8855130672       -175076.82135036431     
   5255642317.8547869        3878510.7602529526        1822261.5463862997     
   5588369406.7948847        4402885.2982270718        178148066.76499030     
   5420485555.5116835       -2879182.3243010044        172083706.46505120     
   5254001751.6050348       -5494425.3583340645        169696358.44890362     
   5088917995.0749197       -3442843.8039262295        170986022.71654308     
   4925234285.9213448        3275562.3389573097        175952699.26796633     
   5220859671.2014713       -1897238.2675433159        340840396.01368356     
   5063995744.6374025       -3700297.1828637123        337264533.69181663     
   4907755741.2125483       -3423612.3007988930        337224137.62998480     
   4752139660.9268990       -1067183.6213734150        340719207.82817799     
   4597147503.7804689        3368988.8554317951        347749744.28640664     
   4857288854.2435732       -7015686.2426660061        504821245.66676724     
   4711040435.1878948       -3461061.6139910221        502828403.04608715     
   4564639815.0341043       -413773.97904086113        504229480.66168451     
   4418086993.7821913        2126176.6621775627        509024478.51355928     
   4271381971.4321647        4158790.3096776009        517213396.60170138     
   4497656955.9211788       -10952458.627124310        670090615.72424459     
   4361619627.1631632       -2161475.6176850796        668775314.52786756     
   4224653973.0697021        3535089.6069402695        670712387.54401016     
   4086759993.6407928        6137237.0467338562        675901834.77267087     
   3947937688.8764315        5644966.7016944885        684343656.21385002     
   5255642317.8547869        3878510.7602529526        1822261.5463862997     
   5055744882.0735874        6112056.6435904503       -5942082.8150682840     
   4854653401.1359940        4365452.0056216717       -8996603.9800527282     
   4652367875.0420055       -1361303.1536610126       -7341301.9485856043     
   4448888303.7916193       -11068208.834279776       -976176.72065218270     
   4925234285.9213448        3275562.3389573097        175952699.26796633     
   4737074944.5243406        3528053.6737294197        167858204.49851492     
   4548093649.0683308        1040698.1451458931        164540356.33932769     
   4358290399.5533104       -4186504.2468221188        165999154.79043347     
   4167665195.9792652       -12153553.502185345        172234599.85182264     
   4597147503.7804689        3368988.8554317951        347749744.28640664     
   4420917180.8071613        1697702.8535051346        339759205.38921368     
   4244236994.8722143       -1473126.3538727760        336612136.51612514     
   4067106945.9756432       -6143498.7666888237        338308537.66713673     
   3889527034.1174374       -12313414.384936094        344848408.84225339     
   4271381971.4321647        4158790.3096776009        517213396.60170138     
   4107271590.9220352        621004.18288540840        509760919.85705066     
   3943083438.5476527       -3176021.4914150238        507218736.55032903     
   3778817514.3090200       -7232286.7132217884        509586846.68153197     
   3614473818.2061353       -11547791.482524157        516865250.25065345     
   3947937688.8764315        5644966.7016944885        684343656.21385002     
   3796138174.8689699        297957.66188216209        677863347.90202141     
   3644632980.0946341       -4067987.2675035000        676360156.44193971     
   3493422104.5534353       -7452868.0864408016        679834081.83360875     
   3342505548.2453570       -9856684.7949650288        688285124.07701707     
   4448888303.7916193       -11068208.834279776       -976176.72065218270     
   4298510798.8766546       -5381852.4981472492       -10476031.832512982     
   4148973037.2166142        3103648.0210773945       -19216676.060953904     
   4000275018.8115034        14388292.723389149       -27198109.405979432     
   3852416743.6613126        28472081.608777761       -34420331.867565870     
   4167665195.9792652       -12153553.502185345        172234599.85182264     
   4020419293.2956567       -7387681.5150716305        165227233.95365202     
   3873810156.3031435       -499257.22430706024        160082001.43057558     
   3727837785.0017262        8511719.3701181412        156798902.28258088     
   3582502179.3914099        19645248.268210411        155377936.50966823     
   3889527034.1174374       -12313414.384936094        344848408.84225339     
   3748563940.7842207       -7522664.6111423969        340096724.99998224     
   3608034635.5782743       -1285954.4131109715        338310097.02446818     
   3467939118.4996004        6396716.2091486454        339488524.91569889     
   3328277389.5481925        15525347.255645037        343632008.67367834     
   3614473818.2061353       -11547791.482524157        516865250.25065345     
   3482944741.3423524       -5786801.7863321304        514132441.30648059     
   3351646475.0420122        743556.45466041565        515467610.72072506     
   3220579019.3051195        8043283.2404766083        520870758.49338406     
   3089742374.1316652        16112378.571088672        530341884.62446046     
   3342505548.2453570       -9856684.7949650288        688285124.07701707     
   3223561694.9700546       -2180093.0406572819        687334382.87314737     
   3104645674.6943607        5589275.3790276051        691554542.51935077     
   2985757487.4182882        13451420.464100718        700945603.01563776     
   2866897133.1418190        21406342.214536548        715507564.36199713     
   3852416743.6613126        28472081.608777761       -34420331.867565870     
   3638805857.9688230        21173999.401209593       -56516859.403356642     
   3423263302.9135246        7437019.3176345825       -75014374.200333282     
   3205789078.4954534       -12738858.641879320       -89912876.258497074     
   2986383184.7145634       -39353634.477422237       -101212365.57785697     
   3582502179.3914099        19645248.268210411        155377936.50966823     
   3378755213.5650930        12167893.464134932        137071804.27519959     
   3173654465.1439362        177930.01059305668        122795660.56739855     
   2967199934.1279306       -16324642.092438221        112549505.38627218     
   2759391620.5170727       -37339822.844988942        106333338.73181985     
   3328277389.5481925        15525347.255645037        343632008.67367834     
   3135625702.9819555        8238127.6732648611        329790472.96979588     
   2942198120.5888195       -1635411.3321192265        320409901.58045542     
   2747994642.3687849       -14095269.760490656        315490294.50562847     
   2553015268.3218594       -29141447.611832500        315031651.74535406     
   3089742374.1316652        16112378.571088672        530341884.62446046     
   2909417326.2193899        9384702.0285327435        521639146.68043858     
   2728894269.2481775        1996995.2895171642        517828348.83881140     
   2548173203.2180095       -6050741.6460154057        518909491.09958690     
   2367254128.1289029       -14758508.778019071        524882573.46276104     
   2866897133.1418190        21406342.214536548        715507564.36199713     
   2700130083.2774086        15607616.529999256        712617825.40711653     
   2533742911.1220121        11075149.875493288        715051002.34249866     
   2367735616.6756167        7808942.2509806156        722807095.16813719     
   2202108199.9382124        5808993.6564741135        735886103.88404083     
   5957883641.9140730        1787365092.5742221        1150183738.6650784     
   6088352916.1083355        1502223341.7151356        1228074797.7597342     
   6221545838.0127745        1226160416.5566368        1268612464.8945878     
   6357462407.6273880        959176317.09872591        1271796740.0696402     
   6496102624.9521809        701271043.34140396        1237627623.2848909     
   5434641108.2678127        1630392332.4803438        1033600288.7418455     
   5489904499.2424698        1372478773.3053315        1114015411.1890228     
   5547362152.4076338        1121879421.4320092        1167649817.3461344     
   5607014067.7633047        878594276.86037600        1194503507.2131808     
   5668860245.3094826        642623339.59043288        1194576480.7901614     
   4895309845.3137102        1468592953.5941131        936475630.36532581     
   4905574997.8394365        1246969879.5343776        1018797199.7254108     
   4917505027.0360003        1030896394.3774333        1084910728.4651661     
   4931099932.9034014        820372498.12328041        1134816216.5845914     
   4946359715.4416399        615398190.77191937        1168513664.0836871     
   4339889853.0517664        1301966955.9155300        858809763.53551984     
   4335364411.8992348        1125696660.4022732        942420163.36889756     
   4331974461.8978729        953211335.39290953        1020395198.2516820     
   4329720003.0476761        784510980.88743854        1092734868.1838725     
   4328601035.3486500        619595596.88586104        1159439173.1654689     
   3768381131.4819808        1130514339.4445941        800602688.25242698     
   3779272741.4218664        1008659115.9090185        884884302.11948371     
   3790770456.9932513        888824244.47843766        974103226.70568240     
   3802874278.1961336        771009725.15285099        1068259462.0110232     
   3815584205.0305152        655215557.93225980        1167353008.0355060     
   6496102624.9521809        701271043.34140396        1237627623.2848909     
   6239197001.4497118        375707885.89149809        1053530341.6469738     
   6013197973.2407589        153166712.75330329        908462436.92635000     
   5818105540.3253164        33647523.926815271        802423909.12301874     
   5653919702.7033873        17150319.412038088        735414758.23697984     
   5668860245.3094826        642623339.59043288        1194576480.7901614     
   5518950153.5046978        383069943.05265951        1073757186.3873281     
   5393182780.7428961        203992276.65815902        980979748.47031212     
   5291558127.0240746        105390340.40693021        916244167.03911340     
   5214076192.3482361        87264134.298976183        879550442.09373248     
   4946359715.4416399        615398190.77191937        1168513664.0836871     
   4872052239.8160391        412436680.49072647        1103081167.9569836     
   4815123606.9828863        267404646.18437052        1054703007.8846233     
   4775573816.9421854        180302087.85285068        1023379183.8666058     
   4753402869.6939373        151129005.49616742        1009109695.9029305     
   4328601035.3486500        619595596.88586104        1159439173.1654689     
   4298503260.3837299        463808098.20569944        1141502286.3559434     
   4279020451.9607325        343403821.33193815        1129632215.1692858     
   4270152610.0796528        258382766.26457739        1123828959.6054957     
   4271899734.7404943        208744933.00361633        1124092519.6645737     
   3815584205.0305152        655215557.93225980        1167353008.0355060     
   3798303215.2077780        537184196.19757855        1189020541.5842061     
   3784873315.6764307        431989802.10086274        1205767370.3242984     
   3775294506.4364738        339632375.64211035        1217593494.2557828     
   3769566787.4879045        260111916.82132113        1224498913.3786612     
   5653919702.7033873        17150319.412038088        735414758.23697984     
   5520181397.2496414        48504704.432539463        722461263.43572628     
   5381064406.3165512        61930137.855224609        711396611.22239268     
   5236568729.9041166        57426619.680097342        702220801.59698486     
   5086694368.0123396        34994149.907159328        694933834.55949879     
   5214076192.3482361        87264134.298976183        879550442.09373248     
   5077911963.4567795        84933942.155646324        855996909.53391480     
   4939627456.5526552        75536156.636759520        836461803.39497232     
   4799222671.6358643        59070777.742316961        820945123.67690516     
   4656697608.7064047        35537805.472316742        809446870.37971473     
   4753402869.6939373        151129005.49616742        1009109695.9029305     
   4620897242.6017809        116939593.76011133        978757600.96233749     
   4489529744.9636326        86543946.870754480        954553516.27557445     
   4359300376.7794924        59942064.828095436        936497441.84263968     
   4230209138.0493665        37133947.632138968        924589377.66353631     
   4271899734.7404943        208744933.00361633        1124092519.6645737     
   4149137234.6846461        144521659.24593711        1090743337.7209954     
   4030771271.5494833        94953508.557213545        1065671749.8642004     
   3916801845.3350072        60040480.937441111        1048877756.0941885     
   3807228956.0412183        39782576.386629581        1040361356.4109591     
   3769566787.4879045        260111916.82132113        1224498913.3786612     
   3662631939.7053733        167680138.61311924        1191954119.8098881     
   3563352036.3102069        100764841.69613063        1169816504.1608505     
   3471727077.3024035        59366026.070354223        1158086066.4315524     
   3387757062.6819639        43483691.735789180        1156762806.6219859     
   5086694368.0123396        34994149.907159328        694933834.55949879     
   4934905594.8906193        8409430.7771522999        677891664.17527711     
   4786136435.1681852       -8109910.3552293777        668070404.24132681     
   4640386888.8450384       -14563873.489989758        665470054.75764978     
   4497656955.9211788       -10952458.627124310        670090615.72424459     
   4656697608.7064047        35537805.472316742        809446870.37971473     
   4524282857.3748198        15198327.094975948        796202595.16942239     
   4394094142.5701609        2278970.4740693569        789199293.78911448     
   4266131464.2924318       -3220264.3904058933        788436966.23878849     
   4140394822.5416374       -1299377.4984416962        793915612.51844776     
   4230209138.0493665        37133947.632138968        924589377.66353631     
   4114368589.5928040        22199764.332934856        914217157.94275498     
   3999960500.7908149        12040446.548973083        909105975.43167067     
   3886984871.6433983        6655994.2802519798        909255830.13028133     
   3775441702.1505532        6046407.5267748833        914666722.03858924     
   3807228956.0412183        39782576.386629581        1040361356.4109591     
   3705162791.5445752        29413742.491030455        1031935352.4952743     
   3603735509.8301454        21174517.869476080        1027790449.1689986     
   3502947110.8979340        15064902.521982908        1027926646.4321284     
   3402797594.7479358        11084896.448534012        1032343944.2846706     
   3387757062.6819639        43483691.735789180        1156762806.6219859     
   3296665463.2301321        36840261.569261074        1149357178.8269799     
   3205419169.6881557        29681184.435589194        1145252715.0010934     
   3114018182.0560374        22006460.334778309        1144449415.1443279     
   3022462500.3337808        13816089.266831994        1146947279.2566853     
   4497656955.9211788       -10952458.627124310        670090615.72424459     
   4361619627.1631632       -2161475.6176850796        668775314.52786756     
   4224653973.0697021        3535089.6069402695        670712387.54401016     
   4086759993.6407928        6137237.0467338562        675901834.77267087     
   3947937688.8764315        5644966.7016944885        684343656.21385002     
   4140394822.5416374       -1299377.4984416962        793915612.51844776     
   4012033276.1834540        2530266.3472478390        789377744.34538054     
   3883223426.2671008        4865564.9990396500        788636874.38206375     
   3753965272.7925739        5706518.4569239616        791693002.62851083     
   3624258815.7598796        5053126.7209005356        798546129.08471107     
   3775441702.1505532        6046407.5267748833        914666722.03858924     
   3656312006.7557497        5381532.7777836323        907466312.29564762     
   3537214029.5800481        4822385.4258096218        904607524.75970018     
   3418147770.6234508        4368965.4708461761        906090359.43075097     
   3299113229.8859615        4021272.9128966331        911914816.30880010     
   3402797594.7479358        11084896.448534012        1032343944.2846706     
   3294455818.8800521        6392323.6739242077        1023041018.3786747     
   3186625783.0085449        3405550.8872414827        1018624338.6769129     
   3079307487.1334190        2124578.0884959698        1019093905.1793911     
   2972500931.2546749        2549405.2776842117        1024449717.8861086     
   3022462500.3337808        13816089.266831994        1146947279.2566853     
   2926464712.5563574        5562639.0356572866        1136101862.5944567     
   2831458686.5525932        615061.38334500790        1130687316.1337075     
   2737444422.3224812       -1026643.6901271343        1130703639.8744366     
   2644421919.8660264        637523.81525945663        1136150833.8166425     
   3947937688.8764315        5644966.7016944885        684343656.21385002     
   3796138174.8689699        297957.66188216209        677863347.90202141     
   3644632980.0946341       -4067987.2675035000        676360156.44193971     
   3493422104.5534353       -7452868.0864408016        679834081.83360875     
   3342505548.2453570       -9856684.7949650288        688285124.07701707     
   3624258815.7598796        5053126.7209005356        798546129.08471107     
   3485635948.0646539        1355202.4627680779        791744055.52831137     
   3347217685.4726357       -1660704.7846615314        789720188.87226570     
   3209004027.9838333       -3994595.0213768482        792474529.11657929     
   3070994975.5982380       -5646468.2474005222        800007076.26124394     
   3299113229.8859615        4021272.9128966331        911914816.30880010     
   3173098694.3561382        1801939.1923916340        904686311.02292144     
   3047199049.7996130       -34424.617137074471        902037102.68601072     
   2921414296.2163825       -1487818.5156712532        903967191.29806733     
   2795744433.6064472       -2558242.5032293797        910476576.85908604     
   2972500931.2546749        2549405.2776842117        1024449717.8861086     
   2858526413.7434320        1638167.8507527113        1016690114.3858505     
   2744577073.0755677        810853.23508930206        1013310897.8831688     
   2630652909.2510786        67461.430679440498        1014312068.3780656     
   2516753922.2699699       -592007.56247305870        1019693625.8705374     
   2644421919.8660264        637523.81525945663        1136150833.8166425     
   2541919106.2265334        863888.43786942959        1127755465.6171043     
   2439351755.3004990        875128.77200245857        1123541574.4637487     
   2336719867.0879283        671244.81767642498        1123509160.3565798     
   2234023441.5888157        252236.57488989830        1127658223.2955976     
   3342505548.2453570       -9856684.7949650288        688285124.07701707     
   3223561694.9700546       -2180093.0406572819        687334382.87314737     
   3104645674.6943607        5589275.3790276051        691554542.51935077     
   2985757487.4182882        13451420.464100718        700945603.01563776     
   2866897133.1418190        21406342.214536548        715507564.36199713     
   3070994975.5982380       -5646468.2474005222        800007076.26124394     
   2964776389.0282140        2695476.8372106552        797466535.28858578     
   2858654304.1017599        11359094.067068100        799390217.08599126     
   2752628720.8188753        20344383.442149758        805778121.65346050     
   2646699639.1795621        29651344.962476015        816630248.99099982     
   2795744433.6064472       -2558242.5032293797        910476576.85908604     
   2700232033.5130863        5843331.8430991173        906426349.53559017     
   2604884803.7072539        14795473.814527273        906133666.90214384     
   2509702744.1889515        24298183.411052346        909598528.95874846     
   2414685854.9581766        34351460.632670045        916820935.70540297     
   2516753922.2699699       -592007.56247305870        1019693625.8705374     
   2429928628.4246664        7263471.9770048857        1014213825.6141515     
   2343337173.5108461        15898414.621424198        1011784891.9678081     
   2256979557.5285110        25312820.370795012        1012406824.9314945     
   2170855780.4776616        35506689.225118876        1016079624.5052255     
   2234023441.5888157        252236.57488989830        1127658223.2955976     
   2153866173.7629519        6955897.2389075756        1120828963.5242777     
   2074011413.5125320        14667916.487738252        1116343892.2829812     
   1994459160.8375599        23388294.321391463        1114203009.5717049     
   1915209415.7380259        33117030.739848018        1114406315.3904538     
   2866897133.1418190        21406342.214536548        715507564.36199713     
   2700130083.2774086        15607616.529999256        712617825.40711653     
   2533742911.1220121        11075149.875493288        715051002.34249866     
   2367735616.6756167        7808942.2509806156        722807095.16813719     
   2202108199.9382124        5808993.6564741135        735886103.88404083     
   2646699639.1795621        29651344.962476015        816630248.99099982     
   2493402571.0655551        25345195.739408374        809685462.18729198     
   2340402815.7249160        22030089.094240785        807434843.19483209     
   2187700373.1576471        19706025.026966691        809878392.01361966     
   2035295243.3637407        18373003.537567496        817016108.64365256     
   2414685854.9581766        34351460.632670045        916820935.70540297     
   2273062345.5116587        30998960.946206093        905724775.29463482     
   2131653583.9028745        28362287.385511041        898694034.61609745     
   1990459570.1318228        26441439.950587988        895728713.66978252     
   1849480304.1984951        25236418.641428590        896828812.45569754     
   2170855780.4776616        35506689.225118876        1016079624.5052255     
   2039109406.6157322        32568912.150394082        1000735764.7291505     
   1907495215.6558983        30071744.749311209        988828576.60628688     
   1776013207.5981586        28015187.021874905        980358060.13663149     
   1644663382.4425075        26399238.968070745        975324215.32018769     
   1915209415.7380259        33117030.739848018        1114406315.3904538     
   1791543754.3777695        30055049.351970911        1094718430.4908311     
   1667927710.9839664        27158461.185595453        1077838469.1654038     
   1544361285.5566342        24427266.240779757        1063766431.4141636     
   1420844478.0957503        21861464.517475069        1052502317.2371080     
   3768381131.4819808        1130514339.4445941        800602688.25242698     
   3779272741.4218664        1008659115.9090185        884884302.11948371     
   3790770456.9932513        888824244.47843766        974103226.70568240     
   3802874278.1961336        771009725.15285099        1068259462.0110232     
   3815584205.0305152        655215557.93225980        1167353008.0355060     
   3207953535.1737723        962386060.55213177        756703976.13594794     
   3236054831.5072460        868165764.11132944        853058860.46027350     
   3263879633.9546967        773023821.38378453        951337363.50019157     
   3291427942.5161242        676960232.36949730        1051539485.2557030     
   3318699757.1915298        579974997.06846714        1153665225.7268064     
   2685776918.6965628        805733075.60896885        721963198.80598354     
   2722477352.8420544        736564541.68846917        829361654.15046990     
   2758018693.5840020        663532363.08948958        935670036.20699930     
   2792400940.9224057        586636539.81203008        1040888344.9755727     
   2825624094.8572659        505877071.85609102        1145016580.4561903     
   2201851282.0503502        660555384.61510503        696380356.26253343     
   2238540305.4262910        613855448.64043736        813792683.19007206     
   2273187635.8811669        560349869.59555244        927101244.82610536     
   2305793273.4149771        500038647.48045039        1036306041.1706333     
   2336357218.0277238        432921782.29513144        1141407072.2236557     
   1756176625.2351351        526852987.57054055        679955448.50559795     
   1784243689.2599566        500038484.96723402        806351947.57908118     
   1809386460.8461916        463476340.90197325        925630989.35750985     
   1831604939.9938402        417166555.37475747        1037792573.8408842     
   1850899126.7029026        361109128.38558841        1142836701.0292032     
   3815584205.0305152        655215557.93225980        1167353008.0355060     
   3798303215.2077780        537184196.19757855        1189020541.5842061     
   3784873315.6764307        431989802.10086274        1205767370.3242984     
   3775294506.4364738        339632375.64211035        1217593494.2557828     
   3769566787.4879045        260111916.82132113        1224498913.3786612     
   3318699757.1915298        579974997.06846714        1153665225.7268064     
   3294195953.2175608        472699996.17123878        1181991680.1384161     
   3273425513.4583716        377869542.65660989        1207200591.3567340     
   3256388437.9139609        295483636.52457821        1229291959.3817616     
   3243084726.5843306        225542277.77514553        1248265784.2134960     
   2825624094.8572659        505877071.85609102        1145016580.4561903     
   2799049367.0615401        410903998.89515918        1179864608.6413305     
   2776090277.4039836        327983053.06145883        1213398255.2484956     
   2756746825.8845973        257114234.35499167        1245617520.2776866     
   2741019012.5033798        198297542.77575612        1276522403.7289019     
   2336357218.0277238        432921782.29513144        1141407072.2236557     
   2312863456.7397156        351796204.36933732        1182639327.0929484     
   2292867607.5132670        282330333.31540883        1224360361.9995840     
   2276369670.3483791        224524169.13334775        1266570176.9435606     
   2263369645.2450519        178377711.82315385        1309268771.9248781     
   1850899126.7029026        361109128.38558841        1142836701.0292032     
   1835638222.2520883        295376612.59377527        1190315835.4932721     
   1823757503.7862236        240911383.41846186        1240086911.6099982     
   1815256971.3053093        197713440.85965025        1292149929.3793819     
   1810136624.8093452        165782784.91733760        1346504888.8014238     
   3769566787.4879045        260111916.82132113        1224498913.3786612     
   3662631939.7053733        167680138.61311924        1191954119.8098881     
   3563352036.3102069        100764841.69613063        1169816504.1608505     
   3471727077.3024035        59366026.070354223        1158086066.4315524     
   3387757062.6819639        43483691.735789180        1156762806.6219859     
   3243084726.5843306        225542277.77514553        1248265784.2134960     
   3165513094.7213707        151174142.33283520        1231069323.5303462     
   3094001680.7098637        97006733.062039495        1221884241.1503823     
   3028550484.5498128        63040049.962761641        1220710537.0736096     
   2969159506.2412167        49274093.034997344        1227548211.3000240     
   2741019012.5033798        198297542.77575612        1276522403.7289019     
   2685965454.7984257        139939507.57086813        1272813761.6394770     
   2635377388.4090166        96466443.417799234        1274720698.2366955     
   2589254813.3351526        67878350.316546321        1282243213.5205553     
   2547597729.5768356        54175228.267113686        1295381307.4910543     
   2263369645.2450519        178377711.82315385        1309268771.9248781     
   2223989019.9365396        133976234.32721961        1317187434.1372874     
   2187479159.4076638        99143972.763406873        1328325875.4197917     
   2153840063.6584239        73880927.131710887        1342684095.7723875     
   2123071732.6888208        58187097.432141900        1360262095.1950788     
   1810136624.8093452        165782784.91733760        1346504888.8014238     
   1779583790.1357110        133284322.60188639        1364190341.0237732     
   1750306993.7058041        105039321.09886038        1382699772.6996689     
   1722306235.5196233        81047780.408253849        1402033183.8291111     
   1695581515.5771713        61309700.530077755        1422190574.4120986     
   3387757062.6819639        43483691.735789180        1156762806.6219859     
   3296665463.2301321        36840261.569261074        1149357178.8269799     
   3205419169.6881557        29681184.435589194        1145252715.0010934     
   3114018182.0560374        22006460.334778309        1144449415.1443279     
   3022462500.3337808        13816089.266831994        1146947279.2566853     
   2969159506.2412167        49274093.034997344        1227548211.3000240     
   2886033496.7990351        38090888.080258131        1219498109.3734422     
   2803245024.2173352        28032805.993794799        1215321860.7439799     
   2720794088.4961166        19099846.775598526        1215019465.4116380     
   2638680689.6353765        11292010.425670624        1218590923.3764138     
   2547597729.5768356        54175228.267113686        1295381307.4910543     
   2474073565.3671584        38943125.091025591        1287261000.8752911     
   2401379168.9685860        26476914.618616581        1283587236.8846471     
   2329514540.3811173        16776596.849890232        1284360015.5191212     
   2258479679.6047525        9842171.7848443985        1289579336.7787127     
   2123071732.6888208        58187097.432141900        1360262095.1950788     
   2060785668.9345007        39396972.601555705        1352645853.3325295     
   1999821603.9419069        25013510.310058832        1350048843.4230959     
   1940179537.7110422        15036710.557658434        1352471065.4667797     
   1881859470.2419062        9466573.3443526030        1359912519.4635785     
   1695581515.5771713        61309700.530077755        1422190574.4120986     
   1646169807.5010622        39452430.611852586        1415652666.7451551     
   1598572329.1373029        23642593.068130553        1414706680.3593273     
   1552789080.4858940        13880187.898909748        1419352615.2546136     
   1508820061.5468364        10165215.104192257        1429590471.4310160     
   3022462500.3337808        13816089.266831994        1146947279.2566853     
   2926464712.5563574        5562639.0356572866        1136101862.5944567     
   2831458686.5525932        615061.38334500790        1130687316.1337075     
   2737444422.3224812       -1026643.6901271343        1130703639.8744366     
   2644421919.8660264        637523.81525945663        1136150833.8166425     
   2638680689.6353765        11292010.425670624        1218590923.3764138     
   2556923849.1613507        5261865.3895840645        1209812886.2314370     
   2475931047.9572802        1778517.9200139046        1206045483.3041077     
   2395702286.0231619        841968.01695239544        1207288714.5944352     
   2316237563.3589954        2452215.6804031134        1213542580.1024189     
   2258479679.6047525        9842171.7848443985        1289579336.7787127     
   2189763112.1946235        5675129.6719937325        1282603002.8966637     
   2121582861.5507452        3295810.1133183241        1280217067.2484426     
   2053938927.6731193        2704213.1088118553        1282421529.8340492     
   1986831310.5617452        3900338.6584807634        1289216390.6534848     
   1881859470.2419062        9466573.3443526030        1359912519.4635785     
   1824982501.6561737        6802431.8828871250        1354472212.5901403     
   1768414127.3329897        5166937.9632538557        1353202067.9667084     
   1712154347.2723582        4560091.5854556561        1356102085.5932760     
   1656203161.4742768        4981892.7494931221        1363172265.4698484     
   1508820061.5468364        10165215.104192257        1429590471.4310160     
   1462582017.5460026        8643772.0222650766        1425420515.3118699     
   1416424845.3040142        7391901.4698255658        1425000485.4589036     
   1370348544.8208761        6409603.4468860030        1428330381.8721151     
   1324353116.0965838        5696877.9534347653        1435410204.5515053     
   2644421919.8660264        637523.81525945663        1136150833.8166425     
   2541919106.2265334        863888.43786942959        1127755465.6171043     
   2439351755.3004990        875128.77200245857        1123541574.4637487     
   2336719867.0879283        671244.81767642498        1123509160.3565798     
   2234023441.5888157        252236.57488989830        1127658223.2955976     
   2316237563.3589954        2452215.6804031134        1213542580.1024189     
   2224694874.4313669        1649230.0655601025        1204854383.4396632     
   2133186051.6848226        959131.72099852562        1200653117.2561843     
   2041711095.1193604        381920.64671933651        1200938781.5519791     
   1950270004.7349851       -82403.157275319099        1205711376.3270462     
   1986831310.5617452        3900338.6584807634        1289216390.6534848     
   1907121470.4405217        2329820.0345538855        1280350169.5730779     
   1827543899.9680054        1200200.2396552563        1276276332.4050357     
   1748098599.1441991        511479.27378749847        1276994879.1493597     
   1668785567.9691017        263657.13695013523        1282505809.8060420     
   1656203161.4742768        4981892.7494931221        1363172265.4698484     
   1589198894.2539973        2905658.3448454142        1354242824.0173488     
   1522425300.1500499        1598334.3279740810        1350411219.9103050     
   1455882379.1624341        1059920.6988695860        1351677453.1487119     
   1389570131.2911537        1290417.4575514197        1358041523.7325737     
   1324353116.0965838        5696877.9534347653        1435410204.5515053     
   1270927145.8717897        3376744.9964255095        1426532346.7724781     
   1217830252.2309530        2153533.9859421849        1423057779.7719922     
   1165062435.1740730        2027244.9219797850        1424986503.5500474     
   1112623694.7011495        2997877.8045423031        1432318518.1066468     
   2234023441.5888157        252236.57488989830        1127658223.2955976     
   2153866173.7629519        6955897.2389075756        1120828963.5242777     
   2074011413.5125320        14667916.487738252        1116343892.2829812     
   1994459160.8375599        23388294.321391463        1114203009.5717049     
   1915209415.7380259        33117030.739848018        1114406315.3904538     
   1950270004.7349851       -82403.157275319099        1205711376.3270462     
   1876674608.9242809        5206517.0406154394        1200329489.2999079     
   1803308777.0180671        11260650.253471971        1197977486.1696627     
   1730172509.0163367        18079996.481280088        1198655366.9363184     
   1657265804.9190972        25664555.724054992        1202363131.5998693     
   1668785567.9691017        263657.13695013523        1282505809.8060420     
   1603711173.7931991        4725575.7546058893        1278486194.5736284     
   1538793399.8508279        9709561.8173638582        1278182158.6049881     
   1474032246.1419902        15215615.325231969        1281593701.9001203     
   1409427712.6666846        21243736.278211832        1288720824.4590278     
   1389570131.2911537        1290417.4575514197        1358041523.7325737     
   1334975868.3696980        5513073.3808610439        1355299079.3454401     
   1280465282.0108204        10014651.179431677        1356957909.5889568     
   1226038372.2145171        14795150.853249073        1363018014.4631240     
   1171695138.9807913        19854572.402326882        1373479393.9679394     
   1112623694.7011495        2997877.8045423031        1432318518.1066468     
   1070468692.6537871        7569009.9194083214        1430768143.6153471     
   1028324423.4980412        12175918.339662194        1434304739.1215684     
   986190887.23391986        16818603.065328419        1442928304.6253183     
   944068083.86141968        21497064.096398532        1456638840.1265938     
   1915209415.7380259        33117030.739848018        1114406315.3904538     
   1791543754.3777695        30055049.351970911        1094718430.4908311     
   1667927710.9839664        27158461.185595453        1077838469.1654038     
   1544361285.5566342        24427266.240779757        1063766431.4141636     
   1420844478.0957503        21861464.517475069        1052502317.2371080     
   1657265804.9190972        25664555.724054992        1202363131.5998693     
   1542068514.5359745        21087738.187152565        1186933371.1327641     
   1426988340.9776504        16901310.066243827        1175559396.1851971     
   1312025284.2441280        13105271.361329496        1168241206.7571580     
   1197179344.3354058        9699622.0724402070        1164978802.8486476     
   1409427712.6666846        21243736.278211832        1288720824.4590278     
   1306264113.1045263        16221678.545431435        1277627937.0925126     
   1203285129.2255087        11815006.423117697        1271838697.1908674     
   1100490761.0296414        8023719.9112933874        1271353104.7541020     
   997881008.51691425        4847819.0099545717        1276171159.7822082     
   1171695138.9807913        19854572.402326882        1373479393.9679394     
   1084130550.0834305        15456870.426812649        1366802128.3700743     
   996818075.72755420        11899550.256250978        1366676372.1824276     
   909757715.91317177        9182611.8906615376        1373102125.4049988     
   822949470.64027214        7306055.3300270438        1386079388.0377748     
   944068083.86141968        21497064.096398532        1456638840.1265938     
   875667825.47268581        18793313.831305891        1454455944.9654531     
   807587180.48378754        17154941.565654129        1460072421.1598723     
   739826148.89471412        16581947.299424976        1473488268.7098465     
   672384730.70547712        17074331.032653630        1494703487.6153717     
   1756176625.2351351        526852987.57054055        679955448.50559795     
   1784243689.2599566        500038484.96723402        806351947.57908118     
   1809386460.8461916        463476340.90197325        925630989.35750985     
   1831604939.9938402        417166555.37475747        1037792573.8408842     
   1850899126.7029026        361109128.38558841        1142836701.0292032     
   1326503711.0074196        397951113.30222589        669590250.68450832     
   1339742853.5863318        375496889.70280379        791726212.89988601     
   1350788776.8362370        345731935.00669110        908567320.75872242     
   1359641480.7571352        308656249.21388793        1020113574.2610180     
   1366300965.3490260        264269832.32439408        1126364973.4067731     
   890583302.12370455        267174990.63711137        662186537.94859660     
   894201960.22388983        250643277.13172835        780914881.93371081     
   896358472.10464716        229237742.89491856        896170974.50079763     
   897052837.76597667        202958387.92668220        1007954815.6498569     
   896285057.20787787        171805212.22701907        1116266405.3808889     
   448415398.58399028        134524619.57519710        657744310.29786265     
   447621009.17263043        125477647.25400756        773917954.68055558     
   446095546.65142167        113993764.56665519        888441950.58373487     
   443839011.02036434        100072971.51314045        1001316298.0074005     
   440851402.27945769        83715268.093462169        1112540996.9515529     
  0.38827675049505433       0.11648302514851630        656263567.73230636     
  0.43255356942793072        6.9641665374047687E-002   770735431.14042056     
  0.47656058643733040        2.1901269431265441E-002   885380249.00753486     
  0.52029811177187524       -2.6737757355018238E-002   1000198021.3336488     
  0.56376570650839997       -7.6276379329021454E-002   1115188748.1187634     
   1850899126.7029026        361109128.38558841        1142836701.0292032     
   1835638222.2520883        295376612.59377527        1190315835.4932721     
   1823757503.7862236        240911383.41846186        1240086911.6099982     
   1815256971.3053093        197713440.85965025        1292149929.3793819     
   1810136624.8093452        165782784.91733760        1346504888.8014238     
   1366300965.3490260        264269832.32439408        1126364973.4067731     
   1360685309.7007110        216719452.28096706        1181718333.7101817     
   1357604793.5472012        177619537.22022408        1238003297.0363052     
   1357059416.8884969        146970087.14216650        1295219863.3851423     
   1359049179.7245984        124771102.04679400        1353368032.7566941     
   896285057.20787787        171805212.22701907        1116266405.3808889     
   896427968.56222308        141270963.39202610        1178508103.9518032     
   898260972.92122877        116370357.90590128        1240321066.9154878     
   901784070.28489566        97103395.768646866        1301705294.2719429     
   906997260.65322304        83470076.980261236        1362660786.0211687     
   440851402.27945769        83715268.093462169        1112540996.9515529     
   442866198.83662426        69031145.926951483        1180685146.2181361     
   445726041.90830678        57163845.475493580        1247040221.2475467     
   449430931.49450552        48113366.739090189        1311606222.0397842     
   453980867.59522027        41879709.717740238        1374383148.5948479     
  0.56376570650839997       -7.6276379329021454E-002   1115188748.1187634     
  0.52391488583389478      -0.11425560017328185        1188249460.5091808     
  0.50843472632616249       -7.0998980218358043E-002   1258160760.0324817     
  0.51732643824077085        5.3497232828411664E-002   1324922646.6886659     
  0.55058945040571827       0.25923076643161636        1388535120.4777331     
   1810136624.8093452        165782784.91733760        1346504888.8014238     
   1779583790.1357110        133284322.60188639        1364190341.0237732     
   1750306993.7058041        105039321.09886038        1382699772.6996689     
   1722306235.5196233        81047780.408253849        1402033183.8291111     
   1695581515.5771713        61309700.530077755        1422190574.4120986     
   1359049179.7245984        124771102.04679400        1353368032.7566941     
   1333613830.5911937        99641038.415703654        1372312625.8196332     
   1309135510.1312046        77701070.362664282        1392669367.0712731     
   1285614218.3446298        58951197.887673438        1414438256.5116136     
   1263049955.2314711        43391420.990736544        1437619294.1406550     
   906997260.65322304        83470076.980261236        1362660786.0211687     
   888359879.16048920        66212556.663665414        1382492342.0926669     
   870360516.77085817        51081766.690745950        1404324215.0880208     
   852999173.48432934        38077707.061500281        1428156405.0072284     
   836275849.30090415        27200377.775933713        1453988911.8502924     
   453980867.59522027        41879709.717740238        1374383148.5948479     
   443821935.84359717        32998877.345771343        1394729489.8428750     
   433982013.62476438        25181410.083102927        1417664316.7499111     
   424461100.93872172        18427307.929734394        1443187629.3159547     
   415259197.78547037        12736570.885671571        1471299427.5410094     
  0.55058945040571827       0.25923076643161636        1388535120.4777331     
  0.64051752683809304       0.46201980542674820        1409024069.0702581     
  0.69292334004355716       0.53973446019316307        1432689672.0569446     
  0.70780767350710894       0.49237777602839161        1459531929.4377956     
  0.68517096758163076       0.31995061362215843        1489550841.2128098     
   1695581515.5771713        61309700.530077755        1422190574.4120986     
   1646169807.5010622        39452430.611852586        1415652666.7451551     
   1598572329.1373029        23642593.068130553        1414706680.3593273     
   1552789080.4858940        13880187.898909748        1419352615.2546136     
   1508820061.5468364        10165215.104192257        1429590471.4310160     
   1263049955.2314711        43391420.990736544        1437619294.1406550     
   1229143946.3027918        27944300.186897457        1434580698.2737610     
   1196598609.6926262        17032753.778104365        1436398376.8281465     
   1165413945.4009736        10656781.764354885        1443072329.8038113     
   1135589953.4278343        8816384.1456477642        1454602557.2007582     
   836275849.30090415        27200377.775933713        1453988911.8502924     
   815773691.34869766        17532851.635194749        1453920477.4906363     
   796178648.32116723        10889041.910043150        1457972670.6924262     
   777490720.21831167        7268948.6004742384        1466145491.4556606     
   759709907.04013264        6672571.7064926922        1478438939.7803402     
   415259197.78547037        12736570.885671571        1471299427.5410094     
   406059042.63877809        8218084.9567429721        1473672004.3957841     
   397312445.02292544        5211457.4639456421        1479429561.9521673     
   389019404.93791014        3716688.4072725773        1488572100.2101607     
   381179922.38373375        3733777.7867305130        1501099619.1697638     
  0.68517096758163076       0.31995061362215843        1489550841.2128098     
  0.17303617330197596       0.15154823366921172        1493835278.9892008     
 -0.20209847989255708       0.43981368455606096        1500769050.6073678     
 -0.44023171669427014        1.1847505234189766        1510352156.0673099     
 -0.54136438921458518        2.3863552159971628        1522584595.3690240     
   1508820061.5468364        10165215.104192257        1429590471.4310160     
   1462582017.5460026        8643772.0222650766        1425420515.3118699     
   1416424845.3040142        7391901.4698255658        1425000485.4589036     
   1370348544.8208761        6409603.4468860030        1428330381.8721151     
   1324353116.0965838        5696877.9534347653        1435410204.5515053     
   1135589953.4278343        8816384.1456477642        1454602557.2007582     
   1099513952.5216935        7256061.7844026685        1449750717.1779375     
   1063498605.4095865        5897918.7366033196        1448974879.2570088     
   1027543912.0915098        4741955.0022417903        1452275043.4379687     
   991649872.56746840        3788170.5813252926        1459651209.7208169     
   759709907.04013264        6672571.7064926922        1478438939.7803402     
   734727594.47357798        5352863.6394045055        1472881628.2282281     
   709785717.73623943        4167941.6697050333        1471726394.6137164     
   684884276.82811713        3117805.7973913550        1474973238.9368072     
   660023271.74921358        2202456.0224723816        1482622161.1974969     
   381179922.38373375        3733777.7867305130        1501099619.1697638     
   368222943.40165204        2934177.5872577131        1494813248.4627392     
   355286182.28397489        2201970.2691333145        1493255031.5290265     
   342369639.03069478        1537155.8323328495        1496424968.3686287     
   329473313.64181858        939734.27687828243        1504323058.9815412     
 -0.54136438921458518        2.3863552159971628        1522584595.3690240     
 -0.69408000409381065        3.6279756900146820        1515545577.8814700     
 -0.94720886354207257        4.5348850018573845        1513560790.0029404     
  -1.3007563089826459        5.1070655202533688        1516630231.7334344     
  -1.7547150088259824        5.3445425511962004        1524753903.0729527     
   1324353116.0965838        5696877.9534347653        1435410204.5515053     
   1270927145.8717897        3376744.9964255095        1426532346.7724781     
   1217830252.2309530        2153533.9859421849        1423057779.7719922     
   1165062435.1740730        2027244.9219797850        1424986503.5500474     
   1112623694.7011495        2997877.8045423031        1432318518.1066468     
   991649872.56746840        3788170.5813252926        1459651209.7208169     
   952294191.70016444        2262209.9233711958        1451402832.9319599     
   913185318.24714327        1558940.6463608146        1448391194.3397725     
   874323252.20839965        1678362.7502751350        1450616293.9442532     
   835707993.58394027        2620476.2351363897        1458078131.7454040     
   660023271.74921358        2202456.0224723816        1482622161.1974969     
   634262015.71976137        1327908.3076801896        1474907284.7008557     
   608665297.93491745        1001821.4082480073        1472262593.8190084     
   583233118.39467525        1224195.3241550326        1474688088.5519555     
   557965477.09903908        1995030.0554144979        1482183768.8997004     
   329473313.64181858        939734.27687828243        1504323058.9815412     
   316830617.93058479        573840.14936876297        1497045702.0791602     
   304270191.29427654        482176.27160903811        1494671978.2096980     
   291792033.73290074        664742.64362497628        1497201887.3731594     
   279396145.24645090        1121539.2653939426        1504635429.5695465     
  -1.7547150088259824        5.3445425511962004        1524753903.0729527     
  -1.6673717809376056        5.4484100610273414        1517818085.0668726     
  -1.6747748563430516        5.2364569068237694        1515619347.5118423     
  -1.7769282840012910        4.7086685512214972        1518157690.4078624     
  -1.9738282437080963        3.8650594629580888        1525433113.7549286     
   1112623694.7011495        2997877.8045423031        1432318518.1066468     
   1070468692.6537871        7569009.9194083214        1430768143.6153471     
   1028324423.4980412        12175918.339662194        1434304739.1215684     
   986190887.23391986        16818603.065328419        1442928304.6253183     
   944068083.86141968        21497064.096398532        1456638840.1265938     
   835707993.58394027        2620476.2351363897        1458078131.7454040     
   806024052.38265240        6628518.0539396405        1456023892.1403923     
   776348160.76070809        10663391.803893656        1458605750.1800852     
   746680318.71810865        14725097.484995037        1465823705.8644783     
   717020526.25485313        18813635.097241461        1477677759.1935647     
   557965477.09903908        1995030.0554144979        1482183768.8997004     
   539464390.02147174        5053519.5614663661        1479622533.6499968     
   520968669.21096945        8129896.6244029999        1481246523.6921644     
   502478314.66753322        11224161.244225621        1487055739.0262108     
   483993326.39116693        14336313.420948386        1497050179.6521268     
   279396145.24645090        1121539.2653939426        1504635429.5695465     
   270789705.57024413        2844014.4419760704        1501564068.1441517     
   262185948.84882534        4575432.8011875749        1502227059.6578078     
   253584875.08219811        6315794.3430350125        1506624404.1105142     
   244986484.27036342        8065099.0675268322        1514756101.5022681     
  -1.9738282437080963        3.8650594629580888        1525433113.7549286     
 -0.97103232048552024        2.6954677958521711        1521848495.6228607     
 -0.32572227881921456       0.33425444189051468        1521547358.0770144     
  -3.7904363713692879E-002  -3.2185982931063362        1524529701.1173942     
 -0.10756478125788727       -7.9630454702689057        1530795524.7439954     
   944068083.86141968        21497064.096398532        1456638840.1265938     
   875667825.47268581        18793313.831305891        1454455944.9654531     
   807587180.48378754        17154941.565654129        1460072421.1598723     
   739826148.89471412        16581947.299424976        1473488268.7098465     
   672384730.70547712        17074331.032653630        1494703487.6153717     
   717020526.25485313        18813635.097241461        1477677759.1935647     
   668506938.75176287        17621804.506038129        1473403157.7918954     
   620233062.31228960        17229010.793557793        1476277719.6373427     
   572198896.93643582        17635253.959809154        1486301444.7299044     
   524404442.62420213        18840534.004795223        1503474333.0695841     
   483993326.39116693        14336313.420948386        1497050179.6521268     
   453508672.32103151        14099081.267824501        1490590652.6176753     
   423183826.97830331        14394544.872721657        1490630080.7218995     
   393018790.36297947        15222704.235638216        1497168463.9648049     
   363013562.47506458        16583559.356577992        1510205802.3463776     
   244986484.27036342        8065099.0675268322        1514756101.5022681     
   230673026.18049493        8225144.1166676283        1506018429.4427919     
   216439474.48182297        8651543.8031306490        1503129504.4135444     
   202285829.17434633        9344298.1269117445        1506089326.4145398     
   188212090.25806066        10303407.087997533        1514897895.4457734     
 -0.10756478125788727       -7.9630454702689057        1530795524.7439954     
  0.33015467649155150       -6.9474203404847676        1519686488.2672386     
   4.8228529228863390        7.5847993636717543        1513775990.7122803     
   13.370534235640191        35.633628248191073        1513064032.0791154     
   25.973197585356758        77.199066004254277        1517550612.3677487     
  0.38827675049505433       0.11648302514851630        656263567.73230636     
  0.43255356942793072        6.9641665374047687E-002   770735431.14042056     
  0.47656058643733040        2.1901269431265441E-002   885380249.00753486     
  0.52029811177187524       -2.6737757355018238E-002   1000198021.3336488     
  0.56376570650839997       -7.6276379329021454E-002   1115188748.1187634     
  -448415397.81455410       -134524619.34436622        657744310.24817848     
  -447621008.32289469       -125477647.13101251        773917954.62672591     
  -446095545.71676987       -113993764.53610788        888441950.52267683     
  -443839009.99617988       -100072971.55965270        1001316297.9360312     
  -440851401.16112447       -83715268.201646447        1112540996.8667884     
  -890583301.37562048       -267174990.41268614        662186537.84172976     
  -894201959.41256869       -250643277.03193429        780914881.82456803     
  -896358471.22031677       -229237742.88718203        896170974.38321269     
  -897052836.79886448       -202958387.97842920        1007954815.5176642     
  -896285056.14821231       -171805212.30567622        1116266405.2279220     
  -1326503710.2949224       -397951113.08847672        669590250.51296020     
  -1339742852.8364689       -375496889.63312399        791726212.73394632     
  -1350788776.0340800       -345731935.03132099        908567320.58914268     
  -1359641479.8877563       -308656249.28306824        1020113574.0785488     
  -1366300964.3974979       -264269832.38836515        1126364973.2021644     
  -1756176624.5724602       -526852987.37173802        679955448.26186967     
  -1784243688.5945952       -500038484.93458152        806351947.35486126     
  -1809386460.1580606       -463476340.96852523        925630989.14046633     
  -1831604939.2628562       -417166555.47356933        1037792573.6186844     
  -1850899125.9089813       -361109128.44971347        1142836700.7895157     
  0.56376570650839997       -7.6276379329021454E-002   1115188748.1187634     
  0.52391488583389478      -0.11425560017328185        1188249460.5091808     
  0.50843472632616249       -7.0998980218358043E-002   1258160760.0324817     
  0.51732643824077085        5.3497232828411664E-002   1324922646.6886659     
  0.55058945040571827       0.25923076643161636        1388535120.4777331     
  -440851401.16112447       -83715268.201646447        1112540996.8667884     
  -442866197.78190684       -69031146.088374302        1180685146.1668108     
  -445726040.88505471       -57163845.582987800        1247040221.2367904     
  -449430930.47056818       -48113366.685486153        1311606222.0767283     
  -453980866.53844684       -41879709.395868853        1374383148.6866236     
  -896285056.14821231       -171805212.30567622        1116266405.2279220     
  -896427967.52971315       -141270963.49508792        1178508103.8463559     
  -898260971.90031660       -116370357.98150837        1240321066.8718221     
  -901784069.26002252       -97103395.764937878        1301705294.3043203     
  -906997259.60883069       -83470076.845374823        1362660786.1438506     
  -1366300964.3974979       -264269832.38836515        1126364973.2021644     
  -1360685308.7195051       -216719452.33439791        1181718333.5478172     
  -1357604792.5373504       -177619537.26655993        1238003296.9375758     
  -1357059415.8510363       -146970087.18485624        1295219863.3714416     
  -1359049178.6605608       -124771102.08928239        1353368032.8494129     
  -1850899125.9089813       -361109128.44971347        1142836700.7895157     
  -1835638221.3512812       -295376612.60630196        1190315835.2711935     
  -1823757502.7961569       -240911383.43814439        1240086911.4340520     
  -1815256970.2436101       -197713440.94524395        1292149929.2780919     
  -1810136623.6936383       -165782785.12759674        1346504888.8033125     
  0.55058945040571827       0.25923076643161636        1388535120.4777331     
  0.64051752683809304       0.46201980542674820        1409024069.0702581     
  0.69292334004355716       0.53973446019316307        1432689672.0569446     
  0.70780767350710894       0.49237777602839161        1459531929.4377956     
  0.68517096758163076       0.31995061362215843        1489550841.2128098     
  -453980866.53844684       -41879709.395868853        1374383148.6866236     
  -443821934.64672899       -32998876.728110135        1394729489.8789148     
  -433982012.32301861       -25181409.287043199        1417664316.7249658     
  -424461099.56731725       -18427307.072672665        1443187629.2247751     
  -415259196.37962496       -12736570.084999397        1471299427.3783441     
  -906997259.60883069       -83470076.845374823        1362660786.1438506     
  -888359878.03076148       -66212556.347272336        1382492342.1503410     
  -870360515.55118787       -51081766.177489847        1404324215.0701866     
  -852999172.17010927       -38077706.336024880        1428156404.9033873     
  -836275847.88752723       -27200376.822880059        1453988911.6499429     
  -1359049178.6605608       -124771102.08928239        1353368032.8494129     
  -1333613829.5115805       -99641038.395471096        1372312625.8845346     
  -1309135508.9915829       -77701070.131602168        1392669367.0926077     
  -1285614217.1005681       -58951197.297676325        1414438256.4736316     
  -1263049953.8385360       -43391419.893693209        1437619294.0276065     
  -1810136623.6936383       -165782785.12759674        1346504888.8033125     
  -1779583789.0891869       -133284322.87270868        1364190341.0814970     
  -1750306992.6442058       -105039321.14938682        1382699772.7922282     
  -1722306234.3586934       -81047779.957628310        1402033183.9355073     
  -1695581514.2326508       -61309699.297437489        1422190574.5113325     
  0.68517096758163076       0.31995061362215843        1489550841.2128098     
  0.17303617330197596       0.15154823366921172        1493835278.9892008     
 -0.20209847989255708       0.43981368455606096        1500769050.6073678     
 -0.44023171669427014        1.1847505234189766        1510352156.0673099     
 -0.54136438921458518        2.3863552159971628        1522584595.3690240     
  -415259196.37962496       -12736570.084999397        1471299427.3783441     
  -406059042.12507224       -8218084.2645643204        1473672004.5150557     
  -397312445.21721077       -5211456.2664337903        1479429562.4023287     
  -389019405.65604401       -3716686.0906189680        1488572101.0401635     
  -381179923.44156986       -3733773.7371124625        1501099620.4285591     
  -836275847.88752723       -27200376.822880059        1453988911.6499429     
  -815773690.55546772       -17532850.520364046        1453920477.7493317     
  -796178648.05379307       -10889040.319130719        1457972671.5080688     
  -777490720.38250518       -7268946.2191856205        1466145492.9261541     
  -759709907.54160285       -6672568.2205267251        1478438942.0035870     
  -1263049953.8385360       -43391419.893693209        1437619294.0276065     
  -1229143945.1181493       -27944298.615848303        1434580698.6920300     
  -1196598608.7118413       -17032751.718263149        1436398377.9245884     
  -1165413944.6196136       -10656779.200945258        1443072331.7252817     
  -1135589952.8414655       -8816381.0638949275        1454602560.0941095     
  -1695581514.2326508       -61309699.297437489        1422190574.5113325     
  -1646169805.8131182       -39452428.551018715        1415652667.3431482     
  -1598572327.1913564       -23642590.463834226        1414706681.6518865     
  -1552789078.3673704       -13880185.035900533        1419352617.4375465     
  -1508820059.3411536       -10165212.267204106        1429590474.7001278     
 -0.54136438921458518        2.3863552159971628        1522584595.3690240     
 -0.69408000409381065        3.6279756900146820        1515545577.8814700     
 -0.94720886354207257        4.5348850018573845        1513560790.0029404     
  -1.3007563089826459        5.1070655202533688        1516630231.7334344     
  -1.7547150088259824        5.3445425511962004        1524753903.0729527     
  -381179923.44156986       -3733773.7371124625        1501099620.4285591     
  -368222944.92754292       -2934171.7450183928        1494813249.7378747     
  -355286184.39733988       -2201963.0323382914        1493255032.8547833     
  -342369641.85096443       -1537147.5990825742        1496424969.7792842     
  -329473317.28840947       -939725.44522939622        1504323060.5113757     
  -759709907.54160285       -6672568.2205267251        1478438942.0035870     
  -734727595.50778615       -5352859.0220524371        1472881630.5791304     
  -709785719.34120226       -4167936.0476855636        1471726397.1608329     
  -684884279.04185176       -3117799.2974310219        1474973241.7486949     
  -660023274.60973561       -2202448.7712908387        1482622164.3427136     
  -1135589952.8414655       -8816381.0638949275        1454602560.0941095     
  -1099513952.4348075       -7256058.2031170726        1449750720.4052358     
  -1063498605.7787927       -5897914.5111489892        1448974882.9210887     
  -1027543912.8734199       -4741949.9879870415        1452275047.6416683     
  -991649873.71869254       -3788164.6336431503        1459651214.5669711     
  -1508820059.3411536       -10165212.267204106        1429590474.7001278     
  -1462582015.7086074       -8643769.2882151008        1425420519.2161922     
  -1416424843.7101128       -7391898.4227292538        1425000490.1355505     
  -1370348543.3456695       -6409599.6707487106        1428330387.4582009     
  -1324353114.6152794       -5696873.0322811604        1435410211.1841459     
  -1.7547150088259824        5.3445425511962004        1524753903.0729527     
  -1.6673717809376056        5.4484100610273414        1517818085.0668726     
  -1.6747748563430516        5.2364569068237694        1515619347.5118423     
  -1.7769282840012910        4.7086685512214972        1518157690.4078624     
  -1.9738282437080963        3.8650594629580888        1525433113.7549286     
  -329473317.28840947       -939725.44522939622        1504323060.5113757     
  -316830621.40318280       -573830.84148289263        1497045703.6975927     
  -304270194.75187409       -482167.01746183634        1494671979.8542371     
  -291792037.33447576       -664733.97314400971        1497201888.9813094     
  -279396149.15100026       -1121531.7085664123        1504635431.0788093     
  -660023274.60973561       -2202448.7712908387        1482622164.3427136     
  -634262018.58554411       -1327900.3653375804        1474907288.0588672     
  -608665300.93444061       -1001813.2030107975        1472262597.2648242     
  -583233121.65641785       -1224187.2842849493        1474688091.9605885     
  -557965480.75148153       -1995022.6091850698        1482183772.1461556     
  -991649873.71869254       -3788164.6336431503        1459651214.5669711     
  -952294193.21445692       -2262203.1231626868        1451402838.1506951     
  -913185320.22247493       -1558933.3201901317        1448391199.7436023     
  -874323254.74274957       -1678355.2247411013        1450616299.3456924     
  -835707996.77527595       -2620468.8367959857        1458078136.9569662     
  -1324353114.6152794       -5696873.0322811604        1435410211.1841459     
  -1270927145.2899199       -3376739.1149496436        1426532353.9730778     
  -1217830252.6159899       -2153527.3690410256        1423057787.2905717     
  -1165062436.5934711       -2027237.7945085764        1424986511.1366253     
  -1112623697.2223802       -2997870.3914031386        1432318525.5112417     
  -1.9738282437080963        3.8650594629580888        1525433113.7549286     
 -0.97103232048552024        2.6954677958521711        1521848495.6228607     
 -0.32572227881921456       0.33425444189051468        1521547358.0770144     
  -3.7904363713692879E-002  -3.2185982931063362        1524529701.1173942     
 -0.10756478125788727       -7.9630454702689057        1530795524.7439954     
  -279396149.15100026       -1121531.7085664123        1504635431.0788093     
  -270789707.39067513       -2844008.2086879164        1501564068.9590940     
  -262185949.03671327       -4575429.3966838270        1502227059.6044509     
  -253584874.08912003       -6315795.2725775838        1506624403.0148821     
  -244986482.54788777       -8065105.8363396376        1514756099.1903880     
  -557965480.75148153       -1995022.6091850698        1482183772.1461556     
  -539464392.00834358       -5053512.5722480416        1479622535.8151016     
  -520968669.72044724       -8129890.7194516659        1481246524.4279690     
  -502478313.88779396       -11224157.050797671        1487055737.9847615     
  -483993324.51038086       -14336311.566278160        1497050176.4854777     
  -835707996.77527595       -2620468.8367959857        1458078136.9569662     
  -806024054.82403922       -6628510.3952178955        1456023896.1908815     
  -776348162.37692332       -10663383.634040415        1458605752.5475731     
  -746680319.43392408       -14725088.553252995        1465823706.0270357     
  -717020525.99504805       -18813625.152875572        1477677756.6292725     
  -1112623697.2223802       -2997870.3914031386        1432318525.5112417     
  -1070468695.8377599       -7569001.6775936484        1430768150.0864427     
  -1028324427.0061409       -12175908.140454173        1434304743.9632616     
  -986190890.72751486       -16818589.779959619        1442928307.1417055     
  -944068087.00188673       -21497046.596121073        1456638839.6217706     
 -0.10756478125788727       -7.9630454702689057        1530795524.7439954     
  0.33015467649155150       -6.9474203404847676        1519686488.2672386     
   4.8228529228863390        7.5847993636717543        1513775990.7122803     
   13.370534235640191        35.633628248191073        1513064032.0791154     
   25.973197585356758        77.199066004254277        1517550612.3677487     
  -244986482.54788777       -8065105.8363396376        1514756099.1903880     
  -230673023.69375131       -8225149.6325605363        1506018434.2731807     
  -216439466.10994476       -8651530.9965506643        1503129516.4803102     
  -202285809.79647523       -9344249.9283279851        1506089345.8117740     
  -188212054.75334138       -10303306.427891254        1514897922.2675791     
  -483993324.51038086       -14336311.566278160        1497050176.4854777     
  -453508669.51829016       -14099078.857885599        1490590660.2482905     
  -423183821.12184322       -14394534.801637605        1490630099.3379765     
  -393018779.32104820       -15222679.397563264        1497168493.7545426     
  -363013544.11590403       -16583512.645655617        1510205843.4979675     
  -717020525.99504805       -18813625.152875572        1477677756.6292725     
  -668506937.14346337       -17621794.623396814        1473403166.1925740     
  -620233060.21283972       -17229003.830453932        1476277739.2852817     
  -572198895.20318389       -17635252.774072379        1486301475.9074025     
  -524404442.11448890       -18840541.454226643        1503474376.0589366     
  -944068087.00188673       -21497046.596121073        1456638839.6217706     
  -875667826.56927490       -18793296.929109484        1454455952.1060207     
  -807587183.38293195       -17154938.082996488        1460072436.3222160     
  -739826157.44287252       -16581970.057828426        1473488292.2703633     
  -672384748.74909699       -17074392.853604645        1494703519.9504552     
  -1756176624.5724602       -526852987.37173802        679955448.26186967     
  -1784243688.5945952       -500038484.93458152        806351947.35486126     
  -1809386460.1580606       -463476340.96852523        925630989.14046633     
  -1831604939.2628562       -417166555.47356933        1037792573.6186844     
  -1850899125.9089813       -361109128.44971347        1142836700.7895157     
  -2201851281.4652109       -660555384.43956327        696380355.95047319     
  -2238540304.8579912       -613855448.60482359        813792682.90547407     
  -2273187635.3145185       -560349869.64924264        927101244.56023109     
  -2305793272.8347945       -500038647.57282066        1036306040.9147445     
  -2336357217.4188166       -432921782.37555653        1141407071.9690139     
  -2685776918.2301526       -805733075.46904588        721963198.44078577     
  -2722477352.4017406       -736564541.65917194        829361653.81497526     
  -2758018693.1594934       -663532363.13651514        935670035.89606428     
  -2792400940.5034122       -586636539.90107584        1040888344.6840521     
  -2825624094.4334960       -505877071.95285332        1145016580.1789389     
  -3207953534.8672862       -962386060.46018589        756703975.73280728     
  -3236054831.2258453       -868165764.09762657        853058860.08336520     
  -3263879633.6929870       -773023821.43034291        951337363.14796519     
  -3291427942.2687106       -676960232.45833468        1051539484.9266071     
  -3318699756.9530168       -579974997.18160224        1153665225.4192910     
  -3768381131.3766112       -1130514339.4129834        800602687.82653749     
  -3779272741.3303037       -1008659115.9201875        884884301.71064329     
  -3790770456.9149961       -888824244.53072560        974103226.31593394     
  -3802874278.1306901       -771009725.24459887        1068259461.6424097     
  -3815584204.9773831       -655215558.06180477        1167353007.6900706     
  -1850899125.9089813       -361109128.44971347        1142836700.7895157     
  -1835638221.3512812       -295376612.60630196        1190315835.2711935     
  -1823757502.7961569       -240911383.43814439        1240086911.4340520     
  -1815256970.2436101       -197713440.94524395        1292149929.2780919     
  -1810136623.6936383       -165782785.12759674        1346504888.8033125     
  -2336357217.4188166       -432921782.37555653        1141407071.9690139     
  -2312863455.9651456       -351796204.39327747        1182639326.8315823     
  -2292867606.5859418       -282330333.32588774        1224360361.7470551     
  -2276369669.2812033       -224524169.17338723        1266570176.7154317     
  -2263369644.0509329       -178377711.93577623        1309268771.7367129     
  -2825624094.4334960       -505877071.95285332        1145016580.1789389     
  -2799049366.4503598       -410903998.94165838        1179864608.3385270     
  -2776090276.6135802       -327983053.08498573        1213398254.9227414     
  -2756746824.9231582       -257114234.38283861        1245617519.9315829     
  -2741019011.3790951       -198297542.83521593        1276522403.3650510     
  -3318699756.9530168       -579974997.18160224        1153665225.4192910     
  -3294195952.8069229       -472699996.25144303        1181991679.7920258     
  -3273425512.8790746       -377869542.71544099        1207200590.9611101     
  -3256388437.1694732       -295483636.57359815        1229291958.9265440     
  -3243084725.6781216       -225542277.82591343        1248265783.6883283     
  -3815584204.9773831       -655215558.06180477        1167353007.6900706     
  -3798303215.0348344       -537184196.32263362        1189020541.1920798     
  -3784873315.3824234       -431989802.21725273        1205767369.8621616     
  -3775294506.0201511       -339632375.74566817        1217593493.7003164     
  -3769566786.9480162       -260111916.90787554        1224498912.7065442     
  -1810136623.6936383       -165782785.12759674        1346504888.8033125     
  -1779583789.0891869       -133284322.87270868        1364190341.0814970     
  -1750306992.6442058       -105039321.14938682        1382699772.7922282     
  -1722306234.3586934       -81047779.957628310        1402033183.9355073     
  -1695581514.2326508       -61309699.297437489        1422190574.5113325     
  -2263369644.0509329       -178377711.93577623        1309268771.7367129     
  -2223989018.8603501       -133976234.50011396        1317187434.0449581     
  -2187479158.3799410       -99143972.765034199        1328325875.4067326     
  -2153840062.6097097       -73880926.730547071        1342684095.8220367     
  -2123071731.5496540       -58187096.396643639        1360262095.2908700     
  -2741019011.3790951       -198297542.83521593        1276522403.3650510     
  -2685965453.8281436       -139939507.68650746        1272813761.3942003     
  -2635377387.5380754       -96466443.407405615        1274720698.0978611     
  -2589254812.5088892       -67878349.997910738        1282243213.4760332     
  -2547597728.7405863       -54175227.458025694        1295381307.5287173     
  -3243084725.6781216       -225542277.82591343        1248265783.6883283     
  -3165513093.9925690       -151174142.43188858        1231069323.1292236     
  -3094001680.1186047       -97006733.076492190        1221884240.8656125     
  -3028550484.0562296       -63040049.759723902        1220710536.8974962     
  -2969159505.8054428       -49274092.481584787        1227548211.2248716     
  -3769566786.9480162       -260111916.90787554        1224498912.7065442     
  -3662631939.3536277       -167680138.73626482        1191954119.2500288     
  -3563352036.1215343       -100764841.77230120        1169816503.7099888     
  -3471727077.2517347       -59366026.015986919        1158086066.0864263     
  -3387757062.7442303       -43483691.467325568        1156762806.3793383     
  -1695581514.2326508       -61309699.297437489        1422190574.5113325     
  -1646169805.8131182       -39452428.551018715        1415652667.3431482     
  -1598572327.1913564       -23642590.463834226        1414706681.6518865     
  -1552789078.3673704       -13880185.035900533        1419352617.4375465     
  -1508820059.3411536       -10165212.267204106        1429590474.7001278     
  -2123071731.5496540       -58187096.396643639        1360262095.2908700     
  -2060785667.0348468       -39396970.771050215        1352645853.7555044     
  -1999821601.3778207       -25013508.004732370        1350048844.3059270     
  -1940179534.5785787       -15036708.097690463        1352471066.9421380     
  -1881859466.6371176       -9466571.0499218702        1359912521.6641371     
  -2547597728.7405863       -54175227.458025694        1295381307.5287173     
  -2474073563.5337420       -38943123.574232697        1287261001.0561578     
  -2401379166.2446895       -26476912.749746919        1283587237.2782533     
  -2329514536.8734298       -16776594.984570384        1284360016.1950037     
  -2258479675.4199629       -9842170.2787013054        1289579337.8064086     
  -2969159505.8054428       -49274092.481584787        1227548211.2248716     
  -2886033495.3098035       -38090886.960568190        1219498109.2451091     
  -2803245021.7919617       -28032804.698883176        1215321860.5688660     
  -2720794085.2519231       -19099845.696542144        1215019465.1961462     
  -2638680685.6896887       -11292009.953544736        1218590923.1269462     
  -3387757062.7442303       -43483691.467325568        1156762806.3793383     
  -3296665462.3630295       -36840260.930048823        1149357178.3223572     
  -3205419168.0196395       -29681183.852143884        1145252714.1777661     
  -3114018179.7140632       -22006460.233609915        1144449413.9455621     
  -3022462497.4462972       -13816090.074454546        1146947277.6257467     
  -1508820059.3411536       -10165212.267204106        1429590474.7001278     
  -1462582015.7086074       -8643769.2882151008        1425420519.2161922     
  -1416424843.7101128       -7391898.4227292538        1425000490.1355505     
  -1370348543.3456695       -6409599.6707487106        1428330387.4582009     
  -1324353114.6152794       -5696873.0322811604        1435410211.1841459     
  -1881859466.6371176       -9466571.0499218702        1359912521.6641371     
  -1824982498.1755934       -6802429.8398766518        1354472215.2777472     
  -1768414123.8191960       -5166935.6469289064        1353202071.2262650     
  -1712154343.5679252       -4560088.4710648060        1356102089.5096915     
  -1656203157.4217808       -4981888.3122912645        1363172270.1280260     
  -2258479675.4199629       -9842170.2787013054        1289579337.8064086     
  -2189763108.0391326       -5675128.6105124950        1282603004.3013101     
  -2121582857.2345014       -3295808.8629953861        1280217069.0627348     
  -2053938923.0060720       -2704211.0361467600        1282421532.0906842     
  -1986831305.3538437       -3900335.1299698353        1289216393.3851559     
  -2638680685.6896887       -11292009.953544736        1218590923.1269462     
  -2556923845.2992225       -5261865.6001127958        1209812886.2868843     
  -2475931043.9560299       -1778518.0709320307        1206045483.6449628     
  -2395702281.6601119       -841967.36599552631        1207288715.2011795     
  -2316237558.4114723       -2452213.4853230715        1213542580.9555364     
  -3022462497.4462972       -13816090.074454546        1146947277.6257467     
  -2926464709.9558625       -5562640.8086723089        1136101861.2344677     
  -2831458683.9837780       -615063.27072846889        1130687314.9729450     
  -2737444419.5300441        1026642.5393877029        1130703638.8411756     
  -2644421916.5946598       -637523.37833738327        1136150832.8391628     
  -1324353114.6152794       -5696873.0322811604        1435410211.1841459     
  -1270927145.2899199       -3376739.1149496436        1426532353.9730778     
  -1217830252.6159899       -2153527.3690410256        1423057787.2905717     
  -1165062436.5934711       -2027237.7945085764        1424986511.1366253     
  -1112623697.2223802       -2997870.3914031386        1432318525.5112417     
  -1656203157.4217808       -4981888.3122912645        1363172270.1280260     
  -1589198891.6209106       -2905652.9010272622        1354242828.7437563     
  -1522425298.9526658       -1598327.9318459630        1350411224.5442562     
  -1455882379.4170489       -1059913.4047559500        1351677457.5295241     
  -1389570133.0140538       -1290409.3197461367        1358041527.6995692     
  -1986831305.3538437       -3900335.1299698353        1289216393.3851559     
  -1907121466.9168627       -2329815.3765847683        1280350171.9329445     
  -1827543898.0937111       -1200194.3359680176        1276276334.3217106     
  -1748098598.8843889       -511472.00811529160        1276994880.5514600     
  -1668785569.2888989       -263648.39303386211        1282505810.6221871     
  -2316237558.4114723       -2452213.4853230715        1213542580.9555364     
  -2224694871.1777792       -1649226.5416327715        1204854383.5406420     
  -2133186050.0391219       -959126.58139812946        1200653116.6229398     
  -2041711094.9954991       -381913.60461056232        1200938780.2024240     
  -1950270006.0469100        82412.388725399971        1205711374.2790987     
  -2644421916.5946598       -637523.37833738327        1136150832.8391628     
  -2541919104.4036593       -863886.39617288113        1127755463.5668519     
  -2439351754.7888985       -875124.66813731194        1123541571.4479368     
  -2336719867.7503781       -671238.19423568249        1123509156.4824214     
  -2234023443.2880974       -252226.97447168827        1127658218.6703050     
  -1112623697.2223802       -2997870.3914031386        1432318525.5112417     
  -1070468695.8377599       -7569001.6775936484        1430768150.0864427     
  -1028324427.0061409       -12175908.140454173        1434304743.9632616     
  -986190890.72751486       -16818589.779959619        1442928307.1417055     
  -944068087.00188673       -21497046.596121073        1456638839.6217706     
  -1389570133.0140538       -1290409.3197461367        1358041527.6995692     
  -1334975872.1457930       -5513064.2925535440        1355299082.7032585     
  -1280465287.6377156       -10014640.465969026        1356957911.9358099     
  -1226038379.4897983       -14795137.839926064        1363018015.3972173     
  -1171695147.7020593       -19854556.414466679        1373479393.0874853     
  -1668785569.2888989       -263648.39303386211        1282505810.6221871     
  -1603711177.7163272       -4725565.6862779856        1278486194.9459989     
  -1538793406.3111053       -9709550.2040154338        1278182158.4259098     
  -1474032255.0732322       -15215601.946247816        1281593701.0619142     
  -1409427724.0026996       -21243720.912957728        1288720822.8540127     
  -1950270006.0469100        82412.388725399971        1205711374.2790987     
  -1876674612.5493503       -5206505.8587319851        1200329486.8146636     
  -1803308783.0263197       -11260637.354615688        1197977483.4335601     
  -1730172517.4778068       -18079982.098900199        1198655364.1357858     
  -1657265815.9038181       -25664540.091592908        1202363128.9213471     
  -2234023443.2880974       -252226.97447168827        1127658218.6703050     
  -2153866176.6448770       -6955884.8099588156        1120828958.3092518     
  -2074011417.7833552       -14667901.917767406        1116343886.9587646     
  -1994459166.7035329       -23388278.297915816        1114203004.6188459     
  -1915209423.4054015       -33117013.950357556        1114406311.2894931     
  -944068087.00188673       -21497046.596121073        1456638839.6217706     
  -875667826.56927490       -18793296.929109484        1454455952.1060207     
  -807587183.38293195       -17154938.082996488        1460072436.3222160     
  -739826157.44287252       -16581970.057828426        1473488292.2703633     
  -672384748.74909699       -17074392.853604645        1494703519.9504552     
  -1171695147.7020593       -19854556.414466679        1373479393.0874853     
  -1084130555.8283267       -15456854.593054175        1366802132.0287337     
  -996818081.63607740       -11899545.043249786        1366676380.6186461     
  -909757725.12531257       -9182627.7650514841        1373102138.8572237     
  -822949486.29602361       -7306102.7584606409        1386079406.7444723     
  -1409427724.0026996       -21243720.912957728        1288720822.8540127     
  -1306264120.9258094       -16221663.008546412        1277627937.7445223     
  -1203285135.9655991       -11814998.826415598        1271838700.2004166     
  -1100490769.1220746       -8023728.3665676713        1271353110.2216966     
  -997881020.39523721       -4847851.6290027499        1276171167.8083508     
  -1657265815.9038181       -25664540.091592908        1202363128.9213471     
  -1542068521.8617117       -21087722.175562143        1186933369.2533844     
  -1426988346.3714972       -16901299.432497859        1175559395.0675223     
  -1312025289.4331665       -13105271.862384498        1168241206.3637505     
  -1197179351.0467227       -9699639.4652230740        1164978803.1420944     
  -1915209423.4054015       -33117013.950357556        1114406311.2894931     
  -1791543758.6360385       -30055032.094105124        1094718426.5553215     
  -1667927712.8537657       -27158446.861480236        1077838465.2199676     
  -1544361286.0585856       -24427258.252495229        1063766427.2834301     
  -1420844478.2504909       -21861466.267134845        1052502312.7457058     
  -3768381131.3766112       -1130514339.4129834        800602687.82653749     
  -3779272741.3303037       -1008659115.9201875        884884301.71064329     
  -3790770456.9149961       -888824244.53072560        974103226.31593394     
  -3802874278.1306901       -771009725.24459887        1068259461.6424097     
  -3815584204.9773831       -655215558.06180477        1167353007.6900706     
  -4339889853.1641493       -1301966955.9492447        858809763.10328650     
  -4335364412.0090170       -1125696660.4342699        942420162.95380771     
  -4331974462.0086584       -953211335.43520367        1020395197.8540442     
  -4329720003.1630726       -784510980.95204592        1092734867.8039958     
  -4328601035.4722576       -619595596.98479664        1159439172.8036625     
  -4895309845.6359205       -1468592953.6907763        936475629.94436359     
  -4905574998.1475935       -1246969879.5863111        1018797199.3168995     
  -4917505027.3378115       -1030896394.4103289        1084910728.0676804     
  -4931099933.2065744       -820372498.16282952        1134816216.1967070     
  -4946359715.7538815       -615398190.84381223        1168513663.7039788     
  -5434641108.7919273       -1630392332.6375780        1033600288.3497685     
  -5489904499.7460337       -1372478773.3763113        1114015410.7999177     
  -5547362152.9024544       -1121879421.4561009        1167649816.9568427     
  -5607014068.2611952       -878594276.87694824        1194503506.8205433     
  -5668860245.8222513       -642623339.63885236        1194576480.3910186     
  -5957883642.6321678       -1787365092.7896502        1150183738.3195016     
  -6088352916.8043337       -1502223341.8042698        1228074797.4028637     
  -6221545838.7025881       -1226160416.5725207        1268612464.5215313     
  -6357462408.3269329       -959176317.09440267        1271796739.6755047     
  -6496102625.6773672       -701271043.36991596        1237627622.8647828     
  -3815584204.9773831       -655215558.06180477        1167353007.6900706     
  -3798303215.0348344       -537184196.32263362        1189020541.1920798     
  -3784873315.3824234       -431989802.21725273        1205767369.8621616     
  -3775294506.0201511       -339632375.74566817        1217593493.7003164     
  -3769566786.9480162       -260111916.90787554        1224498912.7065442     
  -4328601035.4722576       -619595596.98479664        1159439172.8036625     
  -4298503260.4507761       -463808098.31568885        1141502285.9483809     
  -4279020451.9650755       -343403821.43252337        1129632214.6942215     
  -4270152610.0151596       -258382766.33529925        1123828959.0411842     
  -4271899734.6010232       -208744933.02401757        1124092518.9892685     
  -4946359715.7538815       -615398190.84381223        1168513663.7039788     
  -4872052240.1304684       -412436680.58787107        1103081167.5381544     
  -4815123607.2884817       -267404646.27001905        1054703007.4065018     
  -4775573817.2279224       -180302087.89025855        1023379183.3090200     
  -4753402869.9487886       -151129005.44858670        1009109695.2457089     
  -5668860245.8222513       -642623339.63885236        1194576480.3910186     
  -5518950154.0739088       -383069943.13917685        1073757185.9613998     
  -5393182781.3526373       -203992276.72974014        980979747.99900162     
  -5291558127.6584387       -105390340.41054249        916244166.50382447     
  -5214076192.9913101       -87264134.181580544        879550441.47586524     
  -6496102625.6773672       -701271043.36991596        1237627622.8647828     
  -6239197002.2810984       -375707885.96960807        1053530341.2181176     
  -6013197974.1575470       -153166712.81168747        908462436.47172189     
  -5818105541.3067112       -33647523.896153688        802423908.62559628     
  -5653919703.7285910       -17150319.223007202        735414757.67973876     
  -3769566786.9480162       -260111916.90787554        1224498912.7065442     
  -3662631939.3536277       -167680138.73626482        1191954119.2500288     
  -3563352036.1215343       -100764841.77230120        1169816503.7099888     
  -3471727077.2517347       -59366026.015986919        1158086066.0864263     
  -3387757062.7442303       -43483691.467325568        1156762806.3793383     
  -4271899734.6010232       -208744933.02401757        1124092518.9892685     
  -4149137234.7196789       -144521659.27352977        1090743337.1829042     
  -4030771271.7537327       -94953508.574369669        1065671749.4702896     
  -3916801845.7031832       -60040480.926536560        1048877755.8514259     
  -3807228956.5680332       -39782576.330032825        1040361356.3263125     
  -4753402869.9487886       -151129005.44858670        1009109695.2457089     
  -4620897242.9882755       -116939593.68155956        978757600.44420886     
  -4489529745.4962626       -86543946.809537649        954553515.91373205     
  -4359300377.4727507       -59942064.832520723        936497441.65427983     
  -4230209138.9177423       -37133947.750510931        924589377.66585350     
  -5214076192.9913101       -87264134.181580544        879550441.47586524     
  -5077911964.1594162       -84933941.960352421        855996909.03394198     
  -4939627457.3491278       -75536156.477806568        836461803.04031682     
  -4799222672.5604439       -59070777.733942509        820945123.49498868     
  -4656697609.7933636       -35537805.728763103        809446870.39796245     
  -5653919703.7285910       -17150319.223007202        735414757.67973876     
  -5520181398.2331018       -48504704.109908104        722461262.95210326     
  -5381064407.3123245       -61930137.579174995        711396610.85004210     
  -5236568730.9662523       -57426619.630798101        702220801.37355304     
  -5086694369.1948919       -34994150.264787912        694933834.52263665     
  -3387757062.7442303       -43483691.467325568        1156762806.3793383     
  -3296665462.3630295       -36840260.930048823        1149357178.3223572     
  -3205419168.0196395       -29681183.852143884        1145252714.1777661     
  -3114018179.7140632       -22006460.233609915        1144449413.9455621     
  -3022462497.4462972       -13816090.074454546        1146947277.6257467     
  -3807228956.5680332       -39782576.330032825        1040361356.3263125     
  -3705162791.3572836       -29413742.227623701        1031935352.0680963     
  -3603735509.0004377       -21174517.638226748        1027790448.3282690     
  -3502947109.4974985       -15064902.561850786        1027926645.1068316     
  -3402797592.8484588       -11084896.998481035        1032343942.4037800     
  -4230209138.9177423       -37133947.750510931        924589377.66585350     
  -4114368590.0031576       -22199764.420683861        914217157.58762717     
  -3999960500.7585688       -12040446.657512903        909105974.63379037     
  -3886984871.1839771       -6655994.4609975815        909255828.80434096     
  -3775441701.2793822       -6046407.8311369419        914666720.09928203     
  -4656697609.7933636       -35537805.728763103        809446870.39796245     
  -4524282858.3006554       -15198327.509233475        796202594.88095152     
  -4394094143.2940369       -2278970.9099957943        789199293.09432983     
  -4266131464.7735057        3220264.0689427853        788436965.03809845     
  -4140394822.7390652        1299377.4275779724        793915610.71225357     
  -5086694369.1948919       -34994150.264787912        694933834.52263665     
  -4934905596.2497730       -8409431.4932651520        677891663.94806814     
  -4786136436.6068392        8109909.6043176651        668070403.70988810     
  -4640386890.2660866        14563873.027956724        665470053.80809617     
  -4497656957.2275133        10952458.777666807        670090614.24269438     
  -3022462497.4462972       -13816090.074454546        1146947277.6257467     
  -2926464709.9558625       -5562640.8086723089        1136101861.2344677     
  -2831458683.9837780       -615063.27072846889        1130687314.9729450     
  -2737444419.5300441        1026642.5393877029        1130703638.8411756     
  -2644421916.5946598       -637523.37833738327        1136150832.8391628     
  -3402797592.8484588       -11084896.998481035        1032343942.4037800     
  -3294455817.3027649       -6392324.7801628113        1023041017.0333370     
  -3186625781.5497913       -3405551.8709028959        1018624337.8173674     
  -3079307485.5895338       -2124578.2707060575        1019093904.7558724     
  -2972500929.4219956       -2549403.9795671701        1024449717.8488467     
  -3775441701.2793822       -6046407.8311369419        914666720.09928203     
  -3656312006.1792374       -5381533.2105221748        907466311.09624600     
  -3537214029.1461811       -4822385.4801933765        904607524.27240074     
  -3418147770.1802068       -4368964.6401498318        906090359.62774658     
  -3299113229.2813249       -4021270.6903967857        911914817.16228247     
  -4140394822.7390652        1299377.4275779724        793915610.71225357     
  -4012033276.5852785       -2530266.0997531414        789377743.42319643     
  -3883223426.7729406       -4865564.0985932350        788636874.33804572     
  -3753965273.3020582       -5706516.5689480305        791693003.45680189     
  -3624258816.1726279       -5053123.5108144283        798546130.77947009     
  -4497656957.2275133        10952458.777666807        670090614.24269438     
  -4361619628.5208836        2161476.5521497726        668775314.01418293     
  -4224653974.4300761       -3535087.7261042595        670712388.01429963     
  -4086759994.9550920       -6137234.0571014881        675901836.24304247     
  -3947937690.0959253       -5644962.4408338070        684343658.70041096     
  -2644421916.5946598       -637523.37833738327        1136150832.8391628     
  -2541919104.4036593       -863886.39617288113        1127755463.5668519     
  -2439351754.7888985       -875124.66813731194        1123541571.4479368     
  -2336719867.7503781       -671238.19423568249        1123509156.4824214     
  -2234023443.2880974       -252226.97447168827        1127658218.6703050     
  -2972500929.4219956       -2549403.9795671701        1024449717.8488467     
  -2858526413.0965090       -1638165.1125680208        1016690113.4782881     
  -2744577073.5529413       -810848.85195767879        1013310896.2382050     
  -2630652910.7912793       -67455.197711110115        1014312066.1285987     
  -2516753924.8115282        592015.85016703606        1019693623.1494653     
  -3299113229.2813249       -4021270.6903967857        911914817.16228247     
  -3173098694.6011300       -1801935.6724960804        904686311.12019336     
  -3047199050.9085274        34429.386775374413        902037102.18565679     
  -2921414298.2035108        1487824.4874274731        903967190.35867000     
  -2795744436.4860764        2558249.6294592619        910476575.63923645     
  -3624258816.1726279       -5053123.5108144283        798546130.77947009     
  -3485635948.9175158       -1355198.0759563446        791744056.49256408     
  -3347217686.8556666        1660710.0480260849        789720189.29028535     
  -3209004029.9870701        3994600.8611594439        792474529.17263746     
  -3070994978.3117337        5646474.3634276390        800007076.13961637     
  -3947937690.0959253       -5644962.4408338070        684343658.70041096     
  -3796138176.0456691       -297952.32294178009        677863349.59540343     
  -3644632981.3943496        4067993.1318275928        676360157.55210173     
  -3493422106.1419621        7452873.9234979153        679834082.57050240     
  -3342505550.2885075        9856690.0520513058        688285124.65060818     
  -2234023443.2880974       -252226.97447168827        1127658218.6703050     
  -2153866176.6448770       -6955884.8099588156        1120828958.3092518     
  -2074011417.7833552       -14667901.917767406        1116343886.9587646     
  -1994459166.7035329       -23388278.297915816        1114203004.6188459     
  -1915209423.4054015       -33117013.950357556        1114406311.2894931     
  -2516753924.8115282        592015.85016703606        1019693623.1494653     
  -2429928631.2124982       -7263461.6084326506        1014213822.2124534     
  -2343337176.7385197       -15898402.817213416        1011784888.2977570     
  -2256979561.3896055       -25312807.776203990        1012406821.4053782     
  -2170855785.1657515       -35506676.485394835        1016079621.5353084     
  -2795744436.4860764        2558249.6294592619        910476575.63923645     
  -2700232035.8976626       -5843323.4421651363        906426347.55901039     
  -2604884805.7776661       -14795464.741854668        906133664.51284850     
  -2509702746.1260967       -24298174.269634724        909598526.50074613     
  -2414685856.9429455       -34351452.025480390        916820933.52270877     
  -3070994978.3117337        5646474.3634276390        800007076.13961637     
  -2964776390.7003736       -2695470.3111572266        797466534.34891927     
  -2858654304.9007969       -11359087.691690922        799390215.60403347     
  -2752628720.9130082       -20344377.778189778        805778119.90495968     
  -2646699638.7370005       -29651340.570623517        816630247.25169146     
  -3342505550.2885075        9856690.0520513058        688285124.65060818     
  -3223561695.6206326        2180097.7845729589        687334382.58218396     
  -3104645674.1079082       -5589271.6667249203        691554541.57132006     
  -2985757485.7503357       -13451418.301868558        700945601.61801088     
  -2866897130.5479064       -21406342.120825291        715507562.72226131     
  -1915209423.4054015       -33117013.950357556        1114406311.2894931     
  -1791543758.6360385       -30055032.094105124        1094718426.5553215     
  -1667927712.8537657       -27158446.861480236        1077838465.2199676     
  -1544361286.0585856       -24427258.252495229        1063766427.2834301     
  -1420844478.2504909       -21861466.267134845        1052502312.7457058     
  -2170855785.1657515       -35506676.485394835        1016079621.5353084     
  -2039109408.5047550       -32568898.859817982        1000735761.0145212     
  -1907495215.0020204       -30071731.761774063        988828571.83402169     
  -1776013204.6575537       -28015175.191291332        980358053.99380767     
  -1644663377.4713483       -26399229.148348331        975324207.49389267     
  -2414685856.9429455       -34351452.025480390        916820933.52270877     
  -2273062345.7003975       -30998951.823598623        905724772.34893441     
  -2131653581.7872887       -28362276.053178906        898694030.45691752     
  -1990459565.2036142       -26441424.714218855        895728707.84666610     
  -1849480295.9493802       -25236397.806714058        896828804.51817119     
  -2646699638.7370005       -29651340.570623517        816630247.25169146     
  -2493402570.2229757       -25345190.985468268        809685460.55855668     
  -2340402813.2095575       -22030079.735673785        807434841.08865619     
  -2187700367.6967564       -19706006.821272492        809878388.84198666     
  -2035295233.6845653       -18372972.242225766        817016103.81855643     
  -2866897130.5479064       -21406342.120825291        715507562.72226131     
  -2700130082.0724788       -15607616.345402241        712617825.64339936     
  -2533742909.2688422       -11075142.809274197        715051003.72924268     
  -2367735612.1369958       -7808921.5124468803        722807096.97979665     
  -2202108190.6769247       -5808952.4548898935        735886105.39504755     
  -5957883642.6321678       -1787365092.7896502        1150183738.3195016     
  -6088352916.8043337       -1502223341.8042698        1228074797.4028637     
  -6221545838.7025881       -1226160416.5725207        1268612464.5215313     
  -6357462408.3269329       -959176317.09440267        1271796739.6755047     
  -6496102625.6773672       -701271043.36991596        1237627622.8647828     
  -6810460963.9676924       -2043138289.1903079        1353913459.1039374     
  -6828380165.3373890       -1395435306.2697606        1202895746.6106768     
  -6897663590.3066502       -918946402.01443624        1092140428.5605109     
  -7018311238.8754835       -613671576.42433715        1021647504.9534394     
  -7190323111.0438786       -479610829.49945951        991416975.78946233     
  -8337796589.6095543       -2501338976.8828664        1712476929.9534500     
  -8021406328.4402399       -1424546945.1061904        1275803107.3645096     
  -7805020866.7439690       -681104244.90632892        957007465.62645245     
  -7688640204.5207462       -271010876.28328562        756090004.73927939     
  -7672264341.7705650       -194266839.23705435        673050724.70298970     
  -10539890519.557751       -3161967155.8673248        2225874150.8680391     
  -9667431406.1128845       -1589558258.3135588        1446796879.6643620     
  -8943617668.0145416       -512633945.24819851        863213575.71935761     
  -8368449305.2627220        68805783.328753471        475124239.03302616     
  -7941926317.8574257        154760927.41729784        282528869.60536599     
  -13416742753.812283       -4025022826.1436844        2894105121.8477054     
  -11766455398.355330       -1890469245.8918657        1715877063.5102346     
  -10313453994.118372       -413535503.04004478        810758758.83922470     
  -9057738541.1014194        405778402.41177416        178750207.83467624     
  -7999309039.3044643        567472470.46359634       -180148589.50340965     
  -6496102625.6773672       -701271043.36991596        1237627622.8647828     
  -6239197002.2810984       -375707885.96960807        1053530341.2181176     
  -6013197974.1575470       -153166712.81168747        908462436.47172189     
  -5818105541.3067112       -33647523.896153688        802423908.62559628     
  -5653919703.7285910       -17150319.223007202        735414757.67973876     
  -7190323111.0438786       -479610829.49945951        991416975.78946233     
  -6900302228.8578777       -304269497.66177011        847157274.83854353     
  -6623090249.2658339       -171624507.80392432        724008048.10929096     
  -6358687172.2677412       -81675859.925923347        621969295.60170496     
  -6107092997.8636007       -34423554.027767897        541041017.31578565     
  -7672264341.7705650       -194266839.23705435        673050724.70298970     
  -7400325065.5908422       -184506392.40078592        589742579.23970771     
  -7123096999.3263111       -157116645.28181791        509626005.31948781     
  -6840580142.9769726       -112097597.88015461        432701002.94233310     
  -6552774496.5428219       -49449250.195791960        358967572.10823911     
  -7941926317.8574257        154760927.41729784        282528869.60536599     
  -7739265512.4799929       -16418570.186655998        281286254.42161107     
  -7513218224.3389854       -109643125.24537230        265316308.10231218     
  -7263784453.4344072       -124912737.75884485        234619030.64747861     
  -6990964199.7662525       -62227407.727078438        189194422.05710101     
  -7999309039.3044643        567472470.46359634       -180148589.50340965     
  -7917123569.5253248        199993968.98061466       -78211699.615750194     
  -7793453924.3038511       -29203947.694583893       -8921043.5422335435     
  -7628300103.6400423       -120121279.56199646        27723378.717140280     
  -7421662107.5338993       -72758026.621633053        31721567.162368719     
  -5653919703.7285910       -17150319.223007202        735414757.67973876     
  -5520181398.2331018       -48504704.109908104        722461262.95210326     
  -5381064407.3123245       -61930137.579174995        711396610.85004210     
  -5236568730.9662523       -57426619.630798101        702220801.37355304     
  -5086694369.1948919       -34994150.264787912        694933834.52263665     
  -6107092997.8636007       -34423554.027767897        541041017.31578565     
  -5958663734.1067057       -36055848.602612019        534753005.44318742     
  -5809250926.4012394       -34409663.348875523        531017944.15100962     
  -5658854574.7471981       -29484998.266559601        529835833.43924803     
  -5507474679.1445827       -21281853.355664968        531206673.30790704     
  -6552774496.5428219       -49449250.195791960        358967572.10823911     
  -6387756823.2249613       -20790219.068706274        354217378.03450871     
  -6226150747.4352455       -3503179.7020976543        352684242.49604201     
  -6067956269.1736746        2411867.9040243626        354368165.49283814     
  -5913173388.4402475       -3045076.2503309250        359269147.02490157     
  -6990964199.7662525       -62227407.727078438        189194422.05710101     
  -6807460665.5878735       -2707815.5082039833        180854380.72606486     
  -6631763870.4143476        30789313.361140728        176395505.88514304     
  -6463873814.2456856        38263978.880944252        175817797.53432333     
  -6303790497.0818892        19716181.051201820        179121255.67362267     
  -7421662107.5338993       -72758026.621633053        31721567.162368719     
  -7217775261.1954279        18191362.078914165        14664013.517859612     
  -7026090295.3385363        68467815.840865135        2151734.3183076787     
  -6846607209.9632282        78071334.664205551       -5815270.4362960467     
  -6679326005.0694942        47001918.548958778       -9237000.7459349111     
  -5086694369.1948919       -34994150.264787912        694933834.52263665     
  -4934905596.2497730       -8409431.4932651520        677891663.94806814     
  -4786136436.6068392        8109909.6043176651        668070403.70988810     
  -4640386890.2660866        14563873.027956724        665470053.80809617     
  -4497656957.2275133        10952458.777666807        670090614.24269438     
  -5507474679.1445827       -21281853.355664968        531206673.30790704     
  -5343452016.7866306       -9286779.1590366364        516275393.73385382     
  -5180413492.2723284       -572164.44123768806        506900729.04287463     
  -5018359105.6016741        4861990.7977237701        503082679.23496974     
  -4857288856.7746754        7015686.5578508377        504821244.31014025     
  -5913173388.4402475       -3045076.2503309250        359269147.02490157     
  -5741671966.5360727       -7066185.5885775089        348823479.81965041     
  -5569119207.0170164       -7582836.2105562687        342270132.04415917     
  -5395515109.8830795       -4595028.1162567139        339609103.69842947     
  -5220859675.1342592        1897238.6943104267        340840394.78245717     
  -6303790497.0818892        19716181.051201820        179121255.67362267     
  -6129565445.4981070       -1747650.7819049358        175535922.20545971     
  -5952253580.8409061       -12922105.703622103        174178612.71374586     
  -5771854903.1103001       -13807183.713992119        175049327.19847673     
  -5588369412.3062792       -4402884.8129673004        178148065.65964893     
  -6679326005.0694942        47001918.548958778       -9237000.7459349111     
  -6507132453.6727171        6668825.2610096931       -3587279.1087171026     
  -6329816613.7440014       -16589972.920475960        2626171.0516244844     
  -6147378485.2833309       -22774475.995456457        9403349.7350982558     
  -5959818068.2907228       -11884683.963962078        16744256.941711657     
  -4497656957.2275133        10952458.777666807        670090614.24269438     
  -4361619628.5208836        2161476.5521497726        668775314.01418293     
  -4224653974.4300761       -3535087.7261042595        670712388.01429963     
  -4086759994.9550920       -6137234.0571014881        675901836.24304247     
  -3947937690.0959253       -5644962.4408338070        684343658.70041096     
  -4857288856.7746754        7015686.5578508377        504821244.31014025     
  -4711040437.7204208        3461062.6730203629        502828402.63833040     
  -4564639817.5564470        413775.82058572769        504229481.23436791     
  -4418086996.2827654       -2126173.9994742870        509024480.09825253     
  -4271381973.8993578       -4158786.7871286869        517213399.22998869     
  -5220859675.1342592        1897238.6943104267        340840394.78245717     
  -5063995748.4774675        3700298.3266341686        337264533.34714425     
  -4907755744.9854164        3423614.0764801502        337224138.21889913     
  -4752139664.6581078        1067185.9438557625        340719209.39772558     
  -4597147507.4955425       -3368986.0712542534        347749746.88361913     
  -5588369412.3062792       -4402884.8129673004        178148065.65964893     
  -5420485560.7920160        2879183.5130097866        172083706.14062536     
  -5254001756.7169676        5494427.0416164398        169696358.96788976     
  -5088918000.0811157        3442845.7728877068        170986024.14145026     
  -4925234290.8844757       -3275560.2931969166        175952701.66130131     
  -5959818068.2907228       -11884683.963962078        16744256.941711657     
  -5780509874.6640825        997718.23211145401        7285921.0187679129     
  -5603377852.7511053        6626214.7159767151        1646143.4813437059     
  -5428422002.5517960        5000805.4876129627       -175075.67057073244     
  -5255642324.0661535       -3878509.4529728889        1822263.5630346865     
  -3947937690.0959253       -5644962.4408338070        684343658.70041096     
  -3796138176.0456691       -297952.32294178009        677863349.59540343     
  -3644632981.3943496        4067993.1318275928        676360157.55210173     
  -3493422106.1419621        7452873.9234979153        679834082.57050240     
  -3342505550.2885075        9856690.0520513058        688285124.65060818     
  -4271381973.8993578       -4158786.7871286869        517213399.22998869     
  -4107271592.7507572       -620999.82706332207        509760921.55597287     
  -3943083439.8867064        3176026.1845037937        507218737.62463218     
  -3778817515.3072019        7232291.2475724220        509586847.43596596     
  -3614473819.0122547        11547795.362136364        516865250.98997295     
  -4597147507.4955425       -3368986.0712542534        347749746.88361913     
  -4420917183.0172539       -1697699.3996069431        339759206.94070852     
  -4244236995.7091217        1473130.0381679535        336612137.42144036     
  -4067106945.5711665        6143502.2420325279        338308538.32581890     
  -3889527032.6033745        12313417.212018490        344848409.65383750     
  -4925234290.8844757       -3275560.2931969166        175952701.66130131     
  -4737074946.8451490       -3528051.0405538082        167858205.74960580     
  -4548093648.8616066       -1040695.3071997166        164540356.94252110     
  -4358290396.9338436        4186506.9068970680        165999155.24005932     
  -4167665191.0618730        12153555.601686001        172234600.64220795     
  -5255642324.0661535       -3878509.4529728889        1822263.5630346865     
  -5055744884.2344599       -6112054.7499518394       -5942082.0173307676     
  -4854653399.3441467       -4365449.8515574932       -8996603.8121152688     
  -4652367869.3952551        1361305.2421078682       -7341301.8213060070     
  -4448888294.3877592        11068210.531130552       -976176.04492604104     
  -3342505550.2885075        9856690.0520513058        688285124.65060818     
  -3223561695.6206326        2180097.7845729589        687334382.58218396     
  -3104645674.1079082       -5589271.6667249203        691554541.57132006     
  -2985757485.7503357       -13451418.301868558        700945601.61801088     
  -2866897130.5479064       -21406342.120825291        715507562.72226131     
  -3614473819.0122547        11547795.362136364        516865250.98997295     
  -3482944740.6406541        5786805.1118607521        514132441.28488475     
  -3351646472.8775959       -743553.83353376389        515467609.82883018     
  -3220579015.7230730       -8043281.4740496874        520870756.62180281     
  -3089742369.1770754       -16112377.809666872        530341881.66380906     
  -3889527032.6033745        12313417.212018490        344848409.65383750     
  -3748563938.5524292        7522666.5716087818        340096725.28313875     
  -3608034632.5633926        1285955.7248215675        338310096.35294873     
  -3467939114.6362829       -6396715.3283758163        339488522.86325002     
  -3328277384.7710896       -15525346.587963581        343632004.81405836     
  -4167665191.0618730        12153555.601686001        172234600.64220795     
  -4020419289.3559380        7387682.1638469696        165227234.57694983     
  -3873810153.1653004        499257.00834488869        160082001.14366943     
  -3727837782.4899697       -8511719.8648467064        156798900.34236014     
  -3582502177.3299460       -19645248.455715656        155377932.17302430     
  -4448888294.3877592        11068210.531130552       -976176.04492604104     
  -4298510793.0511951        5381851.8885636330       -10476030.833691444     
  -4148973034.6833215       -3103649.9829657078       -19216675.799003188     
  -4000275019.2841434       -14388295.083473206       -27198110.940875683     
  -3852416746.8536386       -28472083.412911892       -34420336.259301566     
  -2866897130.5479064       -21406342.120825291        715507562.72226131     
  -2700130082.0724788       -15607616.345402241        712617825.64339936     
  -2533742909.2688422       -11075142.809274197        715051003.72924268     
  -2367735612.1369958       -7808921.5124468803        722807096.97979665     
  -2202108190.6769247       -5808952.4548898935        735886105.39504755     
  -3089742369.1770754       -16112377.809666872        530341881.66380906     
  -2909417324.6234651       -9384701.2051823139        521639146.84973669     
  -2728894269.3264685       -1996988.7894457579        517828351.35517025     
  -2548173203.2861147        6050759.4375066757        518909495.18009955     
  -2367254126.5023937        14758543.475680351        524882578.32453614     
  -3328277384.7710896       -15525346.587963581        343632004.81405836     
  -3135625703.6970029       -8238127.0217084885        329790473.08246380     
  -2942198125.4643927        1635416.4063104391        320409904.82516581     
  -2747994650.0732632        14095283.696054935        315490300.04216182     
  -2553015277.5236053        29141474.847547650        315031658.73345518     
  -3582502177.3299460       -19645248.455715656        155377932.17302430     
  -3378755219.2931209       -12167893.795018196        137071804.34157878     
  -3173654477.6826134       -177927.22203779221        122795664.13923043     
  -2967199952.4984326        16324651.263198256        112549511.56596982     
  -2759391643.7405729        37339841.660671473        106333346.62179762     
  -3852416746.8536386       -28472083.412911892       -34420336.259301566     
  -3638805871.4118085       -21174001.525085926       -56516859.372914329     
  -3423263325.9811320       -7437019.6744685173       -75014370.702637553     
  -3205789110.5616341        12738862.138933778       -89912870.248471260     
  -2986383225.1532927        39353643.915083170       -101212358.01041798     
 </DataArray>
 <DataArray  type="Float64" Name="VM" NumberOfComponents="1" format="ascii">
   12935788819.805721     
   11340719854.564667     
   10210061448.807356     
   9272463165.2734642     
   8303476277.4842253     
   10130354781.726053     
   9321944198.3878002     
   8826194058.4584026     
   8443263872.9291916     
   8035341444.5508652     
   7982332037.2645950     
   7734884892.4080725     
   7669016281.9751530     
   7669416290.7727690     
   7666153208.0447483     
   6491634925.4437475     
   6586829824.1791058     
   6757362983.7558308     
   6961152073.5230980     
   7171536725.5652466     
   5657818140.9119806     
   5890938249.8019056     
   6116422279.6924534     
   6331810241.7548923     
   6536877551.7398310     
   8303476277.4842253     
   8020135369.7983837     
   7778908409.5664186     
   7569106694.1881666     
   7385756252.2928295     
   8035341444.5508652     
   7746405515.8040991     
   7473143594.1700811     
   7213595969.8756380     
   6967769131.6482868     
   7666153208.0447483     
   7380842452.9906073     
   7100929190.8408966     
   6826491076.2413950     
   6557731480.9115181     
   7171536725.5652466     
   6910877340.5602245     
   6658127196.4797621     
   6409427404.7352829     
   6161632750.3626223     
   6536877551.7398310     
   6328854451.2934771     
   6143036719.6122799     
   5965515214.8536606     
   5787282627.3770657     
   7385756252.2928295     
   7226932743.3817806     
   7060574169.0005903     
   6885982181.7303867     
   6702969650.7328033     
   6967769131.6482868     
   6813311940.0625095     
   6654229750.2961006     
   6490238672.1265001     
   6321289685.3472443     
   6557731480.9115181     
   6406830451.4572630     
   6254303524.9881563     
   6100120046.6588707     
   5944312043.8997087     
   6161632750.3626223     
   6012487934.0976458     
   5864693183.6745996     
   5718289181.5576048     
   5573334959.2283077     
   5787282627.3770657     
   5636741206.5218086     
   5490418457.8032618     
   5348230885.1958828     
   5210228281.1885281     
   6702969650.7328033     
   6510472389.4841919     
   6321539585.8447170     
   6136044555.6164093     
   5953955250.0575323     
   6321289685.3472443     
   6136228631.1241436     
   5953451817.7547836     
   5772931088.0744543     
   5594684733.1886387     
   5944312043.8997087     
   5769862097.2189388     
   5596817222.6753540     
   5425201827.2901154     
   5255073838.4263411     
   5573334959.2283077     
   5413184189.8560076     
   5254004687.8773289     
   5095844139.5318727     
   4938817157.8054304     
   5210228281.1885281     
   5068577268.5332222     
   4927974947.0951061     
   4788479484.5031090     
   4650307812.5076799     
   5953955250.0575323     
   5781022564.7745304     
   5606694614.4279261     
   5430924133.4158669     
   5253705084.2906427     
   5594684733.1886387     
   5430112054.0458889     
   5264961811.5659685     
   5099247711.5209951     
   4933020235.6898270     
   5255073838.4263411     
   5099416337.2048721     
   4944091498.5922041     
   4789172437.6135283     
   4634768434.0048399     
   4938817157.8054304     
   4792570121.6429443     
   4647641084.3445845     
   4504156006.5094233     
   4362279971.7961302     
   4650307812.5076799     
   4513860791.2157698     
   4379765345.2090321     
   4248187068.2933173     
   4119336913.0852103     
   5253705084.2906427     
   5052702108.3574133     
   4852497167.7019472     
   4653066049.9365711     
   4454433042.3130608     
   4933020235.6898270     
   4744228910.2650433     
   4556494740.2270308     
   4369854218.7464781     
   4184402837.7698650     
   4634768434.0048399     
   4459071108.5357323     
   4284825005.4654813     
   4112145537.1937461     
   3941221486.1232815     
   4362279971.7961302     
   4200797336.2974477     
   4041318219.1368823     
   3884054565.4061828     
   3729308593.3866434     
   4119336913.0852103     
   3973415432.3841257     
   3830219525.3455310     
   3690069470.4041004     
   3553392147.5088792     
   4454433042.3130608     
   4301242523.4117689     
   4147555639.9090695     
   3993378185.5236206     
   3838722883.9933529     
   4184402837.7698650     
   4034281542.6737332     
   3883969380.1042438     
   3733480196.6584768     
   3582841828.1931148     
   3941221486.1232815     
   3798287080.3821106     
   3655942630.6384511     
   3514287495.4782386     
   3373462261.2539496     
   3729308593.3866434     
   3597789483.9444733     
   3468164223.5156469     
   3340689887.7183175     
   3215707074.9976478     
   3553392147.5088792     
   3437392628.1616483     
   3325093433.5150552     
   3216945795.3438754     
   3113525469.0391712     
   3838722883.9933529     
   3629585486.4394050     
   3422018343.6135507     
   3215950398.2770143     
   3011360173.6741581     
   3582841828.1931148     
   3381033651.9955521     
   3180684569.4248090     
   2981775074.2565527     
   2784347663.0617728     
   3373462261.2539496     
   3183185511.2853274     
   2994884250.6191702     
   2808738032.4059205     
   2625046584.3012533     
   3215707074.9976478     
   3042008453.9828315     
   2871560016.4906602     
   2704892382.8231072     
   2542745014.6110101     
   3113525469.0391712     
   2961802823.3926048     
   2815281162.5079660     
   2674900691.5833964     
   2541870828.6903572     
   5657818140.9119806     
   5890938249.8019056     
   6116422279.6924534     
   6331810241.7548923     
   6536877551.7398310     
   5151494405.6501179     
   5311408759.4905214     
   5467960052.1607466     
   5618252404.0353260     
   5760819233.4333363     
   4643551013.9642515     
   4755663873.5612602     
   4868907344.7106037     
   4980646780.2661486     
   5088956778.8899736     
   4134251001.0596762     
   4224540165.2812076     
   4320757631.3175116     
   4421247377.5847149     
   4524555345.3942881     
   3625112979.1328540     
   3719860003.8753524     
   3825866149.8531995     
   3943068672.3098588     
   4071375597.4371705     
   6536877551.7398310     
   6328854451.2934771     
   6143036719.6122799     
   5965515214.8536606     
   5787282627.3770657     
   5760819233.4333363     
   5652457248.2312212     
   5560110567.4516191     
   5474716937.3525696     
   5390735632.9368725     
   5088956778.8899736     
   5054497816.7220116     
   5030559558.8749580     
   5011934063.4102726     
   4995418791.7123890     
   4524555345.3942881     
   4539564959.1594906     
   4559245229.4966087     
   4581114025.5239477     
   4603446137.9602966     
   4071375597.4371705     
   4112978879.1888671     
   4151924780.6576490     
   4187312774.4062915     
   4218409119.3862929     
   5787282627.3770657     
   5636741206.5218086     
   5490418457.8032618     
   5348230885.1958828     
   5210228281.1885281     
   5390735632.9368725     
   5249696060.6845350     
   5111898834.3686161     
   4977387515.6774101     
   4846258293.6416702     
   4995418791.7123890     
   4868254273.6838531     
   4744295817.9515505     
   4623512705.2998400     
   4505947233.2643356     
   4603446137.9602966     
   4495080554.4495239     
   4390941376.6624804     
   4290711890.8320899     
   4194301950.9898567     
   4218409119.3862929     
   4134138676.2531223     
   4056350902.5197883     
   3984193845.1755214     
   3917368649.4585900     
   5210228281.1885281     
   5068577268.5332222     
   4927974947.0951061     
   4788479484.5031090     
   4650307812.5076799     
   4846258293.6416702     
   4722543864.2334642     
   4600713106.9668245     
   4480906678.4707041     
   4363388237.3884840     
   4505947233.2643356     
   4398245416.4277048     
   4293144383.0051579     
   4190830757.6719370     
   4091578470.8925133     
   4194301950.9898567     
   4100583554.9400182     
   4010001277.4657583     
   3922753296.8065233     
   3839093219.0664768     
   3917368649.4585900     
   3835489034.9104671     
   3757028577.5060377     
   3682167621.9775009     
   3611118389.4631915     
   4650307812.5076799     
   4513860791.2157698     
   4379765345.2090321     
   4248187068.2933173     
   4119336913.0852103     
   4363388237.3884840     
   4237406939.2107911     
   4114170406.6496077     
   3993895240.5893826     
   3876853288.3597770     
   4091578470.8925133     
   3977367874.9375849     
   3866496199.2261829     
   3759231133.9492402     
   3655908031.6915855     
   3839093219.0664768     
   3737948575.3935528     
   3640951783.8724494     
   3548415709.5321326     
   3460734293.4189415     
   3611118389.4631915     
   3524220497.7151823     
   3442495979.9039631     
   3366286613.3205118     
   3296027603.9954190     
   4119336913.0852103     
   3973415432.3841257     
   3830219525.3455310     
   3690069470.4041004     
   3553392147.5088792     
   3876853288.3597770     
   3745065020.1280107     
   3616683793.5385065     
   3492075187.8811612     
   3371708211.6599479     
   3655908031.6915855     
   3538108647.8890924     
   3424403561.6165137     
   3315189328.9604449     
   3210957562.1473846     
   3460734293.4189415     
   3356705164.5417137     
   3257433874.3315644     
   3163328023.1530681     
   3074876560.9390092     
   3296027603.9954190     
   3205410227.2664909     
   3120150639.5809379     
   3040643053.1924205     
   2967345026.1924458     
   3553392147.5088792     
   3437392628.1616483     
   3325093433.5150552     
   3216945795.3438754     
   3113525469.0391712     
   3371708211.6599479     
   3269521897.9486837     
   3171219937.7763734     
   3077208699.2029843     
   2987988431.8683767     
   3210957562.1473846     
   3120950978.2932043     
   3034853852.9240322     
   2953019725.6321983     
   2875868859.8993921     
   3074876560.9390092     
   2995470786.1978779     
   2919820632.3686962     
   2848222196.6272311     
   2781015831.1428351     
   2967345026.1924458     
   2897063772.7948484     
   2830192241.2548008     
   2766968087.6928086     
   2707656200.8698139     
   3113525469.0391712     
   2961802823.3926048     
   2815281162.5079660     
   2674900691.5833964     
   2541870828.6903572     
   2987988431.8683767     
   2849785014.1993051     
   2717032289.1248407     
   2590563529.6944990     
   2471419789.0203505     
   2875868859.8993921     
   2749240421.8317194     
   2628163950.9593720     
   2513361816.0455685     
   2405711073.6267281     
   2781015831.1428351     
   2664025627.4072189     
   2552533341.6208925     
   2447153080.6893482     
   2348609945.1973729     
   2707656200.8698139     
   2598444288.4265251     
   2494519869.2176237     
   2396397506.5040369     
   2304668869.2286663     
   3625112979.1328540     
   3719860003.8753524     
   3825866149.8531995     
   3943068672.3098588     
   4071375597.4371705     
   3138099069.6166120     
   3255681020.8041101     
   3382683509.2525516     
   3518637960.8234782     
   3663087025.0122719     
   2694861170.8811707     
   2830662861.8192759     
   2973775865.7629147     
   3123118098.8035579     
   3277778760.4647737     
   2298885505.1297679     
   2449595199.4151030     
   2605022795.1825814     
   2763245582.9679956     
   2922833676.8409715     
   1955377647.3318238     
   2119430090.3818796     
   2284832609.2945437     
   2448624215.0371542     
   2608846102.2294073     
   4071375597.4371705     
   4112978879.1888671     
   4151924780.6576490     
   4187312774.4062915     
   4218409119.3862929     
   3663087025.0122719     
   3702609734.4780073     
   3740744843.6177616     
   3776591439.9977212     
   3809398581.2371159     
   3277778760.4647737     
   3321087225.8491149     
   3364631558.4556255     
   3407587264.1141682     
   3449275017.9074297     
   2922833676.8409715     
   2975793791.1733179     
   3030970322.3429184     
   3087680360.5781822     
   3145390311.5791874     
   2608846102.2294073     
   2676782731.3590169     
   2749220331.1228962     
   2825650738.2748618     
   2905721130.4954500     
   4218409119.3862929     
   4134138676.2531223     
   4056350902.5197883     
   3984193845.1755214     
   3917368649.4585900     
   3809398581.2371159     
   3756511424.8511300     
   3709598496.8289557     
   3668184122.6243086     
   3632169778.6857920     
   3449275017.9074297     
   3423198127.8490648     
   3402209994.3799543     
   3386079826.2003727     
   3374790460.7489243     
   3145390311.5791874     
   3141824840.4445024     
   3141873345.6182804     
   3145434700.2501574     
   3152494701.2735829     
   2905721130.4954500     
   2920708546.9815993     
   2937061925.9951029     
   2954726647.2079449     
   2973664078.2444711     
   3917368649.4585900     
   3835489034.9104671     
   3757028577.5060377     
   3682167621.9775009     
   3611118389.4631915     
   3632169778.6857920     
   3561212658.3194323     
   3494482415.9953656     
   3432191053.8213902     
   3374590167.2799973     
   3374790460.7489243     
   3316222409.7040434     
   3262902145.7928772     
   3215055220.3876395     
   3172955023.9632535     
   3152494701.2735829     
   3107435179.0202084     
   3068841019.6467414     
   3036919948.2128458     
   3011935607.3516173     
   2973664078.2444711     
   2942567509.4875073     
   2919312083.8619847     
   2904045303.2241335     
   2896979561.0711913     
   3611118389.4631915     
   3524220497.7151823     
   3442495979.9039631     
   3366286613.3205118     
   3296027603.9954190     
   3374590167.2799973     
   3303842418.7007904     
   3238745336.2408772     
   3179624375.3979850     
   3126873731.1201839     
   3172955023.9632535     
   3117351262.5514374     
   3067735253.3035545     
   3024389704.2795820     
   2987641420.9356661     
   3011935607.3516173     
   2970181477.5047436     
   2934560520.2751694     
   2905292467.6077285     
   2882620089.5798802     
   2896979561.0711913     
   2867411652.2982965     
   2843892237.8283377     
   2826569628.7000513     
   2815600525.3684831     
   3296027603.9954190     
   3205410227.2664909     
   3120150639.5809379     
   3040643053.1924205     
   2967345026.1924458     
   3126873731.1201839     
   3049692316.6917524     
   2978781859.8478065     
   2914543950.8234687     
   2857434789.3834057     
   2987641420.9356661     
   2924134769.7128940     
   2867815990.9826689     
   2819060592.0873752     
   2778285228.4657102     
   2882620089.5798802     
   2832466200.7740335     
   2790372626.2220788     
   2756655095.8671870     
   2731655913.5336738     
   2815600525.3684831     
   2777761549.3062973     
   2748776610.7541409     
   2728877484.7122741     
   2718310868.0458674     
   2967345026.1924458     
   2897063772.7948484     
   2830192241.2548008     
   2766968087.6928086     
   2707656200.8698139     
   2857434789.3834057     
   2799024188.1624880     
   2745394887.8413949     
   2696825235.4220777     
   2653617705.6363397     
   2778285228.4657102     
   2732748479.1910834     
   2693378414.7615561     
   2660455134.0385361     
   2634274160.5831151     
   2731655913.5336738     
   2699136515.0001812     
   2674111539.1312079     
   2656822140.6814947     
   2647515275.4516373     
   2718310868.0458674     
   2697990097.4732051     
   2686404443.2554402     
   2683727865.3507233     
   2690134217.9000010     
   2707656200.8698139     
   2598444288.4265251     
   2494519869.2176237     
   2396397506.5040369     
   2304668869.2286663     
   2653617705.6363397     
   2563656322.8423610     
   2481588823.5229945     
   2408059425.9167809     
   2343767716.9972963     
   2634274160.5831151     
   2565618583.5815854     
   2507297128.3990006     
   2459945205.9883428     
   2424209345.1607528     
   2647515275.4516373     
   2600627784.4743757     
   2566191557.0452237     
   2544723523.3675380     
   2536717348.2938128     
   2690134217.9000010     
   2664022694.4402680     
   2652182433.4510736     
   2654967601.9547844     
   2672700467.1420608     
   1955377647.3318238     
   2119430090.3818796     
   2284832609.2945437     
   2448624215.0371542     
   2608846102.2294073     
   1653827943.5102155     
   1820255680.3831947     
   1988374663.3774390     
   2155487626.9241018     
   2319835965.1332936     
   1393575452.3376472     
   1570916180.7009540     
   1749255986.6767516     
   1926590313.0429578     
   2101668278.6774197     
   1206951973.0463810     
   1398853022.4621465     
   1590324181.7485478     
   1780588207.4725978     
   1969186284.0692308     
   1136681842.4687738     
   1334952925.9287124     
   1533523575.2990346     
   1732393790.5797396     
   1931563571.7708297     
   2608846102.2294073     
   2676782731.3590169     
   2749220331.1228962     
   2825650738.2748618     
   2905721130.4954500     
   2319835965.1332936     
   2406848461.9243255     
   2496289011.8584309     
   2587768693.3428583     
   2681012408.2497678     
   2101668278.6774197     
   2205344734.6000547     
   2308911633.6195965     
   2412133350.9616494     
   2514843415.9397316     
   1969186284.0692308     
   2086234994.3097031     
   2200406311.4134474     
   2311625416.9074473     
   2419840298.1810017     
   1931563571.7708297     
   2058108437.6682093     
   2179198360.4657321     
   2294833340.1633978     
   2405013376.7612062     
   2905721130.4954500     
   2920708546.9815993     
   2937061925.9951029     
   2954726647.2079449     
   2973664078.2444711     
   2681012408.2497678     
   2702831357.6150022     
   2727037936.6211843     
   2753615334.1380606     
   2782556410.4151530     
   2514843415.9397316     
   2543344653.5143323     
   2575277990.1274958     
   2610645399.2409396     
   2649453038.8365107     
   2419840298.1810017     
   2453412370.6645551     
   2491457918.0607843     
   2533980409.6930728     
   2580984203.7142234     
   2405013376.7612062     
   2440501276.7171259     
   2481491303.4818211     
   2527983457.0552955     
   2579977737.4375477     
   2973664078.2444711     
   2942567509.4875073     
   2919312083.8619847     
   2904045303.2241335     
   2896979561.0711913     
   2782556410.4151530     
   2766097159.6847858     
   2757077777.0663409     
   2755586492.2349224     
   2761745149.7086458     
   2649453038.8365107     
   2644455622.9751010     
   2646205266.8046761     
   2654739332.5718470     
   2670108526.4860859     
   2580984203.7142234     
   2583939237.8573618     
   2592672221.4128428     
   2607190967.2769833     
   2627506238.4726920     
   2579977737.4375477     
   2587398601.3481245     
   2599408246.0788684     
   2616006671.6297789     
   2637193878.0008502     
   2896979561.0711913     
   2867411652.2982965     
   2843892237.8283377     
   2826569628.7000513     
   2815600525.3684831     
   2761745149.7086458     
   2739769491.5674963     
   2724587352.7849960     
   2716303520.5583825     
   2715027116.4840193     
   2670108526.4860859     
   2654065045.7216487     
   2645522733.4458232     
   2644537582.2494435     
   2651167161.1678958     
   2627506238.4726920     
   2614940966.3082314     
   2610533002.6538310     
   2614298398.2249932     
   2626253515.4640403     
   2637193878.0008502     
   2625001942.0770407     
   2621564188.6291809     
   2626880617.6572685     
   2640951229.1613054     
   2815600525.3684831     
   2777761549.3062973     
   2748776610.7541409     
   2728877484.7122741     
   2718310868.0458674     
   2715027116.4840193     
   2687829162.3721046     
   2669456388.4002256     
   2660045005.5300322     
   2659736881.5959215     
   2651167161.1678958     
   2632014878.6654687     
   2621552232.9540625     
   2619840310.6565862     
   2626941657.1845946     
   2626253515.4640403     
   2612209344.9727058     
   2606638992.5100269     
   2609557345.7745905     
   2620979480.6196418     
   2640951229.1613054     
   2628938039.9827237     
   2625129714.8249011     
   2629526253.6878395     
   2642127656.5715313     
   2718310868.0458674     
   2697990097.4732051     
   2686404443.2554402     
   2683727865.3507233     
   2690134217.9000010     
   2659736881.5959215     
   2646581321.0137310     
   2641428377.4886079     
   2644365859.0286794     
   2655480616.6575780     
   2626941657.1845946     
   2618428860.7040706     
   2617157393.0399561     
   2623161232.9007864     
   2636473802.4570422     
   2620979480.6196418     
   2614698639.5094233     
   2614884549.7407975     
   2621544368.0001297     
   2634685128.0840611     
   2642127656.5715313     
   2635918915.8410573     
   2635397330.3115845     
   2640562899.9831219     
   2651415624.8556604     
   2690134217.9000010     
   2664022694.4402680     
   2652182433.4510736     
   2654967601.9547844     
   2672700467.1420608     
   2655480616.6575780     
   2635940506.2977190     
   2629161007.7676873     
   2635319271.1307502     
   2654577204.7595735     
   2636473802.4570422     
   2620125249.9355493     
   2615173861.9851217     
   2621688944.1674962     
   2639734551.1136570     
   2634685128.0840611     
   2618330557.5467062     
   2612133855.8438125     
   2616110057.1109371     
   2630273298.7676811     
   2651415624.8556604     
   2632174209.2547817     
   2621936927.1915822     
   2620703778.6660538     
   2628474763.6782045     
   1136681842.4687738     
   1334952925.9287124     
   1533523575.2990346     
   1732393790.5797396     
   1931563571.7708297     
   1206951972.7393184     
   1398853022.1476510     
   1590324181.4196336     
   1780588207.1224980     
   1969186283.6914558     
   1393575451.8076293     
   1570916180.1535683     
   1749255986.1017921     
   1926590312.4295170     
   2101668278.0147431     
   1653827942.8503802     
   1820255679.7033660     
   1988374662.6656907     
   2155487626.1669788     
   2319835964.3174896     
   1955377646.6073833     
   2119430089.6503565     
   2284832608.5427604     
   2448624214.2499919     
   2608846101.3922248     
   1931563571.7708297     
   2058108437.6682093     
   2179198360.4657321     
   2294833340.1633978     
   2405013376.7612062     
   1969186283.6914558     
   2086234994.0043240     
   2200406311.1930809     
   2311625416.7860084     
   2419840298.1728859     
   2101668278.0147431     
   2205344734.0300374     
   2308911633.1668811     
   2412133350.6520877     
   2514843415.7996674     
   2319835964.3174896     
   2406848461.1643410     
   2496289011.1889577     
   2587768692.7989197     
   2681012407.8667698     
   2608846101.3922248     
   2676782730.4918017     
   2749220330.2665968     
   2825650737.4694862     
   2905721129.7813725     
   2405013376.7612062     
   2440501276.7171259     
   2481491303.4818211     
   2527983457.0552955     
   2579977737.4375477     
   2419840298.1728859     
   2453412370.5651150     
   2491457917.8593183     
   2533980409.3780985     
   2580984203.2737784     
   2514843415.7996674     
   2543344653.2755075     
   2575277989.7747588     
   2610645398.7586370     
   2649453038.2084246     
   2681012407.8667698     
   2702831357.2053094     
   2727037936.1718998     
   2753615333.6371155     
   2782556409.8503919     
   2905721129.7813725     
   2920708546.3785691     
   2937061925.4989152     
   2954726646.8175926     
   2973664077.9600773     
   2579977737.4375477     
   2587398601.3481245     
   2599408246.0788684     
   2616006671.6297789     
   2637193878.0008502     
   2580984203.2737784     
   2583939238.0337052     
   2592672222.3023825     
   2607190968.9748225     
   2627506241.0708508     
   2649453038.2084246     
   2644455623.3242860     
   2646205268.3057437     
   2654739335.3982410     
   2670108530.8083835     
   2782556409.8503919     
   2766097160.1483259     
   2757077778.7916627     
   2755586495.4568920     
   2761745154.6639814     
   2973664077.9600773     
   2942567509.9664235     
   2919312085.3753719     
   2904045306.0488906     
   2896979565.4948053     
   2637193878.0008502     
   2625001942.0770407     
   2621564188.6291809     
   2626880617.6572685     
   2640951229.1613054     
   2627506241.0708508     
   2614940969.1137934     
   2610533005.7019567     
   2614298401.5501604     
   2626253519.1005640     
   2670108530.8083835     
   2654065050.5506291     
   2645522738.8714404     
   2644537588.3604074     
   2651167168.0521727     
   2761745154.6639814     
   2739769497.3650527     
   2724587359.5900636     
   2716303528.5356884     
   2715027125.7977357     
   2896979565.4948053     
   2867411657.8755412     
   2843892244.8174882     
   2826569637.3616519     
   2815600535.9647188     
   2640951229.1613054     
   2628938039.9827237     
   2625129714.8249011     
   2629526253.6878395     
   2642127656.5715313     
   2626253519.1005640     
   2612209348.7384844     
   2606638996.2806945     
   2609557349.4273610     
   2620979484.0338602     
   2651167168.0521727     
   2632014885.9535117     
   2621552240.4048166     
   2619840318.0292068     
   2626941664.2393146     
   2715027125.7977357     
   2687829172.5611138     
   2669456399.1202126     
   2660045016.4310527     
   2659736892.3231015     
   2815600535.9647188     
   2777761561.4724736     
   2748776624.0624237     
   2728877498.7187977     
   2718310882.2901583     
   2642127656.5715313     
   2635918915.8410573     
   2635397330.3115845     
   2640562899.9831219     
   2651415624.8556604     
   2620979484.0338602     
   2614698641.4169688     
   2614884549.8322349     
   2621544365.9735384     
   2634685123.6450548     
   2626941664.2393146     
   2618428865.4883657     
   2617157394.9592962     
   2623161231.3656087     
   2636473796.8827524     
   2659736892.3231015     
   2646581329.5864296     
   2641428383.0500045     
   2644365860.7104111     
   2655480613.5796542     
   2718310882.2901583     
   2697990110.6389785     
   2686404454.2513127     
   2683727873.0401711     
   2690134221.1004162     
   2651415624.8556604     
   2632174209.2547817     
   2621936927.1915822     
   2620703778.6660538     
   2628474763.6782045     
   2634685123.6450548     
   2618330565.4409542     
   2612133876.4832878     
   2616110090.8393092     
   2630273345.8475680     
   2636473796.8827524     
   2620125262.6767526     
   2615173893.6460514     
   2621688995.2978706     
   2639734622.1940737     
   2655480613.5796542     
   2635940521.1694236     
   2629161041.1520209     
   2635319323.6326723     
   2654577277.0214629     
   2690134221.1004162     
   2664022709.1509433     
   2652182459.8735900     
   2654967640.5091009     
   2672700518.4924169     
   1955377646.6073833     
   2119430089.6503565     
   2284832608.5427604     
   2448624214.2499919     
   2608846101.3922248     
   2298885504.4034305     
   2449595198.6906786     
   2605022794.4533162     
   2763245582.2266331     
   2922833676.0807834     
   2694861170.2204351     
   2830662861.1646504     
   2973775865.1117525     
   3123118098.1537242     
   3277778759.8148346     
   3138099069.0774646     
   3255681020.2688069     
   3382683508.7209363     
   3518637960.2963333     
   3663087024.4911780     
   3625112978.7641501     
   3719860003.5003300     
   3825866149.4732947     
   3943068671.9272423     
   4071375597.0546651     
   2608846101.3922248     
   2676782730.4918017     
   2749220330.2665968     
   2825650737.4694862     
   2905721129.7813725     
   2922833676.0807834     
   2975793790.2989969     
   3030970321.3755903     
   3087680359.5376310     
   3145390310.4846740     
   3277778759.8148346     
   3321087225.0352468     
   3364631557.4821577     
   3407587262.9839239     
   3449275016.6221433     
   3663087024.4911780     
   3702609733.7817011     
   3740744842.7372718     
   3776591438.9230838     
   3809398579.9575868     
   4071375597.0546651     
   4112978878.6589594     
   4151924779.9613585     
   4187312773.5249748     
   4218409118.3018622     
   2905721129.7813725     
   2920708546.3785691     
   2937061925.4989152     
   2954726646.8175926     
   2973664077.9600773     
   3145390310.4846740     
   3141824839.5357056     
   3141873344.9018812     
   3145434699.7358727     
   3152494700.9704828     
   3449275016.6221433     
   3423198126.7933421     
   3402209993.5653415     
   3386079825.6416907     
   3374790460.4601274     
   3809398579.9575868     
   3756511423.8195415     
   3709598496.0564995     
   3668184122.1255388     
   3632169778.4750123     
   4218409118.3018622     
   4134138675.4148169     
   4056350901.9347520     
   3984193844.8536706     
   3917368649.4102421     
   2973664077.9600773     
   2942567509.9664235     
   2919312085.3753719     
   2904045306.0488906     
   2896979565.4948053     
   3152494700.9704828     
   3107435178.9085636     
   3068841019.8837705     
   3036919948.9641161     
   3011935608.7952857     
   3374790460.4601274     
   3316222409.1055975     
   3262902144.9363041     
   3215055219.3312955     
   3172955022.7754622     
   3632169778.4750123     
   3561212657.4304004     
   3494482414.3857703     
   3432191051.4514909     
   3374590164.1141124     
   3917368649.4102421     
   3835489033.9842587     
   3757028575.5804448     
   3682167618.9282999     
   3611118385.1629968     
   2896979565.4948053     
   2867411657.8755412     
   2843892244.8174882     
   2826569637.3616519     
   2815600535.9647188     
   3011935608.7952857     
   2970181479.6699438     
   2934560523.3638411     
   2905292471.8245220     
   2882620095.1305184     
   3172955022.7754622     
   3117351261.7408886     
   3067735253.0232553     
   3024389704.6847253     
   2987641422.1806598     
   3374590164.1141124     
   3303842415.6946516     
   3238745333.5063105     
   3179624373.0473981     
   3126873729.2618074     
   3611118385.1629968     
   3524220493.5092158     
   3442495975.8717299     
   3366286609.5398664     
   3296027600.5354662     
   2815600535.9647188     
   2777761561.4724736     
   2748776624.0624237     
   2728877498.7187977     
   2718310882.2901583     
   2882620095.1305184     
   2832466207.5989251     
   2790372634.0381818     
   2756655104.3691006     
   2731655922.3922338     
   2987641422.1806598     
   2924134772.0312653     
   2867815994.2262273     
   2819060596.0830884     
   2778285233.0138292     
   3126873729.2618074     
   3049692315.7222962     
   2978781859.7424664     
   2914543951.5341191     
   2857434790.8370285     
   3296027600.5354662     
   3205410224.4661598     
   3120150637.5261884     
   3040643051.9505444     
   2967345025.8116784     
   2718310882.2901583     
   2697990110.6389785     
   2686404454.2513127     
   2683727873.0401711     
   2690134221.1004162     
   2731655922.3922338     
   2699136524.1510201     
   2674111547.9126024     
   2656822148.3863363     
   2647515281.3262968     
   2778285233.0138292     
   2732748484.9494882     
   2693378421.4615045     
   2660455141.3798480     
   2634274168.2335439     
   2857434790.8370285     
   2799024191.1201124     
   2745394892.3772082     
   2696825241.6051474     
   2653617713.5328608     
   2967345025.8116784     
   2897063773.4715657     
   2830192243.3362412     
   2766968091.5525193     
   2707656206.9152408     
   2690134221.1004162     
   2664022709.1509433     
   2652182459.8735900     
   2654967640.5091009     
   2672700518.4924169     
   2647515281.3262968     
   2600627795.8270187     
   2566191573.7935777     
   2544723545.6399775     
   2536717376.4579744     
   2634274168.2335439     
   2565618592.3700724     
   2507297137.9846859     
   2459945216.2090092     
   2424209356.0656376     
   2653617713.5328608     
   2563656329.2922454     
   2481588828.0028210     
   2408059428.0235524     
   2343767716.4790039     
   2707656206.9152408     
   2598444292.1135330     
   2494519869.9762640     
   2396397503.8166380     
   2304668862.6471524     
   3625112978.7641501     
   3719860003.5003300     
   3825866149.4732947     
   3943068671.9272423     
   4071375597.0546651     
   4134251000.8835106     
   4224540165.0935535     
   4320757631.1227732     
   4421247377.3856478     
   4524555345.1921587     
   4643551013.9779081     
   4755663873.5630178     
   4868907344.7081203     
   4980646780.2631416     
   5088956778.8867779     
   5151494405.8509254     
   5311408759.6827726     
   5467960052.3553209     
   5618252404.2371740     
   5760819233.6425962     
   5657818141.2986040     
   5890938250.1859674     
   6116422280.0879583     
   6331810242.1683064     
   6536877552.1718702     
   4071375597.0546651     
   4112978878.6589594     
   4151924779.9613585     
   4187312773.5249748     
   4218409118.3018622     
   4524555345.1921587     
   4539564958.8712616     
   4559245229.1077795     
   4581114025.0213718     
   4603446137.3307934     
   5088956778.8867779     
   5054497816.6991577     
   5030559558.8221788     
   5011934063.3193607     
   4995418791.5739460     
   5760819233.6425962     
   5652457248.4885960     
   5560110567.7503166     
   5474716937.6891718     
   5390735633.3061075     
   6536877552.1718702     
   6328854451.8403759     
   6143036720.2694445     
   5965515215.6220903     
   5787282628.2564688     
   4218409118.3018622     
   4134138675.4148169     
   4056350901.9347520     
   3984193844.8536706     
   3917368649.4102421     
   4603446137.3307934     
   4495080554.0777416     
   4390941376.5534601     
   4290711890.9923978     
   4194301951.4277182     
   4995418791.5739460     
   4868254273.7689543     
   4744295818.2601604     
   4623512705.8325024     
   4505947234.0228319     
   5390735633.3061075     
   5249696061.2052164     
   5111898835.0327148     
   4977387516.4773331     
   4846258294.5699434     
   5787282628.2564688     
   5636741207.4499464     
   5490418458.7610111     
   5348230886.1657372     
   5210228282.1521482     
   3917368649.4102421     
   3835489033.9842587     
   3757028575.5804448     
   3682167618.9282999     
   3611118385.1629968     
   4194301951.4277182     
   4100583554.5660672     
   4010001276.1785369     
   3922753294.4991508     
   3839093215.6261411     
   4505947234.0228319     
   4398245416.5484877     
   4293144382.4180284     
   4190830756.2996154     
   4091578468.6487360     
   4846258294.5699434     
   4722543864.7759371     
   4600713107.0925055     
   4480906678.1418324     
   4363388236.5563011     
   5210228282.1521482     
   5068577269.4168148     
   4927974947.9115143     
   4788479485.2612047     
   4650307813.2053699     
   3611118385.1629968     
   3524220493.5092158     
   3442495975.8717299     
   3366286609.5398664     
   3296027600.5354662     
   3839093215.6261411     
   3737948572.4145327     
   3640951781.4454436     
   3548415707.7489629     
   3460734292.3689313     
   4091578468.6487360     
   3977367873.3887234     
   3866496198.4627004     
   3759231134.0656137     
   3655908032.7853112     
   4363388236.5563011     
   4237406939.1927662     
   4114170407.5253253     
   3993895242.4450431     
   3876853291.2888956     
   4650307813.2053699     
   4513860792.7516203     
   4379765347.6423321     
   4248187071.6922445     
   4119336917.5283489     
   3296027600.5354662     
   3205410224.4661598     
   3120150637.5261884     
   3040643051.9505444     
   2967345025.8116784     
   3460734292.3689313     
   3356705164.3308682     
   3257433875.0440216     
   3163328024.8616056     
   3074876563.7056894     
   3655908032.7853112     
   3538108649.7599530     
   3424403564.3300591     
   3315189332.5774393     
   3210957566.7261581     
   3876853291.2888956     
   3745065023.5730729     
   3616683797.5306621     
   3492075192.4512062     
   3371708216.8426509     
   4119336917.5283489     
   3973415436.9249215     
   3830219529.9673939     
   3690069475.0916452     
   3553392152.2540441     
   2967345025.8116784     
   2897063773.4715657     
   2830192243.3362412     
   2766968091.5525193     
   2707656206.9152408     
   3074876563.7056894     
   2995470789.1810799     
   2919820635.8075776     
   2848222200.7877264     
   2781015836.3267779     
   3210957566.7261581     
   3120950982.2504010     
   3034853856.4053211     
   2953019728.8085194     
   2875868862.9771557     
   3371708216.8426509     
   3269521901.7302222     
   3171219940.2251868     
   3077208700.4091439     
   2987988431.9540033     
   3553392152.2540441     
   3437392630.8248339     
   3325093434.1033120     
   3216945793.8800650     
   3113525465.5716796     
   2707656206.9152408     
   2598444292.1135330     
   2494519869.9762640     
   2396397503.8166380     
   2304668862.6471524     
   2781015836.3267779     
   2664025629.5793772     
   2552533340.2896585     
   2447153075.3469510     
   2348609935.3217630     
   2875868862.9771557     
   2749240422.7437696     
   2628163949.4616375     
   2513361811.8156853     
   2405711066.2412233     
   2987988431.9540033     
   2849785014.1150012     
   2717032289.0454135     
   2590563529.6777625     
   2471419788.9536014     
   3113525465.5716796     
   2961802822.5510268     
   2815281165.0524068     
   2674900698.1592088     
   2541870839.7429104     
   5657818141.2986040     
   5890938250.1859674     
   6116422280.0879583     
   6331810242.1683064     
   6536877552.1718702     
   6491634925.9792242     
   6586829824.7833529     
   6757362984.4258051     
   6961152074.2455015     
   7171536726.3215322     
   7982332037.8780975     
   7734884893.1577721     
   7669016282.8494959     
   7669416291.7514467     
   7666153209.1025944     
   10130354782.349707     
   9321944199.2120705     
   8826194059.4695415     
   8443263874.1080055     
   8035341445.8779774     
   12935788820.372538     
   11340719855.398981     
   10210061449.895208     
   9272463166.5966969     
   8303476279.0332737     
   6536877552.1718702     
   6328854451.8403759     
   6143036720.2694445     
   5965515215.6220903     
   5787282628.2564688     
   7171536726.3215322     
   6910877341.4693861     
   6658127197.5390310     
   6409427405.9447699     
   6161632751.7238693     
   7666153209.1025944     
   7380842454.2262449     
   7100929192.2521429     
   6826491077.8267965     
   6557731482.6704102     
   8035341445.8779774     
   7746405517.3273096     
   7473143595.8852768     
   7213595971.7790585     
   6967769133.7352819     
   8303476279.0332737     
   8020135371.5639820     
   7778908411.5379696     
   7569106696.3578091     
   7385756254.6509333     
   5787282628.2564688     
   5636741207.4499464     
   5490418458.7610111     
   5348230886.1657372     
   5210228282.1521482     
   6161632751.7238693     
   6012487935.4055805     
   5864693184.9134216     
   5718289182.7120571     
   5573334960.2836485     
   6557731482.6704102     
   6406830453.1069355     
   6254303526.5208302     
   6100120048.0665798     
   5944312045.1747875     
   6967769133.7352819     
   6813311942.0229530     
   6654229752.1338291     
   6490238673.8453398     
   6321289686.9505014     
   7385756254.6509333     
   7226932745.6284666     
   7060574171.1535501     
   6885982183.8087015     
   6702969652.7543268     
   5210228282.1521482     
   5068577269.4168148     
   4927974947.9115143     
   4788479485.2612047     
   4650307813.2053699     
   5573334960.2836485     
   5413184191.1823568     
   5254004689.4926481     
   5095844141.4509106     
   4938817160.0359831     
   5944312045.1747875     
   5769862099.1147766     
   5596817225.2143040     
   5425201830.4919281     
   5255073842.3068123     
   6321289686.9505014     
   6136228633.6998281     
   5953451821.3288221     
   5772931092.6704035     
   5594684738.8280277     
   6702969652.7543268     
   6510472392.8351841     
   6321539590.5539227     
   6136044561.7100840     
   5953955257.5607023     
   4650307813.2053699     
   4513860792.7516203     
   4379765347.6423321     
   4248187071.6922445     
   4119336917.5283489     
   4938817160.0359831     
   4792570124.5262308     
   4647641087.9128799     
   4504156010.8035469     
   4362279976.8668222     
   5255073842.3068123     
   5099416341.5200119     
   4944091503.3417006     
   4789172442.8040705     
   4634768439.6517839     
   5594684738.8280277     
   5430112059.8813477     
   5264961817.5617552     
   5099247717.6458941     
   4933020241.9194832     
   5953955257.5607023     
   5781022572.2236004     
   5606694621.7513227     
   5430924140.5434752     
   5253705091.1570206     
   4119336917.5283489     
   3973415436.9249215     
   3830219529.9673939     
   3690069475.0916452     
   3553392152.2540441     
   4362279976.8668222     
   4200797340.8325839     
   4041318223.1416082     
   3884054568.8893833     
   3729308596.3686748     
   4634768439.6517839     
   4459071112.7919998     
   4284825008.3339314     
   4112145538.6798000     
   3941221486.2435808     
   4933020241.9194832     
   4744228914.0269299     
   4556494741.5017662     
   4369854217.5129948     
   4184402834.0142498     
   5253705091.1570206     
   5052702111.4605656     
   4852497166.9847488     
   4653066045.3339176     
   4454433033.7603645     
   3553392152.2540441     
   3437392630.8248339     
   3325093434.1033120     
   3216945793.8800650     
   3113525465.5716796     
   3729308596.3686748     
   3597789484.8703880     
   3468164222.2924676     
   3340689884.2411423     
   3215707069.1467004     
   3941221486.2435808     
   3798287079.2246704     
   3655942628.1238475     
   3514287491.5075493     
   3373462255.6986609     
   4184402834.0142498     
   4034281539.1449890     
   3883969376.8312049     
   3733480193.6630607     
   3582841825.4805770     
   4454433033.7603645     
   4301242517.2737055     
   4147555636.3924060     
   3993378184.8540106     
   3838722886.4114614     
   3113525465.5716796     
   2961802822.5510268     
   2815281165.0524068     
   2674900698.1592088     
   2541870839.7429104     
   3215707069.1467004     
   3042008452.9372139     
   2871560021.0104051     
   2704892393.6559052     
   2542745032.4556613     
   3373462255.6986609     
   3183185512.3430090     
   2994884258.9469504     
   2808738048.7158022     
   2625046609.3640389     
   3582841825.4805770     
   3381033657.5533462     
   3180684583.7401514     
   2981775097.9004931     
   2784347696.7126379     
   3838722886.4114614     
   3629585498.8236609     
   3422018366.2567582     
   3215950431.5581484     
   3011360218.0817099     
 </DataArray>
 <DataArray  type="Float64" Name="strain" NumberOfComponents="3" format="ascii">
  0.20348726508777890        0.0000000000000000       0.12541122195097376     
  0.18665524372802558       -2.7324456224100496E-002   7.4354672754300702E-002
  0.16982322236827224       -4.4675011581286048E-002   3.5132879551195595E-002
  0.15299120100851893       -5.2051666071556674E-002   7.7458423416584821E-003
  0.13615917964876562       -4.9454419694912349E-002  -7.8064388743106922E-003
  0.15985500619978082        0.0000000000000000        9.6454546544754022E-002
  0.15317606546128387       -2.1844519389397726E-002   6.2694531458028988E-002
  0.14649712472278695       -3.6174189247827851E-002   3.7405921620248764E-002
  0.13981818398429000       -4.2989009575290386E-002   2.0588717031413316E-002
  0.13313924324579304       -4.2288980371785301E-002   1.2242917691522651E-002
  0.12645658159510112        0.0000000000000000        7.4207333641210710E-002
  0.12656737073323737       -1.6364582554694959E-002   5.5284801328486406E-002
  0.12667815987137365       -2.7673366914369654E-002   4.1470323520083674E-002
  0.12678894900950988       -3.3926353079024092E-002   3.2763900216002603E-002
  0.12689973814764613       -3.5123541048658252E-002   2.9165531416243125E-002
  0.10329199127373978        0.0000000000000000        5.8669583240343832E-002
  0.10682915954388605       -1.0884645719992193E-002   5.2125482365672875E-002
  0.11036632781403233       -1.9172544580911461E-002   4.7326085250700367E-002
  0.11390349608417863       -2.4863696582757801E-002   4.4271391895426303E-002
  0.11744066435432489       -2.7958101725531221E-002   4.2961402299850654E-002
   9.0361235235696780E-002   0.0000000000000000        4.9841295342153397E-002
   9.3961431893229919E-002  -5.4047088852894228E-003   5.3216574569588476E-002
   9.7561628550763058E-002  -1.0671722247453261E-002   5.4973206812098808E-002
  0.10116182520829618       -1.5801040086491511E-002   5.5111192069684407E-002
  0.10476202186582932       -2.0792662402404169E-002   5.3630530342345273E-002
  0.13615917964876562       -4.9454419694912349E-002  -7.8064388743106922E-003
  0.13295202930805258       -4.2918850653362428E-002  -3.3891736468563763E-003
  0.12974487896733955       -3.8480537148916250E-002  -3.8657855102409641E-004
  0.12653772862662654       -3.6139479181573786E-002   1.2013464131861544E-003
  0.12333057828591351       -3.5895676751335093E-002   1.3746012457745149E-003
  0.13313924324579304       -4.2288980371785301E-002   1.2242917691522651E-002
  0.12890566566487949       -3.8422684717286069E-002   1.2189071032182495E-002
  0.12467208808396586       -3.5738705691766043E-002   1.1497040024063258E-002
  0.12043851050305229       -3.4237043295225249E-002   1.0166824667164745E-002
  0.11620493292213871       -3.3917697527663757E-002   8.1984249614872468E-003
  0.12689973814764613       -3.5123541048658252E-002   2.9165531416243125E-002
  0.12241621910937481       -3.3926518781209669E-002   2.5555511778233078E-002
  0.11793270007110351       -3.2996874234615836E-002   2.2083793574286713E-002
  0.11344918103283222       -3.2334607408876725E-002   1.8750376804404001E-002
  0.10896566199456090       -3.1939718303992365E-002   1.5555261468585019E-002
  0.11744066435432489       -2.7958101725531221E-002   4.2961402299850654E-002
  0.11348368964153870       -2.9430352845133290E-002   3.6710148591295171E-002
  0.10952671492875249       -3.0255042777465622E-002   3.1373682099646194E-002
  0.10556974021596631       -3.0432171522528181E-002   2.6952002824903797E-002
  0.10161276550318009       -2.9961739080321001E-002   2.3445110767067897E-002
  0.10476202186582932       -2.0792662402404169E-002   5.3630530342345273E-002
  0.10210807726137104       -2.4934186909056928E-002   4.5652981471368870E-002
   9.9454132656912803E-002  -2.7513211320315405E-002   3.9366705600141834E-002
   9.6800188052454522E-002  -2.8529735636179662E-002   3.4771702728664144E-002
   9.4146243447996270E-002  -2.7983759856649637E-002   3.1867972856935795E-002
  0.12333057828591351       -3.5895676751335093E-002   1.3746012457745149E-003
  0.12038721112549761       -3.6392065665703591E-002   6.3544058624827315E-004
  0.11744384396508166       -3.6271581732182631E-002   9.3241820120604224E-005
  0.11450047680466574       -3.5534224950772283E-002  -2.5199505260777716E-004
  0.11155710964424981       -3.4179995321472645E-002  -4.0027003193759958E-004
  0.11620493292213871       -3.3917697527663757E-002   8.1984249614872468E-003
  0.11344413864913136       -3.3992173060704123E-002   7.8370231700000126E-003
  0.11068334437612402       -3.3671974565969265E-002   7.6438052599311149E-003
  0.10792255010311666       -3.2957102043459016E-002   7.6187712312804912E-003
  0.10516175583010934       -3.1847555493173391E-002   7.7619210840481345E-003
  0.10896566199456090       -3.1939718303992365E-002   1.5555261468585019E-002
  0.10635866259698158       -3.1592280455704731E-002   1.5349419725022847E-002
  0.10375166319940228       -3.1072367399755822E-002   1.5282983850898345E-002
  0.10114466380182299       -3.0379979136145645E-002   1.5355953846211703E-002
   9.8537664404243649E-002  -2.9515115664874136E-002   1.5568329710962669E-002
  0.10161276550318009       -2.9961739080321001E-002   2.3445110767067897E-002
   9.9130782969048245E-002  -2.9192387850705302E-002   2.3172630251316641E-002
   9.6648800434916401E-002  -2.8472760233542376E-002   2.3010777593022530E-002
   9.4166817900784572E-002  -2.7802856228832270E-002   2.2959552792185631E-002
   9.1684835366652659E-002  -2.7182675836574938E-002   2.3018955848805998E-002
   9.4146243447996270E-002  -2.7983759856649637E-002   3.1867972856935795E-002
   9.1760499765331335E-002  -2.6792495245705886E-002   3.1306654748881474E-002
   8.9374756082666401E-002  -2.5873153067329013E-002   3.0827186486303684E-002
   8.6989012400001467E-002  -2.5225733321518964E-002   3.0429568069202675E-002
   8.4603268717336533E-002  -2.4850236008275711E-002   3.0113799497578281E-002
  0.11155710964424981       -3.4179995321472645E-002  -4.0027003193759958E-004
  0.10848555163188484       -3.2646809338376909E-002  -1.5544875920106560E-004
  0.10541399361951995       -3.1372583495578782E-002   1.1380075535000200E-004
  0.10234243560715502       -3.0357317793078174E-002   4.0747851171590854E-004
   9.9270877594790086E-002  -2.9601012230874968E-002   7.2558450989651524E-004
  0.10516175583010934       -3.1847555493173391E-002   7.7619210840481345E-003
  0.10215068579427120       -3.0618699702491148E-002   7.6065566361317172E-003
   9.9139615758433108E-002  -2.9545899458791110E-002   7.5477398994542588E-003
   9.6128545722595049E-002  -2.8629154762073214E-002   7.5854708740158081E-003
   9.3117475686756934E-002  -2.7868465612337301E-002   7.7197495598162469E-003
   9.8537664404243649E-002  -2.9515115664874136E-002   1.5568329710962669E-002
   9.5659201814356623E-002  -2.8590590066605401E-002   1.5115684135708761E-002
   9.2780739224469638E-002  -2.7719215422003438E-002   1.4831705741117925E-002
   8.9902276634582612E-002  -2.6900991731068257E-002   1.4716394527190556E-002
   8.7023814044695572E-002  -2.6135918993799745E-002   1.4769750493926287E-002
   9.1684835366652659E-002  -2.7182675836574938E-002   2.3018955848805998E-002
   8.9011099692141035E-002  -2.6562480430719647E-002   2.2371933739529962E-002
   8.6337364017629439E-002  -2.5892531385215765E-002   2.1965698280341298E-002
   8.3663628343117830E-002  -2.5172828700063328E-002   2.1800249471240214E-002
   8.0989892668606220E-002  -2.4403372375262300E-002   2.1875587312226580E-002
   8.4603268717336533E-002  -2.4850236008275711E-002   3.0113799497578281E-002
   8.2206379427624557E-002  -2.4534370794833893E-002   2.9375305447595340E-002
   7.9809490137912581E-002  -2.4065847348428086E-002   2.8949717517124163E-002
   7.7412600848200591E-002  -2.3444665669058354E-002   2.8837035706164825E-002
   7.5015711558488601E-002  -2.2670825756724633E-002   2.9037260014717264E-002
   9.9270877594790086E-002  -2.9601012230874968E-002   7.2558450989651524E-004
   9.6346819715370513E-002  -2.8919177956358899E-002   3.1572325918471922E-004
   9.3422761835950968E-002  -2.8127326116919427E-002   7.1332868466222887E-005
   9.0498703956531409E-002  -2.7225456712556370E-002  -7.5866622585157861E-006
   8.7574646077111851E-002  -2.6213569743269716E-002   7.8964667010072986E-005
   9.3117475686756934E-002  -2.7868465612337301E-002   7.7197495598162469E-003
   9.0355821836816230E-002  -2.7150414149630098E-002   7.4569606134855526E-003
   8.7594167986875582E-002  -2.6361582513997409E-002   7.3535088661191572E-003
   8.4832514136934975E-002  -2.5501970705440042E-002   7.4093943177168664E-003
   8.2070860286994285E-002  -2.4571578723957432E-002   7.6246169682785414E-003
   8.7023814044695572E-002  -2.6135918993799745E-002   1.4769750493926287E-002
   8.4418430563204361E-002  -2.5381650342901407E-002   1.4614796459978721E-002
   8.1813047081713136E-002  -2.4595838911076057E-002   1.4613045963966009E-002
   7.9207663600221842E-002  -2.3778484698324047E-002   1.4764499005887714E-002
   7.6602280118730659E-002  -2.2929587704645149E-002   1.5069155585744287E-002
   8.0989892668606220E-002  -2.4403372375262300E-002   2.1875587312226580E-002
   7.8534645894534877E-002  -2.3612886536172661E-002   2.1789230798663777E-002
   7.6079399120463617E-002  -2.2830095308154538E-002   2.1849944162006328E-002
   7.3624152346392302E-002  -2.2054998691207996E-002   2.2057727402254236E-002
   7.1168905572321028E-002  -2.1287596685332866E-002   2.2412580519407060E-002
   7.5015711558488601E-002  -2.2670825756724633E-002   2.9037260014717264E-002
   7.2704467830807806E-002  -2.1844122729443902E-002   2.8980263629540925E-002
   7.0393224103126997E-002  -2.1064351705232839E-002   2.9064203460240440E-002
   6.8081980375446216E-002  -2.0331512684091734E-002   2.9289079506815738E-002
   6.5770736647765393E-002  -1.9645605666020582E-002   2.9654891769266833E-002
   8.7574646077111851E-002  -2.6213569743269716E-002   7.8964667010072986E-005
   8.4231854418008512E-002  -2.5176856799641434E-002  -2.5749025531962566E-004
   8.0889062758905117E-002  -2.4200509472252940E-002  -3.8985283913561819E-004
   7.7546271099801722E-002  -2.3284527761104373E-002  -3.1812308443870951E-004
   7.4203479440698383E-002  -2.2428911666196094E-002  -4.2300991228261253E-005
   8.2070860286994285E-002  -2.4571578723957432E-002   7.6246169682785414E-003
   7.8933608807037037E-002  -2.3626573828059549E-002   7.2738555282689799E-003
   7.5796357327079789E-002  -2.2723123276255891E-002   7.1300821080375332E-003
   7.2659105847122624E-002  -2.1861227068546922E-002   7.1932967075854504E-003
   6.9521854367165348E-002  -2.1040885204932747E-002   7.4634993269123151E-003
   7.6602280118730659E-002  -2.2929587704645149E-002   1.5069155585744287E-002
   7.3673464499185159E-002  -2.2076290856477387E-002   1.4722898900199261E-002
   7.0744648879639604E-002  -2.1245737080258953E-002   1.4586525915698756E-002
   6.7815833260094160E-002  -2.0437926375989693E-002   1.4660036632242593E-002
   6.4887017640548633E-002  -1.9652858743669455E-002   1.4943431049830980E-002
   7.1168905572321028E-002  -2.1287596685332866E-002   2.2412580519407060E-002
   6.8451421494452824E-002  -2.0526007884895420E-002   2.2089639860472195E-002
   6.5733937416584620E-002  -1.9768350884261848E-002   2.1979478583847592E-002
   6.3016453338716444E-002  -1.9014625683432131E-002   2.2082096689533051E-002
   6.0298969260848212E-002  -1.8264832282406079E-002   2.2397494177528315E-002
   6.5770736647765393E-002  -1.9645605666020582E-002   2.9654891769266833E-002
   6.3267479792840087E-002  -1.8975724913313480E-002   2.9374078409087595E-002
   6.0764222937914752E-002  -1.8290964688264896E-002   2.9308940112484055E-002
   5.8260966082989460E-002  -1.7591324990874523E-002   2.9459476879456381E-002
   5.5757709228064112E-002  -1.6876805821142871E-002   2.9825688710004072E-002
   7.4203479440698383E-002  -2.2428911666196094E-002  -4.2300991228261253E-005
   7.1668755910434978E-002  -2.1582251536019059E-002  -4.5396137940889592E-004
   6.9134032380171517E-002  -2.0693137719065113E-002  -8.3272262930800256E-004
   6.6599308849908112E-002  -1.9761570215334368E-002  -1.1785847409257755E-003
   6.4064585319644651E-002  -1.8787549024826933E-002  -1.4915477142611877E-003
   6.9521854367165348E-002  -2.1040885204932747E-002   7.4634993269123151E-003
   6.7043926629169637E-002  -2.0225224491729477E-002   7.1598468046582542E-003
   6.4565998891173926E-002  -1.9377371735254167E-002   6.9368867286582758E-003
   6.2088071153178187E-002  -1.8497326935506667E-002   6.7946190989118388E-003
   5.9610143415182448E-002  -1.7585090092486877E-002   6.7330439154189570E-003
   6.4887017640548633E-002  -1.9652858743669455E-002   1.4943431049830980E-002
   6.2513679002792727E-002  -1.8868197447440144E-002   1.4737524749999231E-002
   6.0140340365036793E-002  -1.8061605751443222E-002   1.4660104204393620E-002
   5.7767001727280928E-002  -1.7233083655678855E-002   1.4711169413013619E-002
   5.5393663089524980E-002  -1.6382631160146877E-002   1.4890720375859395E-002
   6.0298969260848212E-002  -1.8264832282406079E-002   2.2397494177528315E-002
   5.8078013031304200E-002  -1.7511170403150630E-002   2.2279072456614160E-002
   5.5857056801760230E-002  -1.6745839767632387E-002   2.2336929797898086E-002
   5.3636100572216273E-002  -1.5968840375850987E-002   2.2571066201379976E-002
   5.1415144342672310E-002  -1.5180172227806848E-002   2.2981481667059954E-002
   5.5757709228064112E-002  -1.6876805821142871E-002   2.9825688710004072E-002
   5.3736928714704202E-002  -1.6154143358861228E-002   2.9784489924503055E-002
   5.1716148201344209E-002  -1.5430073783821344E-002   2.9967363509171868E-002
   4.9695367687984299E-002  -1.4704597096023096E-002   3.0374309464010971E-002
   4.7674587174624306E-002  -1.3977713295466820E-002   3.1005327789019876E-002
   6.4064585319644651E-002  -1.8787549024826933E-002  -1.4915477142611877E-003
   6.0540894302474335E-002  -1.7841129299823955E-002  -2.4490639074787879E-003
   5.7017203285303908E-002  -1.6992366192607050E-002  -3.2506228820144423E-003
   5.3493512268133619E-002  -1.6241259703175255E-002  -3.8962246378682064E-003
   4.9969821250963165E-002  -1.5587809831529853E-002  -4.3858691750404688E-003
   5.9610143415182448E-002  -1.7585090092486877E-002   6.7330439154189570E-003
   5.6251747425430876E-002  -1.6690977843423216E-002   5.9397781852586484E-003
   5.2893351435679303E-002  -1.5865306825543130E-002   5.3211452912539370E-003
   4.9534955445927703E-002  -1.5108077038846958E-002   4.8771452334051280E-003
   4.6176559456176158E-002  -1.4419288483335180E-002   4.6077780117121936E-003
   5.5393663089524980E-002  -1.6382631160146877E-002   1.4890720375859395E-002
   5.2219237744666275E-002  -1.5540826387022033E-002   1.4290920495357823E-002
   4.9044812399807583E-002  -1.4738247458479417E-002   1.3884429068486401E-002
   4.5870387054948870E-002  -1.3974894374518768E-002   1.3671246095243901E-002
   4.2695961710090158E-002  -1.3250767135139840E-002   1.3651371575632010E-002
   5.1415144342672310E-002  -1.5180172227806848E-002   2.2981481667059954E-002
   4.8443365260180504E-002  -1.4390674930621405E-002   2.2604363022819006E-002
   4.5471586177688705E-002  -1.3611188091415601E-002   2.2439228449681829E-002
   4.2499807095196900E-002  -1.2841711710190303E-002   2.2486077947648765E-002
   3.9528028012705149E-002  -1.2082245786944834E-002   2.2744911516719646E-002
   4.7674587174624306E-002  -1.3977713295466820E-002   3.1005327789019876E-002
   4.4924129971973481E-002  -1.3240523474220389E-002   3.0880105767641719E-002
   4.2173672769322740E-002  -1.2484128724351840E-002   3.0985543434841611E-002
   3.9423215566672040E-002  -1.1708529045861740E-002   3.1321640790619276E-002
   3.6672758364021174E-002  -1.0913724438749828E-002   3.1888397834975102E-002
   9.0361235235696780E-002   0.0000000000000000        4.9841295342153397E-002
   9.3961431893229919E-002  -5.4047088852894228E-003   5.3216574569588476E-002
   9.7561628550763058E-002  -1.0671722247453261E-002   5.4973206812098808E-002
  0.10116182520829618       -1.5801040086491511E-002   5.5111192069684407E-002
  0.10476202186582932       -2.0792662402404169E-002   5.3630530342345273E-002
   8.2425390142061822E-002   0.0000000000000000        4.4789345845479972E-002
   8.4636014454181174E-002  -4.5748762744568239E-003   4.8274001151524325E-002
   8.6846638766300527E-002  -9.0388204048380185E-003   5.0598158751665824E-002
   8.9057263078419865E-002  -1.3391832391143589E-002   5.1761818645904505E-002
   9.1267887390539204E-002  -1.7633912233373530E-002   5.1764980834240332E-002
   7.4245532653924612E-002   0.0000000000000000        4.0580610649164121E-002
   7.5524733899652058E-002  -3.7450436636242233E-003   4.4147878654767804E-002
   7.6803935145379504E-002  -7.4059185622227797E-003   4.7012798233490534E-002
   7.8083136391106950E-002  -1.0982624695795664E-002   4.9175369385332297E-002
   7.9362337636834410E-002  -1.4475162064342878E-002   5.0635592110293108E-002
   6.5821662771285122E-002   0.0000000000000000        3.7215089753205859E-002
   6.6627590229642555E-002  -2.9152110527916235E-003   4.0838207079318893E-002
   6.7433517688000003E-002  -5.7730167196075391E-003   4.4217125257572890E-002
   6.8239445146357422E-002  -8.5734170004477406E-003   4.7351844287967806E-002
   6.9045372604714855E-002  -1.1316411895312233E-002   5.0242364170503657E-002
   5.7153780494143373E-002   0.0000000000000000        3.4692783157605170E-002
   5.7944583444152681E-002  -2.0853784419590238E-003   3.8344986425177627E-002
   5.8735386394162002E-002  -4.1401148769922968E-003   4.2211139823912905E-002
   5.9526189344171310E-002  -6.1642093050998173E-003   4.6291243353811004E-002
   6.0316992294180624E-002  -8.1576617262815801E-003   5.0585297014871924E-002
  0.10476202186582932       -2.0792662402404169E-002   5.3630530342345273E-002
  0.10210807726137104       -2.4934186909056928E-002   4.5652981471368870E-002
   9.9454132656912803E-002  -2.7513211320315405E-002   3.9366705600141834E-002
   9.6800188052454522E-002  -2.8529735636179662E-002   3.4771702728664144E-002
   9.4146243447996270E-002  -2.7983759856649637E-002   3.1867972856935795E-002
   9.1267887390539204E-002  -1.7633912233373530E-002   5.1764980834240332E-002
   9.0067152843148340E-002  -2.1210251716645832E-002   4.6529478076784224E-002
   8.8866418295757477E-002  -2.3566042626078497E-002   4.2509122433713527E-002
   8.7665683748366585E-002  -2.4701284961671535E-002   3.9703913905028247E-002
   8.6464949200975721E-002  -2.4615978723424914E-002   3.8113852490728406E-002
   7.9362337636834410E-002  -1.4475162064342878E-002   5.0635592110293108E-002
   7.9138687261147020E-002  -1.7486316524234755E-002   4.7800183944802621E-002
   7.8915036885459589E-002  -1.9618873931841592E-002   4.5703797008333678E-002
   7.8691386509772185E-002  -2.0872834287163421E-002   4.4346431300886252E-002
   7.8467736134084795E-002  -2.1248197590200232E-002   4.3728086822460321E-002
   6.9045372604714855E-002  -1.1316411895312233E-002   5.0242364170503657E-002
   6.9322680515367011E-002  -1.3762381331823663E-002   4.9465099075424221E-002
   6.9599988426019180E-002  -1.5671705237604694E-002   4.8950729324002386E-002
   6.9877296336671335E-002  -1.7044383612655312E-002   4.8699254916238152E-002
   7.0154604247323490E-002  -1.7880416456975530E-002   4.8710675852131527E-002
   6.0316992294180624E-002  -8.1576617262815801E-003   5.0585297014871924E-002
   6.0619132605808410E-002  -1.0038446139412582E-002   5.1524223468648933E-002
   6.0921272917436202E-002  -1.1724536543367775E-002   5.2249919380719601E-002
   6.1223413229064008E-002  -1.3215932938147195E-002   5.2762384751083927E-002
   6.1525553540691801E-002  -1.4512635323750835E-002   5.3061619579741988E-002
   9.4146243447996270E-002  -2.7983759856649637E-002   3.1867972856935795E-002
   9.1760499765331335E-002  -2.6792495245705886E-002   3.1306654748881474E-002
   8.9374756082666401E-002  -2.5873153067329013E-002   3.0827186486303684E-002
   8.6989012400001467E-002  -2.5225733321518964E-002   3.0429568069202675E-002
   8.4603268717336533E-002  -2.4850236008275711E-002   3.0113799497578281E-002
   8.6464949200975721E-002  -2.4615978723424914E-002   3.8113852490728406E-002
   8.4207196346834767E-002  -2.3973994114689794E-002   3.7093199413136310E-002
   8.1949443492693799E-002  -2.3439201338817287E-002   3.6246678147115470E-002
   7.9691690638552831E-002  -2.3011600395807377E-002   3.5574288692665892E-002
   7.7433937784411835E-002  -2.2691191285660078E-002   3.5076031049787640E-002
   7.8467736134084795E-002  -2.1248197590200232E-002   4.3728086822460321E-002
   7.6430256074562455E-002  -2.1155492983673717E-002   4.2412829375034627E-002
   7.4392776015040102E-002  -2.1005249610305587E-002   4.1363985705274893E-002
   7.2355295955517734E-002  -2.0797467470095872E-002   4.0581555813181056E-002
   7.0317815895995409E-002  -2.0532146563044515E-002   4.0065539698753240E-002
   7.0154604247323490E-002  -1.7880416456975530E-002   4.8710675852131527E-002
   6.8429678948514414E-002  -1.8336991852657612E-002   4.7265544634576467E-002
   6.6704753649705323E-002  -1.8571297881793861E-002   4.6179109160782016E-002
   6.4979828350896246E-002  -1.8583334544384350E-002   4.5451369430748165E-002
   6.3254903052087155E-002  -1.8373101840428931E-002   4.5082325444474894E-002
   6.1525553540691801E-002  -1.4512635323750835E-002   5.3061619579741988E-002
   6.0205464968690621E-002  -1.5518490721641544E-002   5.1651345191761823E-002
   5.8885376396689462E-002  -1.6137346153282189E-002   5.0692048513636859E-002
   5.7565287824688283E-002  -1.6369201618672780E-002   5.0183729545367275E-002
   5.6245199252687117E-002  -1.6214057117813332E-002   5.0126388286952719E-002
   8.4603268717336533E-002  -2.4850236008275711E-002   3.0113799497578281E-002
   8.2206379427624557E-002  -2.4534370794833893E-002   2.9375305447595340E-002
   7.9809490137912581E-002  -2.4065847348428086E-002   2.8949717517124163E-002
   7.7412600848200591E-002  -2.3444665669058354E-002   2.8837035706164825E-002
   7.5015711558488601E-002  -2.2670825756724633E-002   2.9037260014717264E-002
   7.7433937784411835E-002  -2.2691191285660078E-002   3.5076031049787640E-002
   7.5328722654105451E-002  -2.2368108835291167E-002   3.4502112457341638E-002
   7.3223507523798997E-002  -2.1932487871616314E-002   3.4198636064194959E-002
   7.1118292393492558E-002  -2.1384328394635589E-002   3.4165601870347499E-002
   6.9013077263186159E-002  -2.0723630404348881E-002   3.4403009875799404E-002
   7.0317815895995409E-002  -2.0532146563044515E-002   4.0065539698753240E-002
   6.8461811004882064E-002  -2.0201846875748442E-002   3.9616076844186048E-002
   6.6605806113768706E-002  -1.9799128394804518E-002   3.9394592268705730E-002
   6.4749801222655376E-002  -1.9323991120212790E-002   3.9401085972312191E-002
   6.2893796331542018E-002  -1.8776435051973184E-002   3.9635557955005535E-002
   6.3254903052087155E-002  -1.8373101840428931E-002   4.5082325444474894E-002
   6.1605644479954438E-002  -1.8035584916205702E-002   4.4717198608128554E-002
   5.9956385907821715E-002  -1.7665768917992791E-002   4.4537586130656608E-002
   5.8307127335688984E-002  -1.7263653845789952E-002   4.4543488012058902E-002
   5.6657868763556260E-002  -1.6829239699597445E-002   4.4734904252335728E-002
   5.6245199252687117E-002  -1.6214057117813332E-002   5.0126388286952719E-002
   5.4760223079322559E-002  -1.5869322956662976E-002   4.9805477749169130E-002
   5.3275246905957988E-002  -1.5532409441180960E-002   4.9627617650047383E-002
   5.1790270732593402E-002  -1.5203316571367215E-002   4.9592807989587540E-002
   5.0305294559228858E-002  -1.4882044347221707E-002   4.9701048767789691E-002
   7.5015711558488601E-002  -2.2670825756724633E-002   2.9037260014717264E-002
   7.2704467830807806E-002  -2.1844122729443902E-002   2.8980263629540925E-002
   7.0393224103126997E-002  -2.1064351705232839E-002   2.9064203460240440E-002
   6.8081980375446216E-002  -2.0331512684091734E-002   2.9289079506815738E-002
   6.5770736647765393E-002  -1.9645605666020582E-002   2.9654891769266833E-002
   6.9013077263186159E-002  -2.0723630404348881E-002   3.4403009875799404E-002
   6.6854569937987995E-002  -2.0017995275129805E-002   3.4206368921633160E-002
   6.4696062612789818E-002  -1.9335024381351512E-002   3.4174264556556096E-002
   6.2537555287591612E-002  -1.8674717723014135E-002   3.4306696780568802E-002
   6.0379047962393489E-002  -1.8037075300117722E-002   3.4603665593670813E-002
   6.2893796331542018E-002  -1.8776435051973184E-002   3.9635557955005535E-002
   6.0911625782040242E-002  -1.8191867820815687E-002   3.9323540199478063E-002
   5.8929455232538425E-002  -1.7605697057470081E-002   3.9199659406253674E-002
   5.6947284683036614E-002  -1.7017922761936484E-002   3.9263915575332542E-002
   5.4965114133534873E-002  -1.6428544934214862E-002   3.9516308706714673E-002
   5.6657868763556260E-002  -1.6829239699597445E-002   4.4734904252335728E-002
   5.4875635362964581E-002  -1.6365740366501524E-002   4.4331777463075907E-002
   5.3093401962372881E-002  -1.5876369733588701E-002   4.4140388009332891E-002
   5.1311168561781174E-002  -1.5361127800858829E-002   4.4160735891106952E-002
   4.9528935161189502E-002  -1.4820014568311973E-002   4.4392821108398040E-002
   5.0305294559228858E-002  -1.4882044347221707E-002   4.9701048767789691E-002
   4.8746598680761005E-002  -1.4539612912187500E-002   4.9231080712426462E-002
   4.7187902802293166E-002  -1.4147042409707218E-002   4.8996450365793989E-002
   4.5629206923825320E-002  -1.3704332839781190E-002   4.8997157727892253E-002
   4.4070511045357474E-002  -1.3211484202409141E-002   4.9233202798721176E-002
   6.5770736647765393E-002  -1.9645605666020582E-002   2.9654891769266833E-002
   6.3267479792840087E-002  -1.8975724913313480E-002   2.9374078409087595E-002
   6.0764222937914752E-002  -1.8290964688264896E-002   2.9308940112484055E-002
   5.8260966082989460E-002  -1.7591324990874523E-002   2.9459476879456381E-002
   5.5757709228064112E-002  -1.6876805821142871E-002   2.9825688710004072E-002
   6.0379047962393489E-002  -1.8037075300117722E-002   3.4603665593670813E-002
   5.8087156455430389E-002  -1.7405593032610467E-002   3.4308909072893495E-002
   5.5795264948467233E-002  -1.6763766840440869E-002   3.4221208184464849E-002
   5.3503373441504111E-002  -1.6111596723608783E-002   3.4340562928385103E-002
   5.1211481934540976E-002  -1.5449082682114534E-002   3.4666973304653903E-002
   5.4965114133534873E-002  -1.6428544934214862E-002   3.9516308706714673E-002
   5.2875968543307006E-002  -1.5835461151907496E-002   3.9203073477659930E-002
   5.0786822953079229E-002  -1.5236568992617015E-002   3.9088274449727130E-002
   4.8697677362851396E-002  -1.4631868456343100E-002   3.9171911622916250E-002
   4.6608531772623599E-002  -1.4021359543086059E-002   3.9453984997227062E-002
   4.9528935161189502E-002  -1.4820014568311973E-002   4.4392821108398040E-002
   4.7633916056470105E-002  -1.4265329271204615E-002   4.4056571623386859E-002
   4.5738896951750686E-002  -1.3709371144793019E-002   4.3910138908270648E-002
   4.3843877847031247E-002  -1.3152140189077403E-002   4.3953522963049510E-002
   4.1948858742311870E-002  -1.2593636404057737E-002   4.4186723787723287E-002
   4.4070511045357474E-002  -1.3211484202409141E-002   4.9233202798721176E-002
   4.2360998994919546E-002  -1.2695197390501511E-002   4.8869403510074516E-002
   4.0651486944481632E-002  -1.2182173296969120E-002   4.8686801560095777E-002
   3.8941974894043753E-002  -1.1672411921811700E-002   4.8685396948785126E-002
   3.7232462843605818E-002  -1.1165913265029248E-002   4.8865189676142562E-002
   5.5757709228064112E-002  -1.6876805821142871E-002   2.9825688710004072E-002
   5.3736928714704202E-002  -1.6154143358861228E-002   2.9784489924503055E-002
   5.1716148201344209E-002  -1.5430073783821344E-002   2.9967363509171868E-002
   4.9695367687984299E-002  -1.4704597096023096E-002   3.0374309464010971E-002
   4.7674587174624306E-002  -1.3977713295466820E-002   3.1005327789019876E-002
   5.1211481934540976E-002  -1.5449082682114534E-002   3.4666973304653903E-002
   4.9399462432950847E-002  -1.4778957331187559E-002   3.4556883195838717E-002
   4.7587442931360663E-002  -1.4103953286057666E-002   3.4640242740392957E-002
   4.5775423429770506E-002  -1.3424070546725213E-002   3.4917051938316623E-002
   4.3963403928180322E-002  -1.2739309113189878E-002   3.5387310789609994E-002
   4.6608531772623599E-002  -1.4021359543086059E-002   3.9453984997227062E-002
   4.4974650566002611E-002  -1.3403771303513778E-002   3.9278475146542244E-002
   4.3340769359381595E-002  -1.2777832788294148E-002   3.9265792232426232E-002
   4.1706888152760600E-002  -1.2143543997427219E-002   3.9415936254879103E-002
   4.0073006946139592E-002  -1.1500904930913047E-002   3.9728907213900794E-002
   4.1948858742311870E-002  -1.2593636404057737E-002   4.4186723787723287E-002
   4.0462493113859410E-002  -1.2028585275839915E-002   4.3949265776613233E-002
   3.8976127485406985E-002  -1.1451712290530495E-002   4.3844011985271686E-002
   3.7489761856954545E-002  -1.0863017448129307E-002   4.3870962413698096E-002
   3.6003396228502099E-002  -1.0262500748636327E-002   4.4030117061893109E-002
   3.7232462843605818E-002  -1.1165913265029248E-002   4.8865189676142562E-002
   3.5862990076521328E-002  -1.0653399248166301E-002   4.8569255086052032E-002
   3.4493517309436839E-002  -1.0125591792767022E-002   4.8374901998929187E-002
   3.3124044542352377E-002  -9.5824908988312758E-003   4.8282130414773874E-002
   3.1754571775267859E-002  -9.0240965663593298E-003   4.8290940333586330E-002
   4.7674587174624306E-002  -1.3977713295466820E-002   3.1005327789019876E-002
   4.4924129971973481E-002  -1.3240523474220389E-002   3.0880105767641719E-002
   4.2173672769322740E-002  -1.2484128724351840E-002   3.0985543434841611E-002
   3.9423215566672040E-002  -1.1708529045861740E-002   3.1321640790619276E-002
   3.6672758364021174E-002  -1.0913724438749828E-002   3.1888397834975102E-002
   4.3963403928180322E-002  -1.2739309113189878E-002   3.5387310789609994E-002
   4.1429983539062215E-002  -1.2044592926337638E-002   3.5086370028115987E-002
   3.8896563149944066E-002  -1.1334845927053902E-002   3.4988843205109393E-002
   3.6363142760825952E-002  -1.0610068115338791E-002   3.5094730320590184E-002
   3.3829722371707838E-002  -9.8702594911925789E-003   3.5404031374558276E-002
   4.0073006946139592E-002  -1.1500904930913047E-002   3.9728907213900794E-002
   3.7729377620463286E-002  -1.0848662378454860E-002   3.9248073596100844E-002
   3.5385748294787016E-002  -1.0185563129755854E-002   3.8943408166697557E-002
   3.3042118969110773E-002  -9.5116071848159803E-003   3.8814910925690574E-002
   3.0698489643434440E-002  -8.8267945436353301E-003   3.8862581873080226E-002
   3.6003396228502099E-002  -1.0262500748636327E-002   4.4030117061893109E-002
   3.3822312216176903E-002  -9.6527318305720949E-003   4.3365216471596524E-002
   3.1641228203851748E-002  -9.0362803324576385E-003   4.2849238319605763E-002
   2.9460144191526601E-002  -8.4131462542928782E-003   4.2482182605920696E-002
   2.7279060179201439E-002  -7.7833295960780258E-003   4.2264049330541467E-002
   3.1754571775267859E-002  -9.0240965663593298E-003   4.8290940333586330E-002
   2.9708787326202968E-002  -8.4568012826893302E-003   4.7437798654602681E-002
   2.7663002877138132E-002  -7.8869975351599092E-003   4.6706333663834171E-002
   2.5617218428073338E-002  -7.3146853237701752E-003   4.6096545361280425E-002
   2.3571433979008460E-002  -6.7398646485208324E-003   4.5608433746941346E-002
   5.7153780494143373E-002   0.0000000000000000        3.4692783157605170E-002
   5.7944583444152681E-002  -2.0853784419590238E-003   3.8344986425177627E-002
   5.8735386394162002E-002  -4.1401148769922968E-003   4.2211139823912905E-002
   5.9526189344171310E-002  -6.1642093050998173E-003   4.6291243353811004E-002
   6.0316992294180624E-002  -8.1576617262815801E-003   5.0585297014871924E-002
   4.8653961950135549E-002   0.0000000000000000        3.2790505632557747E-002
   4.9593418371230789E-002  -1.7108447556807389E-003   3.6965883953278517E-002
   5.0532874792326016E-002  -3.4356678133770722E-003   4.1224619085008303E-002
   5.1472331213421256E-002  -5.1744691730890024E-003   4.5566711027747127E-002
   5.2411787634516496E-002  -6.9272488348165323E-003   4.9992159781494946E-002
   4.0734283266897868E-002   0.0000000000000000        3.1285071948259288E-002
   4.1691799838925230E-002  -1.3363110694024532E-003   3.5939005013187031E-002
   4.2649316410952584E-002  -2.7312207497618502E-003   4.0545701568969972E-002
   4.3606832982979946E-002  -4.1847290410781945E-003   4.5105161615608153E-002
   4.4564349555007307E-002  -5.6968359433514776E-003   4.9617385153101580E-002
   3.3394744444430309E-002   0.0000000000000000        3.0176482104709784E-002
   3.4239727847236001E-002  -9.6177738312416697E-004   3.5264349604903121E-002
   3.5084711250041686E-002  -2.0267736861466277E-003   4.0174387275797897E-002
   3.5929694652847372E-002  -3.1949889090673797E-003   4.4906595117394109E-002
   3.6774678055653071E-002  -4.4664230518864281E-003   4.9460973129691749E-002
   2.6635345482732883E-002   0.0000000000000000        2.9464736101909243E-002
   2.7237202396163104E-002  -5.8724369684588166E-004   3.4941917728426850E-002
   2.7839059309593329E-002  -1.3223266225314053E-003   4.0110676205492093E-002
   2.8440916223023548E-002  -2.2052487770565753E-003   4.4971011533104982E-002
   2.9042773136453769E-002  -3.2360101604213733E-003   4.9522923711265467E-002
   6.0316992294180624E-002  -8.1576617262815801E-003   5.0585297014871924E-002
   6.0619132605808410E-002  -1.0038446139412582E-002   5.1524223468648933E-002
   6.0921272917436202E-002  -1.1724536543367775E-002   5.2249919380719601E-002
   6.1223413229064008E-002  -1.3215932938147195E-002   5.2762384751083927E-002
   6.1525553540691801E-002  -1.4512635323750835E-002   5.3061619579741988E-002
   5.2411787634516496E-002  -6.9272488348165323E-003   4.9992159781494946E-002
   5.2539765906103153E-002  -8.5926464965671578E-003   5.1219639472664696E-002
   5.2667744177689810E-002  -1.0069301856348360E-002   5.2312025625458475E-002
   5.2795722449276460E-002  -1.1357214914160169E-002   5.3269318239876330E-002
   5.2923700720863116E-002  -1.2456385670002561E-002   5.4091517315918158E-002
   4.4564349555007307E-002  -5.6968359433514776E-003   4.9617385153101580E-002
   4.4596302789883205E-002  -7.1468468537217150E-003   5.1127466374457656E-002
   4.4628256024759096E-002  -8.4140671693289371E-003   5.2580591060768143E-002
   4.4660209259634993E-002  -9.4984968901731231E-003   5.3976759212033085E-002
   4.4692162494510884E-002  -1.0400136016254297E-002   5.5315970828252417E-002
   3.6774678055653071E-002  -4.4664230518864281E-003   4.9460973129691749E-002
   3.6788743257148572E-002  -5.7010472108762885E-003   5.1247704174027769E-002
   3.6802808458644073E-002  -6.7588324823095215E-003   5.3055615686648634E-002
   3.6816873660139582E-002  -7.6397788661861010E-003   5.4884707667554294E-002
   3.6830938861635097E-002  -8.3438863625060287E-003   5.6734980116744715E-002
   2.9042773136453769E-002  -3.2360101604213733E-003   4.9522923711265467E-002
   2.9117087307899261E-002  -4.2552475680308543E-003   5.1580352871375121E-002
   2.9191401479344750E-002  -5.1035977952900869E-003   5.3737099503099919E-002
   2.9265715650790235E-002  -5.7810608421990407E-003   5.5993163606439883E-002
   2.9340029822235734E-002  -6.2876367087577670E-003   5.8348545181395033E-002
   6.1525553540691801E-002  -1.4512635323750835E-002   5.3061619579741988E-002
   6.0205464968690621E-002  -1.5518490721641544E-002   5.1651345191761823E-002
   5.8885376396689462E-002  -1.6137346153282189E-002   5.0692048513636859E-002
   5.7565287824688283E-002  -1.6369201618672780E-002   5.0183729545367275E-002
   5.6245199252687117E-002  -1.6214057117813332E-002   5.0126388286952719E-002
   5.2923700720863116E-002  -1.2456385670002561E-002   5.4091517315918158E-002
   5.2002680867025336E-002  -1.3307996434726268E-002   5.3346337352981665E-002
   5.1081661013187535E-002  -1.3853229519181996E-002   5.2948317116516569E-002
   5.0160641159349741E-002  -1.4092084923369705E-002   5.2897456606523084E-002
   4.9239621305511960E-002  -1.4024562647289462E-002   5.3193755823001038E-002
   4.4692162494510884E-002  -1.0400136016254297E-002   5.5315970828252417E-002
   4.4066393375452755E-002  -1.1097502147810993E-002   5.5155263004377342E-002
   4.3440624256394618E-002  -1.1569112885081764E-002   5.5237896923590137E-002
   4.2814855137336481E-002  -1.1814968228066658E-002   5.5563872585890725E-002
   4.2189086018278352E-002  -1.1835068176765613E-002   5.6133189991279017E-002
   3.6830938861635097E-002  -8.3438863625060287E-003   5.6734980116744715E-002
   3.6396602493972897E-002  -8.8870078608957043E-003   5.7078122145949116E-002
   3.5962266126310698E-002  -9.2849962509815379E-003   5.7560787934857645E-002
   3.5527929758648505E-002  -9.5378515327636040E-003   5.8182977483470129E-002
   3.5093593390986305E-002  -9.6455737062417397E-003   5.8944690791786755E-002
   2.9340029822235734E-002  -6.2876367087577670E-003   5.8348545181395033E-002
   2.8993308222585751E-002  -6.6765135739804485E-003   5.9114914777696842E-002
   2.8646586622935767E-002  -7.0008796168813479E-003   5.9916990150318983E-002
   2.8299865023285783E-002  -7.2607348374605519E-003   6.0754771299261483E-002
   2.7953143423635800E-002  -7.4560792357178940E-003   6.1628258224524279E-002
   5.6245199252687117E-002  -1.6214057117813332E-002   5.0126388286952719E-002
   5.4760223079322559E-002  -1.5869322956662976E-002   4.9805477749169130E-002
   5.3275246905957988E-002  -1.5532409441180960E-002   4.9627617650047383E-002
   5.1790270732593402E-002  -1.5203316571367215E-002   4.9592807989587540E-002
   5.0305294559228858E-002  -1.4882044347221707E-002   4.9701048767789691E-002
   4.9239621305511960E-002  -1.4024562647289462E-002   5.3193755823001038E-002
   4.7910103839582635E-002  -1.3795319349324209E-002   5.2844918072849162E-002
   4.6580586373653282E-002  -1.3549011687856764E-002   5.2663947298905799E-002
   4.5251068907723950E-002  -1.3285639662887273E-002   5.2650843501170982E-002
   4.3921551441794590E-002  -1.3005203274415705E-002   5.2805606679644596E-002
   4.2189086018278352E-002  -1.1835068176765613E-002   5.6133189991279017E-002
   4.1039843797330847E-002  -1.1721315741985365E-002   5.5781310037929278E-002
   3.9890601576383349E-002  -1.1565613934532653E-002   5.5622113598334709E-002
   3.8741359355435837E-002  -1.1367962754407416E-002   5.5655600672495253E-002
   3.7592117134488325E-002  -1.1128362201609690E-002   5.5881771260410891E-002
   3.5093593390986305E-002  -9.6455737062417397E-003   5.8944690791786755E-002
   3.4149442952567229E-002  -9.6473121346465733E-003   5.8614653644409612E-002
   3.3205292514148159E-002  -9.5822161812085561E-003   5.8502116548334156E-002
   3.2261142075729075E-002  -9.4502858459275703E-003   5.8607079503560457E-002
   3.1316991637310006E-002  -9.2515211288036539E-003   5.8929542510088403E-002
   2.7953143423635800E-002  -7.4560792357178940E-003   6.1628258224524279E-002
   2.7238901305291774E-002  -7.5733085273077677E-003   6.1344948892290058E-002
   2.6524659186947731E-002  -7.5988184278843393E-003   6.1303956148904187E-002
   2.5810417068603687E-002  -7.5326089374476417E-003   6.1505279994366592E-002
   2.5096174950259648E-002  -7.3746800559976455E-003   6.1948920428677362E-002
   5.0305294559228858E-002  -1.4882044347221707E-002   4.9701048767789691E-002
   4.8746598680761005E-002  -1.4539612912187500E-002   4.9231080712426462E-002
   4.7187902802293166E-002  -1.4147042409707218E-002   4.8996450365793989E-002
   4.5629206923825320E-002  -1.3704332839781190E-002   4.8997157727892253E-002
   4.4070511045357474E-002  -1.3211484202409141E-002   4.9233202798721176E-002
   4.3921551441794590E-002  -1.3005203274415705E-002   5.2805606679644596E-002
   4.2589088159074598E-002  -1.2696921489313687E-002   5.2425225070028933E-002
   4.1256624876354599E-002  -1.2350013274452835E-002   5.2261970943177999E-002
   3.9924161593634599E-002  -1.1964478629833268E-002   5.2315844299092189E-002
   3.8591698310914579E-002  -1.1540317555454926E-002   5.2586845137771482E-002
   3.7592117134488325E-002  -1.1128362201609690E-002   5.5881771260410891E-002
   3.6467676221550421E-002  -1.0854230066439888E-002   5.5579463458855428E-002
   3.5343235308612497E-002  -1.0552984139198422E-002   5.5476072914099187E-002
   3.4218794395674594E-002  -1.0224624419885399E-002   5.5571599626142137E-002
   3.3094353482736684E-002  -9.8691509085007123E-003   5.5866043594984344E-002
   3.1316991637310006E-002  -9.2515211288036539E-003   5.8929542510088403E-002
   3.0382362868188458E-002  -9.0115386435660819E-003   5.8693795878906080E-002
   2.9447734099066893E-002  -8.7559550039440510E-003   5.8638756278557365E-002
   2.8513105329945360E-002  -8.4847702099375318E-003   5.8764423709041960E-002
   2.7578476560823816E-002  -8.1979842615464982E-003   5.9070798170360095E-002
   2.5096174950259648E-002  -7.3746800559976455E-003   6.1948920428677362E-002
   2.4333148098988719E-002  -7.1688472206922621E-003   6.1768222330181033E-002
   2.3570121247717776E-002  -6.9589258686896457E-003   6.1750021036552485E-002
   2.2807094396446841E-002  -6.7449159999896143E-003   6.1894316547791657E-002
   2.2044067545175891E-002  -6.5268176145923396E-003   6.2201108863898569E-002
   4.4070511045357474E-002  -1.3211484202409141E-002   4.9233202798721176E-002
   4.2360998994919546E-002  -1.2695197390501511E-002   4.8869403510074516E-002
   4.0651486944481632E-002  -1.2182173296969120E-002   4.8686801560095777E-002
   3.8941974894043753E-002  -1.1672411921811700E-002   4.8685396948785126E-002
   3.7232462843605818E-002  -1.1165913265029248E-002   4.8865189676142562E-002
   3.8591698310914579E-002  -1.1540317555454926E-002   5.2586845137771482E-002
   3.7070001756861648E-002  -1.1095987204397501E-002   5.2210356615718739E-002
   3.5548305202808717E-002  -1.0649944729740804E-002   5.2028301747767985E-002
   3.4026608648755743E-002  -1.0202190131484812E-002   5.2040680533919095E-002
   3.2504912094702798E-002  -9.7527234096295157E-003   5.2247492974172000E-002
   3.3094353482736684E-002  -9.8691509085007123E-003   5.5866043594984344E-002
   3.1773708740502594E-002  -9.4967770182933786E-003   5.5481840681500041E-002
   3.0453063998268481E-002  -9.1177161625124389E-003   5.5305307737551553E-002
   2.9132419256034381E-002  -8.7319683411578707E-003   5.5336444763138926E-002
   2.7811774513800278E-002  -8.3395335542296722E-003   5.5575251758261821E-002
   2.7578476560823816E-002  -8.1979842615464982E-003   5.9070798170360095E-002
   2.6472119945842393E-002  -7.8975668321892289E-003   5.8683855707418450E-002
   2.5365763330860963E-002  -7.5854875952840149E-003   5.8517819529446555E-002
   2.4259406715879554E-002  -7.2617465508310114E-003   5.8572689636444179E-002
   2.3153050100898138E-002  -6.9263436988299121E-003   5.8848466028411525E-002
   2.2044067545175891E-002  -6.5268176145923396E-003   6.2201108863898569E-002
   2.1165235372881036E-002  -6.2983566460851903E-003   6.1816401693474049E-002
   2.0286403200586174E-002  -6.0532590280557297E-003   6.1665837123452999E-002
   1.9407571028291316E-002  -5.7915247605040340E-003   6.1749415153835391E-002
   1.8528738855996443E-002  -5.5131538434300409E-003   6.2067135784621363E-002
   3.7232462843605818E-002  -1.1165913265029248E-002   4.8865189676142562E-002
   3.5862990076521328E-002  -1.0653399248166301E-002   4.8569255086052032E-002
   3.4493517309436839E-002  -1.0125591792767022E-002   4.8374901998929187E-002
   3.3124044542352377E-002  -9.5824908988312758E-003   4.8282130414773874E-002
   3.1754571775267859E-002  -9.0240965663593298E-003   4.8290940333586330E-002
   3.2504912094702798E-002  -9.7527234096295157E-003   5.2247492974172000E-002
   3.1251877563534938E-002  -9.2965977606111472E-003   5.2014277869662673E-002
   2.9998843032367092E-002  -8.8288663808658019E-003   5.1912357734018713E-002
   2.8745808501199212E-002  -8.3495292703936810E-003   5.1941732567240460E-002
   2.7492773970031345E-002  -7.8585864291945695E-003   5.2102402369327672E-002
   2.7811774513800278E-002  -8.3395335542296722E-003   5.5575251758261821E-002
   2.6704891684446952E-002  -7.9397962730558963E-003   5.5401068431523898E-002
   2.5598008855093647E-002  -7.5321409689647414E-003   5.5387893539549489E-002
   2.4491126025740342E-002  -7.1165676419560845E-003   5.5535727082338546E-002
   2.3384243196387017E-002  -6.6930762920298925E-003   5.5844569059891200E-002
   2.3153050100898138E-002  -6.9263436988299121E-003   5.8848466028411525E-002
   2.2222032439257328E-002  -6.5829947855008050E-003   5.8729626771635741E-002
   2.1291014777616513E-002  -6.2354155570635734E-003   5.8801509415521459E-002
   2.0359997115975706E-002  -5.8836060135184333E-003   5.9064113960068707E-002
   1.9428979454334885E-002  -5.5275661548651739E-003   5.9517440405277372E-002
   1.8528738855996443E-002  -5.5131538434300409E-003   6.2067135784621363E-002
   1.7803299827966079E-002  -5.2261932979454639E-003   6.1999952889998378E-002
   1.7077860799935708E-002  -4.9386901451625026E-003   6.2153205361934638E-002
   1.6352421771905355E-002  -4.6506443850807926E-003   6.2526893200430464E-002
   1.5626982743875001E-002  -4.3620560177004553E-003   6.3121016405485730E-002
   3.1754571775267859E-002  -9.0240965663593298E-003   4.8290940333586330E-002
   2.9708787326202968E-002  -8.4568012826893302E-003   4.7437798654602681E-002
   2.7663002877138132E-002  -7.8869975351599092E-003   4.6706333663834171E-002
   2.5617218428073338E-002  -7.3146853237701752E-003   4.6096545361280425E-002
   2.3571433979008460E-002  -6.7398646485208324E-003   4.5608433746941346E-002
   2.7492773970031345E-002  -7.8585864291945695E-003   5.2102402369327672E-002
   2.5595703217997146E-002  -7.3588802695606637E-003   5.1433779415753111E-002
   2.3698632465962953E-002  -6.8532532037841876E-003   5.0940907168025212E-002
   2.1801561713928819E-002  -6.3417052318651482E-003   5.0623785626143517E-002
   1.9904490961894561E-002  -5.8242363538030251E-003   5.0482414790108066E-002
   2.3384243196387017E-002  -6.6930762920298925E-003   5.5844569059891200E-002
   2.1689960159014948E-002  -6.2609592564321082E-003   5.5363877274008877E-002
   1.9995677121642894E-002  -5.8195088724089170E-003   5.5113010211604259E-002
   1.8301394084270891E-002  -5.3687251399599841E-003   5.5091967872677755E-002
   1.6607111046898798E-002  -4.9086080590853287E-003   5.5300750257229025E-002
   1.9428979454334885E-002  -5.5275661548651739E-003   5.9517440405277372E-002
   1.7991558149256445E-002  -5.1630382433036082E-003   5.9228092229369887E-002
   1.6554136844177982E-002  -4.7857645410335874E-003   5.9222642794571866E-002
   1.5116715539099556E-002  -4.3957450480548331E-003   5.9501092100883279E-002
   1.3679294234021068E-002  -3.9929797643675768E-003   6.0063440148303573E-002
   1.5626982743875001E-002  -4.3620560177004553E-003   6.3121016405485730E-002
   1.4500497188721567E-002  -4.0651172301749972E-003   6.3026424281836302E-002
   1.3374011633568189E-002  -3.7520202096580357E-003   6.3269804916927797E-002
   1.2247526078414776E-002  -3.4227649561498208E-003   6.3851158310760020E-002
   1.1121040523261350E-002  -3.0773514696498250E-003   6.4770484463332778E-002
   2.6635345482732883E-002   0.0000000000000000        2.9464736101909243E-002
   2.7237202396163104E-002  -5.8724369684588166E-004   3.4941917728426850E-002
   2.7839059309593329E-002  -1.3223266225314053E-003   4.0110676205492093E-002
   2.8440916223023548E-002  -2.2052487770565753E-003   4.4971011533104982E-002
   2.9042773136453769E-002  -3.2360101604213733E-003   4.9522923711265467E-002
   2.0118639616945863E-002   0.0000000000000000        2.9015577529662030E-002
   2.0451563111258179E-002  -4.4043277288492982E-004   3.4308135892328395E-002
   2.0784486605570494E-002  -9.9174496740300072E-004   3.9371250566211304E-002
   2.1117410099882813E-002  -1.6539365835542110E-003   4.4204921551310783E-002
   2.1450333594195129E-002  -2.4270076213385623E-003   4.8809148847626833E-002
   1.3507180082209519E-002   0.0000000000000000        2.8694749977772521E-002
   1.3650149618072857E-002  -2.9362184892397754E-004   3.3839644883794137E-002
   1.3793119153936195E-002  -6.6116331227459354E-004   3.8834075561701230E-002
   1.3936088689799533E-002  -1.1026243900518467E-003   4.3678042011493799E-002
   1.4079058225662869E-002  -1.6180050822557383E-003   4.8371544233171859E-002
   6.8009668785238529E-003   0.0000000000000000        2.8502253446240716E-002
   6.8329619166071359E-003  -1.4681092496302592E-004   3.3536444702824075E-002
   6.8649569546904189E-003  -3.3058165714618852E-004   3.8499151191961845E-002
   6.8969519927737028E-003  -5.5131219654948067E-004   4.3390372913654024E-002
   6.9289470308569849E-003  -8.0900254317291904E-004   4.8210109867900620E-002
   5.8888640491749911E-012   0.0000000000000000        2.8438087935066608E-002
   6.8610178302619396E-012  -1.0020734242388585E-012   3.3398535349418224E-002
   7.8331700934658466E-012  -2.0177817749988947E-012   3.8366477456993175E-002
   8.8053239829730123E-012  -3.0471198481096806E-012   4.3341914257791450E-002
   9.7774770051184401E-012  -4.0901015213590242E-012   4.8324845751813082E-002
   2.9042773136453769E-002  -3.2360101604213733E-003   4.9522923711265467E-002
   2.9117087307899261E-002  -4.2552475680308543E-003   5.1580352871375121E-002
   2.9191401479344750E-002  -5.1035977952900869E-003   5.3737099503099919E-002
   2.9265715650790235E-002  -5.7810608421990407E-003   5.5993163606439883E-002
   2.9340029822235734E-002  -6.2876367087577670E-003   5.8348545181395033E-002
   2.1450333594195129E-002  -2.4270076213385623E-003   4.8809148847626833E-002
   2.1594491233607016E-002  -3.1914356771541043E-003   5.1207794460774544E-002
   2.1738648873018900E-002  -3.8276983473989378E-003   5.3646809538239894E-002
   2.1882806512430783E-002  -4.3357956320730423E-003   5.6126194080022840E-002
   2.2026964151842670E-002  -4.7157275311764252E-003   5.8645948086123410E-002
   1.4079058225662869E-002  -1.6180050822557383E-003   4.8371544233171859E-002
   1.4234111325743587E-002  -2.1276237862773470E-003   5.1068684504578139E-002
   1.4389164425824308E-002  -2.5517988995077895E-003   5.3747246233004475E-002
   1.4544217525905026E-002  -2.8905304219470299E-003   5.6407229418450860E-002
   1.4699270625985743E-002  -3.1438183535950938E-003   5.9048634060917309E-002
   6.9289470308569849E-003  -8.0900254317291904E-004   4.8210109867900620E-002
   7.0359475843089804E-003  -1.0638118954005968E-003   5.1163023002785898E-002
   7.1429481377609785E-003  -1.2758994516166408E-003   5.4038409587393685E-002
   7.2499486912129740E-003  -1.4452652118210245E-003   5.6836269621723987E-002
   7.3569492446649704E-003  -1.5719091760137641E-003   5.9556603105776748E-002
   9.7774770051184401E-012  -4.0901015213590242E-012   4.8324845751813082E-002
   9.3031927647646562E-012  -4.5238344320575052E-012   5.1490809955397836E-002
   8.8289070065278308E-012  -3.7254899686034459E-012   5.4520299601407543E-002
   8.3546211398707881E-012  -1.6950116440636598E-012   5.7413314689842183E-002
   7.8803370079372215E-012   1.5675655218316820E-012   6.0169855220701771E-002
   2.9340029822235734E-002  -6.2876367087577670E-003   5.8348545181395033E-002
   2.8993308222585751E-002  -6.6765135739804485E-003   5.9114914777696842E-002
   2.8646586622935767E-002  -7.0008796168813479E-003   5.9916990150318983E-002
   2.8299865023285783E-002  -7.2607348374605519E-003   6.0754771299261483E-002
   2.7953143423635800E-002  -7.4560792357178940E-003   6.1628258224524279E-002
   2.2026964151842670E-002  -4.7157275311764252E-003   5.8645948086123410E-002
   2.1728691984441377E-002  -5.0073851793609077E-003   5.9466880452184109E-002
   2.1430419817040088E-002  -5.2506597112782841E-003   6.0349005906421838E-002
   2.1132147649638795E-002  -5.4455511269285908E-003   6.1292324448836588E-002
   2.0833875482237502E-002  -5.5920594263117462E-003   6.2296836079428389E-002
   1.4699270625985743E-002  -3.1438183535950938E-003   5.9048634060917309E-002
   1.4474935202689828E-002  -3.3382567847413565E-003   5.9908001490682226E-002
   1.4250599779393906E-002  -3.5004398056751916E-003   6.0854049320480906E-002
   1.4026264356097988E-002  -3.6303674163966427E-003   6.1886777550313229E-002
   1.3801928932802068E-002  -3.7280396169056262E-003   6.3006186180179335E-002
   7.3569492446649704E-003  -1.5719091760137641E-003   5.9556603105776748E-002
   7.2320378773310960E-003  -1.6691283901217966E-003   6.0438277893191249E-002
   7.1071265099972251E-003  -1.7502199000721066E-003   6.1432120392496146E-002
   6.9822151426633568E-003  -1.8151837058647019E-003   6.2538130603691372E-002
   6.8573037753294815E-003  -1.8640198074994924E-003   6.3756308526777078E-002
   7.8803370079372215E-012   1.5675655218316820E-012   6.0169855220701771E-002
   8.3651930868344770E-012   4.4977424562553381E-012   6.1057709659711183E-002
   8.8500500330934706E-012   5.5309576363349322E-012   6.2083219122467601E-002
   9.3349056783098572E-012   4.6672578996043157E-012   6.3246383608971141E-002
   9.8197630582497197E-012   1.9066553891278204E-012   6.4547203119221755E-002
   2.7953143423635800E-002  -7.4560792357178940E-003   6.1628258224524279E-002
   2.7238901305291774E-002  -7.5733085273077677E-003   6.1344948892290058E-002
   2.6524659186947731E-002  -7.5988184278843393E-003   6.1303956148904187E-002
   2.5810417068603687E-002  -7.5326089374476417E-003   6.1505279994366592E-002
   2.5096174950259648E-002  -7.3746800559976455E-003   6.1948920428677362E-002
   2.0833875482237502E-002  -5.5920594263117462E-003   6.2296836079428389E-002
   2.0346010937445376E-002  -5.6799813950656683E-003   6.2165163591862978E-002
   1.9858146392653250E-002  -5.6991138188280596E-003   6.2243929662553009E-002
   1.9370281847861118E-002  -5.6494566975989532E-003   6.2533134291498496E-002
   1.8882417303068999E-002  -5.5310100313783750E-003   6.3032777478699523E-002
   1.3801928932802068E-002  -3.7280396169056262E-003   6.3006186180179335E-002
   1.3508563930968987E-002  -3.7866542628235758E-003   6.3003220691260908E-002
   1.3215198929135905E-002  -3.7994092097717834E-003   6.3178815730005139E-002
   1.2921833927302824E-002  -3.7663044577503210E-003   6.3532971296411958E-002
   1.2628468925469746E-002  -3.6873400067591183E-003   6.4065687390481407E-002
   6.8573037753294815E-003  -1.8640198074994924E-003   6.3756308526777078E-002
   6.7265602858625866E-003  -1.8933271305815076E-003   6.3859120190483981E-002
   6.5958167963956959E-003  -1.8997046007155332E-003   6.4108614351260584E-002
   6.4650733069288062E-003  -1.8831522179016745E-003   6.4504791009106971E-002
   6.3343298174619103E-003  -1.8436699821398270E-003   6.5047650164023099E-002
   9.8197630582497197E-012   1.9066553891278204E-012   6.4547203119221755E-002
   2.1261950533535412E-012   1.6606230279769818E-012   6.4732862089532037E-002
  -5.5673764209895893E-012   8.3407204753971342E-012   6.5033325526319269E-002
  -1.3260947895332720E-011   2.1947000640454295E-011   6.5448593429583424E-002
  -2.0954515900228898E-011   4.2479408879358971E-011   6.5978665799324376E-002
   2.5096174950259648E-002  -7.3746800559976455E-003   6.1948920428677362E-002
   2.4333148098988719E-002  -7.1688472206922621E-003   6.1768222330181033E-002
   2.3570121247717776E-002  -6.9589258686896457E-003   6.1750021036552485E-002
   2.2807094396446841E-002  -6.7449159999896143E-003   6.1894316547791657E-002
   2.2044067545175891E-002  -6.5268176145923396E-003   6.2201108863898569E-002
   1.8882417303068999E-002  -5.5310100313783750E-003   6.3032777478699523E-002
   1.8288952233106212E-002  -5.3766353995350902E-003   6.2822531077710630E-002
   1.7695487163143425E-002  -5.2191943814378777E-003   6.2788911434470379E-002
   1.7102022093180621E-002  -5.0586869770868521E-003   6.2931918548978644E-002
   1.6508557023217844E-002  -4.8951131864819197E-003   6.3251552421235396E-002
   1.2628468925469746E-002  -3.6873400067591183E-003   6.4065687390481407E-002
   1.2218695589695943E-002  -3.5844235783778142E-003   6.3824870556556557E-002
   1.1808922253922133E-002  -3.4794628941861132E-003   6.3774810433261039E-002
   1.1399148918148330E-002  -3.3724579541840631E-003   6.3915507020594980E-002
   1.0989375582374530E-002  -3.2634087583715277E-003   6.4246960318558199E-002
   6.3343298174619103E-003  -1.8436699821398270E-003   6.5047650164023099E-002
   6.1223781687579125E-003  -1.7922117572206318E-003   6.4775240766718700E-002
   5.9104265200539147E-003  -1.7397314069343191E-003   6.4707718032924480E-002
   5.6984748713499152E-003  -1.6862289312812597E-003   6.4845081962640577E-002
   5.4865232226459183E-003  -1.6317043302611217E-003   6.5187332555866784E-002
  -2.0954515900228898E-011   4.2479408879358971E-011   6.5978665799324376E-002
  -2.9707878518303588E-011   6.3936661520713756E-011   6.5673641708197034E-002
  -3.8461239401654801E-011   8.0317461015333436E-011   6.5587634233460756E-002
  -4.7214599417644276E-011   9.1621540215802710E-011   6.5720643375115489E-002
  -5.5967962903080704E-011   9.7849284230733247E-011   6.6072669133161288E-002
   2.2044067545175891E-002  -6.5268176145923396E-003   6.2201108863898569E-002
   2.1165235372881036E-002  -6.2983566460851903E-003   6.1816401693474049E-002
   2.0286403200586174E-002  -6.0532590280557297E-003   6.1665837123452999E-002
   1.9407571028291316E-002  -5.7915247605040340E-003   6.1749415153835391E-002
   1.8528738855996443E-002  -5.5131538434300409E-003   6.2067135784621363E-002
   1.6508557023217844E-002  -4.8951131864819197E-003   6.3251552421235396E-002
   1.5860258812052552E-002  -4.7237674597779694E-003   6.2894122760384932E-002
   1.5211960600887250E-002  -4.5399442471297027E-003   6.2763618421390138E-002
   1.4563662389721952E-002  -4.3436435485374129E-003   6.2860039404250972E-002
   1.3915364178556655E-002  -4.1348653640007615E-003   6.3183385708967504E-002
   1.0989375582374530E-002  -3.2634087583715277E-003   6.4246960318558199E-002
   1.0564394053790956E-002  -3.1491782734708040E-003   6.3912649003703748E-002
   1.0139412525207383E-002  -3.0266294662037868E-003   6.3798045732157027E-002
   9.7144309966238108E-003  -2.8957623365707917E-003   6.3903150503918066E-002
   9.2894494680402472E-003  -2.7565768845716210E-003   6.4227963318987016E-002
   5.4865232226459183E-003  -1.6317043302611217E-003   6.5187332555866784E-002
   5.2776410980962356E-003  -1.5745890871634444E-003   6.4871980423430273E-002
   5.0687589735465641E-003  -1.5133146852778986E-003   6.4769119055753582E-002
   4.8598768489968866E-003  -1.4478811246040873E-003   6.4878748452836907E-002
   4.6509947244472117E-003  -1.3782884051423555E-003   6.5200868614680343E-002
  -5.5967962903080704E-011   9.7849284230733247E-011   6.6072669133161288E-002
  -5.5031579987430135E-011   9.9143693255143717E-011   6.5772117019564480E-002
  -5.4095198806503042E-011   9.5648156062111411E-011   6.5676838392179832E-002
  -5.3158814156128997E-011   8.7362450607031406E-011   6.5786833251007371E-002
  -5.2222434709925381E-011   7.4286798934508624E-011   6.6102101596046903E-002
   1.8528738855996443E-002  -5.5131538434300409E-003   6.2067135784621363E-002
   1.7803299827966079E-002  -5.2261932979454639E-003   6.1999952889998378E-002
   1.7077860799935708E-002  -4.9386901451625026E-003   6.2153205361934638E-002
   1.6352421771905355E-002  -4.6506443850807926E-003   6.2526893200430464E-002
   1.5626982743875001E-002  -4.3620560177004553E-003   6.3121016405485730E-002
   1.3915364178556655E-002  -4.1348653640007615E-003   6.3183385708967504E-002
   1.3400591616107842E-002  -3.9196449610142681E-003   6.3094368659417005E-002
   1.2885819053659001E-002  -3.7040176070719799E-003   6.3206249174470361E-002
   1.2371046491210170E-002  -3.4879833021739595E-003   6.3519027254127391E-002
   1.1856273928761346E-002  -3.2715420463202416E-003   6.4032702898387805E-002
   9.2894494680402472E-003  -2.7565768845716210E-003   6.4227963318987016E-002
   8.9658055692171980E-003  -2.6130966240829195E-003   6.4116976458166525E-002
   8.6421616703941436E-003  -2.4693450689814642E-003   6.4187349359993789E-002
   8.3185177715710927E-003  -2.3253222192672392E-003   6.4439082024469130E-002
   7.9948738727480401E-003  -2.1810280749400279E-003   6.4872174451592157E-002
   4.6509947244472117E-003  -1.3782884051423555E-003   6.5200868614680343E-002
   4.4989416872941888E-003  -1.3065482871516196E-003   6.5067776286246576E-002
   4.3468886501411511E-003  -1.2346725308910005E-003   6.5096505918505007E-002
   4.1948356129881273E-003  -1.1626611363604071E-003   6.5287057511455610E-002
   4.0427825758350897E-003  -1.0905141035597032E-003   6.5639431065098286E-002
  -5.2222434709925381E-011   7.4286798934508624E-011   6.6102101596046903E-002
  -2.9661210987352860E-011   4.9779624866630456E-011   6.5946768143657297E-002
  -7.0999768564394827E-012   7.1995187589379839E-012   6.5933718850003958E-002
   1.5461252070303466E-011  -5.3453783066537142E-011   6.6062953715087080E-002
   3.8022480997046415E-011  -1.3217960059819234E-010   6.6334472738906469E-002
   1.5626982743875001E-002  -4.3620560177004553E-003   6.3121016405485730E-002
   1.4500497188721567E-002  -4.0651172301749972E-003   6.3026424281836302E-002
   1.3374011633568189E-002  -3.7520202096580357E-003   6.3269804916927797E-002
   1.2247526078414776E-002  -3.4227649561498208E-003   6.3851158310760020E-002
   1.1121040523261350E-002  -3.0773514696498250E-003   6.4770484463332778E-002
   1.1856273928761346E-002  -3.2715420463202416E-003   6.4032702898387805E-002
   1.1053673289999191E-002  -3.0488379519915121E-003   6.3847470170982135E-002
   1.0251072651237036E-002  -2.8140151316688178E-003   6.3972034517618181E-002
   9.4484720124748851E-003  -2.5670735853520268E-003   6.4406395938295863E-002
   8.6458713737127268E-003  -2.3080133130410907E-003   6.5150554433015317E-002
   7.9948738727480401E-003  -2.1810280749400279E-003   6.4872174451592157E-002
   7.4879824656780697E-003  -2.0325586738080825E-003   6.4592261613432594E-002
   6.9810910586081132E-003  -1.8760100536794888E-003   6.4593970164615641E-002
   6.4741996515381341E-003  -1.7113822145542607E-003   6.4877300105141547E-002
   5.9673082444681863E-003  -1.5386751564323564E-003   6.5442251435009702E-002
   4.0427825758350897E-003  -1.0905141035597032E-003   6.5639431065098286E-002
   3.8034247157582440E-003  -1.0162793956246807E-003   6.5260798609187654E-002
   3.5640668556813967E-003  -9.3800497569027086E-004   6.5135611857920259E-002
   3.3247089956045472E-003  -8.5569084375653609E-004   6.5263870811296726E-002
   3.0853511355276898E-003  -7.6933699982367765E-004   6.5645575469316847E-002
   3.8022480997046415E-011  -1.3217960059819234E-010   6.6334472738906469E-002
   4.0239679643949700E-011  -1.1744111239053723E-010   6.5853081158247007E-002
   4.2456885229746888E-011   1.0229905811343087E-010   6.5596959597532145E-002
   4.4674096019714504E-011   5.2704113295831689E-010   6.5566108056761663E-002
   4.6891296401341265E-011   1.1567851121441208E-009   6.5760526535935782E-002
   5.8888640491749911E-012   0.0000000000000000        2.8438087935066608E-002
   6.8610178302619396E-012  -1.0020734242388585E-012   3.3398535349418224E-002
   7.8331700934658466E-012  -2.0177817749988947E-012   3.8366477456993175E-002
   8.8053239829730123E-012  -3.0471198481096806E-012   4.3341914257791450E-002
   9.7774770051184401E-012  -4.0901015213590242E-012   4.8324845751813082E-002
  -6.8009668668540706E-003   0.0000000000000000        2.8502253444087734E-002
  -6.8329619030598494E-003   1.4681092276426499E-004   3.3536444700491455E-002
  -6.8649569392656247E-003   3.3058165298205117E-004   3.8499151189315996E-002
  -6.8969519754714008E-003   5.5131219065335420E-004   4.3390372910561352E-002
  -6.9289470116771761E-003   8.0900253577818187E-004   4.8210109864227496E-002
  -1.3507180070863578E-002   0.0000000000000000        2.8694749973141625E-002
  -1.3650149605049807E-002   2.9362184653060515E-004   3.3839644879064615E-002
  -1.3793119139236037E-002   6.6116330798188412E-004   3.8834075556605882E-002
  -1.3936088673422263E-002   1.1026243843538360E-003   4.3678042005765451E-002
  -1.4079058207608490E-002   1.6180050756464575E-003   4.8371544226543287E-002
  -2.0118639606139656E-002   0.0000000000000000        2.9015577522228275E-002
  -2.0451563099108862E-002   4.4043277029694530E-004   3.4308135885137675E-002
  -2.0784486592078062E-002   9.9174496298171707E-004   3.9371250558862848E-002
  -2.1117410085047267E-002   1.6539365780543123E-003   4.4204921543403781E-002
  -2.1450333578016473E-002   2.4270076155147370E-003   4.8809148838760461E-002
  -2.6635345472682311E-002   0.0000000000000000        2.9464736091347685E-002
  -2.7237202385237011E-002   5.8724369406328372E-004   3.4941917718710656E-002
  -2.7839059297791718E-002   1.3223266179815500E-003   4.0110676196086874E-002
  -2.8440916210346424E-002   2.2052487717547919E-003   4.4971011523476323E-002
  -2.9042773122901121E-002   3.2360101553830147E-003   4.9522923700879018E-002
   9.7774770051184401E-012  -4.0901015213590242E-012   4.8324845751813082E-002
   9.3031927647646562E-012  -4.5238344320575052E-012   5.1490809955397836E-002
   8.8289070065278308E-012  -3.7254899686034459E-012   5.4520299601407543E-002
   8.3546211398707881E-012  -1.6950116440636598E-012   5.7413314689842183E-002
   7.8803370079372215E-012   1.5675655218316820E-012   6.0169855220701771E-002
  -6.9289470116771761E-003   8.0900253577818187E-004   4.8210109864227496E-002
  -7.0359475659232422E-003   1.0638118874366290E-003   5.1163023000561803E-002
  -7.1429481201693065E-003   1.2758994447088102E-003   5.4038409586927585E-002
  -7.2499486744153716E-003   1.4452652075947381E-003   5.6836269623324893E-002
  -7.3569492286614368E-003   1.5719091760944201E-003   5.9556603109753685E-002
  -1.4079058207608490E-002   1.6180050756464575E-003   4.8371544226543287E-002
  -1.4234111308019781E-002   2.1276237793971002E-003   5.1068684500008753E-002
  -1.4389164408431068E-002   2.5517988931431099E-003   5.3747246231112288E-002
  -1.4544217508842352E-002   2.8905304168844810E-003   5.6407229419853877E-002
  -1.4699270609253638E-002   3.1438183506212400E-003   5.9048634066233528E-002
  -2.1450333578016473E-002   2.4270076155147370E-003   4.8809148838760461E-002
  -2.1594491216986429E-002   3.1914356713575605E-003   5.1207794453738749E-002
  -2.1738648855956375E-002   3.8276983415774205E-003   5.3646809533961622E-002
  -2.1882806494926323E-002   4.3357956261742443E-003   5.6126194079429134E-002
  -2.2026964133896269E-002   4.7157275251480980E-003   5.8645948090141231E-002
  -2.9042773122901121E-002   3.2360101553830147E-003   4.9522923700879018E-002
  -2.9117087292823179E-002   4.2552475633180408E-003   5.1580352861751722E-002
  -2.9191401462745226E-002   5.1035977900117119E-003   5.3737099495475588E-002
  -2.9265715632667281E-002   5.7810608354639838E-003   5.5993163602050651E-002
  -2.9340029802589325E-002   6.2876366996749145E-003   5.8348545181476877E-002
   7.8803370079372215E-012   1.5675655218316820E-012   6.0169855220701771E-002
   8.3651930868344770E-012   4.4977424562553381E-012   6.1057709659711183E-002
   8.8500500330934706E-012   5.5309576363349322E-012   6.2083219122467601E-002
   9.3349056783098572E-012   4.6672578996043157E-012   6.3246383608971141E-002
   9.8197630582497197E-012   1.9066553891278204E-012   6.4547203119221755E-002
  -7.3569492286614368E-003   1.5719091760944201E-003   5.9556603109753685E-002
  -7.2320378604715987E-003   1.6691283944318090E-003   6.0438277894752979E-002
  -7.1071264922817614E-003   1.7502199068310399E-003   6.1432120391415185E-002
  -6.9822151240919242E-003   1.8151837132920419E-003   6.2538130599740255E-002
  -6.8573037559020861E-003   1.8640198138148018E-003   6.3756308519728244E-002
  -1.4699270609253638E-002   3.1438183506212400E-003   5.9048634066233528E-002
  -1.4474935185442996E-002   3.3382567843659346E-003   5.9908001493181443E-002
  -1.4250599761632348E-002   3.5004398081311082E-003   6.0854049319708087E-002
  -1.4026264337821696E-002   3.6303674219167982E-003   6.1886777545813447E-002
  -1.3801928914011054E-002   3.7280396257229689E-003   6.3006186171497530E-002
  -2.2026964133896269E-002   4.7157275251480980E-003   5.8645948090141231E-002
  -2.1728691966548988E-002   5.0073851743000514E-003   5.9466880454996499E-002
  -2.1430419799201704E-002   5.2506597094312112E-003   6.0349005907346334E-002
  -2.1132147631854420E-002   5.4455511305415687E-003   6.1292324447190703E-002
  -2.0833875464507132E-002   5.5920594376311257E-003   6.2296836074529613E-002
  -2.9340029802589325E-002   6.2876366996749145E-003   5.8348545181476877E-002
  -2.8993308203789571E-002   6.6765135642341232E-003   5.9114914780198202E-002
  -2.8646586604989827E-002   7.0008796107312483E-003   5.9916990154329892E-002
  -2.8299865006190084E-002   7.2607348391663289E-003   6.0754771303871982E-002
  -2.7953143407390326E-002   7.4560792495392963E-003   6.1628258228824409E-002
   9.8197630582497197E-012   1.9066553891278204E-012   6.4547203119221755E-002
   2.1261950533535412E-012   1.6606230279769818E-012   6.4732862089532037E-002
  -5.5673764209895893E-012   8.3407204753971342E-012   6.5033325526319269E-002
  -1.3260947895332720E-011   2.1947000640454295E-011   6.5448593429583424E-002
  -2.0954515900228898E-011   4.2479408879358971E-011   6.5978665799324376E-002
  -6.8573037559020861E-003   1.8640198138148018E-003   6.3756308519728244E-002
  -6.7265602807617154E-003   1.8933271395492890E-003   6.3859120195652416E-002
  -6.5958168056213439E-003   1.8997046216454906E-003   6.4108614370767578E-002
  -6.4650733304809724E-003   1.8831522601032375E-003   6.4504791045073756E-002
  -6.3343298553406018E-003   1.8436700549226415E-003   6.5047650218570896E-002
  -1.3801928914011054E-002   3.7280396257229689E-003   6.3006186171497530E-002
  -1.3508563923322642E-002   3.7866542774379376E-003   6.3003220702471038E-002
  -1.3215198932634231E-002   3.7994092349501202E-003   6.3178815765349644E-002
  -1.2921833941945826E-002   3.7663044982594322E-003   6.3532971360133347E-002
  -1.2628468951257413E-002   3.6873400673659018E-003   6.4065687486822107E-002
  -2.0833875464507132E-002   5.5920594376311257E-003   6.2296836074529613E-002
  -2.0346010925556580E-002   5.6799814153266088E-003   6.2165163609987965E-002
  -1.9858146386606039E-002   5.6991138482548201E-003   6.2243929710065496E-002
  -1.9370281847655501E-002   5.6494567364156478E-003   6.2533134374762211E-002
  -1.8882417308704949E-002   5.5310100798090789E-003   6.3032777604078077E-002
  -2.7953143407390326E-002   7.4560792495392963E-003   6.1628258228824409E-002
  -2.7238901287463545E-002   7.5733085532152800E-003   6.1344948918203093E-002
  -2.6524659167536768E-002   7.5988184615595443E-003   6.1303956204915085E-002
  -2.5810417047610001E-002   7.5326089745718422E-003   6.1505280088960348E-002
  -2.5096174927683207E-002   7.3746800922523670E-003   6.1948920570338878E-002
  -2.0954515900228898E-011   4.2479408879358971E-011   6.5978665799324376E-002
  -2.9707878518303588E-011   6.3936661520713756E-011   6.5673641708197034E-002
  -3.8461239401654801E-011   8.0317461015333436E-011   6.5587634233460756E-002
  -4.7214599417644276E-011   9.1621540215802710E-011   6.5720643375115489E-002
  -5.5967962903080704E-011   9.7849284230733247E-011   6.6072669133161288E-002
  -6.3343298553406018E-003   1.8436700549226415E-003   6.5047650218570896E-002
  -6.1223782234006230E-003   1.7922118622207411E-003   6.4775240821974570E-002
  -5.9104265914606399E-003   1.7397315381143946E-003   6.4707718090373942E-002
  -5.6984749595206611E-003   1.6862290826034458E-003   6.4845082023768985E-002
  -5.4865233275806780E-003   1.6317044956882243E-003   6.5187332622159616E-002
  -1.2628468951257413E-002   3.6873400673659018E-003   6.4065687486822107E-002
  -1.2218695630019507E-002   3.5844236605047236E-003   6.3824870658428984E-002
  -1.1808922308781611E-002   3.4794629959112519E-003   6.3774810543636096E-002
  -1.1399148987543708E-002   3.3724580735854087E-003   6.3915507142443442E-002
  -1.0989375666305807E-002   3.2634088935271643E-003   6.4246960454850927E-002
  -1.8882417308704949E-002   5.5310100798090789E-003   6.3032777604078077E-002
  -1.8288952249564543E-002   5.3766354587887547E-003   6.2822531217560221E-002
  -1.7695487190424134E-002   5.2191944537081474E-003   6.2788911593247176E-002
  -1.7102022131283728E-002   5.0586870645673151E-003   6.2931918731138958E-002
  -1.6508557072143326E-002   4.8951132913660766E-003   6.3251552631235414E-002
  -2.5096174927683207E-002   7.3746800922523670E-003   6.1948920570338878E-002
  -2.4333148082035714E-002   7.1688472570727857E-003   6.1768222499368336E-002
  -2.3570121236388235E-002   6.9589259115050775E-003   6.1750021239207184E-002
  -2.2807094390740749E-002   6.7449160555492025E-003   6.1894316789855373E-002
  -2.2044067545093252E-002   6.5268176892050445E-003   6.2201109151312994E-002
  -5.5967962903080704E-011   9.7849284230733247E-011   6.6072669133161288E-002
  -5.5031579987430135E-011   9.9143693255143717E-011   6.5772117019564480E-002
  -5.4095198806503042E-011   9.5648156062111411E-011   6.5676838392179832E-002
  -5.3158814156128997E-011   8.7362450607031406E-011   6.5786833251007371E-002
  -5.2222434709925381E-011   7.4286798934508624E-011   6.6102101596046903E-002
  -5.4865233275806780E-003   1.6317044956882243E-003   6.5187332622159616E-002
  -5.2776412025122990E-003   1.5745892596578659E-003   6.4871980493562353E-002
  -5.0687590774439253E-003   1.5133148568016730E-003   6.4769119127016939E-002
  -4.8598769523755430E-003   1.4478812871199787E-003   6.4878748522523413E-002
  -4.6509948273071727E-003   1.3782885506122278E-003   6.5200868680081736E-002
  -1.0989375666305807E-002   3.2634088935271643E-003   6.4246960454850927E-002
  -1.0564394141265714E-002   3.1491784201720940E-003   6.3912649149217585E-002
  -1.0139412616225623E-002   3.0266296179553565E-003   6.3798045881475710E-002
  -9.7144310911855391E-003   2.8957624868773402E-003   6.3903150651625495E-002
  -9.2894495661454343E-003   2.7565770269376566E-003   6.4227963459666748E-002
  -1.6508557072143326E-002   4.8951132913660766E-003   6.3251552631235414E-002
  -1.5860258871291801E-002   4.7237675806862389E-003   6.2894122986530118E-002
  -1.5211960670440299E-002   4.5399443791092065E-003   6.2763618655556103E-002
  -1.4563662469588788E-002   4.3436436866347294E-003   6.2860039638313339E-002
  -1.3915364268737287E-002   4.1348655032631132E-003   6.3183385934801869E-002
  -2.2044067545093252E-002   6.5268176892050445E-003   6.2201109151312994E-002
  -2.1165235392590586E-002   6.2983567412004393E-003   6.1816402005500037E-002
  -2.0286403240087958E-002   6.0532591402625985E-003   6.1665837449258104E-002
  -1.9407571087585309E-002   5.7915248863922124E-003   6.1749415482587097E-002
  -1.8528738935082653E-002   5.5131539795885143E-003   6.2067136105487142E-002
  -5.2222434709925381E-011   7.4286798934508624E-011   6.6102101596046903E-002
  -2.9661210987352860E-011   4.9779624866630456E-011   6.5946768143657297E-002
  -7.0999768564394827E-012   7.1995187589379839E-012   6.5933718850003958E-002
   1.5461252070303466E-011  -5.3453783066537142E-011   6.6062953715087080E-002
   3.8022480997046415E-011  -1.3217960059819234E-010   6.6334472738906469E-002
  -4.6509948273071727E-003   1.3782885506122278E-003   6.5200868680081736E-002
  -4.4989417488011454E-003   1.3065484001419103E-003   6.5067776321560744E-002
  -4.3468886702951355E-003   1.2346725885721693E-003   6.5096505916192871E-002
  -4.1948355917891126E-003   1.1626611159026405E-003   6.5287057463978226E-002
  -4.0427825132830983E-003   1.0905139821337784E-003   6.5639430964916812E-002
  -9.2894495661454343E-003   2.7565770269376566E-003   6.4227963459666748E-002
  -8.9658056372778211E-003   2.6130967505042513E-003   6.4116976551987739E-002
  -8.6421617084101957E-003   2.4693451699447089E-003   6.4187349391878659E-002
  -8.3185177795425773E-003   2.3253222852590086E-003   6.4439081979339660E-002
  -7.9948738506749571E-003   2.1810280964472684E-003   6.4872174314370701E-002
  -1.3915364268737287E-002   4.1348655032631132E-003   6.3183385934801869E-002
  -1.3400591695091231E-002   3.9196451008665645E-003   6.3094368834938200E-002
  -1.2885819121445187E-002   3.7040177513172762E-003   6.3206249277061505E-002
  -1.2371046547799138E-002   3.4879834546154044E-003   6.3519027261171548E-002
  -1.1856273974153090E-002   3.2715422107606473E-003   6.4032702787268470E-002
  -1.8528738935082653E-002   5.5131539795885143E-003   6.2067136105487142E-002
  -1.7803299922241361E-002   5.2261934512289054E-003   6.1999953170412514E-002
  -1.7077860909400080E-002   4.9386903326898018E-003   6.2153205571741338E-002
  -1.6352421896558784E-002   4.6506446239715817E-003   6.2526893309473905E-002
  -1.5626982883717506E-002   4.3620563250740818E-003   6.3121016383610062E-002
   3.8022480997046415E-011  -1.3217960059819234E-010   6.6334472738906469E-002
   4.0239679643949700E-011  -1.1744111239053723E-010   6.5853081158247007E-002
   4.2456885229746888E-011   1.0229905811343087E-010   6.5596959597532145E-002
   4.4674096019714504E-011   5.2704113295831689E-010   6.5566108056761663E-002
   4.6891296401341265E-011   1.1567851121441208E-009   6.5760526535935782E-002
  -4.0427825132830983E-003   1.0905139821337784E-003   6.5639430964916812E-002
  -3.8034246467330522E-003   1.0162792912594143E-003   6.5260798818504495E-002
  -3.5640667801829923E-003   9.3800514727387929E-004   6.5135612380813446E-002
  -3.3247089136329471E-003   8.5569155017690968E-004   6.5263871651843539E-002
  -3.0853510470829001E-003   7.6933849996851933E-004   6.5645576631595093E-002
  -7.9948738506749571E-003   2.1810280964472684E-003   6.4872174314370701E-002
  -7.4879824310154081E-003   2.0325586999600243E-003   6.4592261944092594E-002
  -6.9810910113558659E-003   1.8760101922485894E-003   6.4593970971312309E-002
  -6.4741995916963203E-003   1.7113825733125199E-003   6.4877301396030179E-002
  -5.9673081720367886E-003   1.5386758431519265E-003   6.5442253218245261E-002
  -1.1856273974153090E-002   3.2715422107606473E-003   6.4032702787268470E-002
  -1.1053673312607407E-002   3.0488381086607036E-003   6.3847470535011538E-002
  -1.0251072651061725E-002   2.8140152372232996E-003   6.3972035369028873E-002
  -9.4484719895160368E-003   2.5670735964480468E-003   6.4406397289320780E-002
  -8.6458713279703482E-003   2.3080131863353337E-003   6.5150556295887257E-002
  -1.5626982883717506E-002   4.3620563250740818E-003   6.3121016383610062E-002
  -1.4500497291509033E-002   4.0651175173612164E-003   6.3026424591260899E-002
  -1.3374011699300550E-002   3.7520202821980514E-003   6.3269805573962695E-002
  -1.2247526107092068E-002   3.4227646195838894E-003   6.3851159331715743E-002
  -1.1121040514883593E-002   3.0773505295187409E-003   6.4770485864519722E-002
  -2.6635345472682311E-002   0.0000000000000000        2.9464736091347685E-002
  -2.7237202385237011E-002   5.8724369406328372E-004   3.4941917718710656E-002
  -2.7839059297791718E-002   1.3223266179815500E-003   4.0110676196086874E-002
  -2.8440916210346424E-002   2.2052487717547919E-003   4.4971011523476323E-002
  -2.9042773122901121E-002   3.2360101553830147E-003   4.9522923700879018E-002
  -3.3394744435555700E-002   0.0000000000000000        3.0176482091187173E-002
  -3.4239727837942401E-002   9.6177738087622859E-004   3.5264349592570542E-002
  -3.5084711240329094E-002   2.0267736824185496E-003   4.0174387264276683E-002
  -3.5929694642715802E-002   3.1949889046269603E-003   4.4906595106305597E-002
  -3.6774678045102496E-002   4.4664230475014756E-003   4.9460973118657270E-002
  -4.0734283259823985E-002   0.0000000000000000        3.1285071932434051E-002
  -4.1691799831733156E-002   1.3363110676891722E-003   3.5939004998648931E-002
  -4.2649316403642321E-002   2.7312207468555508E-003   4.0545701555496118E-002
  -4.3606832975551492E-002   4.1847290374991304E-003   4.5105161602975591E-002
  -4.4564349547460663E-002   5.6968359396199235E-003   4.9617385141087350E-002
  -4.8653961945487177E-002   0.0000000000000000        3.2790505615088318E-002
  -4.9593418366609292E-002   1.7108447545021168E-003   3.6965883936945824E-002
  -5.0532874787731399E-002   3.4356678112925530E-003   4.1224619069745158E-002
  -5.1472331208853500E-002   5.1744691703713066E-003   4.5566711013486312E-002
  -5.2411787629975608E-002   6.9272488317383817E-003   4.9992159768169279E-002
  -5.7153780492545270E-002   0.0000000000000000        3.4692783139149960E-002
  -5.7944583442570793E-002   2.0853784413150615E-003   3.8344986407461208E-002
  -5.8735386392596310E-002   4.1401148757295534E-003   4.2211139807023804E-002
  -5.9526189342621841E-002   6.1642093032434706E-003   4.6291243337837754E-002
  -6.0316992292647358E-002   8.1576617238568339E-003   5.0585296999903058E-002
  -2.9042773122901121E-002   3.2360101553830147E-003   4.9522923700879018E-002
  -2.9117087292823179E-002   4.2552475633180408E-003   5.1580352861751722E-002
  -2.9191401462745226E-002   5.1035977900117119E-003   5.3737099495475588E-002
  -2.9265715632667281E-002   5.7810608354639838E-003   5.5993163602050651E-002
  -2.9340029802589325E-002   6.2876366996749145E-003   5.8348545181476877E-002
  -3.6774678045102496E-002   4.4664230475014756E-003   4.9460973118657270E-002
  -3.6788743244119376E-002   5.7010472066044374E-003   5.1247704162701906E-002
  -3.6802808443136256E-002   6.7588324774982460E-003   5.3055615675705721E-002
  -3.6816873642153122E-002   7.6397788601828961E-003   5.4884707657668709E-002
  -3.6830938841170002E-002   8.3438863546583947E-003   5.6734980108590891E-002
  -4.4564349547460663E-002   5.6968359396199235E-003   4.9617385141087350E-002
  -4.4596302779464372E-002   7.1468468498908262E-003   5.1127466361336166E-002
  -4.4628256011468082E-002   8.4140671649848078E-003   5.2580591046652130E-002
  -4.4660209243471777E-002   9.4984968849018154E-003   5.3976759197035262E-002
  -4.4692162475475500E-002   1.0400136009641875E-002   5.5315970812485543E-002
  -5.2411787629975608E-002   6.9272488317383817E-003   4.9992159768169279E-002
  -5.2539765898858171E-002   8.5926464931772324E-003   5.1219639457654453E-002
  -5.2667744167740706E-002   1.0069301852471357E-002   5.2312025608314772E-002
  -5.2795722436623234E-002   1.1357214909620732E-002   5.3269318220150241E-002
  -5.2923700705505790E-002   1.2456385664625383E-002   5.4091517293160897E-002
  -6.0316992292647358E-002   8.1576617238568339E-003   5.0585296999903058E-002
  -6.0619132602300736E-002   1.0038446136463611E-002   5.1524223451656789E-002
  -6.0921272911954129E-002   1.1724536539957905E-002   5.2249919360693675E-002
  -6.1223413221607514E-002   1.3215932934339619E-002   5.2762384727013716E-002
  -6.1525553531260893E-002   1.4512635319608821E-002   5.3061619550616917E-002
  -2.9340029802589325E-002   6.2876366996749145E-003   5.8348545181476877E-002
  -2.8993308203789571E-002   6.6765135642341232E-003   5.9114914780198202E-002
  -2.8646586604989827E-002   7.0008796107312483E-003   5.9916990154329892E-002
  -2.8299865006190084E-002   7.2607348391663289E-003   6.0754771303871982E-002
  -2.7953143407390326E-002   7.4560792495392963E-003   6.1628258228824409E-002
  -3.6830938841170002E-002   8.3438863546583947E-003   5.6734980108590891E-002
  -3.6396602475171930E-002   8.8870078526331851E-003   5.7078122141948184E-002
  -3.5962266109173843E-002   9.2849962458158020E-003   5.7560787934291743E-002
  -3.5527929743175757E-002   9.5378515342060960E-003   5.8182977485621595E-002
  -3.5093593377177684E-002   9.6455737178042095E-003   5.8944690795937699E-002
  -4.4692162475475500E-002   1.0400136009641875E-002   5.5315970812485543E-002
  -4.4066393358703194E-002   1.1097502141032263E-002   5.5155262993748677E-002
  -4.3440624241930896E-002   1.1569112880900284E-002   5.5237896917573977E-002
  -4.2814855125158598E-002   1.1814968229245932E-002   5.5563872583961442E-002
  -4.2189086008386313E-002   1.1835068186069171E-002   5.6133189992911087E-002
  -5.2923700705505790E-002   1.2456385664625383E-002   5.4091517293160897E-002
  -5.2002680854383372E-002   1.3307996429431368E-002   5.3346337335599688E-002
  -5.1081661003260954E-002   1.3853229515984822E-002   5.2948317104176544E-002
  -5.0160641152138537E-002   1.4092084924285748E-002   5.2897456598891501E-002
  -4.9239621301016126E-002   1.4024562654334136E-002   5.3193755819744441E-002
  -6.1525553531260893E-002   1.4512635319608821E-002   5.3061619550616917E-002
  -6.0205464962212477E-002   1.5518490717830395E-002   5.1651345167501250E-002
  -5.8885376393164067E-002   1.6137346151069321E-002   5.0692048494099515E-002
  -5.7565287824115643E-002   1.6369201619325556E-002   5.0183729530411801E-002
  -5.6245199255067213E-002   1.6214057122599060E-002   5.0126388276437991E-002
  -2.7953143407390326E-002   7.4560792495392963E-003   6.1628258228824409E-002
  -2.7238901287463545E-002   7.5733085532152800E-003   6.1344948918203093E-002
  -2.6524659167536768E-002   7.5988184615595443E-003   6.1303956204915085E-002
  -2.5810417047610001E-002   7.5326089745718422E-003   6.1505280088960348E-002
  -2.5096174927683207E-002   7.3746800922523670E-003   6.1948920570338878E-002
  -3.5093593377177684E-002   9.6455737178042095E-003   5.8944690795937699E-002
  -3.4149442930058858E-002   9.6473121556567287E-003   5.8614653662738520E-002
  -3.3205292482940019E-002   9.5822162068102297E-003   5.8502116586590172E-002
  -3.2261142035821193E-002   9.4502858712647193E-003   5.8607079567492643E-002
  -3.1316991588702353E-002   9.2515211490202254E-003   5.8929542605445945E-002
  -4.2189086008386313E-002   1.1835068186069171E-002   5.6133189992911087E-002
  -4.1039843774357869E-002   1.1721315758098164E-002   5.5781310045766835E-002
  -3.9890601540329425E-002   1.1565613952061000E-002   5.5622113615390975E-002
  -3.8741359306300974E-002   1.1367962767957641E-002   5.5655600701783499E-002
  -3.7592117072272543E-002   1.1128362205788125E-002   5.5881771304944379E-002
  -4.9239621301016126E-002   1.4024562654334136E-002   5.3193755819744441E-002
  -4.7910103820360553E-002   1.3795319360539550E-002   5.2844918067288062E-002
  -4.6580586339704945E-002   1.3549011697311757E-002   5.2663947291317528E-002
  -4.5251068859049344E-002   1.3285639664650581E-002   5.2650843491833008E-002
  -4.3921551378393757E-002   1.3005203262556032E-002   5.2805606668834333E-002
  -5.6245199255067213E-002   1.6214057122599060E-002   5.0126388276437991E-002
  -5.4760223068066910E-002   1.5869322962980999E-002   4.9805477727302150E-002
  -5.3275246881066607E-002   1.5532409442562466E-002   4.9627617614369866E-002
  -5.1790270694066332E-002   1.5203316561343484E-002   4.9592807937641023E-002
  -5.0305294507066015E-002   1.4882044319323912E-002   4.9701048697115696E-002
  -2.5096174927683207E-002   7.3746800922523670E-003   6.1948920570338878E-002
  -2.4333148082035714E-002   7.1688472570727857E-003   6.1768222499368336E-002
  -2.3570121236388235E-002   6.9589259115050775E-003   6.1750021239207184E-002
  -2.2807094390740749E-002   6.7449160555492025E-003   6.1894316789855373E-002
  -2.2044067545093252E-002   6.5268176892050445E-003   6.2201109151312994E-002
  -3.1316991588702353E-002   9.2515211490202254E-003   5.8929542605445945E-002
  -3.0382362820393839E-002   9.0115386602133557E-003   5.8693795995369044E-002
  -2.9447734052085291E-002   8.7559550249804996E-003   5.8638756419804816E-002
  -2.8513105283776763E-002   8.4847702433218791E-003   5.8764423878753302E-002
  -2.7578476515468225E-002   8.1979843152373832E-003   5.9070798372214461E-002
  -3.7592117072272543E-002   1.1128362205788125E-002   5.5881771304944379E-002
  -3.6467676157599646E-002   1.0854230063353787E-002   5.5579463519723440E-002
  -3.5343235242926714E-002   1.0552984138455918E-002   5.5476072992718506E-002
  -3.4218794328253803E-002   1.0224624431094582E-002   5.5571599723929645E-002
  -3.3094353413580878E-002   9.8691509412697220E-003   5.5866043713356753E-002
  -4.3921551378393757E-002   1.3005203262556032E-002   5.2805606668834333E-002
  -4.2589088093653145E-002   1.2696921466494232E-002   5.2425225072431650E-002
  -4.1256624808912505E-002   1.2350013251931283E-002   5.2261970957948392E-002
  -3.9924161524171886E-002   1.1964478618867300E-002   5.2315844325384442E-002
  -3.8591698239431260E-002   1.1540317567301978E-002   5.2586845174739910E-002
  -5.0305294507066015E-002   1.4882044319323912E-002   4.9701048697115696E-002
  -4.8746598628554350E-002   1.4539612869634774E-002   4.9231080653493603E-002
  -4.7187902750042664E-002   1.4147042365406752E-002   4.8996450315494280E-002
  -4.5629206871531006E-002   1.3704332806640017E-002   4.8997157683117611E-002
  -4.4070510993019313E-002   1.3211484193334344E-002   4.9233202756363725E-002
  -2.2044067545093252E-002   6.5268176892050445E-003   6.2201109151312994E-002
  -2.1165235392590586E-002   6.2983567412004393E-003   6.1816402005500037E-002
  -2.0286403240087958E-002   6.0532591402625985E-003   6.1665837449258104E-002
  -1.9407571087585309E-002   5.7915248863922124E-003   6.1749415482587097E-002
  -1.8528738935082653E-002   5.5131539795885143E-003   6.2067136105487142E-002
  -2.7578476515468225E-002   8.1979843152373832E-003   5.9070798372214461E-002
  -2.6472119929176710E-002   7.8975669097541001E-003   5.8683855912229438E-002
  -2.5365763342885199E-002   7.5854876958992290E-003   5.8517819730251108E-002
  -2.4259406756593702E-002   7.2617466736726449E-003   5.8572689826279375E-002
  -2.3153050170302166E-002   6.9263438430745006E-003   5.8848466200314670E-002
  -3.3094353413580878E-002   9.8691509412697220E-003   5.5866043713356753E-002
  -3.1773708705064789E-002   9.4967770783078997E-003   5.5481840783760936E-002
  -3.0453063996548679E-002   9.1177162515357554E-003   5.5305307820607462E-002
  -2.9132419288032573E-002   8.7319684609533568E-003   5.5336444823896602E-002
  -2.7811774579516481E-002   8.3395337065605979E-003   5.5575251793628114E-002
  -3.8591698239431260E-002   1.1540317567301978E-002   5.2586845174739910E-002
  -3.7070001720254826E-002   1.1095987246861685E-002   5.2210356620094489E-002
  -3.5548305201078371E-002   1.0649944807172306E-002   5.2028301720327394E-002
  -3.4026608681901931E-002   1.0202190248233985E-002   5.2040680475438375E-002
  -3.2504912162725462E-002   9.7527235700466397E-003   5.2247492885427613E-002
  -4.4070510993019313E-002   1.3211484193334344E-002   4.9233202756363725E-002
  -4.2360998974746794E-002   1.2695197415415416E-002   4.8869403421230251E-002
  -4.0651486956474289E-002   1.2182173362808871E-002   4.8686801429410592E-002
  -3.8941974938201791E-002   1.1672412035514629E-002   4.8685396780904930E-002
  -3.7232462919929266E-002   1.1165913433532626E-002   4.8865189475713222E-002
  -1.8528738935082653E-002   5.5131539795885143E-003   6.2067136105487142E-002
  -1.7803299922241361E-002   5.2261934512289054E-003   6.1999953170412514E-002
  -1.7077860909400080E-002   4.9386903326898018E-003   6.2153205571741338E-002
  -1.6352421896558784E-002   4.6506446239715817E-003   6.2526893309473905E-002
  -1.5626982883717506E-002   4.3620563250740818E-003   6.3121016383610062E-002
  -2.3153050170302166E-002   6.9263438430745006E-003   5.8848466200314670E-002
  -2.2222032547633781E-002   6.5829949558530720E-003   5.8729626917141203E-002
  -2.1291014924965414E-002   6.2354157637557611E-003   5.8801509517218423E-002
  -2.0359997302297008E-002   5.8836062667835566E-003   5.9064114000546085E-002
  -1.9428979679628654E-002   5.5275664649358514E-003   5.9517440367124363E-002
  -2.7811774579516481E-002   8.3395337065605979E-003   5.5575251793628114E-002
  -2.6704891800174064E-002   7.9397964604770027E-003   5.5401068447659949E-002
  -2.5598009020831678E-002   7.5321411948219355E-003   5.5387893531789419E-002
  -2.4491126241489296E-002   7.1165679095953633E-003   5.5535727046016281E-002
  -2.3384243462146875E-002   6.6930766047975376E-003   5.5844568990340557E-002
  -3.2504912162725462E-002   9.7527235700466397E-003   5.2247492885427613E-002
  -3.1251877679862178E-002   9.2965979651012179E-003   5.2014277761968764E-002
  -2.9998843196998914E-002   8.8288666258880023E-003   5.1912357615454277E-002
  -2.8745808714135613E-002   8.3495295524073643E-003   5.1941732445884049E-002
  -2.7492774231272339E-002   7.8585867446592100E-003   5.2102402253258379E-002
  -3.7232462919929266E-002   1.1165913433532626E-002   4.8865189475713222E-002
  -3.5862990186698154E-002   1.0653399469725072E-002   4.8569254860067579E-002
  -3.4493517453467085E-002   1.0125592056953986E-002   4.8374901768213130E-002
  -3.3124044720235973E-002   9.5824911952190686E-003   4.8282130200149986E-002
  -3.1754571987004904E-002   9.0240968845210490E-003   4.8290940155878037E-002
  -1.5626982883717506E-002   4.3620563250740818E-003   6.3121016383610062E-002
  -1.4500497291509033E-002   4.0651175173612164E-003   6.3026424591260899E-002
  -1.3374011699300550E-002   3.7520202821980514E-003   6.3269805573962695E-002
  -1.2247526107092068E-002   3.4227646195838894E-003   6.3851159331715743E-002
  -1.1121040514883593E-002   3.0773505295187409E-003   6.4770485864519722E-002
  -1.9428979679628654E-002   5.5275664649358514E-003   5.9517440367124363E-002
  -1.7991558324173505E-002   5.1630385359240638E-003   5.9228092387911796E-002
  -1.6554136968718373E-002   4.7857646574595569E-003   5.9222643160141336E-002
  -1.5116715613263287E-002   4.3957448295423723E-003   5.9501092683813026E-002
  -1.3679294257808089E-002   3.9929790521724406E-003   6.0063440958927128E-002
  -2.3384243462146875E-002   6.6930766047975376E-003   5.5844568990340557E-002
  -2.1689960367054090E-002   6.2609595544866059E-003   5.5363877302262637E-002
  -1.9995677271961242E-002   5.8195090327210694E-003   5.5113010342018050E-002
  -1.8301394176868407E-002   5.3687250395009125E-003   5.5091968109606856E-002
  -1.6607111081775608E-002   4.9086075748261404E-003   5.5300750605028537E-002
  -2.7492774231272339E-002   7.8585867446592100E-003   5.2102402253258379E-002
  -2.5595703420150717E-002   7.3588805730491896E-003   5.1433779334313326E-002
  -2.3698632609029133E-002   6.8532534079825229E-003   5.0940907119592628E-002
  -2.1801561797907518E-002   6.3417052494594240E-003   5.0623785609095855E-002
  -1.9904490986785931E-002   5.8242360974798957E-003   5.0482414802824088E-002
  -3.1754571987004904E-002   9.0240968845210490E-003   4.8290940155878037E-002
  -2.9708787483463450E-002   8.4568015916117734E-003   4.7437798484063931E-002
  -2.7663002979922025E-002   7.8869977832441568E-003   4.6706333492865265E-002
  -2.5617218476380620E-002   7.3146854594180084E-003   4.6096545182281970E-002
  -2.3571433972839173E-002   6.7398646201335399E-003   4.5608433552313921E-002
  -5.7153780492545270E-002   0.0000000000000000        3.4692783139149960E-002
  -5.7944583442570793E-002   2.0853784413150615E-003   3.8344986407461208E-002
  -5.8735386392596310E-002   4.1401148757295534E-003   4.2211139807023804E-002
  -5.9526189342621841E-002   6.1642093032434706E-003   4.6291243337837754E-002
  -6.0316992292647358E-002   8.1576617238568339E-003   5.0585296999903058E-002
  -6.5821662772989592E-002   0.0000000000000000        3.7215089734475751E-002
  -6.6627590231312275E-002   2.9152110528072551E-003   4.0838207061331670E-002
  -6.7433517689634959E-002   5.7730167194565644E-003   4.4217125240341916E-002
  -6.8239445147957642E-002   8.5734169999479286E-003   4.7351844271506488E-002
  -6.9045372606280325E-002   1.1316411894281351E-002   5.0242364154825372E-002
  -7.4245532658811467E-002   0.0000000000000000        4.0580610630922422E-002
  -7.5524733904528338E-002   3.7450436642994496E-003   4.4147878637065645E-002
  -7.6803935150245209E-002   7.4059185631835745E-003   4.7012798216266152E-002
  -7.8083136395962094E-002   1.0982624696652381E-002   4.9175369368523972E-002
  -7.9362337641678951E-002   1.4475162064705865E-002   5.0635592093839082E-002
  -8.2425390150010894E-002   0.0000000000000000        4.4789345828489972E-002
  -8.4636014462218995E-002   4.5748762757916450E-003   4.8274001134663104E-002
  -8.6846638774427068E-002   9.0388204069105898E-003   5.0598158734796519E-002
  -8.9057263086635169E-002   1.3391832393356836E-002   5.1761818628890205E-002
  -9.1267887398843256E-002   1.7633912235130382E-002   5.1764980816944146E-002
  -9.0361235246587873E-002   0.0000000000000000        4.9841295327178410E-002
  -9.3961431904384218E-002   5.4047088872838395E-003   5.3216574554124096E-002
  -9.7561628562180536E-002   1.0671722250637596E-002   5.4973206795933025E-002
 -0.10116182521997688        1.5801040090061291E-002   5.5111192052605201E-002
 -0.10476202187777321        2.0792662405554902E-002   5.3630530324140585E-002
  -6.0316992292647358E-002   8.1576617238568339E-003   5.0585296999903058E-002
  -6.0619132602300736E-002   1.0038446136463611E-002   5.1524223451656789E-002
  -6.0921272911954129E-002   1.1724536539957905E-002   5.2249919360693675E-002
  -6.1223413221607514E-002   1.3215932934339619E-002   5.2762384727013716E-002
  -6.1525553531260893E-002   1.4512635319608821E-002   5.3061619550616917E-002
  -6.9045372606280325E-002   1.1316411894281351E-002   5.0242364154825372E-002
  -6.9322680515934487E-002   1.3762381330325733E-002   4.9465099057763175E-002
  -6.9599988425588649E-002   1.5671705235949990E-002   4.8950729303416263E-002
  -6.9877296335242825E-002   1.7044383611154141E-002   4.8699254891784650E-002
  -7.0154604244896973E-002   1.7880416455938158E-002   4.8710675822868303E-002
  -7.9362337641678951E-002   1.4475162064705865E-002   5.0635592093839082E-002
  -7.9138687265901772E-002   1.7486316524187820E-002   4.7800183926653361E-002
  -7.8915036890124607E-002   1.9618873931942095E-002   4.5703796987615078E-002
  -7.8691386514347428E-002   2.0872834287968642E-002   4.4346431276724205E-002
  -7.8467736138570221E-002   2.1248197592267502E-002   4.3728086793980721E-002
  -9.1267887398843256E-002   1.7633912235130382E-002   5.1764980816944146E-002
  -9.0067152852202598E-002   2.1210251718049931E-002   4.6529478058327321E-002
  -8.8866418305561926E-002   2.3566042627934186E-002   4.2509122413290072E-002
  -8.7665683758921253E-002   2.4701284964783146E-002   3.9703913881832392E-002
  -8.6464949212280595E-002   2.4615978728596874E-002   3.8113852463954163E-002
 -0.10476202187777321        2.0792662405554902E-002   5.3630530324140585E-002
 -0.10210807727483692        2.4934186911912022E-002   4.5652981452785096E-002
  -9.9454132671900675E-002   2.7513211323926277E-002   3.9366705580441280E-002
  -9.6800188068964413E-002   2.8529735641597657E-002   3.4771702707109171E-002
  -9.4146243466028151E-002   2.7983759864926169E-002   3.1867972832788680E-002
  -6.1525553531260893E-002   1.4512635319608821E-002   5.3061619550616917E-002
  -6.0205464962212477E-002   1.5518490717830395E-002   5.1651345167501250E-002
  -5.8885376393164067E-002   1.6137346151069321E-002   5.0692048494099515E-002
  -5.7565287824115643E-002   1.6369201619325556E-002   5.0183729530411801E-002
  -5.6245199255067213E-002   1.6214057122599060E-002   5.0126388276437991E-002
  -7.0154604244896973E-002   1.7880416455938158E-002   4.8710675822868303E-002
  -6.8429678948960335E-002   1.8336991852372898E-002   4.7265544611259182E-002
  -6.6704753653023696E-002   1.8571297882529168E-002   4.6179109143712552E-002
  -6.4979828357087044E-002   1.8583334546406975E-002   4.5451369420228455E-002
  -6.3254903061150392E-002   1.8373101844006284E-002   4.5082325440806877E-002
  -7.8467736138570221E-002   2.1248197592267502E-002   4.3728086793980721E-002
  -7.6430256081396808E-002   2.1155492986915391E-002   4.2412829352582386E-002
  -7.4392776024223353E-002   2.1005249613989016E-002   4.1363985689595054E-002
  -7.2355295967049912E-002   2.0797467473488412E-002   4.0581555805018793E-002
  -7.0317815909876485E-002   2.0532146565413530E-002   4.0065539698853653E-002
  -8.6464949212280595E-002   2.4615978728596874E-002   3.8113852463954163E-002
  -8.4207196359521841E-002   2.3973994121457877E-002   3.7093199391470821E-002
  -8.1949443506763101E-002   2.3439201345448864E-002   3.6246678131747062E-002
  -7.9691690654004346E-002   2.3011600400569841E-002   3.5574288684782844E-002
  -7.7433937801245578E-002   2.2691191286820764E-002   3.5076031050578375E-002
  -9.4146243466028151E-002   2.7983759864926169E-002   3.1867972832788680E-002
  -9.1760499783335503E-002   2.6792495256000380E-002   3.1306654727924474E-002
  -8.9374756100642869E-002   2.5873153076908708E-002   3.0827186470168494E-002
  -8.6989012417950221E-002   2.5225733327651295E-002   3.0429568059520632E-002
  -8.4603268735257600E-002   2.4850236008227999E-002   3.0113799495980920E-002
  -5.6245199255067213E-002   1.6214057122599060E-002   5.0126388276437991E-002
  -5.4760223068066910E-002   1.5869322962980999E-002   4.9805477727302150E-002
  -5.3275246881066607E-002   1.5532409442562466E-002   4.9627617614369866E-002
  -5.1790270694066332E-002   1.5203316561343484E-002   4.9592807937641023E-002
  -5.0305294507066015E-002   1.4882044319323912E-002   4.9701048697115696E-002
  -6.3254903061150392E-002   1.8373101844006284E-002   4.5082325440806877E-002
  -6.1605644478149937E-002   1.8035584919659356E-002   4.4717198589617507E-002
  -5.9956385895149497E-002   1.7665768917698409E-002   4.4537586094224993E-002
  -5.8307127312149050E-002   1.7263653838123311E-002   4.4543487954629368E-002
  -5.6657868729148575E-002   1.6829239680934277E-002   4.4734904170830467E-002
  -7.0317815909876485E-002   2.0532146565413530E-002   4.0065539698853653E-002
  -6.8461811011282542E-002   2.0201846876337724E-002   3.9616076828797177E-002
  -6.6605806112688584E-002   1.9799128392834299E-002   3.9394592234130915E-002
  -6.4749801214094627E-002   1.9323991114903259E-002   3.9401085914854778E-002
  -6.2893796315500683E-002   1.8776435042544629E-002   3.9635557870968889E-002
  -7.7433937801245578E-002   2.2691191286820764E-002   3.5076031050578375E-002
  -7.5328722667464765E-002   2.2368108833016057E-002   3.4502112444841235E-002
  -7.3223507533683965E-002   2.1932487867970255E-002   3.4198636034087626E-002
  -7.1118292399903152E-002   2.1384328391683246E-002   3.4165601818317598E-002
  -6.9013077266122311E-002   2.0723630404154959E-002   3.4403009797530991E-002
  -8.4603268735257600E-002   2.4850236008227999E-002   3.0113799495980920E-002
  -8.2206379446696565E-002   2.4534370789694449E-002   2.9375305437749619E-002
  -7.9809490158135571E-002   2.4065847343106156E-002   2.8949717494095153E-002
  -7.7412600869574563E-002   2.3444665668463045E-002   2.8837035665017503E-002
  -7.5015711581013556E-002   2.2670825765765346E-002   2.9037259950516758E-002
  -5.0305294507066015E-002   1.4882044319323912E-002   4.9701048697115696E-002
  -4.8746598628554350E-002   1.4539612869634774E-002   4.9231080653493603E-002
  -4.7187902750042664E-002   1.4147042365406752E-002   4.8996450315494280E-002
  -4.5629206871531006E-002   1.3704332806640017E-002   4.8997157683117611E-002
  -4.4070510993019313E-002   1.3211484193334344E-002   4.9233202756363725E-002
  -5.6657868729148575E-002   1.6829239680934277E-002   4.4734904170830467E-002
  -5.4875635331145270E-002   1.6365740340177778E-002   4.4331777404777936E-002
  -5.3093401933142013E-002   1.5876369709900577E-002   4.4140387972085922E-002
  -5.1311168535138701E-002   1.5361127790102567E-002   4.4160735872754472E-002
  -4.9528935137135424E-002   1.4820014580783858E-002   4.4392821106783359E-002
  -6.2893796315500683E-002   1.8776435042544629E-002   3.9635557870968889E-002
  -6.0911625770268013E-002   1.8191867810720817E-002   3.9323540147503992E-002
  -5.8929455225035385E-002   1.7605697054394350E-002   3.9199659385137364E-002
  -5.6947284679802694E-002   1.7017922773565203E-002   3.9263915583869019E-002
  -5.4965114134570094E-002   1.6428544968233344E-002   3.9516308743698908E-002
  -6.9013077266122311E-002   2.0723630404154959E-002   3.4403009797530991E-002
  -6.6854569945922537E-002   2.0017995281263839E-002   3.4206368881671848E-002
  -6.4696062625722708E-002   1.9335024398888151E-002   3.4174264554648649E-002
  -6.2537555305522893E-002   1.8674717757027823E-002   3.4306696816461417E-002
  -6.0379047985323064E-002   1.8037075355682899E-002   3.4603665667110373E-002
  -7.5015711581013556E-002   2.2670825765765346E-002   2.9037259950516758E-002
  -7.2704467858108815E-002   2.1844122751806916E-002   2.8980263607281259E-002
  -7.0393224135204074E-002   2.1064351743381976E-002   2.9064203480619652E-002
  -6.8081980412299362E-002   2.0331512740490436E-002   2.9289079570531840E-002
  -6.5770736689394593E-002   1.9645605743132399E-002   2.9654891877017808E-002
  -4.4070510993019313E-002   1.3211484193334344E-002   4.9233202756363725E-002
  -4.2360998974746794E-002   1.2695197415415416E-002   4.8869403421230251E-002
  -4.0651486956474289E-002   1.2182173362808871E-002   4.8686801429410592E-002
  -3.8941974938201791E-002   1.1672412035514629E-002   4.8685396780904930E-002
  -3.7232462919929266E-002   1.1165913433532626E-002   4.8865189475713222E-002
  -4.9528935137135424E-002   1.4820014580783858E-002   4.4392821106783359E-002
  -4.7633916059378979E-002   1.4265329313606412E-002   4.4056571584059151E-002
  -4.5738896981622569E-002   1.3709371220232081E-002   4.3910138836988882E-002
  -4.3843877903866096E-002   1.3152140300661211E-002   4.3953522865572608E-002
  -4.1948858826109645E-002   1.2593636554893761E-002   4.4186723669810163E-002
  -5.4965114134570094E-002   1.6428544968233344E-002   3.9516308743698908E-002
  -5.2875968564989682E-002   1.5835461211797380E-002   3.9203073481875045E-002
  -5.0786822995409334E-002   1.5236569077655561E-002   3.9088274428045126E-002
  -4.8697677425828985E-002   1.4631868565808013E-002   3.9171911582209035E-002
  -4.6608531856248567E-002   1.4021359676254702E-002   3.9453984944366915E-002
  -6.0379047985323064E-002   1.8037075355682899E-002   3.4603665667110373E-002
  -5.8087156491578813E-002   1.7405593109988307E-002   3.4308909114677780E-002
  -5.5795264997834576E-002   1.6763766935078767E-002   3.4221208202579033E-002
  -5.3503373504090304E-002   1.6111596830954675E-002   3.4340562930814292E-002
  -5.1211482010346032E-002   1.5449082797615796E-002   3.4666973299383376E-002
  -6.5770736689394593E-002   1.9645605743132399E-002   2.9654891877017808E-002
  -6.3267479839146448E-002   1.8975725008179317E-002   2.9374078482467481E-002
  -6.0764222988898303E-002   1.8290964792502210E-002   2.9308940160591074E-002
  -5.8260966138650186E-002   1.7591325096101441E-002   2.9459476911388435E-002
  -5.5757709288402041E-002   1.6876805918976723E-002   2.9825688734859690E-002
  -3.7232462919929266E-002   1.1165913433532626E-002   4.8865189475713222E-002
  -3.5862990186698154E-002   1.0653399469725072E-002   4.8569254860067579E-002
  -3.4493517453467085E-002   1.0125592056953986E-002   4.8374901768213130E-002
  -3.3124044720235973E-002   9.5824911952190686E-003   4.8282130200149986E-002
  -3.1754571987004904E-002   9.0240968845210490E-003   4.8290940155878037E-002
  -4.1948858826109645E-002   1.2593636554893761E-002   4.4186723669810163E-002
  -4.0462493212166141E-002   1.2028585462588615E-002   4.3949265629206313E-002
  -3.8976127598222596E-002   1.1451712503405709E-002   4.3844011826236137E-002
  -3.7489761984279071E-002   1.0863017677344627E-002   4.3870962260899725E-002
  -3.6003396370335547E-002   1.0262500984405509E-002   4.4030116933196695E-002
  -4.6608531856248567E-002   1.4021359676254702E-002   3.9453984944366915E-002
  -4.4974650647750219E-002   1.3403771455452226E-002   3.9278475060890453E-002
  -4.3340769439251824E-002   1.2777832949857418E-002   3.9265792128890101E-002
  -4.1706888230753442E-002   1.2143544159469905E-002   3.9415936148365666E-002
  -4.0073007022255018E-002   1.1500905084290053E-002   3.9728907119317383E-002
  -5.1211482010346032E-002   1.5449082797615796E-002   3.4666973299383376E-002
  -4.9399462493450438E-002   1.4778957448315914E-002   3.4556883155119837E-002
  -4.7587442976554824E-002   1.4103953396309134E-002   3.4640242676174784E-002
  -4.5775423459659188E-002   1.3424070641595212E-002   3.4917051862548253E-002
  -4.3963403942763560E-002   1.2739309184174610E-002   3.5387310714239964E-002
  -5.5757709288402041E-002   1.6876805918976723E-002   2.9825688734859690E-002
  -5.3736928749266749E-002   1.6154143441179381E-002   2.9784489911894640E-002
  -5.1716148210131513E-002   1.5430073842760794E-002   2.9967363468090535E-002
  -4.9695367670996249E-002   1.4704597123720534E-002   3.0374309403447139E-002
  -4.7674587131860985E-002   1.3977713284059112E-002   3.1005327717964659E-002
  -3.1754571987004904E-002   9.0240968845210490E-003   4.8290940155878037E-002
  -2.9708787483463450E-002   8.4568015916117734E-003   4.7437798484063931E-002
  -2.7663002979922025E-002   7.8869977832441568E-003   4.6706333492865265E-002
  -2.5617218476380620E-002   7.3146854594180084E-003   4.6096545182281970E-002
  -2.3571433972839173E-002   6.7398646201335399E-003   4.5608433552313921E-002
  -3.6003396370335547E-002   1.0262500984405509E-002   4.4030116933196695E-002
  -3.3822312314113492E-002   9.6527320615268086E-003   4.3365216310629257E-002
  -3.1641228257891472E-002   9.0362805456472017E-003   4.2849238112807608E-002
  -2.9460144201669435E-002   8.4131464367662445E-003   4.2482182339731667E-002
  -2.7279060145447398E-002   7.7833297348842700E-003   4.2264048991402015E-002
  -4.0073007022255018E-002   1.1500905084290053E-002   3.9728907119317383E-002
  -3.7729377669221964E-002   1.0848662531442010E-002   3.9248073468453826E-002
  -3.5385748316188917E-002   1.0185563308050129E-002   3.8943407986466429E-002
  -3.3042118963155807E-002   9.5116074141144234E-003   3.8814910673355532E-002
  -3.0698489610122767E-002   8.8267948496350002E-003   3.8862581529120754E-002
  -4.3963403942763560E-002   1.2739309184174610E-002   3.5387310714239964E-002
  -4.1429983548788921E-002   1.2044593001357073E-002   3.5086369957537458E-002
  -3.8896563154814261E-002   1.1334846070453226E-002   3.4988843113841768E-002
  -3.6363142760839580E-002   1.0610068391462574E-002   3.5094730183152754E-002
  -3.3829722366864962E-002   9.8702599643857303E-003   3.5404031165470778E-002
  -4.7674587131860985E-002   1.3977713284059112E-002   3.1005327717964659E-002
  -4.4924129952814307E-002   1.3240523471272359E-002   3.0880105777880640E-002
  -4.2173672773767670E-002   1.2484128832856309E-002   3.0985543494933848E-002
  -3.9423215594721027E-002   1.1708529368810863E-002   3.1321640869124520E-002
  -3.6672758415674300E-002   1.0913725079136460E-002   3.1888397900452059E-002
  -9.0361235246587873E-002   0.0000000000000000        4.9841295327178410E-002
  -9.3961431904384218E-002   5.4047088872838395E-003   5.3216574554124096E-002
  -9.7561628562180536E-002   1.0671722250637596E-002   5.4973206795933025E-002
 -0.10116182521997688        1.5801040090061291E-002   5.5111192052605201E-002
 -0.10476202187777321        2.0792662405554902E-002   5.3630530324140585E-002
 -0.10329199128684334        0.0000000000000000        5.8669583227837288E-002
 -0.10682915955760769        1.0884645722190934E-002   5.2125482353129325E-002
 -0.11036632782837200        1.9172544584625979E-002   4.7326085237622134E-002
 -0.11390349609913637        2.4863696587305133E-002   4.4271391881315708E-002
 -0.11744066436990068        2.7958101730228401E-002   4.2961402284210033E-002
 -0.12645658160907824        0.0000000000000000        7.4207333631316166E-002
 -0.12656737074847305        1.6364582557098026E-002   5.5284801319128753E-002
 -0.12667815988786785        2.7673366918614363E-002   4.1470323510479606E-002
 -0.12678894902726268        3.3926353084548971E-002   3.2763900205368776E-002
 -0.12689973816665748        3.5123541054901918E-002   2.9165531403796220E-002
 -0.15985500621329254        0.0000000000000000        9.6454546537615024E-002
 -0.15317606547698029        2.1844519392005112E-002   6.2694531452122351E-002
 -0.14649712474066803        3.6174189252602726E-002   3.7405921614505497E-002
 -0.13981818400435581        4.2989009581792838E-002   2.0588717024764468E-002
 -0.13313924326804358        4.2288980379575423E-002   1.2242917682899193E-002
 -0.20348726509948628        0.0000000000000000       0.12541122194673390     
 -0.18665524374312947        2.7324456226912215E-002   7.4354672752110162E-002
 -0.16982322238677267        4.4675011586591123E-002   3.5132879549699736E-002
 -0.15299120103041586        5.2051666079036669E-002   7.7458423395026371E-003
 -0.13615917967405905        4.9454419704248923E-002  -7.8064388784810854E-003
 -0.10476202187777321        2.0792662405554902E-002   5.3630530324140585E-002
 -0.10210807727483692        2.4934186911912022E-002   4.5652981452785096E-002
  -9.9454132671900675E-002   2.7513211323926277E-002   3.9366705580441280E-002
  -9.6800188068964413E-002   2.8529735641597657E-002   3.4771702707109171E-002
  -9.4146243466028151E-002   2.7983759864926169E-002   3.1867972832788680E-002
 -0.11744066436990068        2.7958101730228401E-002   4.2961402284210033E-002
 -0.11348368965932246        2.9430352849926560E-002   3.6710148576336886E-002
 -0.10952671494874427        3.0255042782930428E-002   3.1373682084735940E-002
 -0.10556974023816607        3.0432171529239983E-002   2.6952002809407218E-002
 -0.10161276552758783        2.9961739088855202E-002   2.3445110750350710E-002
 -0.12689973816665748        3.5123541054901918E-002   2.9165531403796220E-002
 -0.12241621913117678        3.3926518787941118E-002   2.5555511767054003E-002
 -0.11793270009569611        3.2996874241934593E-002   2.2083793563844472E-002
 -0.11344918106021544        3.2334607416882287E-002   1.8750376794167769E-002
 -0.10896566202473473        3.1939718312784242E-002   1.5555261458023696E-002
 -0.13313924326804358        4.2288980379575423E-002   1.2242917682899193E-002
 -0.12890566569039993        3.8422684725955697E-002   1.2189071024936479E-002
 -0.12467208811275624        3.5738705700938726E-002   1.1497040017766861E-002
 -0.12043851053511256        3.4237043304524623E-002   1.0166824661390740E-002
 -0.11620493295746882        3.3917697536713295E-002   8.1984249558077101E-003
 -0.13615917967405905        4.9454419704248923E-002  -7.8064388784810854E-003
 -0.13295202933699182        4.2918850663970207E-002  -3.3891736500158420E-003
 -0.12974487899992460        3.8480537159942860E-002  -3.8657855349678687E-004
 -0.12653772866285740        3.6139479192166944E-002   1.2013464110760788E-003
 -0.12333057832579017        3.5895676760642287E-002   1.3746012437026445E-003
  -9.4146243466028151E-002   2.7983759864926169E-002   3.1867972832788680E-002
  -9.1760499783335503E-002   2.6792495256000380E-002   3.1306654727924474E-002
  -8.9374756100642869E-002   2.5873153076908708E-002   3.0827186470168494E-002
  -8.6989012417950221E-002   2.5225733327651295E-002   3.0429568059520632E-002
  -8.4603268735257600E-002   2.4850236008227999E-002   3.0113799495980920E-002
 -0.10161276552758783        2.9961739088855202E-002   2.3445110750350710E-002
  -9.9130782992098709E-002   2.9192387860489999E-002   2.3172630235871454E-002
  -9.6648800456609618E-002   2.8472760242858271E-002   2.3010777579877083E-002
  -9.4166817921120499E-002   2.7802856235959995E-002   2.2959552782367415E-002
  -9.1684835385631394E-002   2.7182675839795167E-002   2.3018955843342639E-002
 -0.10896566202473473        3.1939718312784242E-002   1.5555261458023696E-002
 -0.10635866262507250        3.1592280464979708E-002   1.5349419714828710E-002
 -0.10375166322541028        3.1072367408807935E-002   1.5282983841495153E-002
 -0.10114466382574804        3.0379979144268779E-002   1.5355953838022986E-002
  -9.8537664426085803E-002   2.9515115671362391E-002   1.5568329704412402E-002
 -0.11620493295746882        3.3917697536713295E-002   8.1984249558077101E-003
 -0.11344413868225686        3.3992173069469299E-002   7.8370231647961440E-003
 -0.11068334440704483        3.3671974574757416E-002   7.6438052550228657E-003
 -0.10792255013183283        3.2957102052577507E-002   7.6187712264873444E-003
 -0.10516175585662083        3.1847555502929475E-002   7.7619210791903155E-003
 -0.12333057832579017        3.5895676760642287E-002   1.3746012437026445E-003
 -0.12038721116365170        3.6392065673959043E-002   6.3544058577391649E-004
 -0.11744384400151327        3.6271581740707097E-002   9.3241820459999403E-005
 -0.11450047683937484        3.5534224960886235E-002  -2.5199505223949537E-004
 -0.11155710967723637        3.4179995334496782E-002  -4.0027003232384617E-004
  -8.4603268735257600E-002   2.4850236008227999E-002   3.0113799495980920E-002
  -8.2206379446696565E-002   2.4534370789694449E-002   2.9375305437749619E-002
  -7.9809490158135571E-002   2.4065847343106156E-002   2.8949717494095153E-002
  -7.7412600869574563E-002   2.3444665668463045E-002   2.8837035665017503E-002
  -7.5015711581013556E-002   2.2670825765765346E-002   2.9037259950516758E-002
  -9.1684835385631394E-002   2.7182675839795167E-002   2.3018955843342639E-002
  -8.9011099717315328E-002   2.6562480431282544E-002   2.2371933728466999E-002
  -8.6337364048999277E-002   2.5892531387341010E-002   2.1965698258524569E-002
  -8.3663628380683183E-002   2.5172828707970434E-002   2.1800249433515356E-002
  -8.0989892712367173E-002   2.4403372393170891E-002   2.1875587253439410E-002
  -9.8537664426085803E-002   2.9515115671362391E-002   1.5568329704412402E-002
  -9.5659201847658318E-002   2.8590590072870736E-002   1.5115684125518183E-002
  -9.2780739269230819E-002   2.7719215431575808E-002   1.4831705721913564E-002
  -8.9902276690803390E-002   2.6900991747477791E-002   1.4716394493598611E-002
  -8.7023814112375864E-002   2.6135919020576465E-002   1.4769750440573146E-002
 -0.10516175585662083        3.1847555502929475E-002   7.7619210791903155E-003
 -0.10215068583772559        3.0618699714458783E-002   7.6065566289032546E-003
  -9.9139615818830323E-002   2.9545899475810829E-002   7.5477398842623208E-003
  -9.6128545799935045E-002   2.8629154786984967E-002   7.5854708452673253E-003
  -9.3117475781039821E-002   2.7868465647981941E-002   7.7197495119181204E-003
 -0.11155710967723637        3.4179995334496782E-002  -4.0027003232384617E-004
 -0.10848555168751700        3.2646809356047080E-002  -1.5544876137774111E-004
 -0.10541399369779764        3.1372583520045405E-002   1.1380074557039432E-004
 -0.10234243570807824        3.0357317826492383E-002   4.0747848852092441E-004
  -9.9270877718358908E-002   2.9601012275387584E-002   7.2558446747417182E-004
  -7.5015711581013556E-002   2.2670825765765346E-002   2.9037259950516758E-002
  -7.2704467858108815E-002   2.1844122751806916E-002   2.8980263607281259E-002
  -7.0393224135204074E-002   2.1064351743381976E-002   2.9064203480619652E-002
  -6.8081980412299362E-002   2.0331512740490436E-002   2.9289079570531840E-002
  -6.5770736689394593E-002   1.9645605743132399E-002   2.9654891877017808E-002
  -8.0989892712367173E-002   2.4403372393170891E-002   2.1875587253439410E-002
  -7.8534645942038780E-002   2.3612886566485775E-002   2.1789230780994318E-002
  -7.6079399171710388E-002   2.2830095351458669E-002   2.1849944186822609E-002
  -7.3624152401382051E-002   2.2054998748089256E-002   2.2057727470924278E-002
  -7.1168905631053658E-002   2.1287596756377980E-002   2.2412580633299511E-002
  -8.7023814112375864E-002   2.6135919020576465E-002   1.4769750440573146E-002
  -8.4418430632924299E-002   2.5381650381164578E-002   1.4614796445042919E-002
  -8.1813047153472679E-002   2.4595838959535085E-002   1.4613045989485630E-002
  -7.9207663674021073E-002   2.3778484755688136E-002   1.4764499073901441E-002
  -7.6602280194569439E-002   2.2929587769623477E-002   1.5069155698290163E-002
  -9.3117475781039821E-002   2.7868465647981941E-002   7.7197495119181204E-003
  -9.0355821930765315E-002   2.7150414195843575E-002   7.4569605994270986E-003
  -8.7594168080490878E-002   2.6361582567611778E-002   7.3535088886085564E-003
  -8.4832514230216371E-002   2.5501970763287043E-002   7.4093943794628445E-003
  -8.2070860379941948E-002   2.4571578782869100E-002   7.6246170719897234E-003
  -9.9270877718358908E-002   2.9601012275387584E-002   7.2558446747417182E-004
  -9.6346819835561925E-002   2.8919178010522267E-002   3.1572324414660957E-004
  -9.3422761952764971E-002   2.8127326175688472E-002   7.1332884191560586E-005
  -9.0498704069968003E-002   2.7225456770885864E-002  -7.5866123913984063E-006
  -8.7574646187171035E-002   2.6213569796114555E-002   7.8964754398169745E-005
  -6.5770736689394593E-002   1.9645605743132399E-002   2.9654891877017808E-002
  -6.3267479839146448E-002   1.8975725008179317E-002   2.9374078482467481E-002
  -6.0764222988898303E-002   1.8290964792502210E-002   2.9308940160591074E-002
  -5.8260966138650186E-002   1.7591325096101441E-002   2.9459476911388435E-002
  -5.5757709288402041E-002   1.6876805918976723E-002   2.9825688734859690E-002
  -7.1168905631053658E-002   2.1287596756377980E-002   2.2412580633299511E-002
  -6.8451421546710634E-002   2.0526007966636062E-002   2.2089639934092159E-002
  -6.5733937462367623E-002   1.9768350969175258E-002   2.1979478630400728E-002
  -6.3016453378024556E-002   1.9014625763995548E-002   2.2082096722225192E-002
  -6.0298969293681601E-002   1.8264832351096882E-002   2.2397494209565494E-002
  -7.6602280194569439E-002   2.2929587769623477E-002   1.5069155698290163E-002
  -7.3673464553289533E-002   2.2076290925092820E-002   1.4722898967430703E-002
  -7.0744648912009545E-002   2.1245737145848410E-002   1.4586525954929083E-002
  -6.7815833270729597E-002   2.0437926431889707E-002   1.4660036660785487E-002
  -6.4887017629449664E-002   1.9652858783217181E-002   1.4943431084999625E-002
  -8.2070860379941948E-002   2.4571578782869100E-002   7.6246170719897234E-003
  -7.8933608858883050E-002   2.3626573883549849E-002   7.2738555824829187E-003
  -7.5796357337824111E-002   2.2723123322521372E-002   7.1300821341759146E-003
  -7.2659105816765227E-002   2.1861227099784174E-002   7.1932967270692373E-003
  -6.9521854295706315E-002   2.1040885215337465E-002   7.4634993611623450E-003
  -8.7574646187171035E-002   2.6213569796114555E-002   7.8964754398169745E-005
  -8.4231854463491240E-002   2.5176856842006434E-002  -2.5749022075099992E-004
  -8.0889062739811335E-002   2.4200509499194778E-002  -3.8985283185832831E-004
  -7.7546271016131457E-002   2.3284527767678073E-002  -3.1812307892326031E-004
  -7.4203479292451635E-002   2.2428911647457639E-002  -4.2300961946795113E-005
  -5.5757709288402041E-002   1.6876805918976723E-002   2.9825688734859690E-002
  -5.3736928749266749E-002   1.6154143441179381E-002   2.9784489911894640E-002
  -5.1716148210131513E-002   1.5430073842760794E-002   2.9967363468090535E-002
  -4.9695367670996249E-002   1.4704597123720534E-002   3.0374309403447139E-002
  -4.7674587131860985E-002   1.3977713284059112E-002   3.1005327717964659E-002
  -6.0298969293681601E-002   1.8264832351096882E-002   2.2397494209565494E-002
  -5.8078013036236872E-002   1.7511170455067615E-002   2.2279072455678339E-002
  -5.5857056778792262E-002   1.6745839800495751E-002   2.2336929759249308E-002
  -5.3636100521347638E-002   1.5968840387381205E-002   2.2571066120278122E-002
  -5.1415144263902923E-002   1.5180172215724264E-002   2.2981481538765058E-002
  -6.4887017629449664E-002   1.9652858783217181E-002   1.4943431084999625E-002
  -6.2513678975398529E-002   1.8868197468955628E-002   1.4737524762269347E-002
  -6.0140340321347317E-002   1.8061605758230653E-002   1.4660104175294446E-002
  -5.7767001667296175E-002   1.7233083651041821E-002   1.4711169324074166E-002
  -5.5393663013245005E-002   1.6382631147389387E-002   1.4890720208609196E-002
  -6.9521854295706315E-002   2.1040885215337465E-002   7.4634993611623450E-003
  -6.7043926566751538E-002   2.0225224482843807E-002   7.1598468316678258E-003
  -6.4565998837796734E-002   1.9377371715965583E-002   6.9368867162256757E-003
  -6.2088071108841937E-002   1.8497326914702409E-002   6.7946190148356067E-003
  -5.9610143379887189E-002   1.7585090079054469E-002   6.7330437274977194E-003
  -7.4203479292451635E-002   2.2428911647457639E-002  -4.2300961946795113E-005
  -7.1668755810296081E-002   2.1582251496732041E-002  -4.5396133612662926E-004
  -6.9134032328140527E-002   2.0693137673700512E-002  -8.3272261795680480E-004
  -6.6599308845985028E-002   1.9761570178362831E-002  -1.1785848074379462E-003
  -6.4064585363829418E-002   1.8787549010719662E-002  -1.4915479045697344E-003
  -4.7674587131860985E-002   1.3977713284059112E-002   3.1005327717964659E-002
  -4.4924129952814307E-002   1.3240523471272359E-002   3.0880105777880640E-002
  -4.2173672773767670E-002   1.2484128832856309E-002   3.0985543494933848E-002
  -3.9423215594721027E-002   1.1708529368810863E-002   3.1321640869124520E-002
  -3.6672758415674300E-002   1.0913725079136460E-002   3.1888397900452059E-002
  -5.1415144263902923E-002   1.5180172215724264E-002   2.2981481538765058E-002
  -4.8443365237698502E-002   1.4390674936364284E-002   2.2604363030155256E-002
  -4.5471586211493914E-002   1.3611188200141580E-002   2.2439228558724045E-002
  -4.2499807185289444E-002   1.2841712007055684E-002   2.2486078124470982E-002
  -3.9528028159084960E-002   1.2082246357106641E-002   2.2744911727396566E-002
  -5.5393663013245005E-002   1.6382631147389387E-002   1.4890720208609196E-002
  -5.2219237759841511E-002   1.5540826401456542E-002   1.4290920500240098E-002
  -4.9044812506438093E-002   1.4738247567427136E-002   1.3884429209090519E-002
  -4.5870387253034654E-002   1.3974894645300563E-002   1.3671246335160345E-002
  -4.2695961999631160E-002   1.3250767635077154E-002   1.3651371878449725E-002
  -5.9610143379887189E-002   1.7585090079054469E-002   6.7330437274977194E-003
  -5.6251747519243590E-002   1.6690977866548634E-002   5.9397781881350802E-003
  -5.2893351658600041E-002   1.5865306934712439E-002   5.3211454460333190E-003
  -4.9534955797956540E-002   1.5108077283545469E-002   4.8771455011920256E-003
  -4.6176559937312907E-002   1.4419288913047390E-002   4.6077783536112304E-003
  -6.4064585363829418E-002   1.8787549010719662E-002  -1.4915479045697344E-003
  -6.0540894515904720E-002   1.7841129331640948E-002  -2.4490639061596209E-003
  -5.7017203667979854E-002   1.6992366301997852E-002  -3.2506227304476276E-003
  -5.3493512820055239E-002   1.6241259921790402E-002  -3.8962243774337546E-003
  -4.9969821972130291E-002   1.5587810191017848E-002  -4.3858688471181129E-003
 </DataArray>
 </PointData>
 </Piece>
 <Piece  NumberOfPoints="          1600 "  NumberOfCells="         1024 ">
 <Points>
 <DataArray  type="Float64" NumberOfComponents="3"  format="ascii" >
  0.50000000000000000        0.0000000000000000        0.0000000000000000     
  0.53125000000000000        0.0000000000000000        0.0000000000000000     
  0.56250000000000000        0.0000000000000000        0.0000000000000000     
  0.59375000000000000        0.0000000000000000        0.0000000000000000     
  0.62500000000000000        0.0000000000000000        0.0000000000000000     
  0.50000000000000000        3.1250000000000000E-002   0.0000000000000000     
  0.53125000000000000        3.1250000000000000E-002   0.0000000000000000     
  0.56250000000000000        3.1250000000000000E-002   0.0000000000000000     
  0.59375000000000000        3.1250000000000000E-002   0.0000000000000000     
  0.62500000000000000        3.1250000000000000E-002   0.0000000000000000     
  0.50000000000000000        6.2500000000000000E-002   0.0000000000000000     
  0.53125000000000000        6.2500000000000000E-002   0.0000000000000000     
  0.56250000000000000        6.2500000000000000E-002   0.0000000000000000     
  0.59375000000000000        6.2500000000000000E-002   0.0000000000000000     
  0.62500000000000000        6.2500000000000000E-002   0.0000000000000000     
  0.50000000000000000        9.3750000000000000E-002   0.0000000000000000     
  0.53125000000000000        9.3750000000000000E-002   0.0000000000000000     
  0.56250000000000000        9.3750000000000000E-002   0.0000000000000000     
  0.59375000000000000        9.3750000000000000E-002   0.0000000000000000     
  0.62500000000000000        9.3750000000000000E-002   0.0000000000000000     
  0.50000000000000000       0.12500000000000000        0.0000000000000000     
  0.53125000000000000       0.12500000000000000        0.0000000000000000     
  0.56250000000000000       0.12500000000000000        0.0000000000000000     
  0.59375000000000000       0.12500000000000000        0.0000000000000000     
  0.62500000000000000       0.12500000000000000        0.0000000000000000     
  0.62500000000000000        0.0000000000000000        0.0000000000000000     
  0.65625000000000000        0.0000000000000000        0.0000000000000000     
  0.68750000000000000        0.0000000000000000        0.0000000000000000     
  0.71875000000000000        0.0000000000000000        0.0000000000000000     
  0.75000000000000000        0.0000000000000000        0.0000000000000000     
  0.62500000000000000        3.1250000000000000E-002   0.0000000000000000     
  0.65625000000000000        3.1250000000000000E-002   0.0000000000000000     
  0.68750000000000000        3.1250000000000000E-002   0.0000000000000000     
  0.71875000000000000        3.1250000000000000E-002   0.0000000000000000     
  0.75000000000000000        3.1250000000000000E-002   0.0000000000000000     
  0.62500000000000000        6.2500000000000000E-002   0.0000000000000000     
  0.65625000000000000        6.2500000000000000E-002   0.0000000000000000     
  0.68750000000000000        6.2500000000000000E-002   0.0000000000000000     
  0.71875000000000000        6.2500000000000000E-002   0.0000000000000000     
  0.75000000000000000        6.2500000000000000E-002   0.0000000000000000     
  0.62500000000000000        9.3750000000000000E-002   0.0000000000000000     
  0.65625000000000000        9.3750000000000000E-002   0.0000000000000000     
  0.68750000000000000        9.3750000000000000E-002   0.0000000000000000     
  0.71875000000000000        9.3750000000000000E-002   0.0000000000000000     
  0.75000000000000000        9.3750000000000000E-002   0.0000000000000000     
  0.62500000000000000       0.12500000000000000        0.0000000000000000     
  0.65625000000000000       0.12500000000000000        0.0000000000000000     
  0.68750000000000000       0.12500000000000000        0.0000000000000000     
  0.71875000000000000       0.12500000000000000        0.0000000000000000     
  0.75000000000000000       0.12500000000000000        0.0000000000000000     
  0.75000000000000000        0.0000000000000000        0.0000000000000000     
  0.78125000000000000        0.0000000000000000        0.0000000000000000     
  0.81250000000000000        0.0000000000000000        0.0000000000000000     
  0.84375000000000000        0.0000000000000000        0.0000000000000000     
  0.87500000000000000        0.0000000000000000        0.0000000000000000     
  0.75000000000000000        3.1250000000000000E-002   0.0000000000000000     
  0.78125000000000000        3.1250000000000000E-002   0.0000000000000000     
  0.81250000000000000        3.1250000000000000E-002   0.0000000000000000     
  0.84375000000000000        3.1250000000000000E-002   0.0000000000000000     
  0.87500000000000000        3.1250000000000000E-002   0.0000000000000000     
  0.75000000000000000        6.2500000000000000E-002   0.0000000000000000     
  0.78125000000000000        6.2500000000000000E-002   0.0000000000000000     
  0.81250000000000000        6.2500000000000000E-002   0.0000000000000000     
  0.84375000000000000        6.2500000000000000E-002   0.0000000000000000     
  0.87500000000000000        6.2500000000000000E-002   0.0000000000000000     
  0.75000000000000000        9.3750000000000000E-002   0.0000000000000000     
  0.78125000000000000        9.3750000000000000E-002   0.0000000000000000     
  0.81250000000000000        9.3750000000000000E-002   0.0000000000000000     
  0.84375000000000000        9.3750000000000000E-002   0.0000000000000000     
  0.87500000000000000        9.3750000000000000E-002   0.0000000000000000     
  0.75000000000000000       0.12500000000000000        0.0000000000000000     
  0.78125000000000000       0.12500000000000000        0.0000000000000000     
  0.81250000000000000       0.12500000000000000        0.0000000000000000     
  0.84375000000000000       0.12500000000000000        0.0000000000000000     
  0.87500000000000000       0.12500000000000000        0.0000000000000000     
  0.87500000000000000        0.0000000000000000        0.0000000000000000     
  0.90625000000000000        0.0000000000000000        0.0000000000000000     
  0.93750000000000000        0.0000000000000000        0.0000000000000000     
  0.96875000000000000        0.0000000000000000        0.0000000000000000     
   1.0000000000000000        0.0000000000000000        0.0000000000000000     
  0.87500000000000000        3.1250000000000000E-002   0.0000000000000000     
  0.90625000000000000        3.1250000000000000E-002   0.0000000000000000     
  0.93750000000000000        3.1250000000000000E-002   0.0000000000000000     
  0.96875000000000000        3.1250000000000000E-002   0.0000000000000000     
   1.0000000000000000        3.1250000000000000E-002   0.0000000000000000     
  0.87500000000000000        6.2500000000000000E-002   0.0000000000000000     
  0.90625000000000000        6.2500000000000000E-002   0.0000000000000000     
  0.93750000000000000        6.2500000000000000E-002   0.0000000000000000     
  0.96875000000000000        6.2500000000000000E-002   0.0000000000000000     
   1.0000000000000000        6.2500000000000000E-002   0.0000000000000000     
  0.87500000000000000        9.3750000000000000E-002   0.0000000000000000     
  0.90625000000000000        9.3750000000000000E-002   0.0000000000000000     
  0.93750000000000000        9.3750000000000000E-002   0.0000000000000000     
  0.96875000000000000        9.3750000000000000E-002   0.0000000000000000     
   1.0000000000000000        9.3750000000000000E-002   0.0000000000000000     
  0.87500000000000000       0.12500000000000000        0.0000000000000000     
  0.90625000000000000       0.12500000000000000        0.0000000000000000     
  0.93750000000000000       0.12500000000000000        0.0000000000000000     
  0.96875000000000000       0.12500000000000000        0.0000000000000000     
   1.0000000000000000       0.12500000000000000        0.0000000000000000     
   1.0000000000000000        0.0000000000000000        0.0000000000000000     
   1.0312500000000000        0.0000000000000000        0.0000000000000000     
   1.0625000000000000        0.0000000000000000        0.0000000000000000     
   1.0937500000000000        0.0000000000000000        0.0000000000000000     
   1.1250000000000000        0.0000000000000000        0.0000000000000000     
   1.0000000000000000        3.1250000000000000E-002   0.0000000000000000     
   1.0312500000000000        3.1250000000000000E-002   0.0000000000000000     
   1.0625000000000000        3.1250000000000000E-002   0.0000000000000000     
   1.0937500000000000        3.1250000000000000E-002   0.0000000000000000     
   1.1250000000000000        3.1250000000000000E-002   0.0000000000000000     
   1.0000000000000000        6.2500000000000000E-002   0.0000000000000000     
   1.0312500000000000        6.2500000000000000E-002   0.0000000000000000     
   1.0625000000000000        6.2500000000000000E-002   0.0000000000000000     
   1.0937500000000000        6.2500000000000000E-002   0.0000000000000000     
   1.1250000000000000        6.2500000000000000E-002   0.0000000000000000     
   1.0000000000000000        9.3750000000000000E-002   0.0000000000000000     
   1.0312500000000000        9.3750000000000000E-002   0.0000000000000000     
   1.0625000000000000        9.3750000000000000E-002   0.0000000000000000     
   1.0937500000000000        9.3750000000000000E-002   0.0000000000000000     
   1.1250000000000000        9.3750000000000000E-002   0.0000000000000000     
   1.0000000000000000       0.12500000000000000        0.0000000000000000     
   1.0312500000000000       0.12500000000000000        0.0000000000000000     
   1.0625000000000000       0.12500000000000000        0.0000000000000000     
   1.0937500000000000       0.12500000000000000        0.0000000000000000     
   1.1250000000000000       0.12500000000000000        0.0000000000000000     
   1.1250000000000000        0.0000000000000000        0.0000000000000000     
   1.1562500000000000        0.0000000000000000        0.0000000000000000     
   1.1875000000000000        0.0000000000000000        0.0000000000000000     
   1.2187500000000000        0.0000000000000000        0.0000000000000000     
   1.2500000000000000        0.0000000000000000        0.0000000000000000     
   1.1250000000000000        3.1250000000000000E-002   0.0000000000000000     
   1.1562500000000000        3.1250000000000000E-002   0.0000000000000000     
   1.1875000000000000        3.1250000000000000E-002   0.0000000000000000     
   1.2187500000000000        3.1250000000000000E-002   0.0000000000000000     
   1.2500000000000000        3.1250000000000000E-002   0.0000000000000000     
   1.1250000000000000        6.2500000000000000E-002   0.0000000000000000     
   1.1562500000000000        6.2500000000000000E-002   0.0000000000000000     
   1.1875000000000000        6.2500000000000000E-002   0.0000000000000000     
   1.2187500000000000        6.2500000000000000E-002   0.0000000000000000     
   1.2500000000000000        6.2500000000000000E-002   0.0000000000000000     
   1.1250000000000000        9.3750000000000000E-002   0.0000000000000000     
   1.1562500000000000        9.3750000000000000E-002   0.0000000000000000     
   1.1875000000000000        9.3750000000000000E-002   0.0000000000000000     
   1.2187500000000000        9.3750000000000000E-002   0.0000000000000000     
   1.2500000000000000        9.3750000000000000E-002   0.0000000000000000     
   1.1250000000000000       0.12500000000000000        0.0000000000000000     
   1.1562500000000000       0.12500000000000000        0.0000000000000000     
   1.1875000000000000       0.12500000000000000        0.0000000000000000     
   1.2187500000000000       0.12500000000000000        0.0000000000000000     
   1.2500000000000000       0.12500000000000000        0.0000000000000000     
   1.2500000000000000        0.0000000000000000        0.0000000000000000     
   1.2812500000000000        0.0000000000000000        0.0000000000000000     
   1.3125000000000000        0.0000000000000000        0.0000000000000000     
   1.3437500000000000        0.0000000000000000        0.0000000000000000     
   1.3750000000000000        0.0000000000000000        0.0000000000000000     
   1.2500000000000000        3.1250000000000000E-002   0.0000000000000000     
   1.2812500000000000        3.1250000000000000E-002   0.0000000000000000     
   1.3125000000000000        3.1250000000000000E-002   0.0000000000000000     
   1.3437500000000000        3.1250000000000000E-002   0.0000000000000000     
   1.3750000000000000        3.1250000000000000E-002   0.0000000000000000     
   1.2500000000000000        6.2500000000000000E-002   0.0000000000000000     
   1.2812500000000000        6.2500000000000000E-002   0.0000000000000000     
   1.3125000000000000        6.2500000000000000E-002   0.0000000000000000     
   1.3437500000000000        6.2500000000000000E-002   0.0000000000000000     
   1.3750000000000000        6.2500000000000000E-002   0.0000000000000000     
   1.2500000000000000        9.3750000000000000E-002   0.0000000000000000     
   1.2812500000000000        9.3750000000000000E-002   0.0000000000000000     
   1.3125000000000000        9.3750000000000000E-002   0.0000000000000000     
   1.3437500000000000        9.3750000000000000E-002   0.0000000000000000     
   1.3750000000000000        9.3750000000000000E-002   0.0000000000000000     
   1.2500000000000000       0.12500000000000000        0.0000000000000000     
   1.2812500000000000       0.12500000000000000        0.0000000000000000     
   1.3125000000000000       0.12500000000000000        0.0000000000000000     
   1.3437500000000000       0.12500000000000000        0.0000000000000000     
   1.3750000000000000       0.12500000000000000        0.0000000000000000     
   1.3750000000000000        0.0000000000000000        0.0000000000000000     
   1.4062500000000000        0.0000000000000000        0.0000000000000000     
   1.4375000000000000        0.0000000000000000        0.0000000000000000     
   1.4687500000000000        0.0000000000000000        0.0000000000000000     
   1.5000000000000000        0.0000000000000000        0.0000000000000000     
   1.3750000000000000        3.1250000000000000E-002   0.0000000000000000     
   1.4062500000000000        3.1250000000000000E-002   0.0000000000000000     
   1.4375000000000000        3.1250000000000000E-002   0.0000000000000000     
   1.4687500000000000        3.1250000000000000E-002   0.0000000000000000     
   1.5000000000000000        3.1250000000000000E-002   0.0000000000000000     
   1.3750000000000000        6.2500000000000000E-002   0.0000000000000000     
   1.4062500000000000        6.2500000000000000E-002   0.0000000000000000     
   1.4375000000000000        6.2500000000000000E-002   0.0000000000000000     
   1.4687500000000000        6.2500000000000000E-002   0.0000000000000000     
   1.5000000000000000        6.2500000000000000E-002   0.0000000000000000     
   1.3750000000000000        9.3750000000000000E-002   0.0000000000000000     
   1.4062500000000000        9.3750000000000000E-002   0.0000000000000000     
   1.4375000000000000        9.3750000000000000E-002   0.0000000000000000     
   1.4687500000000000        9.3750000000000000E-002   0.0000000000000000     
   1.5000000000000000        9.3750000000000000E-002   0.0000000000000000     
   1.3750000000000000       0.12500000000000000        0.0000000000000000     
   1.4062500000000000       0.12500000000000000        0.0000000000000000     
   1.4375000000000000       0.12500000000000000        0.0000000000000000     
   1.4687500000000000       0.12500000000000000        0.0000000000000000     
   1.5000000000000000       0.12500000000000000        0.0000000000000000     
  0.50000000000000000       0.12500000000000000        0.0000000000000000     
  0.53125000000000000       0.12500000000000000        0.0000000000000000     
  0.56250000000000000       0.12500000000000000        0.0000000000000000     
  0.59375000000000000       0.12500000000000000        0.0000000000000000     
  0.62500000000000000       0.12500000000000000        0.0000000000000000     
  0.50000000000000000       0.15625000000000000        0.0000000000000000     
  0.53125000000000000       0.15625000000000000        0.0000000000000000     
  0.56250000000000000       0.15625000000000000        0.0000000000000000     
  0.59375000000000000       0.15625000000000000        0.0000000000000000     
  0.62500000000000000       0.15625000000000000        0.0000000000000000     
  0.50000000000000000       0.18750000000000000        0.0000000000000000     
  0.53125000000000000       0.18750000000000000        0.0000000000000000     
  0.56250000000000000       0.18750000000000000        0.0000000000000000     
  0.59375000000000000       0.18750000000000000        0.0000000000000000     
  0.62500000000000000       0.18750000000000000        0.0000000000000000     
  0.50000000000000000       0.21875000000000000        0.0000000000000000     
  0.53125000000000000       0.21875000000000000        0.0000000000000000     
  0.56250000000000000       0.21875000000000000        0.0000000000000000     
  0.59375000000000000       0.21875000000000000        0.0000000000000000     
  0.62500000000000000       0.21875000000000000        0.0000000000000000     
  0.50000000000000000       0.25000000000000000        0.0000000000000000     
  0.53125000000000000       0.25000000000000000        0.0000000000000000     
  0.56250000000000000       0.25000000000000000        0.0000000000000000     
  0.59375000000000000       0.25000000000000000        0.0000000000000000     
  0.62500000000000000       0.25000000000000000        0.0000000000000000     
  0.62500000000000000       0.12500000000000000        0.0000000000000000     
  0.65625000000000000       0.12500000000000000        0.0000000000000000     
  0.68750000000000000       0.12500000000000000        0.0000000000000000     
  0.71875000000000000       0.12500000000000000        0.0000000000000000     
  0.75000000000000000       0.12500000000000000        0.0000000000000000     
  0.62500000000000000       0.15625000000000000        0.0000000000000000     
  0.65625000000000000       0.15625000000000000        0.0000000000000000     
  0.68750000000000000       0.15625000000000000        0.0000000000000000     
  0.71875000000000000       0.15625000000000000        0.0000000000000000     
  0.75000000000000000       0.15625000000000000        0.0000000000000000     
  0.62500000000000000       0.18750000000000000        0.0000000000000000     
  0.65625000000000000       0.18750000000000000        0.0000000000000000     
  0.68750000000000000       0.18750000000000000        0.0000000000000000     
  0.71875000000000000       0.18750000000000000        0.0000000000000000     
  0.75000000000000000       0.18750000000000000        0.0000000000000000     
  0.62500000000000000       0.21875000000000000        0.0000000000000000     
  0.65625000000000000       0.21875000000000000        0.0000000000000000     
  0.68750000000000000       0.21875000000000000        0.0000000000000000     
  0.71875000000000000       0.21875000000000000        0.0000000000000000     
  0.75000000000000000       0.21875000000000000        0.0000000000000000     
  0.62500000000000000       0.25000000000000000        0.0000000000000000     
  0.65625000000000000       0.25000000000000000        0.0000000000000000     
  0.68750000000000000       0.25000000000000000        0.0000000000000000     
  0.71875000000000000       0.25000000000000000        0.0000000000000000     
  0.75000000000000000       0.25000000000000000        0.0000000000000000     
  0.75000000000000000       0.12500000000000000        0.0000000000000000     
  0.78125000000000000       0.12500000000000000        0.0000000000000000     
  0.81250000000000000       0.12500000000000000        0.0000000000000000     
  0.84375000000000000       0.12500000000000000        0.0000000000000000     
  0.87500000000000000       0.12500000000000000        0.0000000000000000     
  0.75000000000000000       0.15625000000000000        0.0000000000000000     
  0.78125000000000000       0.15625000000000000        0.0000000000000000     
  0.81250000000000000       0.15625000000000000        0.0000000000000000     
  0.84375000000000000       0.15625000000000000        0.0000000000000000     
  0.87500000000000000       0.15625000000000000        0.0000000000000000     
  0.75000000000000000       0.18750000000000000        0.0000000000000000     
  0.78125000000000000       0.18750000000000000        0.0000000000000000     
  0.81250000000000000       0.18750000000000000        0.0000000000000000     
  0.84375000000000000       0.18750000000000000        0.0000000000000000     
  0.87500000000000000       0.18750000000000000        0.0000000000000000     
  0.75000000000000000       0.21875000000000000        0.0000000000000000     
  0.78125000000000000       0.21875000000000000        0.0000000000000000     
  0.81250000000000000       0.21875000000000000        0.0000000000000000     
  0.84375000000000000       0.21875000000000000        0.0000000000000000     
  0.87500000000000000       0.21875000000000000        0.0000000000000000     
  0.75000000000000000       0.25000000000000000        0.0000000000000000     
  0.78125000000000000       0.25000000000000000        0.0000000000000000     
  0.81250000000000000       0.25000000000000000        0.0000000000000000     
  0.84375000000000000       0.25000000000000000        0.0000000000000000     
  0.87500000000000000       0.25000000000000000        0.0000000000000000     
  0.87500000000000000       0.12500000000000000        0.0000000000000000     
  0.90625000000000000       0.12500000000000000        0.0000000000000000     
  0.93750000000000000       0.12500000000000000        0.0000000000000000     
  0.96875000000000000       0.12500000000000000        0.0000000000000000     
   1.0000000000000000       0.12500000000000000        0.0000000000000000     
  0.87500000000000000       0.15625000000000000        0.0000000000000000     
  0.90625000000000000       0.15625000000000000        0.0000000000000000     
  0.93750000000000000       0.15625000000000000        0.0000000000000000     
  0.96875000000000000       0.15625000000000000        0.0000000000000000     
   1.0000000000000000       0.15625000000000000        0.0000000000000000     
  0.87500000000000000       0.18750000000000000        0.0000000000000000     
  0.90625000000000000       0.18750000000000000        0.0000000000000000     
  0.93750000000000000       0.18750000000000000        0.0000000000000000     
  0.96875000000000000       0.18750000000000000        0.0000000000000000     
   1.0000000000000000       0.18750000000000000        0.0000000000000000     
  0.87500000000000000       0.21875000000000000        0.0000000000000000     
  0.90625000000000000       0.21875000000000000        0.0000000000000000     
  0.93750000000000000       0.21875000000000000        0.0000000000000000     
  0.96875000000000000       0.21875000000000000        0.0000000000000000     
   1.0000000000000000       0.21875000000000000        0.0000000000000000     
  0.87500000000000000       0.25000000000000000        0.0000000000000000     
  0.90625000000000000       0.25000000000000000        0.0000000000000000     
  0.93750000000000000       0.25000000000000000        0.0000000000000000     
  0.96875000000000000       0.25000000000000000        0.0000000000000000     
   1.0000000000000000       0.25000000000000000        0.0000000000000000     
   1.0000000000000000       0.12500000000000000        0.0000000000000000     
   1.0312500000000000       0.12500000000000000        0.0000000000000000     
   1.0625000000000000       0.12500000000000000        0.0000000000000000     
   1.0937500000000000       0.12500000000000000        0.0000000000000000     
   1.1250000000000000       0.12500000000000000        0.0000000000000000     
   1.0000000000000000       0.15625000000000000        0.0000000000000000     
   1.0312500000000000       0.15625000000000000        0.0000000000000000     
   1.0625000000000000       0.15625000000000000        0.0000000000000000     
   1.0937500000000000       0.15625000000000000        0.0000000000000000     
   1.1250000000000000       0.15625000000000000        0.0000000000000000     
   1.0000000000000000       0.18750000000000000        0.0000000000000000     
   1.0312500000000000       0.18750000000000000        0.0000000000000000     
   1.0625000000000000       0.18750000000000000        0.0000000000000000     
   1.0937500000000000       0.18750000000000000        0.0000000000000000     
   1.1250000000000000       0.18750000000000000        0.0000000000000000     
   1.0000000000000000       0.21875000000000000        0.0000000000000000     
   1.0312500000000000       0.21875000000000000        0.0000000000000000     
   1.0625000000000000       0.21875000000000000        0.0000000000000000     
   1.0937500000000000       0.21875000000000000        0.0000000000000000     
   1.1250000000000000       0.21875000000000000        0.0000000000000000     
   1.0000000000000000       0.25000000000000000        0.0000000000000000     
   1.0312500000000000       0.25000000000000000        0.0000000000000000     
   1.0625000000000000       0.25000000000000000        0.0000000000000000     
   1.0937500000000000       0.25000000000000000        0.0000000000000000     
   1.1250000000000000       0.25000000000000000        0.0000000000000000     
   1.1250000000000000       0.12500000000000000        0.0000000000000000     
   1.1562500000000000       0.12500000000000000        0.0000000000000000     
   1.1875000000000000       0.12500000000000000        0.0000000000000000     
   1.2187500000000000       0.12500000000000000        0.0000000000000000     
   1.2500000000000000       0.12500000000000000        0.0000000000000000     
   1.1250000000000000       0.15625000000000000        0.0000000000000000     
   1.1562500000000000       0.15625000000000000        0.0000000000000000     
   1.1875000000000000       0.15625000000000000        0.0000000000000000     
   1.2187500000000000       0.15625000000000000        0.0000000000000000     
   1.2500000000000000       0.15625000000000000        0.0000000000000000     
   1.1250000000000000       0.18750000000000000        0.0000000000000000     
   1.1562500000000000       0.18750000000000000        0.0000000000000000     
   1.1875000000000000       0.18750000000000000        0.0000000000000000     
   1.2187500000000000       0.18750000000000000        0.0000000000000000     
   1.2500000000000000       0.18750000000000000        0.0000000000000000     
   1.1250000000000000       0.21875000000000000        0.0000000000000000     
   1.1562500000000000       0.21875000000000000        0.0000000000000000     
   1.1875000000000000       0.21875000000000000        0.0000000000000000     
   1.2187500000000000       0.21875000000000000        0.0000000000000000     
   1.2500000000000000       0.21875000000000000        0.0000000000000000     
   1.1250000000000000       0.25000000000000000        0.0000000000000000     
   1.1562500000000000       0.25000000000000000        0.0000000000000000     
   1.1875000000000000       0.25000000000000000        0.0000000000000000     
   1.2187500000000000       0.25000000000000000        0.0000000000000000     
   1.2500000000000000       0.25000000000000000        0.0000000000000000     
   1.2500000000000000       0.12500000000000000        0.0000000000000000     
   1.2812500000000000       0.12500000000000000        0.0000000000000000     
   1.3125000000000000       0.12500000000000000        0.0000000000000000     
   1.3437500000000000       0.12500000000000000        0.0000000000000000     
   1.3750000000000000       0.12500000000000000        0.0000000000000000     
   1.2500000000000000       0.15625000000000000        0.0000000000000000     
   1.2812500000000000       0.15625000000000000        0.0000000000000000     
   1.3125000000000000       0.15625000000000000        0.0000000000000000     
   1.3437500000000000       0.15625000000000000        0.0000000000000000     
   1.3750000000000000       0.15625000000000000        0.0000000000000000     
   1.2500000000000000       0.18750000000000000        0.0000000000000000     
   1.2812500000000000       0.18750000000000000        0.0000000000000000     
   1.3125000000000000       0.18750000000000000        0.0000000000000000     
   1.3437500000000000       0.18750000000000000        0.0000000000000000     
   1.3750000000000000       0.18750000000000000        0.0000000000000000     
   1.2500000000000000       0.21875000000000000        0.0000000000000000     
   1.2812500000000000       0.21875000000000000        0.0000000000000000     
   1.3125000000000000       0.21875000000000000        0.0000000000000000     
   1.3437500000000000       0.21875000000000000        0.0000000000000000     
   1.3750000000000000       0.21875000000000000        0.0000000000000000     
   1.2500000000000000       0.25000000000000000        0.0000000000000000     
   1.2812500000000000       0.25000000000000000        0.0000000000000000     
   1.3125000000000000       0.25000000000000000        0.0000000000000000     
   1.3437500000000000       0.25000000000000000        0.0000000000000000     
   1.3750000000000000       0.25000000000000000        0.0000000000000000     
   1.3750000000000000       0.12500000000000000        0.0000000000000000     
   1.4062500000000000       0.12500000000000000        0.0000000000000000     
   1.4375000000000000       0.12500000000000000        0.0000000000000000     
   1.4687500000000000       0.12500000000000000        0.0000000000000000     
   1.5000000000000000       0.12500000000000000        0.0000000000000000     
   1.3750000000000000       0.15625000000000000        0.0000000000000000     
   1.4062500000000000       0.15625000000000000        0.0000000000000000     
   1.4375000000000000       0.15625000000000000        0.0000000000000000     
   1.4687500000000000       0.15625000000000000        0.0000000000000000     
   1.5000000000000000       0.15625000000000000        0.0000000000000000     
   1.3750000000000000       0.18750000000000000        0.0000000000000000     
   1.4062500000000000       0.18750000000000000        0.0000000000000000     
   1.4375000000000000       0.18750000000000000        0.0000000000000000     
   1.4687500000000000       0.18750000000000000        0.0000000000000000     
   1.5000000000000000       0.18750000000000000        0.0000000000000000     
   1.3750000000000000       0.21875000000000000        0.0000000000000000     
   1.4062500000000000       0.21875000000000000        0.0000000000000000     
   1.4375000000000000       0.21875000000000000        0.0000000000000000     
   1.4687500000000000       0.21875000000000000        0.0000000000000000     
   1.5000000000000000       0.21875000000000000        0.0000000000000000     
   1.3750000000000000       0.25000000000000000        0.0000000000000000     
   1.4062500000000000       0.25000000000000000        0.0000000000000000     
   1.4375000000000000       0.25000000000000000        0.0000000000000000     
   1.4687500000000000       0.25000000000000000        0.0000000000000000     
   1.5000000000000000       0.25000000000000000        0.0000000000000000     
  0.50000000000000000       0.25000000000000000        0.0000000000000000     
  0.53125000000000000       0.25000000000000000        0.0000000000000000     
  0.56250000000000000       0.25000000000000000        0.0000000000000000     
  0.59375000000000000       0.25000000000000000        0.0000000000000000     
  0.62500000000000000       0.25000000000000000        0.0000000000000000     
  0.50000000000000000       0.28125000000000000        0.0000000000000000     
  0.53125000000000000       0.28125000000000000        0.0000000000000000     
  0.56250000000000000       0.28125000000000000        0.0000000000000000     
  0.59375000000000000       0.28125000000000000        0.0000000000000000     
  0.62500000000000000       0.28125000000000000        0.0000000000000000     
  0.50000000000000000       0.31250000000000000        0.0000000000000000     
  0.53125000000000000       0.31250000000000000        0.0000000000000000     
  0.56250000000000000       0.31250000000000000        0.0000000000000000     
  0.59375000000000000       0.31250000000000000        0.0000000000000000     
  0.62500000000000000       0.31250000000000000        0.0000000000000000     
  0.50000000000000000       0.34375000000000000        0.0000000000000000     
  0.53125000000000000       0.34375000000000000        0.0000000000000000     
  0.56250000000000000       0.34375000000000000        0.0000000000000000     
  0.59375000000000000       0.34375000000000000        0.0000000000000000     
  0.62500000000000000       0.34375000000000000        0.0000000000000000     
  0.50000000000000000       0.37500000000000000        0.0000000000000000     
  0.53125000000000000       0.37500000000000000        0.0000000000000000     
  0.56250000000000000       0.37500000000000000        0.0000000000000000     
  0.59375000000000000       0.37500000000000000        0.0000000000000000     
  0.62500000000000000       0.37500000000000000        0.0000000000000000     
  0.62500000000000000       0.25000000000000000        0.0000000000000000     
  0.65625000000000000       0.25000000000000000        0.0000000000000000     
  0.68750000000000000       0.25000000000000000        0.0000000000000000     
  0.71875000000000000       0.25000000000000000        0.0000000000000000     
  0.75000000000000000       0.25000000000000000        0.0000000000000000     
  0.62500000000000000       0.28125000000000000        0.0000000000000000     
  0.65625000000000000       0.28125000000000000        0.0000000000000000     
  0.68750000000000000       0.28125000000000000        0.0000000000000000     
  0.71875000000000000       0.28125000000000000        0.0000000000000000     
  0.75000000000000000       0.28125000000000000        0.0000000000000000     
  0.62500000000000000       0.31250000000000000        0.0000000000000000     
  0.65625000000000000       0.31250000000000000        0.0000000000000000     
  0.68750000000000000       0.31250000000000000        0.0000000000000000     
  0.71875000000000000       0.31250000000000000        0.0000000000000000     
  0.75000000000000000       0.31250000000000000        0.0000000000000000     
  0.62500000000000000       0.34375000000000000        0.0000000000000000     
  0.65625000000000000       0.34375000000000000        0.0000000000000000     
  0.68750000000000000       0.34375000000000000        0.0000000000000000     
  0.71875000000000000       0.34375000000000000        0.0000000000000000     
  0.75000000000000000       0.34375000000000000        0.0000000000000000     
  0.62500000000000000       0.37500000000000000        0.0000000000000000     
  0.65625000000000000       0.37500000000000000        0.0000000000000000     
  0.68750000000000000       0.37500000000000000        0.0000000000000000     
  0.71875000000000000       0.37500000000000000        0.0000000000000000     
  0.75000000000000000       0.37500000000000000        0.0000000000000000     
  0.75000000000000000       0.25000000000000000        0.0000000000000000     
  0.78125000000000000       0.25000000000000000        0.0000000000000000     
  0.81250000000000000       0.25000000000000000        0.0000000000000000     
  0.84375000000000000       0.25000000000000000        0.0000000000000000     
  0.87500000000000000       0.25000000000000000        0.0000000000000000     
  0.75000000000000000       0.28125000000000000        0.0000000000000000     
  0.78125000000000000       0.28125000000000000        0.0000000000000000     
  0.81250000000000000       0.28125000000000000        0.0000000000000000     
  0.84375000000000000       0.28125000000000000        0.0000000000000000     
  0.87500000000000000       0.28125000000000000        0.0000000000000000     
  0.75000000000000000       0.31250000000000000        0.0000000000000000     
  0.78125000000000000       0.31250000000000000        0.0000000000000000     
  0.81250000000000000       0.31250000000000000        0.0000000000000000     
  0.84375000000000000       0.31250000000000000        0.0000000000000000     
  0.87500000000000000       0.31250000000000000        0.0000000000000000     
  0.75000000000000000       0.34375000000000000        0.0000000000000000     
  0.78125000000000000       0.34375000000000000        0.0000000000000000     
  0.81250000000000000       0.34375000000000000        0.0000000000000000     
  0.84375000000000000       0.34375000000000000        0.0000000000000000     
  0.87500000000000000       0.34375000000000000        0.0000000000000000     
  0.75000000000000000       0.37500000000000000        0.0000000000000000     
  0.78125000000000000       0.37500000000000000        0.0000000000000000     
  0.81250000000000000       0.37500000000000000        0.0000000000000000     
  0.84375000000000000       0.37500000000000000        0.0000000000000000     
  0.87500000000000000       0.37500000000000000        0.0000000000000000     
  0.87500000000000000       0.25000000000000000        0.0000000000000000     
  0.90625000000000000       0.25000000000000000        0.0000000000000000     
  0.93750000000000000       0.25000000000000000        0.0000000000000000     
  0.96875000000000000       0.25000000000000000        0.0000000000000000     
   1.0000000000000000       0.25000000000000000        0.0000000000000000     
  0.87500000000000000       0.28125000000000000        0.0000000000000000     
  0.90625000000000000       0.28125000000000000        0.0000000000000000     
  0.93750000000000000       0.28125000000000000        0.0000000000000000     
  0.96875000000000000       0.28125000000000000        0.0000000000000000     
   1.0000000000000000       0.28125000000000000        0.0000000000000000     
  0.87500000000000000       0.31250000000000000        0.0000000000000000     
  0.90625000000000000       0.31250000000000000        0.0000000000000000     
  0.93750000000000000       0.31250000000000000        0.0000000000000000     
  0.96875000000000000       0.31250000000000000        0.0000000000000000     
   1.0000000000000000       0.31250000000000000        0.0000000000000000     
  0.87500000000000000       0.34375000000000000        0.0000000000000000     
  0.90625000000000000       0.34375000000000000        0.0000000000000000     
  0.93750000000000000       0.34375000000000000        0.0000000000000000     
  0.96875000000000000       0.34375000000000000        0.0000000000000000     
   1.0000000000000000       0.34375000000000000        0.0000000000000000     
  0.87500000000000000       0.37500000000000000        0.0000000000000000     
  0.90625000000000000       0.37500000000000000        0.0000000000000000     
  0.93750000000000000       0.37500000000000000        0.0000000000000000     
  0.96875000000000000       0.37500000000000000        0.0000000000000000     
   1.0000000000000000       0.37500000000000000        0.0000000000000000     
   1.0000000000000000       0.25000000000000000        0.0000000000000000     
   1.0312500000000000       0.25000000000000000        0.0000000000000000     
   1.0625000000000000       0.25000000000000000        0.0000000000000000     
   1.0937500000000000       0.25000000000000000        0.0000000000000000     
   1.1250000000000000       0.25000000000000000        0.0000000000000000     
   1.0000000000000000       0.28125000000000000        0.0000000000000000     
   1.0312500000000000       0.28125000000000000        0.0000000000000000     
   1.0625000000000000       0.28125000000000000        0.0000000000000000     
   1.0937500000000000       0.28125000000000000        0.0000000000000000     
   1.1250000000000000       0.28125000000000000        0.0000000000000000     
   1.0000000000000000       0.31250000000000000        0.0000000000000000     
   1.0312500000000000       0.31250000000000000        0.0000000000000000     
   1.0625000000000000       0.31250000000000000        0.0000000000000000     
   1.0937500000000000       0.31250000000000000        0.0000000000000000     
   1.1250000000000000       0.31250000000000000        0.0000000000000000     
   1.0000000000000000       0.34375000000000000        0.0000000000000000     
   1.0312500000000000       0.34375000000000000        0.0000000000000000     
   1.0625000000000000       0.34375000000000000        0.0000000000000000     
   1.0937500000000000       0.34375000000000000        0.0000000000000000     
   1.1250000000000000       0.34375000000000000        0.0000000000000000     
   1.0000000000000000       0.37500000000000000        0.0000000000000000     
   1.0312500000000000       0.37500000000000000        0.0000000000000000     
   1.0625000000000000       0.37500000000000000        0.0000000000000000     
   1.0937500000000000       0.37500000000000000        0.0000000000000000     
   1.1250000000000000       0.37500000000000000        0.0000000000000000     
   1.1250000000000000       0.25000000000000000        0.0000000000000000     
   1.1562500000000000       0.25000000000000000        0.0000000000000000     
   1.1875000000000000       0.25000000000000000        0.0000000000000000     
   1.2187500000000000       0.25000000000000000        0.0000000000000000     
   1.2500000000000000       0.25000000000000000        0.0000000000000000     
   1.1250000000000000       0.28125000000000000        0.0000000000000000     
   1.1562500000000000       0.28125000000000000        0.0000000000000000     
   1.1875000000000000       0.28125000000000000        0.0000000000000000     
   1.2187500000000000       0.28125000000000000        0.0000000000000000     
   1.2500000000000000       0.28125000000000000        0.0000000000000000     
   1.1250000000000000       0.31250000000000000        0.0000000000000000     
   1.1562500000000000       0.31250000000000000        0.0000000000000000     
   1.1875000000000000       0.31250000000000000        0.0000000000000000     
   1.2187500000000000       0.31250000000000000        0.0000000000000000     
   1.2500000000000000       0.31250000000000000        0.0000000000000000     
   1.1250000000000000       0.34375000000000000        0.0000000000000000     
   1.1562500000000000       0.34375000000000000        0.0000000000000000     
   1.1875000000000000       0.34375000000000000        0.0000000000000000     
   1.2187500000000000       0.34375000000000000        0.0000000000000000     
   1.2500000000000000       0.34375000000000000        0.0000000000000000     
   1.1250000000000000       0.37500000000000000        0.0000000000000000     
   1.1562500000000000       0.37500000000000000        0.0000000000000000     
   1.1875000000000000       0.37500000000000000        0.0000000000000000     
   1.2187500000000000       0.37500000000000000        0.0000000000000000     
   1.2500000000000000       0.37500000000000000        0.0000000000000000     
   1.2500000000000000       0.25000000000000000        0.0000000000000000     
   1.2812500000000000       0.25000000000000000        0.0000000000000000     
   1.3125000000000000       0.25000000000000000        0.0000000000000000     
   1.3437500000000000       0.25000000000000000        0.0000000000000000     
   1.3750000000000000       0.25000000000000000        0.0000000000000000     
   1.2500000000000000       0.28125000000000000        0.0000000000000000     
   1.2812500000000000       0.28125000000000000        0.0000000000000000     
   1.3125000000000000       0.28125000000000000        0.0000000000000000     
   1.3437500000000000       0.28125000000000000        0.0000000000000000     
   1.3750000000000000       0.28125000000000000        0.0000000000000000     
   1.2500000000000000       0.31250000000000000        0.0000000000000000     
   1.2812500000000000       0.31250000000000000        0.0000000000000000     
   1.3125000000000000       0.31250000000000000        0.0000000000000000     
   1.3437500000000000       0.31250000000000000        0.0000000000000000     
   1.3750000000000000       0.31250000000000000        0.0000000000000000     
   1.2500000000000000       0.34375000000000000        0.0000000000000000     
   1.2812500000000000       0.34375000000000000        0.0000000000000000     
   1.3125000000000000       0.34375000000000000        0.0000000000000000     
   1.3437500000000000       0.34375000000000000        0.0000000000000000     
   1.3750000000000000       0.34375000000000000        0.0000000000000000     
   1.2500000000000000       0.37500000000000000        0.0000000000000000     
   1.2812500000000000       0.37500000000000000        0.0000000000000000     
   1.3125000000000000       0.37500000000000000        0.0000000000000000     
   1.3437500000000000       0.37500000000000000        0.0000000000000000     
   1.3750000000000000       0.37500000000000000        0.0000000000000000     
   1.3750000000000000       0.25000000000000000        0.0000000000000000     
   1.4062500000000000       0.25000000000000000        0.0000000000000000     
   1.4375000000000000       0.25000000000000000        0.0000000000000000     
   1.4687500000000000       0.25000000000000000        0.0000000000000000     
   1.5000000000000000       0.25000000000000000        0.0000000000000000     
   1.3750000000000000       0.28125000000000000        0.0000000000000000     
   1.4062500000000000       0.28125000000000000        0.0000000000000000     
   1.4375000000000000       0.28125000000000000        0.0000000000000000     
   1.4687500000000000       0.28125000000000000        0.0000000000000000     
   1.5000000000000000       0.28125000000000000        0.0000000000000000     
   1.3750000000000000       0.31250000000000000        0.0000000000000000     
   1.4062500000000000       0.31250000000000000        0.0000000000000000     
   1.4375000000000000       0.31250000000000000        0.0000000000000000     
   1.4687500000000000       0.31250000000000000        0.0000000000000000     
   1.5000000000000000       0.31250000000000000        0.0000000000000000     
   1.3750000000000000       0.34375000000000000        0.0000000000000000     
   1.4062500000000000       0.34375000000000000        0.0000000000000000     
   1.4375000000000000       0.34375000000000000        0.0000000000000000     
   1.4687500000000000       0.34375000000000000        0.0000000000000000     
   1.5000000000000000       0.34375000000000000        0.0000000000000000     
   1.3750000000000000       0.37500000000000000        0.0000000000000000     
   1.4062500000000000       0.37500000000000000        0.0000000000000000     
   1.4375000000000000       0.37500000000000000        0.0000000000000000     
   1.4687500000000000       0.37500000000000000        0.0000000000000000     
   1.5000000000000000       0.37500000000000000        0.0000000000000000     
  0.50000000000000000       0.37500000000000000        0.0000000000000000     
  0.53125000000000000       0.37500000000000000        0.0000000000000000     
  0.56250000000000000       0.37500000000000000        0.0000000000000000     
  0.59375000000000000       0.37500000000000000        0.0000000000000000     
  0.62500000000000000       0.37500000000000000        0.0000000000000000     
  0.50000000000000000       0.40625000000000000        0.0000000000000000     
  0.53125000000000000       0.40625000000000000        0.0000000000000000     
  0.56250000000000000       0.40625000000000000        0.0000000000000000     
  0.59375000000000000       0.40625000000000000        0.0000000000000000     
  0.62500000000000000       0.40625000000000000        0.0000000000000000     
  0.50000000000000000       0.43750000000000000        0.0000000000000000     
  0.53125000000000000       0.43750000000000000        0.0000000000000000     
  0.56250000000000000       0.43750000000000000        0.0000000000000000     
  0.59375000000000000       0.43750000000000000        0.0000000000000000     
  0.62500000000000000       0.43750000000000000        0.0000000000000000     
  0.50000000000000000       0.46875000000000000        0.0000000000000000     
  0.53125000000000000       0.46875000000000000        0.0000000000000000     
  0.56250000000000000       0.46875000000000000        0.0000000000000000     
  0.59375000000000000       0.46875000000000000        0.0000000000000000     
  0.62500000000000000       0.46875000000000000        0.0000000000000000     
  0.50000000000000000       0.50000000000000000        0.0000000000000000     
  0.53125000000000000       0.50000000000000000        0.0000000000000000     
  0.56250000000000000       0.50000000000000000        0.0000000000000000     
  0.59375000000000000       0.50000000000000000        0.0000000000000000     
  0.62500000000000000       0.50000000000000000        0.0000000000000000     
  0.62500000000000000       0.37500000000000000        0.0000000000000000     
  0.65625000000000000       0.37500000000000000        0.0000000000000000     
  0.68750000000000000       0.37500000000000000        0.0000000000000000     
  0.71875000000000000       0.37500000000000000        0.0000000000000000     
  0.75000000000000000       0.37500000000000000        0.0000000000000000     
  0.62500000000000000       0.40625000000000000        0.0000000000000000     
  0.65625000000000000       0.40625000000000000        0.0000000000000000     
  0.68750000000000000       0.40625000000000000        0.0000000000000000     
  0.71875000000000000       0.40625000000000000        0.0000000000000000     
  0.75000000000000000       0.40625000000000000        0.0000000000000000     
  0.62500000000000000       0.43750000000000000        0.0000000000000000     
  0.65625000000000000       0.43750000000000000        0.0000000000000000     
  0.68750000000000000       0.43750000000000000        0.0000000000000000     
  0.71875000000000000       0.43750000000000000        0.0000000000000000     
  0.75000000000000000       0.43750000000000000        0.0000000000000000     
  0.62500000000000000       0.46875000000000000        0.0000000000000000     
  0.65625000000000000       0.46875000000000000        0.0000000000000000     
  0.68750000000000000       0.46875000000000000        0.0000000000000000     
  0.71875000000000000       0.46875000000000000        0.0000000000000000     
  0.75000000000000000       0.46875000000000000        0.0000000000000000     
  0.62500000000000000       0.50000000000000000        0.0000000000000000     
  0.65625000000000000       0.50000000000000000        0.0000000000000000     
  0.68750000000000000       0.50000000000000000        0.0000000000000000     
  0.71875000000000000       0.50000000000000000        0.0000000000000000     
  0.75000000000000000       0.50000000000000000        0.0000000000000000     
  0.75000000000000000       0.37500000000000000        0.0000000000000000     
  0.78125000000000000       0.37500000000000000        0.0000000000000000     
  0.81250000000000000       0.37500000000000000        0.0000000000000000     
  0.84375000000000000       0.37500000000000000        0.0000000000000000     
  0.87500000000000000       0.37500000000000000        0.0000000000000000     
  0.75000000000000000       0.40625000000000000        0.0000000000000000     
  0.78125000000000000       0.40625000000000000        0.0000000000000000     
  0.81250000000000000       0.40625000000000000        0.0000000000000000     
  0.84375000000000000       0.40625000000000000        0.0000000000000000     
  0.87500000000000000       0.40625000000000000        0.0000000000000000     
  0.75000000000000000       0.43750000000000000        0.0000000000000000     
  0.78125000000000000       0.43750000000000000        0.0000000000000000     
  0.81250000000000000       0.43750000000000000        0.0000000000000000     
  0.84375000000000000       0.43750000000000000        0.0000000000000000     
  0.87500000000000000       0.43750000000000000        0.0000000000000000     
  0.75000000000000000       0.46875000000000000        0.0000000000000000     
  0.78125000000000000       0.46875000000000000        0.0000000000000000     
  0.81250000000000000       0.46875000000000000        0.0000000000000000     
  0.84375000000000000       0.46875000000000000        0.0000000000000000     
  0.87500000000000000       0.46875000000000000        0.0000000000000000     
  0.75000000000000000       0.50000000000000000        0.0000000000000000     
  0.78125000000000000       0.50000000000000000        0.0000000000000000     
  0.81250000000000000       0.50000000000000000        0.0000000000000000     
  0.84375000000000000       0.50000000000000000        0.0000000000000000     
  0.87500000000000000       0.50000000000000000        0.0000000000000000     
  0.87500000000000000       0.37500000000000000        0.0000000000000000     
  0.90625000000000000       0.37500000000000000        0.0000000000000000     
  0.93750000000000000       0.37500000000000000        0.0000000000000000     
  0.96875000000000000       0.37500000000000000        0.0000000000000000     
   1.0000000000000000       0.37500000000000000        0.0000000000000000     
  0.87500000000000000       0.40625000000000000        0.0000000000000000     
  0.90625000000000000       0.40625000000000000        0.0000000000000000     
  0.93750000000000000       0.40625000000000000        0.0000000000000000     
  0.96875000000000000       0.40625000000000000        0.0000000000000000     
   1.0000000000000000       0.40625000000000000        0.0000000000000000     
  0.87500000000000000       0.43750000000000000        0.0000000000000000     
  0.90625000000000000       0.43750000000000000        0.0000000000000000     
  0.93750000000000000       0.43750000000000000        0.0000000000000000     
  0.96875000000000000       0.43750000000000000        0.0000000000000000     
   1.0000000000000000       0.43750000000000000        0.0000000000000000     
  0.87500000000000000       0.46875000000000000        0.0000000000000000     
  0.90625000000000000       0.46875000000000000        0.0000000000000000     
  0.93750000000000000       0.46875000000000000        0.0000000000000000     
  0.96875000000000000       0.46875000000000000        0.0000000000000000     
   1.0000000000000000       0.46875000000000000        0.0000000000000000     
  0.87500000000000000       0.50000000000000000        0.0000000000000000     
  0.90625000000000000       0.50000000000000000        0.0000000000000000     
  0.93750000000000000       0.50000000000000000        0.0000000000000000     
  0.96875000000000000       0.50000000000000000        0.0000000000000000     
   1.0000000000000000       0.50000000000000000        0.0000000000000000     
   1.0000000000000000       0.37500000000000000        0.0000000000000000     
   1.0312500000000000       0.37500000000000000        0.0000000000000000     
   1.0625000000000000       0.37500000000000000        0.0000000000000000     
   1.0937500000000000       0.37500000000000000        0.0000000000000000     
   1.1250000000000000       0.37500000000000000        0.0000000000000000     
   1.0000000000000000       0.40625000000000000        0.0000000000000000     
   1.0312500000000000       0.40625000000000000        0.0000000000000000     
   1.0625000000000000       0.40625000000000000        0.0000000000000000     
   1.0937500000000000       0.40625000000000000        0.0000000000000000     
   1.1250000000000000       0.40625000000000000        0.0000000000000000     
   1.0000000000000000       0.43750000000000000        0.0000000000000000     
   1.0312500000000000       0.43750000000000000        0.0000000000000000     
   1.0625000000000000       0.43750000000000000        0.0000000000000000     
   1.0937500000000000       0.43750000000000000        0.0000000000000000     
   1.1250000000000000       0.43750000000000000        0.0000000000000000     
   1.0000000000000000       0.46875000000000000        0.0000000000000000     
   1.0312500000000000       0.46875000000000000        0.0000000000000000     
   1.0625000000000000       0.46875000000000000        0.0000000000000000     
   1.0937500000000000       0.46875000000000000        0.0000000000000000     
   1.1250000000000000       0.46875000000000000        0.0000000000000000     
   1.0000000000000000       0.50000000000000000        0.0000000000000000     
   1.0312500000000000       0.50000000000000000        0.0000000000000000     
   1.0625000000000000       0.50000000000000000        0.0000000000000000     
   1.0937500000000000       0.50000000000000000        0.0000000000000000     
   1.1250000000000000       0.50000000000000000        0.0000000000000000     
   1.1250000000000000       0.37500000000000000        0.0000000000000000     
   1.1562500000000000       0.37500000000000000        0.0000000000000000     
   1.1875000000000000       0.37500000000000000        0.0000000000000000     
   1.2187500000000000       0.37500000000000000        0.0000000000000000     
   1.2500000000000000       0.37500000000000000        0.0000000000000000     
   1.1250000000000000       0.40625000000000000        0.0000000000000000     
   1.1562500000000000       0.40625000000000000        0.0000000000000000     
   1.1875000000000000       0.40625000000000000        0.0000000000000000     
   1.2187500000000000       0.40625000000000000        0.0000000000000000     
   1.2500000000000000       0.40625000000000000        0.0000000000000000     
   1.1250000000000000       0.43750000000000000        0.0000000000000000     
   1.1562500000000000       0.43750000000000000        0.0000000000000000     
   1.1875000000000000       0.43750000000000000        0.0000000000000000     
   1.2187500000000000       0.43750000000000000        0.0000000000000000     
   1.2500000000000000       0.43750000000000000        0.0000000000000000     
   1.1250000000000000       0.46875000000000000        0.0000000000000000     
   1.1562500000000000       0.46875000000000000        0.0000000000000000     
   1.1875000000000000       0.46875000000000000        0.0000000000000000     
   1.2187500000000000       0.46875000000000000        0.0000000000000000     
   1.2500000000000000       0.46875000000000000        0.0000000000000000     
   1.1250000000000000       0.50000000000000000        0.0000000000000000     
   1.1562500000000000       0.50000000000000000        0.0000000000000000     
   1.1875000000000000       0.50000000000000000        0.0000000000000000     
   1.2187500000000000       0.50000000000000000        0.0000000000000000     
   1.2500000000000000       0.50000000000000000        0.0000000000000000     
   1.2500000000000000       0.37500000000000000        0.0000000000000000     
   1.2812500000000000       0.37500000000000000        0.0000000000000000     
   1.3125000000000000       0.37500000000000000        0.0000000000000000     
   1.3437500000000000       0.37500000000000000        0.0000000000000000     
   1.3750000000000000       0.37500000000000000        0.0000000000000000     
   1.2500000000000000       0.40625000000000000        0.0000000000000000     
   1.2812500000000000       0.40625000000000000        0.0000000000000000     
   1.3125000000000000       0.40625000000000000        0.0000000000000000     
   1.3437500000000000       0.40625000000000000        0.0000000000000000     
   1.3750000000000000       0.40625000000000000        0.0000000000000000     
   1.2500000000000000       0.43750000000000000        0.0000000000000000     
   1.2812500000000000       0.43750000000000000        0.0000000000000000     
   1.3125000000000000       0.43750000000000000        0.0000000000000000     
   1.3437500000000000       0.43750000000000000        0.0000000000000000     
   1.3750000000000000       0.43750000000000000        0.0000000000000000     
   1.2500000000000000       0.46875000000000000        0.0000000000000000     
   1.2812500000000000       0.46875000000000000        0.0000000000000000     
   1.3125000000000000       0.46875000000000000        0.0000000000000000     
   1.3437500000000000       0.46875000000000000        0.0000000000000000     
   1.3750000000000000       0.46875000000000000        0.0000000000000000     
   1.2500000000000000       0.50000000000000000        0.0000000000000000     
   1.2812500000000000       0.50000000000000000        0.0000000000000000     
   1.3125000000000000       0.50000000000000000        0.0000000000000000     
   1.3437500000000000       0.50000000000000000        0.0000000000000000     
   1.3750000000000000       0.50000000000000000        0.0000000000000000     
   1.3750000000000000       0.37500000000000000        0.0000000000000000     
   1.4062500000000000       0.37500000000000000        0.0000000000000000     
   1.4375000000000000       0.37500000000000000        0.0000000000000000     
   1.4687500000000000       0.37500000000000000        0.0000000000000000     
   1.5000000000000000       0.37500000000000000        0.0000000000000000     
   1.3750000000000000       0.40625000000000000        0.0000000000000000     
   1.4062500000000000       0.40625000000000000        0.0000000000000000     
   1.4375000000000000       0.40625000000000000        0.0000000000000000     
   1.4687500000000000       0.40625000000000000        0.0000000000000000     
   1.5000000000000000       0.40625000000000000        0.0000000000000000     
   1.3750000000000000       0.43750000000000000        0.0000000000000000     
   1.4062500000000000       0.43750000000000000        0.0000000000000000     
   1.4375000000000000       0.43750000000000000        0.0000000000000000     
   1.4687500000000000       0.43750000000000000        0.0000000000000000     
   1.5000000000000000       0.43750000000000000        0.0000000000000000     
   1.3750000000000000       0.46875000000000000        0.0000000000000000     
   1.4062500000000000       0.46875000000000000        0.0000000000000000     
   1.4375000000000000       0.46875000000000000        0.0000000000000000     
   1.4687500000000000       0.46875000000000000        0.0000000000000000     
   1.5000000000000000       0.46875000000000000        0.0000000000000000     
   1.3750000000000000       0.50000000000000000        0.0000000000000000     
   1.4062500000000000       0.50000000000000000        0.0000000000000000     
   1.4375000000000000       0.50000000000000000        0.0000000000000000     
   1.4687500000000000       0.50000000000000000        0.0000000000000000     
   1.5000000000000000       0.50000000000000000        0.0000000000000000     
  0.50000000000000000       0.50000000000000000        0.0000000000000000     
  0.53125000000000000       0.50000000000000000        0.0000000000000000     
  0.56250000000000000       0.50000000000000000        0.0000000000000000     
  0.59375000000000000       0.50000000000000000        0.0000000000000000     
  0.62500000000000000       0.50000000000000000        0.0000000000000000     
  0.50000000000000000       0.53125000000000000        0.0000000000000000     
  0.53125000000000000       0.53125000000000000        0.0000000000000000     
  0.56250000000000000       0.53125000000000000        0.0000000000000000     
  0.59375000000000000       0.53125000000000000        0.0000000000000000     
  0.62500000000000000       0.53125000000000000        0.0000000000000000     
  0.50000000000000000       0.56250000000000000        0.0000000000000000     
  0.53125000000000000       0.56250000000000000        0.0000000000000000     
  0.56250000000000000       0.56250000000000000        0.0000000000000000     
  0.59375000000000000       0.56250000000000000        0.0000000000000000     
  0.62500000000000000       0.56250000000000000        0.0000000000000000     
  0.50000000000000000       0.59375000000000000        0.0000000000000000     
  0.53125000000000000       0.59375000000000000        0.0000000000000000     
  0.56250000000000000       0.59375000000000000        0.0000000000000000     
  0.59375000000000000       0.59375000000000000        0.0000000000000000     
  0.62500000000000000       0.59375000000000000        0.0000000000000000     
  0.50000000000000000       0.62500000000000000        0.0000000000000000     
  0.53125000000000000       0.62500000000000000        0.0000000000000000     
  0.56250000000000000       0.62500000000000000        0.0000000000000000     
  0.59375000000000000       0.62500000000000000        0.0000000000000000     
  0.62500000000000000       0.62500000000000000        0.0000000000000000     
  0.62500000000000000       0.50000000000000000        0.0000000000000000     
  0.65625000000000000       0.50000000000000000        0.0000000000000000     
  0.68750000000000000       0.50000000000000000        0.0000000000000000     
  0.71875000000000000       0.50000000000000000        0.0000000000000000     
  0.75000000000000000       0.50000000000000000        0.0000000000000000     
  0.62500000000000000       0.53125000000000000        0.0000000000000000     
  0.65625000000000000       0.53125000000000000        0.0000000000000000     
  0.68750000000000000       0.53125000000000000        0.0000000000000000     
  0.71875000000000000       0.53125000000000000        0.0000000000000000     
  0.75000000000000000       0.53125000000000000        0.0000000000000000     
  0.62500000000000000       0.56250000000000000        0.0000000000000000     
  0.65625000000000000       0.56250000000000000        0.0000000000000000     
  0.68750000000000000       0.56250000000000000        0.0000000000000000     
  0.71875000000000000       0.56250000000000000        0.0000000000000000     
  0.75000000000000000       0.56250000000000000        0.0000000000000000     
  0.62500000000000000       0.59375000000000000        0.0000000000000000     
  0.65625000000000000       0.59375000000000000        0.0000000000000000     
  0.68750000000000000       0.59375000000000000        0.0000000000000000     
  0.71875000000000000       0.59375000000000000        0.0000000000000000     
  0.75000000000000000       0.59375000000000000        0.0000000000000000     
  0.62500000000000000       0.62500000000000000        0.0000000000000000     
  0.65625000000000000       0.62500000000000000        0.0000000000000000     
  0.68750000000000000       0.62500000000000000        0.0000000000000000     
  0.71875000000000000       0.62500000000000000        0.0000000000000000     
  0.75000000000000000       0.62500000000000000        0.0000000000000000     
  0.75000000000000000       0.50000000000000000        0.0000000000000000     
  0.78125000000000000       0.50000000000000000        0.0000000000000000     
  0.81250000000000000       0.50000000000000000        0.0000000000000000     
  0.84375000000000000       0.50000000000000000        0.0000000000000000     
  0.87500000000000000       0.50000000000000000        0.0000000000000000     
  0.75000000000000000       0.53125000000000000        0.0000000000000000     
  0.78125000000000000       0.53125000000000000        0.0000000000000000     
  0.81250000000000000       0.53125000000000000        0.0000000000000000     
  0.84375000000000000       0.53125000000000000        0.0000000000000000     
  0.87500000000000000       0.53125000000000000        0.0000000000000000     
  0.75000000000000000       0.56250000000000000        0.0000000000000000     
  0.78125000000000000       0.56250000000000000        0.0000000000000000     
  0.81250000000000000       0.56250000000000000        0.0000000000000000     
  0.84375000000000000       0.56250000000000000        0.0000000000000000     
  0.87500000000000000       0.56250000000000000        0.0000000000000000     
  0.75000000000000000       0.59375000000000000        0.0000000000000000     
  0.78125000000000000       0.59375000000000000        0.0000000000000000     
  0.81250000000000000       0.59375000000000000        0.0000000000000000     
  0.84375000000000000       0.59375000000000000        0.0000000000000000     
  0.87500000000000000       0.59375000000000000        0.0000000000000000     
  0.75000000000000000       0.62500000000000000        0.0000000000000000     
  0.78125000000000000       0.62500000000000000        0.0000000000000000     
  0.81250000000000000       0.62500000000000000        0.0000000000000000     
  0.84375000000000000       0.62500000000000000        0.0000000000000000     
  0.87500000000000000       0.62500000000000000        0.0000000000000000     
  0.87500000000000000       0.50000000000000000        0.0000000000000000     
  0.90625000000000000       0.50000000000000000        0.0000000000000000     
  0.93750000000000000       0.50000000000000000        0.0000000000000000     
  0.96875000000000000       0.50000000000000000        0.0000000000000000     
   1.0000000000000000       0.50000000000000000        0.0000000000000000     
  0.87500000000000000       0.53125000000000000        0.0000000000000000     
  0.90625000000000000       0.53125000000000000        0.0000000000000000     
  0.93750000000000000       0.53125000000000000        0.0000000000000000     
  0.96875000000000000       0.53125000000000000        0.0000000000000000     
   1.0000000000000000       0.53125000000000000        0.0000000000000000     
  0.87500000000000000       0.56250000000000000        0.0000000000000000     
  0.90625000000000000       0.56250000000000000        0.0000000000000000     
  0.93750000000000000       0.56250000000000000        0.0000000000000000     
  0.96875000000000000       0.56250000000000000        0.0000000000000000     
   1.0000000000000000       0.56250000000000000        0.0000000000000000     
  0.87500000000000000       0.59375000000000000        0.0000000000000000     
  0.90625000000000000       0.59375000000000000        0.0000000000000000     
  0.93750000000000000       0.59375000000000000        0.0000000000000000     
  0.96875000000000000       0.59375000000000000        0.0000000000000000     
   1.0000000000000000       0.59375000000000000        0.0000000000000000     
  0.87500000000000000       0.62500000000000000        0.0000000000000000     
  0.90625000000000000       0.62500000000000000        0.0000000000000000     
  0.93750000000000000       0.62500000000000000        0.0000000000000000     
  0.96875000000000000       0.62500000000000000        0.0000000000000000     
   1.0000000000000000       0.62500000000000000        0.0000000000000000     
   1.0000000000000000       0.50000000000000000        0.0000000000000000     
   1.0312500000000000       0.50000000000000000        0.0000000000000000     
   1.0625000000000000       0.50000000000000000        0.0000000000000000     
   1.0937500000000000       0.50000000000000000        0.0000000000000000     
   1.1250000000000000       0.50000000000000000        0.0000000000000000     
   1.0000000000000000       0.53125000000000000        0.0000000000000000     
   1.0312500000000000       0.53125000000000000        0.0000000000000000     
   1.0625000000000000       0.53125000000000000        0.0000000000000000     
   1.0937500000000000       0.53125000000000000        0.0000000000000000     
   1.1250000000000000       0.53125000000000000        0.0000000000000000     
   1.0000000000000000       0.56250000000000000        0.0000000000000000     
   1.0312500000000000       0.56250000000000000        0.0000000000000000     
   1.0625000000000000       0.56250000000000000        0.0000000000000000     
   1.0937500000000000       0.56250000000000000        0.0000000000000000     
   1.1250000000000000       0.56250000000000000        0.0000000000000000     
   1.0000000000000000       0.59375000000000000        0.0000000000000000     
   1.0312500000000000       0.59375000000000000        0.0000000000000000     
   1.0625000000000000       0.59375000000000000        0.0000000000000000     
   1.0937500000000000       0.59375000000000000        0.0000000000000000     
   1.1250000000000000       0.59375000000000000        0.0000000000000000     
   1.0000000000000000       0.62500000000000000        0.0000000000000000     
   1.0312500000000000       0.62500000000000000        0.0000000000000000     
   1.0625000000000000       0.62500000000000000        0.0000000000000000     
   1.0937500000000000       0.62500000000000000        0.0000000000000000     
   1.1250000000000000       0.62500000000000000        0.0000000000000000     
   1.1250000000000000       0.50000000000000000        0.0000000000000000     
   1.1562500000000000       0.50000000000000000        0.0000000000000000     
   1.1875000000000000       0.50000000000000000        0.0000000000000000     
   1.2187500000000000       0.50000000000000000        0.0000000000000000     
   1.2500000000000000       0.50000000000000000        0.0000000000000000     
   1.1250000000000000       0.53125000000000000        0.0000000000000000     
   1.1562500000000000       0.53125000000000000        0.0000000000000000     
   1.1875000000000000       0.53125000000000000        0.0000000000000000     
   1.2187500000000000       0.53125000000000000        0.0000000000000000     
   1.2500000000000000       0.53125000000000000        0.0000000000000000     
   1.1250000000000000       0.56250000000000000        0.0000000000000000     
   1.1562500000000000       0.56250000000000000        0.0000000000000000     
   1.1875000000000000       0.56250000000000000        0.0000000000000000     
   1.2187500000000000       0.56250000000000000        0.0000000000000000     
   1.2500000000000000       0.56250000000000000        0.0000000000000000     
   1.1250000000000000       0.59375000000000000        0.0000000000000000     
   1.1562500000000000       0.59375000000000000        0.0000000000000000     
   1.1875000000000000       0.59375000000000000        0.0000000000000000     
   1.2187500000000000       0.59375000000000000        0.0000000000000000     
   1.2500000000000000       0.59375000000000000        0.0000000000000000     
   1.1250000000000000       0.62500000000000000        0.0000000000000000     
   1.1562500000000000       0.62500000000000000        0.0000000000000000     
   1.1875000000000000       0.62500000000000000        0.0000000000000000     
   1.2187500000000000       0.62500000000000000        0.0000000000000000     
   1.2500000000000000       0.62500000000000000        0.0000000000000000     
   1.2500000000000000       0.50000000000000000        0.0000000000000000     
   1.2812500000000000       0.50000000000000000        0.0000000000000000     
   1.3125000000000000       0.50000000000000000        0.0000000000000000     
   1.3437500000000000       0.50000000000000000        0.0000000000000000     
   1.3750000000000000       0.50000000000000000        0.0000000000000000     
   1.2500000000000000       0.53125000000000000        0.0000000000000000     
   1.2812500000000000       0.53125000000000000        0.0000000000000000     
   1.3125000000000000       0.53125000000000000        0.0000000000000000     
   1.3437500000000000       0.53125000000000000        0.0000000000000000     
   1.3750000000000000       0.53125000000000000        0.0000000000000000     
   1.2500000000000000       0.56250000000000000        0.0000000000000000     
   1.2812500000000000       0.56250000000000000        0.0000000000000000     
   1.3125000000000000       0.56250000000000000        0.0000000000000000     
   1.3437500000000000       0.56250000000000000        0.0000000000000000     
   1.3750000000000000       0.56250000000000000        0.0000000000000000     
   1.2500000000000000       0.59375000000000000        0.0000000000000000     
   1.2812500000000000       0.59375000000000000        0.0000000000000000     
   1.3125000000000000       0.59375000000000000        0.0000000000000000     
   1.3437500000000000       0.59375000000000000        0.0000000000000000     
   1.3750000000000000       0.59375000000000000        0.0000000000000000     
   1.2500000000000000       0.62500000000000000        0.0000000000000000     
   1.2812500000000000       0.62500000000000000        0.0000000000000000     
   1.3125000000000000       0.62500000000000000        0.0000000000000000     
   1.3437500000000000       0.62500000000000000        0.0000000000000000     
   1.3750000000000000       0.62500000000000000        0.0000000000000000     
   1.3750000000000000       0.50000000000000000        0.0000000000000000     
   1.4062500000000000       0.50000000000000000        0.0000000000000000     
   1.4375000000000000       0.50000000000000000        0.0000000000000000     
   1.4687500000000000       0.50000000000000000        0.0000000000000000     
   1.5000000000000000       0.50000000000000000        0.0000000000000000     
   1.3750000000000000       0.53125000000000000        0.0000000000000000     
   1.4062500000000000       0.53125000000000000        0.0000000000000000     
   1.4375000000000000       0.53125000000000000        0.0000000000000000     
   1.4687500000000000       0.53125000000000000        0.0000000000000000     
   1.5000000000000000       0.53125000000000000        0.0000000000000000     
   1.3750000000000000       0.56250000000000000        0.0000000000000000     
   1.4062500000000000       0.56250000000000000        0.0000000000000000     
   1.4375000000000000       0.56250000000000000        0.0000000000000000     
   1.4687500000000000       0.56250000000000000        0.0000000000000000     
   1.5000000000000000       0.56250000000000000        0.0000000000000000     
   1.3750000000000000       0.59375000000000000        0.0000000000000000     
   1.4062500000000000       0.59375000000000000        0.0000000000000000     
   1.4375000000000000       0.59375000000000000        0.0000000000000000     
   1.4687500000000000       0.59375000000000000        0.0000000000000000     
   1.5000000000000000       0.59375000000000000        0.0000000000000000     
   1.3750000000000000       0.62500000000000000        0.0000000000000000     
   1.4062500000000000       0.62500000000000000        0.0000000000000000     
   1.4375000000000000       0.62500000000000000        0.0000000000000000     
   1.4687500000000000       0.62500000000000000        0.0000000000000000     
   1.5000000000000000       0.62500000000000000        0.0000000000000000     
  0.50000000000000000       0.62500000000000000        0.0000000000000000     
  0.53125000000000000       0.62500000000000000        0.0000000000000000     
  0.56250000000000000       0.62500000000000000        0.0000000000000000     
  0.59375000000000000       0.62500000000000000        0.0000000000000000     
  0.62500000000000000       0.62500000000000000        0.0000000000000000     
  0.50000000000000000       0.65625000000000000        0.0000000000000000     
  0.53125000000000000       0.65625000000000000        0.0000000000000000     
  0.56250000000000000       0.65625000000000000        0.0000000000000000     
  0.59375000000000000       0.65625000000000000        0.0000000000000000     
  0.62500000000000000       0.65625000000000000        0.0000000000000000     
  0.50000000000000000       0.68750000000000000        0.0000000000000000     
  0.53125000000000000       0.68750000000000000        0.0000000000000000     
  0.56250000000000000       0.68750000000000000        0.0000000000000000     
  0.59375000000000000       0.68750000000000000        0.0000000000000000     
  0.62500000000000000       0.68750000000000000        0.0000000000000000     
  0.50000000000000000       0.71875000000000000        0.0000000000000000     
  0.53125000000000000       0.71875000000000000        0.0000000000000000     
  0.56250000000000000       0.71875000000000000        0.0000000000000000     
  0.59375000000000000       0.71875000000000000        0.0000000000000000     
  0.62500000000000000       0.71875000000000000        0.0000000000000000     
  0.50000000000000000       0.75000000000000000        0.0000000000000000     
  0.53125000000000000       0.75000000000000000        0.0000000000000000     
  0.56250000000000000       0.75000000000000000        0.0000000000000000     
  0.59375000000000000       0.75000000000000000        0.0000000000000000     
  0.62500000000000000       0.75000000000000000        0.0000000000000000     
  0.62500000000000000       0.62500000000000000        0.0000000000000000     
  0.65625000000000000       0.62500000000000000        0.0000000000000000     
  0.68750000000000000       0.62500000000000000        0.0000000000000000     
  0.71875000000000000       0.62500000000000000        0.0000000000000000     
  0.75000000000000000       0.62500000000000000        0.0000000000000000     
  0.62500000000000000       0.65625000000000000        0.0000000000000000     
  0.65625000000000000       0.65625000000000000        0.0000000000000000     
  0.68750000000000000       0.65625000000000000        0.0000000000000000     
  0.71875000000000000       0.65625000000000000        0.0000000000000000     
  0.75000000000000000       0.65625000000000000        0.0000000000000000     
  0.62500000000000000       0.68750000000000000        0.0000000000000000     
  0.65625000000000000       0.68750000000000000        0.0000000000000000     
  0.68750000000000000       0.68750000000000000        0.0000000000000000     
  0.71875000000000000       0.68750000000000000        0.0000000000000000     
  0.75000000000000000       0.68750000000000000        0.0000000000000000     
  0.62500000000000000       0.71875000000000000        0.0000000000000000     
  0.65625000000000000       0.71875000000000000        0.0000000000000000     
  0.68750000000000000       0.71875000000000000        0.0000000000000000     
  0.71875000000000000       0.71875000000000000        0.0000000000000000     
  0.75000000000000000       0.71875000000000000        0.0000000000000000     
  0.62500000000000000       0.75000000000000000        0.0000000000000000     
  0.65625000000000000       0.75000000000000000        0.0000000000000000     
  0.68750000000000000       0.75000000000000000        0.0000000000000000     
  0.71875000000000000       0.75000000000000000        0.0000000000000000     
  0.75000000000000000       0.75000000000000000        0.0000000000000000     
  0.75000000000000000       0.62500000000000000        0.0000000000000000     
  0.78125000000000000       0.62500000000000000        0.0000000000000000     
  0.81250000000000000       0.62500000000000000        0.0000000000000000     
  0.84375000000000000       0.62500000000000000        0.0000000000000000     
  0.87500000000000000       0.62500000000000000        0.0000000000000000     
  0.75000000000000000       0.65625000000000000        0.0000000000000000     
  0.78125000000000000       0.65625000000000000        0.0000000000000000     
  0.81250000000000000       0.65625000000000000        0.0000000000000000     
  0.84375000000000000       0.65625000000000000        0.0000000000000000     
  0.87500000000000000       0.65625000000000000        0.0000000000000000     
  0.75000000000000000       0.68750000000000000        0.0000000000000000     
  0.78125000000000000       0.68750000000000000        0.0000000000000000     
  0.81250000000000000       0.68750000000000000        0.0000000000000000     
  0.84375000000000000       0.68750000000000000        0.0000000000000000     
  0.87500000000000000       0.68750000000000000        0.0000000000000000     
  0.75000000000000000       0.71875000000000000        0.0000000000000000     
  0.78125000000000000       0.71875000000000000        0.0000000000000000     
  0.81250000000000000       0.71875000000000000        0.0000000000000000     
  0.84375000000000000       0.71875000000000000        0.0000000000000000     
  0.87500000000000000       0.71875000000000000        0.0000000000000000     
  0.75000000000000000       0.75000000000000000        0.0000000000000000     
  0.78125000000000000       0.75000000000000000        0.0000000000000000     
  0.81250000000000000       0.75000000000000000        0.0000000000000000     
  0.84375000000000000       0.75000000000000000        0.0000000000000000     
  0.87500000000000000       0.75000000000000000        0.0000000000000000     
  0.87500000000000000       0.62500000000000000        0.0000000000000000     
  0.90625000000000000       0.62500000000000000        0.0000000000000000     
  0.93750000000000000       0.62500000000000000        0.0000000000000000     
  0.96875000000000000       0.62500000000000000        0.0000000000000000     
   1.0000000000000000       0.62500000000000000        0.0000000000000000     
  0.87500000000000000       0.65625000000000000        0.0000000000000000     
  0.90625000000000000       0.65625000000000000        0.0000000000000000     
  0.93750000000000000       0.65625000000000000        0.0000000000000000     
  0.96875000000000000       0.65625000000000000        0.0000000000000000     
   1.0000000000000000       0.65625000000000000        0.0000000000000000     
  0.87500000000000000       0.68750000000000000        0.0000000000000000     
  0.90625000000000000       0.68750000000000000        0.0000000000000000     
  0.93750000000000000       0.68750000000000000        0.0000000000000000     
  0.96875000000000000       0.68750000000000000        0.0000000000000000     
   1.0000000000000000       0.68750000000000000        0.0000000000000000     
  0.87500000000000000       0.71875000000000000        0.0000000000000000     
  0.90625000000000000       0.71875000000000000        0.0000000000000000     
  0.93750000000000000       0.71875000000000000        0.0000000000000000     
  0.96875000000000000       0.71875000000000000        0.0000000000000000     
   1.0000000000000000       0.71875000000000000        0.0000000000000000     
  0.87500000000000000       0.75000000000000000        0.0000000000000000     
  0.90625000000000000       0.75000000000000000        0.0000000000000000     
  0.93750000000000000       0.75000000000000000        0.0000000000000000     
  0.96875000000000000       0.75000000000000000        0.0000000000000000     
   1.0000000000000000       0.75000000000000000        0.0000000000000000     
   1.0000000000000000       0.62500000000000000        0.0000000000000000     
   1.0312500000000000       0.62500000000000000        0.0000000000000000     
   1.0625000000000000       0.62500000000000000        0.0000000000000000     
   1.0937500000000000       0.62500000000000000        0.0000000000000000     
   1.1250000000000000       0.62500000000000000        0.0000000000000000     
   1.0000000000000000       0.65625000000000000        0.0000000000000000     
   1.0312500000000000       0.65625000000000000        0.0000000000000000     
   1.0625000000000000       0.65625000000000000        0.0000000000000000     
   1.0937500000000000       0.65625000000000000        0.0000000000000000     
   1.1250000000000000       0.65625000000000000        0.0000000000000000     
   1.0000000000000000       0.68750000000000000        0.0000000000000000     
   1.0312500000000000       0.68750000000000000        0.0000000000000000     
   1.0625000000000000       0.68750000000000000        0.0000000000000000     
   1.0937500000000000       0.68750000000000000        0.0000000000000000     
   1.1250000000000000       0.68750000000000000        0.0000000000000000     
   1.0000000000000000       0.71875000000000000        0.0000000000000000     
   1.0312500000000000       0.71875000000000000        0.0000000000000000     
   1.0625000000000000       0.71875000000000000        0.0000000000000000     
   1.0937500000000000       0.71875000000000000        0.0000000000000000     
   1.1250000000000000       0.71875000000000000        0.0000000000000000     
   1.0000000000000000       0.75000000000000000        0.0000000000000000     
   1.0312500000000000       0.75000000000000000        0.0000000000000000     
   1.0625000000000000       0.75000000000000000        0.0000000000000000     
   1.0937500000000000       0.75000000000000000        0.0000000000000000     
   1.1250000000000000       0.75000000000000000        0.0000000000000000     
   1.1250000000000000       0.62500000000000000        0.0000000000000000     
   1.1562500000000000       0.62500000000000000        0.0000000000000000     
   1.1875000000000000       0.62500000000000000        0.0000000000000000     
   1.2187500000000000       0.62500000000000000        0.0000000000000000     
   1.2500000000000000       0.62500000000000000        0.0000000000000000     
   1.1250000000000000       0.65625000000000000        0.0000000000000000     
   1.1562500000000000       0.65625000000000000        0.0000000000000000     
   1.1875000000000000       0.65625000000000000        0.0000000000000000     
   1.2187500000000000       0.65625000000000000        0.0000000000000000     
   1.2500000000000000       0.65625000000000000        0.0000000000000000     
   1.1250000000000000       0.68750000000000000        0.0000000000000000     
   1.1562500000000000       0.68750000000000000        0.0000000000000000     
   1.1875000000000000       0.68750000000000000        0.0000000000000000     
   1.2187500000000000       0.68750000000000000        0.0000000000000000     
   1.2500000000000000       0.68750000000000000        0.0000000000000000     
   1.1250000000000000       0.71875000000000000        0.0000000000000000     
   1.1562500000000000       0.71875000000000000        0.0000000000000000     
   1.1875000000000000       0.71875000000000000        0.0000000000000000     
   1.2187500000000000       0.71875000000000000        0.0000000000000000     
   1.2500000000000000       0.71875000000000000        0.0000000000000000     
   1.1250000000000000       0.75000000000000000        0.0000000000000000     
   1.1562500000000000       0.75000000000000000        0.0000000000000000     
   1.1875000000000000       0.75000000000000000        0.0000000000000000     
   1.2187500000000000       0.75000000000000000        0.0000000000000000     
   1.2500000000000000       0.75000000000000000        0.0000000000000000     
   1.2500000000000000       0.62500000000000000        0.0000000000000000     
   1.2812500000000000       0.62500000000000000        0.0000000000000000     
   1.3125000000000000       0.62500000000000000        0.0000000000000000     
   1.3437500000000000       0.62500000000000000        0.0000000000000000     
   1.3750000000000000       0.62500000000000000        0.0000000000000000     
   1.2500000000000000       0.65625000000000000        0.0000000000000000     
   1.2812500000000000       0.65625000000000000        0.0000000000000000     
   1.3125000000000000       0.65625000000000000        0.0000000000000000     
   1.3437500000000000       0.65625000000000000        0.0000000000000000     
   1.3750000000000000       0.65625000000000000        0.0000000000000000     
   1.2500000000000000       0.68750000000000000        0.0000000000000000     
   1.2812500000000000       0.68750000000000000        0.0000000000000000     
   1.3125000000000000       0.68750000000000000        0.0000000000000000     
   1.3437500000000000       0.68750000000000000        0.0000000000000000     
   1.3750000000000000       0.68750000000000000        0.0000000000000000     
   1.2500000000000000       0.71875000000000000        0.0000000000000000     
   1.2812500000000000       0.71875000000000000        0.0000000000000000     
   1.3125000000000000       0.71875000000000000        0.0000000000000000     
   1.3437500000000000       0.71875000000000000        0.0000000000000000     
   1.3750000000000000       0.71875000000000000        0.0000000000000000     
   1.2500000000000000       0.75000000000000000        0.0000000000000000     
   1.2812500000000000       0.75000000000000000        0.0000000000000000     
   1.3125000000000000       0.75000000000000000        0.0000000000000000     
   1.3437500000000000       0.75000000000000000        0.0000000000000000     
   1.3750000000000000       0.75000000000000000        0.0000000000000000     
   1.3750000000000000       0.62500000000000000        0.0000000000000000     
   1.4062500000000000       0.62500000000000000        0.0000000000000000     
   1.4375000000000000       0.62500000000000000        0.0000000000000000     
   1.4687500000000000       0.62500000000000000        0.0000000000000000     
   1.5000000000000000       0.62500000000000000        0.0000000000000000     
   1.3750000000000000       0.65625000000000000        0.0000000000000000     
   1.4062500000000000       0.65625000000000000        0.0000000000000000     
   1.4375000000000000       0.65625000000000000        0.0000000000000000     
   1.4687500000000000       0.65625000000000000        0.0000000000000000     
   1.5000000000000000       0.65625000000000000        0.0000000000000000     
   1.3750000000000000       0.68750000000000000        0.0000000000000000     
   1.4062500000000000       0.68750000000000000        0.0000000000000000     
   1.4375000000000000       0.68750000000000000        0.0000000000000000     
   1.4687500000000000       0.68750000000000000        0.0000000000000000     
   1.5000000000000000       0.68750000000000000        0.0000000000000000     
   1.3750000000000000       0.71875000000000000        0.0000000000000000     
   1.4062500000000000       0.71875000000000000        0.0000000000000000     
   1.4375000000000000       0.71875000000000000        0.0000000000000000     
   1.4687500000000000       0.71875000000000000        0.0000000000000000     
   1.5000000000000000       0.71875000000000000        0.0000000000000000     
   1.3750000000000000       0.75000000000000000        0.0000000000000000     
   1.4062500000000000       0.75000000000000000        0.0000000000000000     
   1.4375000000000000       0.75000000000000000        0.0000000000000000     
   1.4687500000000000       0.75000000000000000        0.0000000000000000     
   1.5000000000000000       0.75000000000000000        0.0000000000000000     
  0.50000000000000000       0.75000000000000000        0.0000000000000000     
  0.53125000000000000       0.75000000000000000        0.0000000000000000     
  0.56250000000000000       0.75000000000000000        0.0000000000000000     
  0.59375000000000000       0.75000000000000000        0.0000000000000000     
  0.62500000000000000       0.75000000000000000        0.0000000000000000     
  0.50000000000000000       0.78125000000000000        0.0000000000000000     
  0.53125000000000000       0.78125000000000000        0.0000000000000000     
  0.56250000000000000       0.78125000000000000        0.0000000000000000     
  0.59375000000000000       0.78125000000000000        0.0000000000000000     
  0.62500000000000000       0.78125000000000000        0.0000000000000000     
  0.50000000000000000       0.81250000000000000        0.0000000000000000     
  0.53125000000000000       0.81250000000000000        0.0000000000000000     
  0.56250000000000000       0.81250000000000000        0.0000000000000000     
  0.59375000000000000       0.81250000000000000        0.0000000000000000     
  0.62500000000000000       0.81250000000000000        0.0000000000000000     
  0.50000000000000000       0.84375000000000000        0.0000000000000000     
  0.53125000000000000       0.84375000000000000        0.0000000000000000     
  0.56250000000000000       0.84375000000000000        0.0000000000000000     
  0.59375000000000000       0.84375000000000000        0.0000000000000000     
  0.62500000000000000       0.84375000000000000        0.0000000000000000     
  0.50000000000000000       0.87500000000000000        0.0000000000000000     
  0.53125000000000000       0.87500000000000000        0.0000000000000000     
  0.56250000000000000       0.87500000000000000        0.0000000000000000     
  0.59375000000000000       0.87500000000000000        0.0000000000000000     
  0.62500000000000000       0.87500000000000000        0.0000000000000000     
  0.62500000000000000       0.75000000000000000        0.0000000000000000     
  0.65625000000000000       0.75000000000000000        0.0000000000000000     
  0.68750000000000000       0.75000000000000000        0.0000000000000000     
  0.71875000000000000       0.75000000000000000        0.0000000000000000     
  0.75000000000000000       0.75000000000000000        0.0000000000000000     
  0.62500000000000000       0.78125000000000000        0.0000000000000000     
  0.65625000000000000       0.78125000000000000        0.0000000000000000     
  0.68750000000000000       0.78125000000000000        0.0000000000000000     
  0.71875000000000000       0.78125000000000000        0.0000000000000000     
  0.75000000000000000       0.78125000000000000        0.0000000000000000     
  0.62500000000000000       0.81250000000000000        0.0000000000000000     
  0.65625000000000000       0.81250000000000000        0.0000000000000000     
  0.68750000000000000       0.81250000000000000        0.0000000000000000     
  0.71875000000000000       0.81250000000000000        0.0000000000000000     
  0.75000000000000000       0.81250000000000000        0.0000000000000000     
  0.62500000000000000       0.84375000000000000        0.0000000000000000     
  0.65625000000000000       0.84375000000000000        0.0000000000000000     
  0.68750000000000000       0.84375000000000000        0.0000000000000000     
  0.71875000000000000       0.84375000000000000        0.0000000000000000     
  0.75000000000000000       0.84375000000000000        0.0000000000000000     
  0.62500000000000000       0.87500000000000000        0.0000000000000000     
  0.65625000000000000       0.87500000000000000        0.0000000000000000     
  0.68750000000000000       0.87500000000000000        0.0000000000000000     
  0.71875000000000000       0.87500000000000000        0.0000000000000000     
  0.75000000000000000       0.87500000000000000        0.0000000000000000     
  0.75000000000000000       0.75000000000000000        0.0000000000000000     
  0.78125000000000000       0.75000000000000000        0.0000000000000000     
  0.81250000000000000       0.75000000000000000        0.0000000000000000     
  0.84375000000000000       0.75000000000000000        0.0000000000000000     
  0.87500000000000000       0.75000000000000000        0.0000000000000000     
  0.75000000000000000       0.78125000000000000        0.0000000000000000     
  0.78125000000000000       0.78125000000000000        0.0000000000000000     
  0.81250000000000000       0.78125000000000000        0.0000000000000000     
  0.84375000000000000       0.78125000000000000        0.0000000000000000     
  0.87500000000000000       0.78125000000000000        0.0000000000000000     
  0.75000000000000000       0.81250000000000000        0.0000000000000000     
  0.78125000000000000       0.81250000000000000        0.0000000000000000     
  0.81250000000000000       0.81250000000000000        0.0000000000000000     
  0.84375000000000000       0.81250000000000000        0.0000000000000000     
  0.87500000000000000       0.81250000000000000        0.0000000000000000     
  0.75000000000000000       0.84375000000000000        0.0000000000000000     
  0.78125000000000000       0.84375000000000000        0.0000000000000000     
  0.81250000000000000       0.84375000000000000        0.0000000000000000     
  0.84375000000000000       0.84375000000000000        0.0000000000000000     
  0.87500000000000000       0.84375000000000000        0.0000000000000000     
  0.75000000000000000       0.87500000000000000        0.0000000000000000     
  0.78125000000000000       0.87500000000000000        0.0000000000000000     
  0.81250000000000000       0.87500000000000000        0.0000000000000000     
  0.84375000000000000       0.87500000000000000        0.0000000000000000     
  0.87500000000000000       0.87500000000000000        0.0000000000000000     
  0.87500000000000000       0.75000000000000000        0.0000000000000000     
  0.90625000000000000       0.75000000000000000        0.0000000000000000     
  0.93750000000000000       0.75000000000000000        0.0000000000000000     
  0.96875000000000000       0.75000000000000000        0.0000000000000000     
   1.0000000000000000       0.75000000000000000        0.0000000000000000     
  0.87500000000000000       0.78125000000000000        0.0000000000000000     
  0.90625000000000000       0.78125000000000000        0.0000000000000000     
  0.93750000000000000       0.78125000000000000        0.0000000000000000     
  0.96875000000000000       0.78125000000000000        0.0000000000000000     
   1.0000000000000000       0.78125000000000000        0.0000000000000000     
  0.87500000000000000       0.81250000000000000        0.0000000000000000     
  0.90625000000000000       0.81250000000000000        0.0000000000000000     
  0.93750000000000000       0.81250000000000000        0.0000000000000000     
  0.96875000000000000       0.81250000000000000        0.0000000000000000     
   1.0000000000000000       0.81250000000000000        0.0000000000000000     
  0.87500000000000000       0.84375000000000000        0.0000000000000000     
  0.90625000000000000       0.84375000000000000        0.0000000000000000     
  0.93750000000000000       0.84375000000000000        0.0000000000000000     
  0.96875000000000000       0.84375000000000000        0.0000000000000000     
   1.0000000000000000       0.84375000000000000        0.0000000000000000     
  0.87500000000000000       0.87500000000000000        0.0000000000000000     
  0.90625000000000000       0.87500000000000000        0.0000000000000000     
  0.93750000000000000       0.87500000000000000        0.0000000000000000     
  0.96875000000000000       0.87500000000000000        0.0000000000000000     
   1.0000000000000000       0.87500000000000000        0.0000000000000000     
   1.0000000000000000       0.75000000000000000        0.0000000000000000     
   1.0312500000000000       0.75000000000000000        0.0000000000000000     
   1.0625000000000000       0.75000000000000000        0.0000000000000000     
   1.0937500000000000       0.75000000000000000        0.0000000000000000     
   1.1250000000000000       0.75000000000000000        0.0000000000000000     
   1.0000000000000000       0.78125000000000000        0.0000000000000000     
   1.0312500000000000       0.78125000000000000        0.0000000000000000     
   1.0625000000000000       0.78125000000000000        0.0000000000000000     
   1.0937500000000000       0.78125000000000000        0.0000000000000000     
   1.1250000000000000       0.78125000000000000        0.0000000000000000     
   1.0000000000000000       0.81250000000000000        0.0000000000000000     
   1.0312500000000000       0.81250000000000000        0.0000000000000000     
   1.0625000000000000       0.81250000000000000        0.0000000000000000     
   1.0937500000000000       0.81250000000000000        0.0000000000000000     
   1.1250000000000000       0.81250000000000000        0.0000000000000000     
   1.0000000000000000       0.84375000000000000        0.0000000000000000     
   1.0312500000000000       0.84375000000000000        0.0000000000000000     
   1.0625000000000000       0.84375000000000000        0.0000000000000000     
   1.0937500000000000       0.84375000000000000        0.0000000000000000     
   1.1250000000000000       0.84375000000000000        0.0000000000000000     
   1.0000000000000000       0.87500000000000000        0.0000000000000000     
   1.0312500000000000       0.87500000000000000        0.0000000000000000     
   1.0625000000000000       0.87500000000000000        0.0000000000000000     
   1.0937500000000000       0.87500000000000000        0.0000000000000000     
   1.1250000000000000       0.87500000000000000        0.0000000000000000     
   1.1250000000000000       0.75000000000000000        0.0000000000000000     
   1.1562500000000000       0.75000000000000000        0.0000000000000000     
   1.1875000000000000       0.75000000000000000        0.0000000000000000     
   1.2187500000000000       0.75000000000000000        0.0000000000000000     
   1.2500000000000000       0.75000000000000000        0.0000000000000000     
   1.1250000000000000       0.78125000000000000        0.0000000000000000     
   1.1562500000000000       0.78125000000000000        0.0000000000000000     
   1.1875000000000000       0.78125000000000000        0.0000000000000000     
   1.2187500000000000       0.78125000000000000        0.0000000000000000     
   1.2500000000000000       0.78125000000000000        0.0000000000000000     
   1.1250000000000000       0.81250000000000000        0.0000000000000000     
   1.1562500000000000       0.81250000000000000        0.0000000000000000     
   1.1875000000000000       0.81250000000000000        0.0000000000000000     
   1.2187500000000000       0.81250000000000000        0.0000000000000000     
   1.2500000000000000       0.81250000000000000        0.0000000000000000     
   1.1250000000000000       0.84375000000000000        0.0000000000000000     
   1.1562500000000000       0.84375000000000000        0.0000000000000000     
   1.1875000000000000       0.84375000000000000        0.0000000000000000     
   1.2187500000000000       0.84375000000000000        0.0000000000000000     
   1.2500000000000000       0.84375000000000000        0.0000000000000000     
   1.1250000000000000       0.87500000000000000        0.0000000000000000     
   1.1562500000000000       0.87500000000000000        0.0000000000000000     
   1.1875000000000000       0.87500000000000000        0.0000000000000000     
   1.2187500000000000       0.87500000000000000        0.0000000000000000     
   1.2500000000000000       0.87500000000000000        0.0000000000000000     
   1.2500000000000000       0.75000000000000000        0.0000000000000000     
   1.2812500000000000       0.75000000000000000        0.0000000000000000     
   1.3125000000000000       0.75000000000000000        0.0000000000000000     
   1.3437500000000000       0.75000000000000000        0.0000000000000000     
   1.3750000000000000       0.75000000000000000        0.0000000000000000     
   1.2500000000000000       0.78125000000000000        0.0000000000000000     
   1.2812500000000000       0.78125000000000000        0.0000000000000000     
   1.3125000000000000       0.78125000000000000        0.0000000000000000     
   1.3437500000000000       0.78125000000000000        0.0000000000000000     
   1.3750000000000000       0.78125000000000000        0.0000000000000000     
   1.2500000000000000       0.81250000000000000        0.0000000000000000     
   1.2812500000000000       0.81250000000000000        0.0000000000000000     
   1.3125000000000000       0.81250000000000000        0.0000000000000000     
   1.3437500000000000       0.81250000000000000        0.0000000000000000     
   1.3750000000000000       0.81250000000000000        0.0000000000000000     
   1.2500000000000000       0.84375000000000000        0.0000000000000000     
   1.2812500000000000       0.84375000000000000        0.0000000000000000     
   1.3125000000000000       0.84375000000000000        0.0000000000000000     
   1.3437500000000000       0.84375000000000000        0.0000000000000000     
   1.3750000000000000       0.84375000000000000        0.0000000000000000     
   1.2500000000000000       0.87500000000000000        0.0000000000000000     
   1.2812500000000000       0.87500000000000000        0.0000000000000000     
   1.3125000000000000       0.87500000000000000        0.0000000000000000     
   1.3437500000000000       0.87500000000000000        0.0000000000000000     
   1.3750000000000000       0.87500000000000000        0.0000000000000000     
   1.3750000000000000       0.75000000000000000        0.0000000000000000     
   1.4062500000000000       0.75000000000000000        0.0000000000000000     
   1.4375000000000000       0.75000000000000000        0.0000000000000000     
   1.4687500000000000       0.75000000000000000        0.0000000000000000     
   1.5000000000000000       0.75000000000000000        0.0000000000000000     
   1.3750000000000000       0.78125000000000000        0.0000000000000000     
   1.4062500000000000       0.78125000000000000        0.0000000000000000     
   1.4375000000000000       0.78125000000000000        0.0000000000000000     
   1.4687500000000000       0.78125000000000000        0.0000000000000000     
   1.5000000000000000       0.78125000000000000        0.0000000000000000     
   1.3750000000000000       0.81250000000000000        0.0000000000000000     
   1.4062500000000000       0.81250000000000000        0.0000000000000000     
   1.4375000000000000       0.81250000000000000        0.0000000000000000     
   1.4687500000000000       0.81250000000000000        0.0000000000000000     
   1.5000000000000000       0.81250000000000000        0.0000000000000000     
   1.3750000000000000       0.84375000000000000        0.0000000000000000     
   1.4062500000000000       0.84375000000000000        0.0000000000000000     
   1.4375000000000000       0.84375000000000000        0.0000000000000000     
   1.4687500000000000       0.84375000000000000        0.0000000000000000     
   1.5000000000000000       0.84375000000000000        0.0000000000000000     
   1.3750000000000000       0.87500000000000000        0.0000000000000000     
   1.4062500000000000       0.87500000000000000        0.0000000000000000     
   1.4375000000000000       0.87500000000000000        0.0000000000000000     
   1.4687500000000000       0.87500000000000000        0.0000000000000000     
   1.5000000000000000       0.87500000000000000        0.0000000000000000     
  0.50000000000000000       0.87500000000000000        0.0000000000000000     
  0.53125000000000000       0.87500000000000000        0.0000000000000000     
  0.56250000000000000       0.87500000000000000        0.0000000000000000     
  0.59375000000000000       0.87500000000000000        0.0000000000000000     
  0.62500000000000000       0.87500000000000000        0.0000000000000000     
  0.50000000000000000       0.90625000000000000        0.0000000000000000     
  0.53125000000000000       0.90625000000000000        0.0000000000000000     
  0.56250000000000000       0.90625000000000000        0.0000000000000000     
  0.59375000000000000       0.90625000000000000        0.0000000000000000     
  0.62500000000000000       0.90625000000000000        0.0000000000000000     
  0.50000000000000000       0.93750000000000000        0.0000000000000000     
  0.53125000000000000       0.93750000000000000        0.0000000000000000     
  0.56250000000000000       0.93750000000000000        0.0000000000000000     
  0.59375000000000000       0.93750000000000000        0.0000000000000000     
  0.62500000000000000       0.93750000000000000        0.0000000000000000     
  0.50000000000000000       0.96875000000000000        0.0000000000000000     
  0.53125000000000000       0.96875000000000000        0.0000000000000000     
  0.56250000000000000       0.96875000000000000        0.0000000000000000     
  0.59375000000000000       0.96875000000000000        0.0000000000000000     
  0.62500000000000000       0.96875000000000000        0.0000000000000000     
  0.50000000000000000        1.0000000000000000        0.0000000000000000     
  0.53125000000000000        1.0000000000000000        0.0000000000000000     
  0.56250000000000000        1.0000000000000000        0.0000000000000000     
  0.59375000000000000        1.0000000000000000        0.0000000000000000     
  0.62500000000000000        1.0000000000000000        0.0000000000000000     
  0.62500000000000000       0.87500000000000000        0.0000000000000000     
  0.65625000000000000       0.87500000000000000        0.0000000000000000     
  0.68750000000000000       0.87500000000000000        0.0000000000000000     
  0.71875000000000000       0.87500000000000000        0.0000000000000000     
  0.75000000000000000       0.87500000000000000        0.0000000000000000     
  0.62500000000000000       0.90625000000000000        0.0000000000000000     
  0.65625000000000000       0.90625000000000000        0.0000000000000000     
  0.68750000000000000       0.90625000000000000        0.0000000000000000     
  0.71875000000000000       0.90625000000000000        0.0000000000000000     
  0.75000000000000000       0.90625000000000000        0.0000000000000000     
  0.62500000000000000       0.93750000000000000        0.0000000000000000     
  0.65625000000000000       0.93750000000000000        0.0000000000000000     
  0.68750000000000000       0.93750000000000000        0.0000000000000000     
  0.71875000000000000       0.93750000000000000        0.0000000000000000     
  0.75000000000000000       0.93750000000000000        0.0000000000000000     
  0.62500000000000000       0.96875000000000000        0.0000000000000000     
  0.65625000000000000       0.96875000000000000        0.0000000000000000     
  0.68750000000000000       0.96875000000000000        0.0000000000000000     
  0.71875000000000000       0.96875000000000000        0.0000000000000000     
  0.75000000000000000       0.96875000000000000        0.0000000000000000     
  0.62500000000000000        1.0000000000000000        0.0000000000000000     
  0.65625000000000000        1.0000000000000000        0.0000000000000000     
  0.68750000000000000        1.0000000000000000        0.0000000000000000     
  0.71875000000000000        1.0000000000000000        0.0000000000000000     
  0.75000000000000000        1.0000000000000000        0.0000000000000000     
  0.75000000000000000       0.87500000000000000        0.0000000000000000     
  0.78125000000000000       0.87500000000000000        0.0000000000000000     
  0.81250000000000000       0.87500000000000000        0.0000000000000000     
  0.84375000000000000       0.87500000000000000        0.0000000000000000     
  0.87500000000000000       0.87500000000000000        0.0000000000000000     
  0.75000000000000000       0.90625000000000000        0.0000000000000000     
  0.78125000000000000       0.90625000000000000        0.0000000000000000     
  0.81250000000000000       0.90625000000000000        0.0000000000000000     
  0.84375000000000000       0.90625000000000000        0.0000000000000000     
  0.87500000000000000       0.90625000000000000        0.0000000000000000     
  0.75000000000000000       0.93750000000000000        0.0000000000000000     
  0.78125000000000000       0.93750000000000000        0.0000000000000000     
  0.81250000000000000       0.93750000000000000        0.0000000000000000     
  0.84375000000000000       0.93750000000000000        0.0000000000000000     
  0.87500000000000000       0.93750000000000000        0.0000000000000000     
  0.75000000000000000       0.96875000000000000        0.0000000000000000     
  0.78125000000000000       0.96875000000000000        0.0000000000000000     
  0.81250000000000000       0.96875000000000000        0.0000000000000000     
  0.84375000000000000       0.96875000000000000        0.0000000000000000     
  0.87500000000000000       0.96875000000000000        0.0000000000000000     
  0.75000000000000000        1.0000000000000000        0.0000000000000000     
  0.78125000000000000        1.0000000000000000        0.0000000000000000     
  0.81250000000000000        1.0000000000000000        0.0000000000000000     
  0.84375000000000000        1.0000000000000000        0.0000000000000000     
  0.87500000000000000        1.0000000000000000        0.0000000000000000     
  0.87500000000000000       0.87500000000000000        0.0000000000000000     
  0.90625000000000000       0.87500000000000000        0.0000000000000000     
  0.93750000000000000       0.87500000000000000        0.0000000000000000     
  0.96875000000000000       0.87500000000000000        0.0000000000000000     
   1.0000000000000000       0.87500000000000000        0.0000000000000000     
  0.87500000000000000       0.90625000000000000        0.0000000000000000     
  0.90625000000000000       0.90625000000000000        0.0000000000000000     
  0.93750000000000000       0.90625000000000000        0.0000000000000000     
  0.96875000000000000       0.90625000000000000        0.0000000000000000     
   1.0000000000000000       0.90625000000000000        0.0000000000000000     
  0.87500000000000000       0.93750000000000000        0.0000000000000000     
  0.90625000000000000       0.93750000000000000        0.0000000000000000     
  0.93750000000000000       0.93750000000000000        0.0000000000000000     
  0.96875000000000000       0.93750000000000000        0.0000000000000000     
   1.0000000000000000       0.93750000000000000        0.0000000000000000     
  0.87500000000000000       0.96875000000000000        0.0000000000000000     
  0.90625000000000000       0.96875000000000000        0.0000000000000000     
  0.93750000000000000       0.96875000000000000        0.0000000000000000     
  0.96875000000000000       0.96875000000000000        0.0000000000000000     
   1.0000000000000000       0.96875000000000000        0.0000000000000000     
  0.87500000000000000        1.0000000000000000        0.0000000000000000     
  0.90625000000000000        1.0000000000000000        0.0000000000000000     
  0.93750000000000000        1.0000000000000000        0.0000000000000000     
  0.96875000000000000        1.0000000000000000        0.0000000000000000     
   1.0000000000000000        1.0000000000000000        0.0000000000000000     
   1.0000000000000000       0.87500000000000000        0.0000000000000000     
   1.0312500000000000       0.87500000000000000        0.0000000000000000     
   1.0625000000000000       0.87500000000000000        0.0000000000000000     
   1.0937500000000000       0.87500000000000000        0.0000000000000000     
   1.1250000000000000       0.87500000000000000        0.0000000000000000     
   1.0000000000000000       0.90625000000000000        0.0000000000000000     
   1.0312500000000000       0.90625000000000000        0.0000000000000000     
   1.0625000000000000       0.90625000000000000        0.0000000000000000     
   1.0937500000000000       0.90625000000000000        0.0000000000000000     
   1.1250000000000000       0.90625000000000000        0.0000000000000000     
   1.0000000000000000       0.93750000000000000        0.0000000000000000     
   1.0312500000000000       0.93750000000000000        0.0000000000000000     
   1.0625000000000000       0.93750000000000000        0.0000000000000000     
   1.0937500000000000       0.93750000000000000        0.0000000000000000     
   1.1250000000000000       0.93750000000000000        0.0000000000000000     
   1.0000000000000000       0.96875000000000000        0.0000000000000000     
   1.0312500000000000       0.96875000000000000        0.0000000000000000     
   1.0625000000000000       0.96875000000000000        0.0000000000000000     
   1.0937500000000000       0.96875000000000000        0.0000000000000000     
   1.1250000000000000       0.96875000000000000        0.0000000000000000     
   1.0000000000000000        1.0000000000000000        0.0000000000000000     
   1.0312500000000000        1.0000000000000000        0.0000000000000000     
   1.0625000000000000        1.0000000000000000        0.0000000000000000     
   1.0937500000000000        1.0000000000000000        0.0000000000000000     
   1.1250000000000000        1.0000000000000000        0.0000000000000000     
   1.1250000000000000       0.87500000000000000        0.0000000000000000     
   1.1562500000000000       0.87500000000000000        0.0000000000000000     
   1.1875000000000000       0.87500000000000000        0.0000000000000000     
   1.2187500000000000       0.87500000000000000        0.0000000000000000     
   1.2500000000000000       0.87500000000000000        0.0000000000000000     
   1.1250000000000000       0.90625000000000000        0.0000000000000000     
   1.1562500000000000       0.90625000000000000        0.0000000000000000     
   1.1875000000000000       0.90625000000000000        0.0000000000000000     
   1.2187500000000000       0.90625000000000000        0.0000000000000000     
   1.2500000000000000       0.90625000000000000        0.0000000000000000     
   1.1250000000000000       0.93750000000000000        0.0000000000000000     
   1.1562500000000000       0.93750000000000000        0.0000000000000000     
   1.1875000000000000       0.93750000000000000        0.0000000000000000     
   1.2187500000000000       0.93750000000000000        0.0000000000000000     
   1.2500000000000000       0.93750000000000000        0.0000000000000000     
   1.1250000000000000       0.96875000000000000        0.0000000000000000     
   1.1562500000000000       0.96875000000000000        0.0000000000000000     
   1.1875000000000000       0.96875000000000000        0.0000000000000000     
   1.2187500000000000       0.96875000000000000        0.0000000000000000     
   1.2500000000000000       0.96875000000000000        0.0000000000000000     
   1.1250000000000000        1.0000000000000000        0.0000000000000000     
   1.1562500000000000        1.0000000000000000        0.0000000000000000     
   1.1875000000000000        1.0000000000000000        0.0000000000000000     
   1.2187500000000000        1.0000000000000000        0.0000000000000000     
   1.2500000000000000        1.0000000000000000        0.0000000000000000     
   1.2500000000000000       0.87500000000000000        0.0000000000000000     
   1.2812500000000000       0.87500000000000000        0.0000000000000000     
   1.3125000000000000       0.87500000000000000        0.0000000000000000     
   1.3437500000000000       0.87500000000000000        0.0000000000000000     
   1.3750000000000000       0.87500000000000000        0.0000000000000000     
   1.2500000000000000       0.90625000000000000        0.0000000000000000     
   1.2812500000000000       0.90625000000000000        0.0000000000000000     
   1.3125000000000000       0.90625000000000000        0.0000000000000000     
   1.3437500000000000       0.90625000000000000        0.0000000000000000     
   1.3750000000000000       0.90625000000000000        0.0000000000000000     
   1.2500000000000000       0.93750000000000000        0.0000000000000000     
   1.2812500000000000       0.93750000000000000        0.0000000000000000     
   1.3125000000000000       0.93750000000000000        0.0000000000000000     
   1.3437500000000000       0.93750000000000000        0.0000000000000000     
   1.3750000000000000       0.93750000000000000        0.0000000000000000     
   1.2500000000000000       0.96875000000000000        0.0000000000000000     
   1.2812500000000000       0.96875000000000000        0.0000000000000000     
   1.3125000000000000       0.96875000000000000        0.0000000000000000     
   1.3437500000000000       0.96875000000000000        0.0000000000000000     
   1.3750000000000000       0.96875000000000000        0.0000000000000000     
   1.2500000000000000        1.0000000000000000        0.0000000000000000     
   1.2812500000000000        1.0000000000000000        0.0000000000000000     
   1.3125000000000000        1.0000000000000000        0.0000000000000000     
   1.3437500000000000        1.0000000000000000        0.0000000000000000     
   1.3750000000000000        1.0000000000000000        0.0000000000000000     
   1.3750000000000000       0.87500000000000000        0.0000000000000000     
   1.4062500000000000       0.87500000000000000        0.0000000000000000     
   1.4375000000000000       0.87500000000000000        0.0000000000000000     
   1.4687500000000000       0.87500000000000000        0.0000000000000000     
   1.5000000000000000       0.87500000000000000        0.0000000000000000     
   1.3750000000000000       0.90625000000000000        0.0000000000000000     
   1.4062500000000000       0.90625000000000000        0.0000000000000000     
   1.4375000000000000       0.90625000000000000        0.0000000000000000     
   1.4687500000000000       0.90625000000000000        0.0000000000000000     
   1.5000000000000000       0.90625000000000000        0.0000000000000000     
   1.3750000000000000       0.93750000000000000        0.0000000000000000     
   1.4062500000000000       0.93750000000000000        0.0000000000000000     
   1.4375000000000000       0.93750000000000000        0.0000000000000000     
   1.4687500000000000       0.93750000000000000        0.0000000000000000     
   1.5000000000000000       0.93750000000000000        0.0000000000000000     
   1.3750000000000000       0.96875000000000000        0.0000000000000000     
   1.4062500000000000       0.96875000000000000        0.0000000000000000     
   1.4375000000000000       0.96875000000000000        0.0000000000000000     
   1.4687500000000000       0.96875000000000000        0.0000000000000000     
   1.5000000000000000       0.96875000000000000        0.0000000000000000     
   1.3750000000000000        1.0000000000000000        0.0000000000000000     
   1.4062500000000000        1.0000000000000000        0.0000000000000000     
   1.4375000000000000        1.0000000000000000        0.0000000000000000     
   1.4687500000000000        1.0000000000000000        0.0000000000000000     
   1.5000000000000000        1.0000000000000000        0.0000000000000000     
 </DataArray>
 </Points>
 <Cells>
 <DataArray  type="Int32"  Name="connectivity"  format="ascii">
           0           1           6           5
           1           2           7           6
           2           3           8           7
           3           4           9           8
           5           6          11          10
           6           7          12          11
           7           8          13          12
           8           9          14          13
          10          11          16          15
          11          12          17          16
          12          13          18          17
          13          14          19          18
          15          16          21          20
          16          17          22          21
          17          18          23          22
          18          19          24          23
          25          26          31          30
          26          27          32          31
          27          28          33          32
          28          29          34          33
          30          31          36          35
          31          32          37          36
          32          33          38          37
          33          34          39          38
          35          36          41          40
          36          37          42          41
          37          38          43          42
          38          39          44          43
          40          41          46          45
          41          42          47          46
          42          43          48          47
          43          44          49          48
          50          51          56          55
          51          52          57          56
          52          53          58          57
          53          54          59          58
          55          56          61          60
          56          57          62          61
          57          58          63          62
          58          59          64          63
          60          61          66          65
          61          62          67          66
          62          63          68          67
          63          64          69          68
          65          66          71          70
          66          67          72          71
          67          68          73          72
          68          69          74          73
          75          76          81          80
          76          77          82          81
          77          78          83          82
          78          79          84          83
          80          81          86          85
          81          82          87          86
          82          83          88          87
          83          84          89          88
          85          86          91          90
          86          87          92          91
          87          88          93          92
          88          89          94          93
          90          91          96          95
          91          92          97          96
          92          93          98          97
          93          94          99          98
         100         101         106         105
         101         102         107         106
         102         103         108         107
         103         104         109         108
         105         106         111         110
         106         107         112         111
         107         108         113         112
         108         109         114         113
         110         111         116         115
         111         112         117         116
         112         113         118         117
         113         114         119         118
         115         116         121         120
         116         117         122         121
         117         118         123         122
         118         119         124         123
         125         126         131         130
         126         127         132         131
         127         128         133         132
         128         129         134         133
         130         131         136         135
         131         132         137         136
         132         133         138         137
         133         134         139         138
         135         136         141         140
         136         137         142         141
         137         138         143         142
         138         139         144         143
         140         141         146         145
         141         142         147         146
         142         143         148         147
         143         144         149         148
         150         151         156         155
         151         152         157         156
         152         153         158         157
         153         154         159         158
         155         156         161         160
         156         157         162         161
         157         158         163         162
         158         159         164         163
         160         161         166         165
         161         162         167         166
         162         163         168         167
         163         164         169         168
         165         166         171         170
         166         167         172         171
         167         168         173         172
         168         169         174         173
         175         176         181         180
         176         177         182         181
         177         178         183         182
         178         179         184         183
         180         181         186         185
         181         182         187         186
         182         183         188         187
         183         184         189         188
         185         186         191         190
         186         187         192         191
         187         188         193         192
         188         189         194         193
         190         191         196         195
         191         192         197         196
         192         193         198         197
         193         194         199         198
         200         201         206         205
         201         202         207         206
         202         203         208         207
         203         204         209         208
         205         206         211         210
         206         207         212         211
         207         208         213         212
         208         209         214         213
         210         211         216         215
         211         212         217         216
         212         213         218         217
         213         214         219         218
         215         216         221         220
         216         217         222         221
         217         218         223         222
         218         219         224         223
         225         226         231         230
         226         227         232         231
         227         228         233         232
         228         229         234         233
         230         231         236         235
         231         232         237         236
         232         233         238         237
         233         234         239         238
         235         236         241         240
         236         237         242         241
         237         238         243         242
         238         239         244         243
         240         241         246         245
         241         242         247         246
         242         243         248         247
         243         244         249         248
         250         251         256         255
         251         252         257         256
         252         253         258         257
         253         254         259         258
         255         256         261         260
         256         257         262         261
         257         258         263         262
         258         259         264         263
         260         261         266         265
         261         262         267         266
         262         263         268         267
         263         264         269         268
         265         266         271         270
         266         267         272         271
         267         268         273         272
         268         269         274         273
         275         276         281         280
         276         277         282         281
         277         278         283         282
         278         279         284         283
         280         281         286         285
         281         282         287         286
         282         283         288         287
         283         284         289         288
         285         286         291         290
         286         287         292         291
         287         288         293         292
         288         289         294         293
         290         291         296         295
         291         292         297         296
         292         293         298         297
         293         294         299         298
         300         301         306         305
         301         302         307         306
         302         303         308         307
         303         304         309         308
         305         306         311         310
         306         307         312         311
         307         308         313         312
         308         309         314         313
         310         311         316         315
         311         312         317         316
         312         313         318         317
         313         314         319         318
         315         316         321         320
         316         317         322         321
         317         318         323         322
         318         319         324         323
         325         326         331         330
         326         327         332         331
         327         328         333         332
         328         329         334         333
         330         331         336         335
         331         332         337         336
         332         333         338         337
         333         334         339         338
         335         336         341         340
         336         337         342         341
         337         338         343         342
         338         339         344         343
         340         341         346         345
         341         342         347         346
         342         343         348         347
         343         344         349         348
         350         351         356         355
         351         352         357         356
         352         353         358         357
         353         354         359         358
         355         356         361         360
         356         357         362         361
         357         358         363         362
         358         359         364         363
         360         361         366         365
         361         362         367         366
         362         363         368         367
         363         364         369         368
         365         366         371         370
         366         367         372         371
         367         368         373         372
         368         369         374         373
         375         376         381         380
         376         377         382         381
         377         378         383         382
         378         379         384         383
         380         381         386         385
         381         382         387         386
         382         383         388         387
         383         384         389         388
         385         386         391         390
         386         387         392         391
         387         388         393         392
         388         389         394         393
         390         391         396         395
         391         392         397         396
         392         393         398         397
         393         394         399         398
         400         401         406         405
         401         402         407         406
         402         403         408         407
         403         404         409         408
         405         406         411         410
         406         407         412         411
         407         408         413         412
         408         409         414         413
         410         411         416         415
         411         412         417         416
         412         413         418         417
         413         414         419         418
         415         416         421         420
         416         417         422         421
         417         418         423         422
         418         419         424         423
         425         426         431         430
         426         427         432         431
         427         428         433         432
         428         429         434         433
         430         431         436         435
         431         432         437         436
         432         433         438         437
         433         434         439         438
         435         436         441         440
         436         437         442         441
         437         438         443         442
         438         439         444         443
         440         441         446         445
         441         442         447         446
         442         443         448         447
         443         444         449         448
         450         451         456         455
         451         452         457         456
         452         453         458         457
         453         454         459         458
         455         456         461         460
         456         457         462         461
         457         458         463         462
         458         459         464         463
         460         461         466         465
         461         462         467         466
         462         463         468         467
         463         464         469         468
         465         466         471         470
         466         467         472         471
         467         468         473         472
         468         469         474         473
         475         476         481         480
         476         477         482         481
         477         478         483         482
         478         479         484         483
         480         481         486         485
         481         482         487         486
         482         483         488         487
         483         484         489         488
         485         486         491         490
         486         487         492         491
         487         488         493         492
         488         489         494         493
         490         491         496         495
         491         492         497         496
         492         493         498         497
         493         494         499         498
         500         501         506         505
         501         502         507         506
         502         503         508         507
         503         504         509         508
         505         506         511         510
         506         507         512         511
         507         508         513         512
         508         509         514         513
         510         511         516         515
         511         512         517         516
         512         513         518         517
         513         514         519         518
         515         516         521         520
         516         517         522         521
         517         518         523         522
         518         519         524         523
         525         526         531         530
         526         527         532         531
         527         528         533         532
         528         529         534         533
         530         531         536         535
         531         532         537         536
         532         533         538         537
         533         534         539         538
         535         536         541         540
         536         537         542         541
         537         538         543         542
         538         539         544         543
         540         541         546         545
         541         542         547         546
         542         543         548         547
         543         544         549         548
         550         551         556         555
         551         552         557         556
         552         553         558         557
         553         554         559         558
         555         556         561         560
         556         557         562         561
         557         558         563         562
         558         559         564         563
         560         561         566         565
         561         562         567         566
         562         563         568         567
         563         564         569         568
         565         566         571         570
         566         567         572         571
         567         568         573         572
         568         569         574         573
         575         576         581         580
         576         577         582         581
         577         578         583         582
         578         579         584         583
         580         581         586         585
         581         582         587         586
         582         583         588         587
         583         584         589         588
         585         586         591         590
         586         587         592         591
         587         588         593         592
         588         589         594         593
         590         591         596         595
         591         592         597         596
         592         593         598         597
         593         594         599         598
         600         601         606         605
         601         602         607         606
         602         603         608         607
         603         604         609         608
         605         606         611         610
         606         607         612         611
         607         608         613         612
         608         609         614         613
         610         611         616         615
         611         612         617         616
         612         613         618         617
         613         614         619         618
         615         616         621         620
         616         617         622         621
         617         618         623         622
         618         619         624         623
         625         626         631         630
         626         627         632         631
         627         628         633         632
         628         629         634         633
         630         631         636         635
         631         632         637         636
         632         633         638         637
         633         634         639         638
         635         636         641         640
         636         637         642         641
         637         638         643         642
         638         639         644         643
         640         641         646         645
         641         642         647         646
         642         643         648         647
         643         644         649         648
         650         651         656         655
         651         652         657         656
         652         653         658         657
         653         654         659         658
         655         656         661         660
         656         657         662         661
         657         658         663         662
         658         659         664         663
         660         661         666         665
         661         662         667         666
         662         663         668         667
         663         664         669         668
         665         666         671         670
         666         667         672         671
         667         668         673         672
         668         669         674         673
         675         676         681         680
         676         677         682         681
         677         678         683         682
         678         679         684         683
         680         681         686         685
         681         682         687         686
         682         683         688         687
         683         684         689         688
         685         686         691         690
         686         687         692         691
         687         688         693         692
         688         689         694         693
         690         691         696         695
         691         692         697         696
         692         693         698         697
         693         694         699         698
         700         701         706         705
         701         702         707         706
         702         703         708         707
         703         704         709         708
         705         706         711         710
         706         707         712         711
         707         708         713         712
         708         709         714         713
         710         711         716         715
         711         712         717         716
         712         713         718         717
         713         714         719         718
         715         716         721         720
         716         717         722         721
         717         718         723         722
         718         719         724         723
         725         726         731         730
         726         727         732         731
         727         728         733         732
         728         729         734         733
         730         731         736         735
         731         732         737         736
         732         733         738         737
         733         734         739         738
         735         736         741         740
         736         737         742         741
         737         738         743         742
         738         739         744         743
         740         741         746         745
         741         742         747         746
         742         743         748         747
         743         744         749         748
         750         751         756         755
         751         752         757         756
         752         753         758         757
         753         754         759         758
         755         756         761         760
         756         757         762         761
         757         758         763         762
         758         759         764         763
         760         761         766         765
         761         762         767         766
         762         763         768         767
         763         764         769         768
         765         766         771         770
         766         767         772         771
         767         768         773         772
         768         769         774         773
         775         776         781         780
         776         777         782         781
         777         778         783         782
         778         779         784         783
         780         781         786         785
         781         782         787         786
         782         783         788         787
         783         784         789         788
         785         786         791         790
         786         787         792         791
         787         788         793         792
         788         789         794         793
         790         791         796         795
         791         792         797         796
         792         793         798         797
         793         794         799         798
         800         801         806         805
         801         802         807         806
         802         803         808         807
         803         804         809         808
         805         806         811         810
         806         807         812         811
         807         808         813         812
         808         809         814         813
         810         811         816         815
         811         812         817         816
         812         813         818         817
         813         814         819         818
         815         816         821         820
         816         817         822         821
         817         818         823         822
         818         819         824         823
         825         826         831         830
         826         827         832         831
         827         828         833         832
         828         829         834         833
         830         831         836         835
         831         832         837         836
         832         833         838         837
         833         834         839         838
         835         836         841         840
         836         837         842         841
         837         838         843         842
         838         839         844         843
         840         841         846         845
         841         842         847         846
         842         843         848         847
         843         844         849         848
         850         851         856         855
         851         852         857         856
         852         853         858         857
         853         854         859         858
         855         856         861         860
         856         857         862         861
         857         858         863         862
         858         859         864         863
         860         861         866         865
         861         862         867         866
         862         863         868         867
         863         864         869         868
         865         866         871         870
         866         867         872         871
         867         868         873         872
         868         869         874         873
         875         876         881         880
         876         877         882         881
         877         878         883         882
         878         879         884         883
         880         881         886         885
         881         882         887         886
         882         883         888         887
         883         884         889         888
         885         886         891         890
         886         887         892         891
         887         888         893         892
         888         889         894         893
         890         891         896         895
         891         892         897         896
         892         893         898         897
         893         894         899         898
         900         901         906         905
         901         902         907         906
         902         903         908         907
         903         904         909         908
         905         906         911         910
         906         907         912         911
         907         908         913         912
         908         909         914         913
         910         911         916         915
         911         912         917         916
         912         913         918         917
         913         914         919         918
         915         916         921         920
         916         917         922         921
         917         918         923         922
         918         919         924         923
         925         926         931         930
         926         927         932         931
         927         928         933         932
         928         929         934         933
         930         931         936         935
         931         932         937         936
         932         933         938         937
         933         934         939         938
         935         936         941         940
         936         937         942         941
         937         938         943         942
         938         939         944         943
         940         941         946         945
         941         942         947         946
         942         943         948         947
         943         944         949         948
         950         951         956         955
         951         952         957         956
         952         953         958         957
         953         954         959         958
         955         956         961         960
         956         957         962         961
         957         958         963         962
         958         959         964         963
         960         961         966         965
         961         962         967         966
         962         963         968         967
         963         964         969         968
         965         966         971         970
         966         967         972         971
         967         968         973         972
         968         969         974         973
         975         976         981         980
         976         977         982         981
         977         978         983         982
         978         979         984         983
         980         981         986         985
         981         982         987         986
         982         983         988         987
         983         984         989         988
         985         986         991         990
         986         987         992         991
         987         988         993         992
         988         989         994         993
         990         991         996         995
         991         992         997         996
         992         993         998         997
         993         994         999         998
        1000        1001        1006        1005
        1001        1002        1007        1006
        1002        1003        1008        1007
        1003        1004        1009        1008
        1005        1006        1011        1010
        1006        1007        1012        1011
        1007        1008        1013        1012
        1008        1009        1014        1013
        1010        1011        1016        1015
        1011        1012        1017        1016
        1012        1013        1018        1017
        1013        1014        1019        1018
        1015        1016        1021        1020
        1016        1017        1022        1021
        1017        1018        1023        1022
        1018        1019        1024        1023
        1025        1026        1031        1030
        1026        1027        1032        1031
        1027        1028        1033        1032
        1028        1029        1034        1033
        1030        1031        1036        1035
        1031        1032        1037        1036
        1032        1033        1038        1037
        1033        1034        1039        1038
        1035        1036        1041        1040
        1036        1037        1042        1041
        1037        1038        1043        1042
        1038        1039        1044        1043
        1040        1041        1046        1045
        1041        1042        1047        1046
        1042        1043        1048        1047
        1043        1044        1049        1048
        1050        1051        1056        1055
        1051        1052        1057        1056
        1052        1053        1058        1057
        1053        1054        1059        1058
        1055        1056        1061        1060
        1056        1057        1062        1061
        1057        1058        1063        1062
        1058        1059        1064        1063
        1060        1061        1066        1065
        1061        1062        1067        1066
        1062        1063        1068        1067
        1063        1064        1069        1068
        1065        1066        1071        1070
        1066        1067        1072        1071
        1067        1068        1073        1072
        1068        1069        1074        1073
        1075        1076        1081        1080
        1076        1077        1082        1081
        1077        1078        1083        1082
        1078        1079        1084        1083
        1080        1081        1086        1085
        1081        1082        1087        1086
        1082        1083        1088        1087
        1083        1084        1089        1088
        1085        1086        1091        1090
        1086        1087        1092        1091
        1087        1088        1093        1092
        1088        1089        1094        1093
        1090        1091        1096        1095
        1091        1092        1097        1096
        1092        1093        1098        1097
        1093        1094        1099        1098
        1100        1101        1106        1105
        1101        1102        1107        1106
        1102        1103        1108        1107
        1103        1104        1109        1108
        1105        1106        1111        1110
        1106        1107        1112        1111
        1107        1108        1113        1112
        1108        1109        1114        1113
        1110        1111        1116        1115
        1111        1112        1117        1116
        1112        1113        1118        1117
        1113        1114        1119        1118
        1115        1116        1121        1120
        1116        1117        1122        1121
        1117        1118        1123        1122
        1118        1119        1124        1123
        1125        1126        1131        1130
        1126        1127        1132        1131
        1127        1128        1133        1132
        1128        1129        1134        1133
        1130        1131        1136        1135
        1131        1132        1137        1136
        1132        1133        1138        1137
        1133        1134        1139        1138
        1135        1136        1141        1140
        1136        1137        1142        1141
        1137        1138        1143        1142
        1138        1139        1144        1143
        1140        1141        1146        1145
        1141        1142        1147        1146
        1142        1143        1148        1147
        1143        1144        1149        1148
        1150        1151        1156        1155
        1151        1152        1157        1156
        1152        1153        1158        1157
        1153        1154        1159        1158
        1155        1156        1161        1160
        1156        1157        1162        1161
        1157        1158        1163        1162
        1158        1159        1164        1163
        1160        1161        1166        1165
        1161        1162        1167        1166
        1162        1163        1168        1167
        1163        1164        1169        1168
        1165        1166        1171        1170
        1166        1167        1172        1171
        1167        1168        1173        1172
        1168        1169        1174        1173
        1175        1176        1181        1180
        1176        1177        1182        1181
        1177        1178        1183        1182
        1178        1179        1184        1183
        1180        1181        1186        1185
        1181        1182        1187        1186
        1182        1183        1188        1187
        1183        1184        1189        1188
        1185        1186        1191        1190
        1186        1187        1192        1191
        1187        1188        1193        1192
        1188        1189        1194        1193
        1190        1191        1196        1195
        1191        1192        1197        1196
        1192        1193        1198        1197
        1193        1194        1199        1198
        1200        1201        1206        1205
        1201        1202        1207        1206
        1202        1203        1208        1207
        1203        1204        1209        1208
        1205        1206        1211        1210
        1206        1207        1212        1211
        1207        1208        1213        1212
        1208        1209        1214        1213
        1210        1211        1216        1215
        1211        1212        1217        1216
        1212        1213        1218        1217
        1213        1214        1219        1218
        1215        1216        1221        1220
        1216        1217        1222        1221
        1217        1218        1223        1222
        1218        1219        1224        1223
        1225        1226        1231        1230
        1226        1227        1232        1231
        1227        1228        1233        1232
        1228        1229        1234        1233
        1230        1231        1236        1235
        1231        1232        1237        1236
        1232        1233        1238        1237
        1233        1234        1239        1238
        1235        1236        1241        1240
        1236        1237        1242        1241
        1237        1238        1243        1242
        1238        1239        1244        1243
        1240        1241        1246        1245
        1241        1242        1247        1246
        1242        1243        1248        1247
        1243        1244        1249        1248
        1250        1251        1256        1255
        1251        1252        1257        1256
        1252        1253        1258        1257
        1253        1254        1259        1258
        1255        1256        1261        1260
        1256        1257        1262        1261
        1257        1258        1263        1262
        1258        1259        1264        1263
        1260        1261        1266        1265
        1261        1262        1267        1266
        1262        1263        1268        1267
        1263        1264        1269        1268
        1265        1266        1271        1270
        1266        1267        1272        1271
        1267        1268        1273        1272
        1268        1269        1274        1273
        1275        1276        1281        1280
        1276        1277        1282        1281
        1277        1278        1283        1282
        1278        1279        1284        1283
        1280        1281        1286        1285
        1281        1282        1287        1286
        1282        1283        1288        1287
        1283        1284        1289        1288
        1285        1286        1291        1290
        1286        1287        1292        1291
        1287        1288        1293        1292
        1288        1289        1294        1293
        1290        1291        1296        1295
        1291        1292        1297        1296
        1292        1293        1298        1297
        1293        1294        1299        1298
        1300        1301        1306        1305
        1301        1302        1307        1306
        1302        1303        1308        1307
        1303        1304        1309        1308
        1305        1306        1311        1310
        1306        1307        1312        1311
        1307        1308        1313        1312
        1308        1309        1314        1313
        1310        1311        1316        1315
        1311        1312        1317        1316
        1312        1313        1318        1317
        1313        1314        1319        1318
        1315        1316        1321        1320
        1316        1317        1322        1321
        1317        1318        1323        1322
        1318        1319        1324        1323
        1325        1326        1331        1330
        1326        1327        1332        1331
        1327        1328        1333        1332
        1328        1329        1334        1333
        1330        1331        1336        1335
        1331        1332        1337        1336
        1332        1333        1338        1337
        1333        1334        1339        1338
        1335        1336        1341        1340
        1336        1337        1342        1341
        1337        1338        1343        1342
        1338        1339        1344        1343
        1340        1341        1346        1345
        1341        1342        1347        1346
        1342        1343        1348        1347
        1343        1344        1349        1348
        1350        1351        1356        1355
        1351        1352        1357        1356
        1352        1353        1358        1357
        1353        1354        1359        1358
        1355        1356        1361        1360
        1356        1357        1362        1361
        1357        1358        1363        1362
        1358        1359        1364        1363
        1360        1361        1366        1365
        1361        1362        1367        1366
        1362        1363        1368        1367
        1363        1364        1369        1368
        1365        1366        1371        1370
        1366        1367        1372        1371
        1367        1368        1373        1372
        1368        1369        1374        1373
        1375        1376        1381        1380
        1376        1377        1382        1381
        1377        1378        1383        1382
        1378        1379        1384        1383
        1380        1381        1386        1385
        1381        1382        1387        1386
        1382        1383        1388        1387
        1383        1384        1389        1388
        1385        1386        1391        1390
        1386        1387        1392        1391
        1387        1388        1393        1392
        1388        1389        1394        1393
        1390        1391        1396        1395
        1391        1392        1397        1396
        1392        1393        1398        1397
        1393        1394        1399        1398
        1400        1401        1406        1405
        1401        1402        1407        1406
        1402        1403        1408        1407
        1403        1404        1409        1408
        1405        1406        1411        1410
        1406        1407        1412        1411
        1407        1408        1413        1412
        1408        1409        1414        1413
        1410        1411        1416        1415
        1411        1412        1417        1416
        1412        1413        1418        1417
        1413        1414        1419        1418
        1415        1416        1421        1420
        1416        1417        1422        1421
        1417        1418        1423        1422
        1418        1419        1424        1423
        1425        1426        1431        1430
        1426        1427        1432        1431
        1427        1428        1433        1432
        1428        1429        1434        1433
        1430        1431        1436        1435
        1431        1432        1437        1436
        1432        1433        1438        1437
        1433        1434        1439        1438
        1435        1436        1441        1440
        1436        1437        1442        1441
        1437        1438        1443        1442
        1438        1439        1444        1443
        1440        1441        1446        1445
        1441        1442        1447        1446
        1442        1443        1448        1447
        1443        1444        1449        1448
        1450        1451        1456        1455
        1451        1452        1457        1456
        1452        1453        1458        1457
        1453        1454        1459        1458
        1455        1456        1461        1460
        1456        1457        1462        1461
        1457        1458        1463        1462
        1458        1459        1464        1463
        1460        1461        1466        1465
        1461        1462        1467        1466
        1462        1463        1468        1467
        1463        1464        1469        1468
        1465        1466        1471        1470
        1466        1467        1472        1471
        1467        1468        1473        1472
        1468        1469        1474        1473
        1475        1476        1481        1480
        1476        1477        1482        1481
        1477        1478        1483        1482
        1478        1479        1484        1483
        1480        1481        1486        1485
        1481        1482        1487        1486
        1482        1483        1488        1487
        1483        1484        1489        1488
        1485        1486        1491        1490
        1486        1487        1492        1491
        1487        1488        1493        1492
        1488        1489        1494        1493
        1490        1491        1496        1495
        1491        1492        1497        1496
        1492        1493        1498        1497
        1493        1494        1499        1498
        1500        1501        1506        1505
        1501        1502        1507        1506
        1502        1503        1508        1507
        1503        1504        1509        1508
        1505        1506        1511        1510
        1506        1507        1512        1511
        1507        1508        1513        1512
        1508        1509        1514        1513
        1510        1511        1516        1515
        1511        1512        1517        1516
        1512        1513        1518        1517
        1513        1514        1519        1518
        1515        1516        1521        1520
        1516        1517        1522        1521
        1517        1518        1523        1522
        1518        1519        1524        1523
        1525        1526        1531        1530
        1526        1527        1532        1531
        1527        1528        1533        1532
        1528        1529        1534        1533
        1530        1531        1536        1535
        1531        1532        1537        1536
        1532        1533        1538        1537
        1533        1534        1539        1538
        1535        1536        1541        1540
        1536        1537        1542        1541
        1537        1538        1543        1542
        1538        1539        1544        1543
        1540        1541        1546        1545
        1541        1542        1547        1546
        1542        1543        1548        1547
        1543        1544        1549        1548
        1550        1551        1556        1555
        1551        1552        1557        1556
        1552        1553        1558        1557
        1553        1554        1559        1558
        1555        1556        1561        1560
        1556        1557        1562        1561
        1557        1558        1563        1562
        1558        1559        1564        1563
        1560        1561        1566        1565
        1561        1562        1567        1566
        1562        1563        1568        1567
        1563        1564        1569        1568
        1565        1566        1571        1570
        1566        1567        1572        1571
        1567        1568        1573        1572
        1568        1569        1574        1573
        1575        1576        1581        1580
        1576        1577        1582        1581
        1577        1578        1583        1582
        1578        1579        1584        1583
        1580        1581        1586        1585
        1581        1582        1587        1586
        1582        1583        1588        1587
        1583        1584        1589        1588
        1585        1586        1591        1590
        1586        1587        1592        1591
        1587        1588        1593        1592
        1588        1589        1594        1593
        1590        1591        1596        1595
        1591        1592        1597        1596
        1592        1593        1598        1597
        1593        1594        1599        1598
 </DataArray>
 <DataArray  type="Int32"  Name="offsets"  format="ascii"> 
           4
           8
          12
          16
          20
          24
          28
          32
          36
          40
          44
          48
          52
          56
          60
          64
          68
          72
          76
          80
          84
          88
          92
          96
         100
         104
         108
         112
         116
         120
         124
         128
         132
         136
         140
         144
         148
         152
         156
         160
         164
         168
         172
         176
         180
         184
         188
         192
         196
         200
         204
         208
         212
         216
         220
         224
         228
         232
         236
         240
         244
         248
         252
         256
         260
         264
         268
         272
         276
         280
         284
         288
         292
         296
         300
         304
         308
         312
         316
         320
         324
         328
         332
         336
         340
         344
         348
         352
         356
         360
         364
         368
         372
         376
         380
         384
         388
         392
         396
         400
         404
         408
         412
         416
         420
         424
         428
         432
         436
         440
         444
         448
         452
         456
         460
         464
         468
         472
         476
         480
         484
         488
         492
         496
         500
         504
         508
         512
         516
         520
         524
         528
         532
         536
         540
         544
         548
         552
         556
         560
         564
         568
         572
         576
         580
         584
         588
         592
         596
         600
         604
         608
         612
         616
         620
         624
         628
         632
         636
         640
         644
         648
         652
         656
         660
         664
         668
         672
         676
         680
         684
         688
         692
         696
         700
         704
         708
         712
         716
         720
         724
         728
         732
         736
         740
         744
         748
         752
         756
         760
         764
         768
         772
         776
         780
         784
         788
         792
         796
         800
         804
         808
         812
         816
         820
         824
         828
         832
         836
         840
         844
         848
         852
         856
         860
         864
         868
         872
         876
         880
         884
         888
         892
         896
         900
         904
         908
         912
         916
         920
         924
         928
         932
         936
         940
         944
         948
         952
         956
         960
         964
         968
         972
         976
         980
         984
         988
         992
         996
        1000
        1004
        1008
        1012
        1016
        1020
        1024
        1028
        1032
        1036
        1040
        1044
        1048
        1052
        1056
        1060
        1064
        1068
        1072
        1076
        1080
        1084
        1088
        1092
        1096
        1100
        1104
        1108
        1112
        1116
        1120
        1124
        1128
        1132
        1136
        1140
        1144
        1148
        1152
        1156
        1160
        1164
        1168
        1172
        1176
        1180
        1184
        1188
        1192
        1196
        1200
        1204
        1208
        1212
        1216
        1220
        1224
        1228
        1232
        1236
        1240
        1244
        1248
        1252
        1256
        1260
        1264
        1268
        1272
        1276
        1280
        1284
        1288
        1292
        1296
        1300
        1304
        1308
        1312
        1316
        1320
        1324
        1328
        1332
        1336
        1340
        1344
        1348
        1352
        1356
        1360
        1364
        1368
        1372
        1376
        1380
        1384
        1388
        1392
        1396
        1400
        1404
        1408
        1412
        1416
        1420
        1424
        1428
        1432
        1436
        1440
        1444
        1448
        1452
        1456
        1460
        1464
        1468
        1472
        1476
        1480
        1484
        1488
        1492
        1496
        1500
        1504
        1508
        1512
        1516
        1520
        1524
        1528
        1532
        1536
        1540
        1544
        1548
        1552
        1556
        1560
        1564
        1568
        1572
        1576
        1580
        1584
        1588
        1592
        1596
        1600
        1604
        1608
        1612
        1616
        1620
        1624
        1628
        1632
        1636
        1640
        1644
        1648
        1652
        1656
        1660
        1664
        1668
        1672
        1676
        1680
        1684
        1688
        1692
        1696
        1700
        1704
        1708
        1712
        1716
        1720
        1724
        1728
        1732
        1736
        1740
        1744
        1748
        1752
        1756
        1760
        1764
        1768
        1772
        1776
        1780
        1784
        1788
        1792
        1796
        1800
        1804
        1808
        1812
        1816
        1820
        1824
        1828
        1832
        1836
        1840
        1844
        1848
        1852
        1856
        1860
        1864
        1868
        1872
        1876
        1880
        1884
        1888
        1892
        1896
        1900
        1904
        1908
        1912
        1916
        1920
        1924
        1928
        1932
        1936
        1940
        1944
        1948
        1952
        1956
        1960
        1964
        1968
        1972
        1976
        1980
        1984
        1988
        1992
        1996
        2000
        2004
        2008
        2012
        2016
        2020
        2024
        2028
        2032
        2036
        2040
        2044
        2048
        2052
        2056
        2060
        2064
        2068
        2072
        2076
        2080
        2084
        2088
        2092
        2096
        2100
        2104
        2108
        2112
        2116
        2120
        2124
        2128
        2132
        2136
        2140
        2144
        2148
        2152
        2156
        2160
        2164
        2168
        2172
        2176
        2180
        2184
        2188
        2192
        2196
        2200
        2204
        2208
        2212
        2216
        2220
        2224
        2228
        2232
        2236
        2240
        2244
        2248
        2252
        2256
        2260
        2264
        2268
        2272
        2276
        2280
        2284
        2288
        2292
        2296
        2300
        2304
        2308
        2312
        2316
        2320
        2324
        2328
        2332
        2336
        2340
        2344
        2348
        2352
        2356
        2360
        2364
        2368
        2372
        2376
        2380
        2384
        2388
        2392
        2396
        2400
        2404
        2408
        2412
        2416
        2420
        2424
        2428
        2432
        2436
        2440
        2444
        2448
        2452
        2456
        2460
        2464
        2468
        2472
        2476
        2480
        2484
        2488
        2492
        2496
        2500
        2504
        2508
        2512
        2516
        2520
        2524
        2528
        2532
        2536
        2540
        2544
        2548
        2552
        2556
        2560
        2564
        2568
        2572
        2576
        2580
        2584
        2588
        2592
        2596
        2600
        2604
        2608
        2612
        2616
        2620
        2624
        2628
        2632
        2636
        2640
        2644
        2648
        2652
        2656
        2660
        2664
        2668
        2672
        2676
        2680
        2684
        2688
        2692
        2696
        2700
        2704
        2708
        2712
        2716
        2720
        2724
        2728
        2732
        2736
        2740
        2744
        2748
        2752
        2756
        2760
        2764
        2768
        2772
        2776
        2780
        2784
        2788
        2792
        2796
        2800
        2804
        2808
        2812
        2816
        2820
        2824
        2828
        2832
        2836
        2840
        2844
        2848
        2852
        2856
        2860
        2864
        2868
        2872
        2876
        2880
        2884
        2888
        2892
        2896
        2900
        2904
        2908
        2912
        2916
        2920
        2924
        2928
        2932
        2936
        2940
        2944
        2948
        2952
        2956
        2960
        2964
        2968
        2972
        2976
        2980
        2984
        2988
        2992
        2996
        3000
        3004
        3008
        3012
        3016
        3020
        3024
        3028
        3032
        3036
        3040
        3044
        3048
        3052
        3056
        3060
        3064
        3068
        3072
        3076
        3080
        3084
        3088
        3092
        3096
        3100
        3104
        3108
        3112
        3116
        3120
        3124
        3128
        3132
        3136
        3140
        3144
        3148
        3152
        3156
        3160
        3164
        3168
        3172
        3176
        3180
        3184
        3188
        3192
        3196
        3200
        3204
        3208
        3212
        3216
        3220
        3224
        3228
        3232
        3236
        3240
        3244
        3248
        3252
        3256
        3260
        3264
        3268
        3272
        3276
        3280
        3284
        3288
        3292
        3296
        3300
        3304
        3308
        3312
        3316
        3320
        3324
        3328
        3332
        3336
        3340
        3344
        3348
        3352
        3356
        3360
        3364
        3368
        3372
        3376
        3380
        3384
        3388
        3392
        3396
        3400
        3404
        3408
        3412
        3416
        3420
        3424
        3428
        3432
        3436
        3440
        3444
        3448
        3452
        3456
        3460
        3464
        3468
        3472
        3476
        3480
        3484
        3488
        3492
        3496
        3500
        3504
        3508
        3512
        3516
        3520
        3524
        3528
        3532
        3536
        3540
        3544
        3548
        3552
        3556
        3560
        3564
        3568
        3572
        3576
        3580
        3584
        3588
        3592
        3596
        3600
        3604
        3608
        3612
        3616
        3620
        3624
        3628
        3632
        3636
        3640
        3644
        3648
        3652
        3656
        3660
        3664
        3668
        3672
        3676
        3680
        3684
        3688
        3692
        3696
        3700
        3704
        3708
        3712
        3716
        3720
        3724
        3728
        3732
        3736
        3740
        3744
        3748
        3752
        3756
        3760
        3764
        3768
        3772
        3776
        3780
        3784
        3788
        3792
        3796
        3800
        3804
        3808
        3812
        3816
        3820
        3824
        3828
        3832
        3836
        3840
        3844
        3848
        3852
        3856
        3860
        3864
        3868
        3872
        3876
        3880
        3884
        3888
        3892
        3896
        3900
        3904
        3908
        3912
        3916
        3920
        3924
        3928
        3932
        3936
        3940
        3944
        3948
        3952
        3956
        3960
        3964
        3968
        3972
        3976
        3980
        3984
        3988
        3992
        3996
        4000
        4004
        4008
        4012
        4016
        4020
        4024
        4028
        4032
        4036
        4040
        4044
        4048
        4052
        4056
        4060
        4064
        4068
        4072
        4076
        4080
        4084
        4088
        4092
        4096
 </DataArray>
 <DataArray  type="UInt8"  Name="types"  format="ascii">
 9
 9
 9
 9
 9
 9
 9
 9
 9
 9
 9
 9
 9
 9
 9
 9
 9
 9
 9
 9
 9
 9
 9
 9
 9
 9
 9
 9
 9
 9
 9
 9
 9
 9
 9
 9
 9
 9
 9
 9
 9
 9
 9
 9
 9
 9
 9
 9
 9
 9
 9
 9
 9
 9
 9
 9
 9
 9
 9
 9
 9
 9
 9
 9
 9
 9
 9
 9
 9
 9
 9
 9
 9
 9
 9
 9
 9
 9
 9
 9
 9
 9
 9
 9
 9
 9
 9
 9
 9
 9
 9
 9
 9
 9
 9
 9
 9
 9
 9
 9
 9
 9
 9
 9
 9
 9
 9
 9
 9
 9
 9
 9
 9
 9
 9
 9
 9
 9
 9
 9
 9
 9
 9
 9
 9
 9
 9
 9
 9
 9
 9
 9
 9
 9
 9
 9
 9
 9
 9
 9
 9
 9
 9
 9
 9
 9
 9
 9
 9
 9
 9
 9
 9
 9
 9
 9
 9
 9
 9
 9
 9
 9
 9
 9
 9
 9
 9
 9
 9
 9
 9
 9
 9
 9
 9
 9
 9
 9
 9
 9
 9
 9
 9
 9
 9
 9
 9
 9
 9
 9
 9
 9
 9
 9
 9
 9
 9
 9
 9
 9
 9
 9
 9
 9
 9
 9
 9
 9
 9
 9
 9
 9
 9
 9
 9
 9
 9
 9
 9
 9
 9
 9
 9
 9
 9
 9
 9
 9
 9
 9
 9
 9
 9
 9
 9
 9
 9
 9
 9
 9
 9
 9
 9
 9
 9
 9
 9
 9
 9
 9
 9
 9
 9
 9
 9
 9
 9
 9
 9
 9
 9
 9
 9
 9
 9
 9
 9
 9
 9
 9
 9
 9
 9
 9
 9
 9
 9
 9
 9
 9
 9
 9
 9
 9
 9
 9
 9
 9
 9
 9
 9
 9
 9
 9
 9
 9
 9
 9
 9
 9
 9
 9
 9
 9
 9
 9
 9
 9
 9
 9
 9
 9
 9
 9
 9
 9
 9
 9
 9
 9
 9
 9
 9
 9
 9
 9
 9
 9
 9
 9
 9
 9
 9
 9
 9
 9
 9
 9
 9
 9
 9
 9
 9
 9
 9
 9
 9
 9
 9
 9
 9
 9
 9
 9
 9
 9
 9
 9
 9
 9
 9
 9
 9
 9
 9
 9
 9
 9
 9
 9
 9
 9
 9
 9
 9
 9
 9
 9
 9
 9
 9
 9
 9
 9
 9
 9
 9
 9
 9
 9
 9
 9
 9
 9
 9
 9
 9
 9
 9
 9
 9
 9
 9
 9
 9
 9
 9
 9
 9
 9
 9
 9
 9
 9
 9
 9
 9
 9
 9
 9
 9
 9
 9
 9
 9
 9
 9
 9
 9
 9
 9
 9
 9
 9
 9
 9
 9
 9
 9
 9
 9
 9
 9
 9
 9
 9
 9
 9
 9
 9
 9
 9
 9
 9
 9
 9
 9
 9
 9
 9
 9
 9
 9
 9
 9
 9
 9
 9
 9
 9
 9
 9
 9
 9
 9
 9
 9
 9
 9
 9
 9
 9
 9
 9
 9
 9
 9
 9
 9
 9
 9
 9
 9
 9
 9
 9
 9
 9
 9
 9
 9
 9
 9
 9
 9
 9
 9
 9
 9
 9
 9
 9
 9
 9
 9
 9
 9
 9
 9
 9
 9
 9
 9
 9
 9
 9
 9
 9
 9
 9
 9
 9
 9
 9
 9
 9
 9
 9
 9
 9
 9
 9
 9
 9
 9
 9
 9
 9
 9
 9
 9
 9
 9
 9
 9
 9
 9
 9
 9
 9
 9
 9
 9
 9
 9
 9
 9
 9
 9
 9
 9
 9
 9
 9
 9
 9
 9
 9
 9
 9
 9
 9
 9
 9
 9
 9
 9
 9
 9
 9
 9
 9
 9
 9
 9
 9
 9
 9
 9
 9
 9
 9
 9
 9
 9
 9
 9
 9
 9
 9
 9
 9
 9
 9
 9
 9
 9
 9
 9
 9
 9
 9
 9
 9
 9
 9
 9
 9
 9
 9
 9
 9
 9
 9
 9
 9
 9
 9
 9
 9
 9
 9
 9
 9
 9
 9
 9
 9
 9
 9
 9
 9
 9
 9
 9
 9
 9
 9
 9
 9
 9
 9
 9
 9
 9
 9
 9
 9
 9
 9
 9
 9
 9
 9
 9
 9
 9
 9
 9
 9
 9
 9
 9
 9
 9
 9
 9
 9
 9
 9
 9
 9
 9
 9
 9
 9
 9
 9
 9
 9
 9
 9
 9
 9
 9
 9
 9
 9
 9
 9
 9
 9
 9
 9
 9
 9
 9
 9
 9
 9
 9
 9
 9
 9
 9
 9
 9
 9
 9
 9
 9
 9
 9
 9
 9
 9
 9
 9
 9
 9
 9
 9
 9
 9
 9
 9
 9
 9
 9
 9
 9
 9
 9
 9
 9
 9
 9
 9
 9
 9
 9
 9
 9
 9
 9
 9
 9
 9
 9
 9
 9
 9
 9
 9
 9
 9
 9
 9
 9
 9
 9
 9
 9
 9
 9
 9
 9
 9
 9
 9
 9
 9
 9
 9
 9
 9
 9
 9
 9
 9
 9
 9
 9
 9
 9
 9
 9
 9
 9
 9
 9
 9
 9
 9
 9
 9
 9
 9
 9
 9
 9
 9
 9
 9
 9
 9
 9
 9
 9
 9
 9
 9
 9
 9
 9
 9
 9
 9
 9
 9
 9
 9
 9
 9
 9
 9
 9
 9
 9
 9
 9
 9
 9
 9
 9
 9
 9
 9
 9
 9
 9
 9
 9
 9
 9
 9
 9
 9
 9
 9
 9
 9
 9
 9
 9
 9
 9
 9
 9
 9
 9
 9
 9
 9
 9
 9
 9
 9
 9
 9
 9
 9
 9
 9
 9
 9
 9
 9
 9
 9
 9
 9
 9
 9
 9
 9
 9
 9
 9
 9
 9
 9
 9
 9
 9
 9
 9
 9
 9
 9
 9
 9
 9
 9
 9
 9
 9
 9
 9
 9
 9
 9
 9
 9
 9
 9
 9
 9
 9
 9
 9
 9
 9
 9
 9
 9
 9
 9
 9
 9
 9
 9
 9
 9
 9
 9
 9
 9
 9
 9
 9
 9
 9
 9
 9
 9
 9
 9
 9
 9
 9
 9
 9
 9
 9
 9
 9
 9
 9
 9
 9
 9
 9
 9
 9
 9
 9
 9
 9
 9
 9
 9
 9
 9
 9
 9
 9
 9
 9
 9
 9
 9
 9
 9
 9
 9
 9
 9
 9
 9
 9
 9
 9
 9
 9
 9
 9
 9
 9
 9
 9
 9
 9
 9
 </DataArray>
 </Cells> 
 <PointData>
 <DataArray  type="Float64" Name="disp" NumberOfComponents="3" format="ascii">
   6.5239173883685359E-002   6.2789735702096325E-002   0.0000000000000000     
   6.8344014770454029E-002   6.8174230042204409E-002   0.0000000000000000     
   7.1336440827389352E-002   7.3738409463832408E-002   0.0000000000000000     
   7.4216452054491330E-002   7.9482273966980363E-002   0.0000000000000000     
   7.6984048451759976E-002   8.5405823551648219E-002   0.0000000000000000     
   6.0194565610311862E-002   6.1886167779440060E-002   0.0000000000000000     
   6.3078908812797430E-002   6.7297558362131860E-002   0.0000000000000000     
   6.5863514648683438E-002   7.2889233434905151E-002   0.0000000000000000     
   6.8548383117969916E-002   7.8661192997759949E-002   0.0000000000000000     
   7.1133514220656863E-002   8.4613437050696239E-002   0.0000000000000000     
   5.5269840072326770E-002   6.1038743233880186E-002   0.0000000000000000     
   5.7949701665961154E-002   6.6476426488295437E-002   0.0000000000000000     
   6.0539387869070878E-002   7.2094500051686078E-002   0.0000000000000000     
   6.3038898681655950E-002   7.7892963924052136E-002   0.0000000000000000     
   6.5448234103716363E-002   8.3871818105393584E-002   0.0000000000000000     
   5.0464997269730104E-002   6.0247462065416701E-002   0.0000000000000000     
   5.2956393329945207E-002   6.5710834420695100E-002   0.0000000000000000     
   5.5364060488551636E-002   7.1354209314175174E-002   0.0000000000000000     
   5.7687998745549397E-002   7.7177586745856896E-002   0.0000000000000000     
   5.9928208100938483E-002   8.3180966715740268E-002   0.0000000000000000     
   4.5780037202521856E-002   5.9512324274049594E-002   0.0000000000000000     
   4.8098983804749598E-002   6.5000782159330875E-002   0.0000000000000000     
   5.0337532507125748E-002   7.0668361222372411E-002   0.0000000000000000     
   5.2495683309650286E-002   7.6515061463174217E-002   0.0000000000000000     
   5.4573436212323218E-002   8.2540882881736291E-002   0.0000000000000000     
   7.6984048451759976E-002   8.5405823551648219E-002   0.0000000000000000     
   7.9651790903031969E-002   9.1498717694340120E-002   0.0000000000000000     
   8.2232240292144015E-002   9.7750615871560059E-002   0.0000000000000000     
   8.4725396619096061E-002  0.10416151808330809        0.0000000000000000     
   8.7131259883888174E-002  0.11073142432958419        0.0000000000000000     
   7.1133514220656863E-002   8.4613437050696239E-002   0.0000000000000000     
   7.3628481969642084E-002   9.0735113339025258E-002   0.0000000000000000     
   7.6042860377823443E-002   9.7015369608058247E-002   0.0000000000000000     
   7.8376649445200910E-002  0.10345420585779522        0.0000000000000000     
   8.0629849171774501E-002  0.11005162208823617        0.0000000000000000     
   6.5448234103716363E-002   8.3871818105393584E-002   0.0000000000000000     
   6.7775057496508417E-002   9.0020091761919899E-002   0.0000000000000000     
   7.0027032221288393E-002   9.6326814059840546E-002   0.0000000000000000     
   7.2204158278056305E-002  0.10279198499915551        0.0000000000000000     
   7.4306435666812137E-002  0.10941560457986479        0.0000000000000000     
   5.9928208100938483E-002   8.3180966715740268E-002   0.0000000000000000     
   6.2091517483630954E-002   8.9353652963024041E-002   0.0000000000000000     
   6.4184755822538880E-002   9.5684949226906943E-002   0.0000000000000000     
   6.6207923117662271E-002  0.10217485550738896        0.0000000000000000     
   6.8161019369001097E-002  0.10882337180447012        0.0000000000000000     
   5.4573436212323218E-002   8.2540882881736291E-002   0.0000000000000000     
   5.6577861931009707E-002   8.8735796942337686E-002   0.0000000000000000     
   5.8516031181574890E-002   9.5089775109257438E-002   0.0000000000000000     
   6.0387943964018781E-002  0.10160281738249557        0.0000000000000000     
   6.2193600278341379E-002  0.10827492376205210        0.0000000000000000     
   8.7131259883888174E-002  0.11073142432958419        0.0000000000000000     
   8.9441624517585042E-002  0.11744718666884839        0.0000000000000000     
   9.1648284951251352E-002  0.12429565715956067        0.0000000000000000     
   9.3751241184887146E-002  0.13127683580172109        0.0000000000000000     
   9.5750493218492383E-002  0.13839072259532956        0.0000000000000000     
   8.0629849171774501E-002  0.11005162208823617        0.0000000000000000     
   8.2794189598332471E-002  0.11679476613824670        0.0000000000000000     
   8.4861400765663050E-002  0.12367078584669240        0.0000000000000000     
   8.6831482673766280E-002  0.13067968121357335        0.0000000000000000     
   8.8704435322642133E-002  0.13782145223888942        0.0000000000000000     
   7.4306435666812137E-002  0.10941560457986479        0.0000000000000000     
   7.6325874395042001E-002  0.11618489817847634        0.0000000000000000     
   7.8254484470232033E-002  0.12308709117149799        0.0000000000000000     
   8.0092265892382206E-002  0.13012218355892979        0.0000000000000000     
   8.1839218661492547E-002  0.13729017534077176        0.0000000000000000     
   6.8161019369001097E-002  0.10882337180447012        0.0000000000000000     
   7.0036678907713687E-002  0.11561758278953731        0.0000000000000000     
   7.1827536064958300E-002  0.12254457313397744        0.0000000000000000     
   7.3533590840734950E-002  0.12960434283779051        0.0000000000000000     
   7.5154843235043650E-002  0.13679689190097655        0.0000000000000000     
   6.2193600278341379E-002  0.10827492376205210        0.0000000000000000     
   6.3926603136347460E-002  0.11509281997142962        0.0000000000000000     
   6.5580555549841837E-002  0.12204323173413073        0.0000000000000000     
   6.7155457518824499E-002  0.12912615905015551        0.0000000000000000     
   6.8651309043295417E-002  0.13634160191950384        0.0000000000000000     
   9.5750493218492383E-002  0.13839072259532956        0.0000000000000000     
   9.7653521218466516E-002  0.14562613841419625        0.0000000000000000     
   9.9467805351208999E-002  0.15297190413213124        0.0000000000000000     
  0.10119334561671983       0.16042801974913454        0.0000000000000000     
  0.10283014201499899       0.16799448526520616        0.0000000000000000     
   8.8704435322642133E-002  0.13782145223888942        0.0000000000000000     
   9.0486835345806621E-002  0.14508449310030463        0.0000000000000000     
   9.2185259376775783E-002  0.15245719797548299        0.0000000000000000     
   9.3799707415549619E-002  0.15993956686442445        0.0000000000000000     
   9.5330179462128115E-002  0.16753159976712906        0.0000000000000000     
   8.1839218661492547E-002  0.13729017534077176        0.0000000000000000     
   8.3501112237206604E-002  0.14457930630846647        0.0000000000000000     
   8.5083716079167926E-002  0.15197781625345660        0.0000000000000000     
   8.6587030187376540E-002  0.15948570517574218        0.0000000000000000     
   8.8011054561832419E-002  0.16710297307532315        0.0000000000000000     
   7.5154843235043650E-002  0.13679689190097655        0.0000000000000000     
   7.6696351892666437E-002  0.14411057803868166        0.0000000000000000     
   7.8163175458385428E-002  0.15153375896605203        0.0000000000000000     
   7.9555313932200583E-002  0.15906643468308768        0.0000000000000000     
   8.0872767314111929E-002  0.16670860518978847        0.0000000000000000     
   6.8651309043295417E-002  0.13634160191950384        0.0000000000000000     
   7.0072554312186175E-002  0.14367830829095030        0.0000000000000000     
   7.1423637514428304E-002  0.15112502611326931        0.0000000000000000     
   7.2704558650021789E-002  0.15868175538646090        0.0000000000000000     
   7.3915317718966631E-002  0.16634849611052505        0.0000000000000000     
  0.10283014201499899       0.16799448526520616        0.0000000000000000     
  0.10437893100863574       0.17566092235345665        0.0000000000000000     
  0.10584044906021930       0.18341695268699656        0.0000000000000000     
  0.10721469616974968       0.19126257626582591        0.0000000000000000     
  0.10850167233722688       0.19919779308994473        0.0000000000000000     
   9.5330179462128115E-002  0.16753159976712906        0.0000000000000000     
   9.6776623841381026E-002  0.17522352301212599        0.0000000000000000     
   9.8138988878178082E-002  0.18300556292794451        0.0000000000000000     
   9.9417274572519310E-002  0.19087771951458468        0.0000000000000000     
  0.10061148092440468       0.19883999277204645        0.0000000000000000     
   8.8011054561832419E-002  0.16710297307532315        0.0000000000000000     
   8.9354970732997197E-002  0.17482004853508865        0.0000000000000000     
   9.0617960231332451E-002  0.18262736013792785        0.0000000000000000     
   9.1800023056838168E-002  0.19052490788384074        0.0000000000000000     
   9.2901159209514375E-002  0.19851269177282727        0.0000000000000000     
   8.0872767314111929E-002  0.16670860518978847        0.0000000000000000     
   8.2113971683484249E-002  0.17445049892234477        0.0000000000000000     
   8.3277363119682368E-002  0.18228234431694659        0.0000000000000000     
   8.4362941622706245E-002  0.19020414137359407        0.0000000000000000     
   8.5370707192555947E-002  0.19821589009228718        0.0000000000000000     
   7.3915317718966631E-002  0.16634849611052505        0.0000000000000000     
   7.5053626692842199E-002  0.17411487417389415        0.0000000000000000     
   7.6117197543227849E-002  0.18197051546500073        0.0000000000000000     
   7.7106030270123582E-002  0.18991541998384470        0.0000000000000000     
   7.8020124873529412E-002  0.19794958773042615        0.0000000000000000     
  0.10850167233722688       0.19919779308994473        0.0000000000000000     
  0.10970759656806757       0.20721843842304732        0.0000000000000000     
  0.11083868786768841       0.21532034752882812        0.0000000000000000     
  0.11189494623608939       0.22350352040728708        0.0000000000000000     
  0.11287637167327053       0.23176795705842421        0.0000000000000000     
  0.10061148092440468       0.19883999277204645        0.0000000000000000     
  0.10172720966948554       0.20688590876157814        0.0000000000000000     
  0.10277006254341320       0.21500899354442821        0.0000000000000000     
  0.10374003954618767       0.22320924712059656        0.0000000000000000     
  0.10463714067780895       0.23148666949008326        0.0000000000000000     
   9.2901159209514375E-002  0.19851269177282727        0.0000000000000000     
   9.3925852499728263E-002  0.20658299348950201        0.0000000000000000     
   9.4878586737847048E-002  0.21472809471847956        0.0000000000000000     
   9.5759361923870745E-002  0.22294799545975988        0.0000000000000000     
   9.6568178057799325E-002  0.23124269571334302        0.0000000000000000     
   8.5370707192555947E-002  0.19821589009228718        0.0000000000000000     
   8.6303525058795710E-002  0.20630969260681886        0.0000000000000000     
   8.7164260450989947E-002  0.21447765105098207        0.0000000000000000     
   8.7952913369138561E-002  0.22271976542477698        0.0000000000000000     
   8.8669483813241648E-002  0.23103603572820344        0.0000000000000000     
   7.8020124873529412E-002  0.19794958773042615        0.0000000000000000     
   7.8860227346687947E-002  0.20606600611352865        0.0000000000000000     
   7.9627083682841895E-002  0.21425766254193590        0.0000000000000000     
   8.0320693881991215E-002  0.22252455701564786        0.0000000000000000     
   8.0941057944135933E-002  0.23086668953466458        0.0000000000000000     
  0.11287637167327053       0.23176795705842421        0.0000000000000000     
  0.11381088260260713       0.24013054887688662        0.0000000000000000     
  0.11472639744747451       0.24860818725732148        0.0000000000000000     
  0.11562291620787264       0.25720087219972865        0.0000000000000000     
  0.11650043888380157       0.26590860370410829        0.0000000000000000     
  0.10463714067780895       0.23148666949008326        0.0000000000000000     
  0.10546626188524220       0.23986499901076677        0.0000000000000000     
  0.10623229911545259       0.24836797404052560        0.0000000000000000     
  0.10693525236844015       0.25699559457935978        0.0000000000000000     
  0.10757512164420481       0.26574786062726918        0.0000000000000000     
   9.6568178057799325E-002  0.23124269571334302        0.0000000000000000     
   9.7295832625518691E-002  0.23963884426660215        0.0000000000000000     
   9.7933123112914619E-002  0.24816308990691058        0.0000000000000000     
   9.8480049519987151E-002  0.25681543263426826        0.0000000000000000     
   9.8936611846736314E-002  0.26559587244867516        0.0000000000000000     
   8.8669483813241648E-002  0.23103603572820344        0.0000000000000000     
   8.9299594823436496E-002  0.23945208464439280        0.0000000000000000     
   8.9828869439860543E-002  0.24799353485647643        0.0000000000000000     
   9.0257307662513692E-002  0.25666038636445426        0.0000000000000000     
   9.0584909491396026E-002  0.26545263916832629        0.0000000000000000     
   8.0941057944135933E-002  0.23086668953466458        0.0000000000000000     
   8.1477548478995715E-002  0.23930472014413878        0.0000000000000000     
   8.1919538096290351E-002  0.24785930888922317        0.0000000000000000     
   8.2267026796019757E-002  0.25653045576991773        0.0000000000000000     
   8.2520014578183989E-002  0.26531816078622256        0.0000000000000000     
  0.11650043888380157       0.26590860370410829        0.0000000000000000     
  0.11729931555803536       0.27489586143277422        0.0000000000000000     
  0.11795989631334813       0.28432712504804031        0.0000000000000000     
  0.11848218114973989       0.29420239454990654        0.0000000000000000     
  0.11886617006721062       0.30452166993837299        0.0000000000000000     
  0.10757512164420481       0.26574786062726918        0.0000000000000000     
  0.10813292183480092       0.27475683597674627        0.0000000000000000     
  0.10858966783228273       0.28415458442028330        0.0000000000000000     
  0.10894535963665025       0.29394110595788020        0.0000000000000000     
  0.10919999724790347       0.30411640058953704        0.0000000000000000     
   9.8936611846736314E-002  0.26559587244867516        0.0000000000000000     
   9.9313823060805703E-002  0.27460265837793318        0.0000000000000000     
   9.9622696129838970E-002  0.28393403944984408        0.0000000000000000     
   9.9863231053836141E-002  0.29359001566440779        0.0000000000000000     
  0.10003542783279716       0.30357058702162432        0.0000000000000000     
   9.0584909491396026E-002  0.26545263916832629        0.0000000000000000     
   9.0842019236049690E-002  0.27443332863633491        0.0000000000000000     
   9.1058981206016867E-002  0.28366549013672254        0.0000000000000000     
   9.1235795401297545E-002  0.29314912366948914        0.0000000000000000     
   9.1372461821891737E-002  0.30288422923463465        0.0000000000000000     
   8.2520014578183989E-002  0.26531816078622256        0.0000000000000000     
   8.2717510360532903E-002  0.27424884675195149        0.0000000000000000     
   8.2898523060816409E-002  0.28334893648091880        0.0000000000000000     
   8.3063052679034494E-002  0.29261842997312443        0.0000000000000000     
   8.3211099215187156E-002  0.30205732722856826        0.0000000000000000     
   4.5780037202521856E-002   5.9512324274049594E-002   0.0000000000000000     
   4.8098983804749598E-002   6.5000782159330875E-002   0.0000000000000000     
   5.0337532507125748E-002   7.0668361222372411E-002   0.0000000000000000     
   5.2495683309650286E-002   7.6515061463174217E-002   0.0000000000000000     
   5.4573436212323218E-002   8.2540882881736291E-002   0.0000000000000000     
   4.1256660467408252E-002   5.8835439846068011E-002   0.0000000000000000     
   4.3404267361426677E-002   6.4346970727900882E-002   0.0000000000000000     
   4.5474587750397338E-002   7.0036817051101583E-002   0.0000000000000000     
   4.7467621634320223E-002   7.5904978815670140E-002   0.0000000000000000     
   4.9383369013195337E-002   8.1951456021606486E-002   0.0000000000000000     
   3.6936567661095536E-002   5.8218918767761085E-002   0.0000000000000000     
   3.8899038271028794E-002   6.3750101150103267E-002   0.0000000000000000     
   4.0790010043970551E-002   6.9459438075186425E-002   0.0000000000000000     
   4.2609482979920822E-002   7.5346929543010588E-002   0.0000000000000000     
   4.4357457078879600E-002   8.1412575553575700E-002   0.0000000000000000     
   3.2819758783583702E-002   5.7662761039128797E-002   0.0000000000000000     
   3.4583296533555921E-002   6.3210173425938002E-002   0.0000000000000000     
   3.6283799387845386E-002   6.8936224294626952E-002   0.0000000000000000     
   3.7921267346452077E-002   7.4840913645195573E-002   0.0000000000000000     
   3.9495700409376000E-002   8.0924241477643918E-002   0.0000000000000000     
   2.8906233834872758E-002   5.7166966660171167E-002   0.0000000000000000     
   3.0457042149008101E-002   6.2727187555405142E-002   0.0000000000000000     
   3.1955955782021844E-002   6.8467175709423123E-002   0.0000000000000000     
   3.3402974733914001E-002   7.4386931122225122E-002   0.0000000000000000     
   3.4798099004684543E-002   8.0486453793811141E-002   0.0000000000000000     
   5.4573436212323218E-002   8.2540882881736291E-002   0.0000000000000000     
   5.6577861931009707E-002   8.8735796942337686E-002   0.0000000000000000     
   5.8516031181574890E-002   9.5089775109257438E-002   0.0000000000000000     
   6.0387943964018781E-002  0.10160281738249557        0.0000000000000000     
   6.2193600278341379E-002  0.10827492376205210        0.0000000000000000     
   4.9383369013195337E-002   8.1951456021606486E-002   0.0000000000000000     
   5.1229212603729223E-002   8.8166873844886404E-002   0.0000000000000000     
   5.3012535122628400E-002   9.4541857461485593E-002   0.0000000000000000     
   5.4733336569892876E-002  0.10107640687140404        0.0000000000000000     
   5.6391616945522666E-002  0.10777052207464179        0.0000000000000000     
   4.4357457078879600E-002   8.1412575553575700E-002   0.0000000000000000     
   4.6040691266874066E-002   8.7647233815695808E-002   0.0000000000000000     
   4.7665944469931387E-002   9.4041762038184928E-002   0.0000000000000000     
   4.9233216688051584E-002  0.10059616022104306        0.0000000000000000     
   5.0742507921234623E-002  0.10731042836427020        0.0000000000000000     
   3.9495700409376000E-002   8.0924241477643918E-002   0.0000000000000000     
   4.1012297920444238E-002   8.7176876854765897E-002   0.0000000000000000     
   4.2476259223483866E-002   9.3589488839355459E-002   0.0000000000000000     
   4.3887584318494870E-002  0.10016207743141263        0.0000000000000000     
   4.5246273205477278E-002  0.10689464263093734        0.0000000000000000     
   3.4798099004684543E-002   8.0486453793811141E-002   0.0000000000000000     
   3.6144032564439738E-002   8.6755802962096687E-002   0.0000000000000000     
   3.7443479383285821E-002   9.3185037864997197E-002   0.0000000000000000     
   3.8696439461222767E-002   9.9774158502512714E-002   0.0000000000000000     
   3.9902912798250603E-002  0.10652316487464325        0.0000000000000000     
   6.2193600278341379E-002  0.10827492376205210        0.0000000000000000     
   6.3926603136347460E-002  0.11509281997142962        0.0000000000000000     
   6.5580555549841837E-002  0.12204323173413073        0.0000000000000000     
   6.7155457518824499E-002  0.12912615905015551        0.0000000000000000     
   6.8651309043295417E-002  0.13634160191950384        0.0000000000000000     
   5.6391616945522666E-002  0.10777052207464179        0.0000000000000000     
   5.7981973862575163E-002  0.11461057346348497        0.0000000000000000     
   5.9499004934107813E-002  0.12158293143021981        0.0000000000000000     
   6.0942710160120608E-002  0.12868759597484633        0.0000000000000000     
   6.2313089540613535E-002  0.13592456709736450        0.0000000000000000     
   5.0742507921234623E-002  0.10731042836427020        0.0000000000000000     
   5.2189117868028552E-002  0.11417080700503512        0.0000000000000000     
   5.3568346226981360E-002  0.12116353668050663        0.0000000000000000     
   5.4880192998093054E-002  0.12828861739068470        0.0000000000000000     
   5.6124658181363640E-002  0.13554604913556936        0.0000000000000000     
   4.5246273205477278E-002  0.10689464263093734        0.0000000000000000     
   4.6548035152707619E-002  0.11377352059608004        0.0000000000000000     
   4.7788579428462478E-002  0.12078504748499114        0.0000000000000000     
   4.8967906032741843E-002  0.12792922329767059        0.0000000000000000     
   5.0086014965545725E-002  0.13520604803411845        0.0000000000000000     
   3.9902912798250603E-002  0.10652316487464325        0.0000000000000000     
   4.1058725716612385E-002  0.11341871423661978        0.0000000000000000     
   4.2159704538551161E-002  0.12044746384367339        0.0000000000000000     
   4.3205849264066974E-002  0.12760941369580406        0.0000000000000000     
   4.4197159893159782E-002  0.13490456379301177        0.0000000000000000     
   6.8651309043295417E-002  0.13634160191950384        0.0000000000000000     
   7.0072554312186175E-002  0.14367830829095030        0.0000000000000000     
   7.1423637514428304E-002  0.15112502611326931        0.0000000000000000     
   7.2704558650021789E-002  0.15868175538646090        0.0000000000000000     
   7.3915317718966631E-002  0.16634849611052505        0.0000000000000000     
   6.2313089540613535E-002  0.13592456709736450        0.0000000000000000     
   6.3614006354051358E-002  0.14328300999130392        0.0000000000000000     
   6.4849323878898774E-002  0.15075208985019412        0.0000000000000000     
   6.6019042115155802E-002  0.15833180667403521        0.0000000000000000     
   6.7123161062822442E-002  0.16602216046282708        0.0000000000000000     
   5.6124658181363640E-002  0.13554604913556936        0.0000000000000000     
   5.7304994876547513E-002  0.14292519606577403        0.0000000000000000     
   5.8424456183399073E-002  0.15041542233191221        0.0000000000000000     
   5.9483042101918328E-002  0.15801672793398380        0.0000000000000000     
   6.0480752632105277E-002  0.16572911287198891        0.0000000000000000     
   5.0086014965545725E-002  0.13520604803411845        0.0000000000000000     
   5.1145519879674653E-002  0.14260486651436072        0.0000000000000000     
   5.2149034427929210E-002  0.15011502355842346        0.0000000000000000     
   5.3096558610309375E-002  0.15773651916630671        0.0000000000000000     
   5.3988092426815140E-002  0.16546935333801041        0.0000000000000000     
   4.4197159893159782E-002  0.13490456379301177        0.0000000000000000     
   4.5135581363432792E-002  0.14232202133706395        0.0000000000000000     
   4.6023058612489162E-002  0.14985089352972802        0.0000000000000000     
   4.6859591640328914E-002  0.15749118037100390        0.0000000000000000     
   4.7645180446952033E-002  0.16524288186089170        0.0000000000000000     
   7.3915317718966631E-002  0.16634849611052505        0.0000000000000000     
   7.5053626692842199E-002  0.17411487417389415        0.0000000000000000     
   7.6117197543227849E-002  0.18197051546500073        0.0000000000000000     
   7.7106030270123582E-002  0.18991541998384470        0.0000000000000000     
   7.8020124873529412E-002  0.19794958773042615        0.0000000000000000     
   6.7123161062822442E-002  0.16602216046282708        0.0000000000000000     
   6.8158823740846974E-002  0.17381210120366303        0.0000000000000000     
   6.9123173168177704E-002  0.18169057888363635        0.0000000000000000     
   7.0016209344814603E-002  0.18965759350274691        0.0000000000000000     
   7.0837932270757686E-002  0.19771314506099485        0.0000000000000000     
   6.0480752632105277E-002  0.16572911287198891        0.0000000000000000     
   6.1414450807274513E-002  0.17354110692557742        0.0000000000000000     
   6.2280999660740688E-002  0.18144123987439945        0.0000000000000000     
   6.3080399192503772E-002  0.18942951171845493        0.0000000000000000     
   6.3812649402563759E-002  0.19750592245774393        0.0000000000000000     
   5.3988092426815140E-002  0.16546935333801041        0.0000000000000000     
   5.4820507892124851E-002  0.17330189133963730        0.0000000000000000     
   5.5590677020916829E-002  0.18122249843729005        0.0000000000000000     
   5.6298599813191082E-002  0.18923117463096878        0.0000000000000000     
   5.6944276268947581E-002  0.19732791992067333        0.0000000000000000     
   4.7645180446952033E-002  0.16524288186089170        0.0000000000000000     
   4.8376994995397951E-002  0.17309445444584270        0.0000000000000000     
   4.9052205248706120E-002  0.18103435457230824        0.0000000000000000     
   4.9670811206876532E-002  0.18906258224028841        0.0000000000000000     
   5.0232812869909181E-002  0.19717913744978308        0.0000000000000000     
   7.8020124873529412E-002  0.19794958773042615        0.0000000000000000     
   7.8860227346687947E-002  0.20606600611352865        0.0000000000000000     
   7.9627083682841895E-002  0.21425766254193590        0.0000000000000000     
   8.0320693881991215E-002  0.22252455701564786        0.0000000000000000     
   8.0941057944135933E-002  0.23086668953466458        0.0000000000000000     
   7.0837932270757686E-002  0.19771314506099485        0.0000000000000000     
   7.1587135578538075E-002  0.20585120142099420        0.0000000000000000     
   7.2262612900686848E-002  0.21406573044535918        0.0000000000000000     
   7.2864364237204007E-002  0.22235673213408963        0.0000000000000000     
   7.3392389588089579E-002  0.23072420648718567        0.0000000000000000     
   6.3812649402563759E-002  0.19750592245774393        0.0000000000000000     
   6.4475425969479236E-002  0.20566454594057831        0.0000000000000000     
   6.5066404571808761E-002  0.21389945601527011        0.0000000000000000     
   6.5585585209552377E-002  0.22221065268181930        0.0000000000000000     
   6.6032967882710014E-002  0.23059813594022591        0.0000000000000000     
   5.6944276268947581E-002  0.19732791992067333        0.0000000000000000     
   5.7525098519511417E-002  0.20550603967228093        0.0000000000000000     
   5.8038458696207634E-002  0.21375883925166883        0.0000000000000000     
   5.8484356799036241E-002  0.22208631865883691        0.0000000000000000     
   5.8862792827997230E-002  0.23048847789378529        0.0000000000000000     
   5.0232812869909181E-002  0.19717913744978308        0.0000000000000000     
   5.0736153228634645E-002  0.20537568261610212        0.0000000000000000     
   5.1178775273883467E-002  0.21364388015455527        0.0000000000000000     
   5.1560679005655669E-002  0.22198373006514249        0.0000000000000000     
   5.1881864423951242E-002  0.23039523234786391        0.0000000000000000     
   8.0941057944135933E-002  0.23086668953466458        0.0000000000000000     
   8.1477548478995715E-002  0.23930472014413878        0.0000000000000000     
   8.1919538096290351E-002  0.24785930888922317        0.0000000000000000     
   8.2267026796019757E-002  0.25653045576991773        0.0000000000000000     
   8.2520014578183989E-002  0.26531816078622256        0.0000000000000000     
   7.3392389588089579E-002  0.23072420648718567        0.0000000000000000     
   7.3843390671191125E-002  0.23918179910063486        0.0000000000000000     
   7.4214069204356289E-002  0.24774315557042476        0.0000000000000000     
   7.4504425187585072E-002  0.25640827589655535        0.0000000000000000     
   7.4714458620877444E-002  0.26517716007902675        0.0000000000000000     
   6.6032967882710014E-002  0.23059813594022591        0.0000000000000000     
   6.6410818479017503E-002  0.23906836984867585        0.0000000000000000     
   6.6721402886210604E-002  0.24762781846535523        0.0000000000000000     
   6.6964721104289332E-002  0.25627648179026391        0.0000000000000000     
   6.7140773133253673E-002  0.26501435982340193        0.0000000000000000     
   5.8862792827997230E-002  0.23048847789378529        0.0000000000000000     
   5.9179831902474840E-002  0.23896443238826184        0.0000000000000000     
   5.9441539141853267E-002  0.24751329757401447        0.0000000000000000     
   5.9647914546132545E-002  0.25613507345104319        0.0000000000000000     
   5.9798958115312655E-002  0.26482976001934805        0.0000000000000000     
   5.1881864423951242E-002  0.23039523234786391        0.0000000000000000     
   5.2150430941563124E-002  0.23886998671939277        0.0000000000000000     
   5.2374477971284285E-002  0.24739959289640256        0.0000000000000000     
   5.2554005513114711E-002  0.25598405087889337        0.0000000000000000     
   5.2689013567054410E-002  0.26462336066686504        0.0000000000000000     
   8.2520014578183989E-002  0.26531816078622256        0.0000000000000000     
   8.2717510360532903E-002  0.27424884675195149        0.0000000000000000     
   8.2898523060816409E-002  0.28334893648091880        0.0000000000000000     
   8.3063052679034494E-002  0.29261842997312443        0.0000000000000000     
   8.3211099215187156E-002  0.30205732722856826        0.0000000000000000     
   7.4714458620877444E-002  0.26517716007902675        0.0000000000000000     
   7.4885167857131021E-002  0.27404352147651645        0.0000000000000000     
   7.5057551249243362E-002  0.28300107344770220        0.0000000000000000     
   7.5231608797214508E-002  0.29204981599258389        0.0000000000000000     
   7.5407340501044404E-002  0.30118974911116153        0.0000000000000000     
   6.7140773133253673E-002  0.26501435982340193        0.0000000000000000     
   6.7289863148719709E-002  0.27381166156176329        0.0000000000000000     
   6.7452295326303494E-002  0.28263859600234198        0.0000000000000000     
   6.7628069666005056E-002  0.29149516314513796        0.0000000000000000     
   6.7817186167824409E-002  0.30038136299015117        0.0000000000000000     
   5.9798958115312655E-002  0.26482976001934805        0.0000000000000000     
   5.9931596235298971E-002  0.27355326700769200        0.0000000000000000     
   6.0082755291996824E-002  0.28226150414483819        0.0000000000000000     
   6.0252435285406213E-002  0.29095447143078657        0.0000000000000000     
   6.0440636215527165E-002  0.29963216886553717        0.0000000000000000     
   5.2689013567054410E-002  0.26462336066686504        0.0000000000000000     
   5.2810367116868803E-002  0.27326833781430249        0.0000000000000000     
   5.2948931146323305E-002  0.28186979787519084        0.0000000000000000     
   5.3104705655417937E-002  0.29042774084952977        0.0000000000000000     
   5.3277690644152678E-002  0.29894216673731949        0.0000000000000000     
   2.8906233834872758E-002   5.7166966660171167E-002   0.0000000000000000     
   3.0457042149008101E-002   6.2727187555405142E-002   0.0000000000000000     
   3.1955955782021844E-002   6.8467175709423123E-002   0.0000000000000000     
   3.3402974733914001E-002   7.4386931122225122E-002   0.0000000000000000     
   3.4798099004684543E-002   8.0486453793811141E-002   0.0000000000000000     
   2.5117362887195412E-002   5.6730814714316471E-002   0.0000000000000000     
   2.6454459197585427E-002   6.2301488603185393E-002   0.0000000000000000     
   2.7750754993523752E-002   6.8053244067288604E-002   0.0000000000000000     
   2.9006250275010387E-002   7.3986081106626148E-002   0.0000000000000000     
   3.0220945042045328E-002   8.0099999721198009E-002   0.0000000000000000     
   2.1374516012784395E-002   5.6353584284993007E-002   0.0000000000000000     
   2.2509731759488023E-002   6.1933421633959505E-002   0.0000000000000000     
   2.3612472789374908E-002   6.7695381115937023E-002   0.0000000000000000     
   2.4682739102445044E-002   7.3639462730925573E-002   0.0000000000000000     
   2.5720530698698431E-002   7.9765666478925148E-002   0.0000000000000000     
   1.7677693211639700E-002   5.6035275372200759E-002   0.0000000000000000     
   1.8622859834715889E-002   6.1622986647727494E-002   0.0000000000000000     
   1.9541109169575313E-002   6.7393586855368379E-002   0.0000000000000000     
   2.0432441216217970E-002   7.3347075995123384E-002   0.0000000000000000     
   2.1296855974643859E-002   7.9483454066992532E-002   0.0000000000000000     
   1.4026894483761335E-002   5.5775887975939742E-002   0.0000000000000000     
   1.4793843423269032E-002   6.1370183644489373E-002   0.0000000000000000     
   1.5536664134124977E-002   6.7147861285582658E-002   0.0000000000000000     
   1.6255356616329170E-002   7.3108920899219595E-002   0.0000000000000000     
   1.6949920869881611E-002   7.9253362485400172E-002   0.0000000000000000     
   3.4798099004684543E-002   8.0486453793811141E-002   0.0000000000000000     
   3.6144032564439738E-002   8.6755802962096687E-002   0.0000000000000000     
   3.7443479383285821E-002   9.3185037864997197E-002   0.0000000000000000     
   3.8696439461222767E-002   9.9774158502512714E-002   0.0000000000000000     
   3.9902912798250603E-002  0.10652316487464325        0.0000000000000000     
   3.0220945042045328E-002   8.0099999721198009E-002   0.0000000000000000     
   3.1395179832895907E-002   8.6384342466509875E-002   0.0000000000000000     
   3.2529295185829456E-002   9.2828451898067404E-002   0.0000000000000000     
   3.3623291100845963E-002   9.9432328015870569E-002   0.0000000000000000     
   3.4677167577945436E-002  0.10619597081991945        0.0000000000000000     
   2.5720530698698431E-002   7.9765666478925148E-002   0.0000000000000000     
   2.6725024359848082E-002   8.6062825696827230E-002   0.0000000000000000     
   2.7695396867607004E-002   9.2519773721523327E-002   0.0000000000000000     
   2.8631648221975184E-002   9.9136510553013438E-002   0.0000000000000000     
   2.9533778422952631E-002  0.10591303619129758        0.0000000000000000     
   2.1296855974643859E-002   7.9483454066992532E-002   0.0000000000000000     
   2.2133566145296255E-002   8.5791252653048738E-002   0.0000000000000000     
   2.2941784428618443E-002   9.2259003335365006E-002   0.0000000000000000     
   2.3721510824610412E-002   9.8886706113941278E-002   0.0000000000000000     
   2.4472745333272174E-002  0.10567436098877758        0.0000000000000000     
   1.6949920869881611E-002   7.9253362485400172E-002   0.0000000000000000     
   1.7620805189240439E-002   8.5569623335174441E-002   0.0000000000000000     
   1.8268457868863795E-002   9.2046140739592427E-002   0.0000000000000000     
   1.8892878908751666E-002   9.8682914698654117E-002   0.0000000000000000     
   1.9494068308904069E-002  0.10547994521235954        0.0000000000000000     
   3.9902912798250603E-002  0.10652316487464325        0.0000000000000000     
   4.1058725716612385E-002  0.11341871423661978        0.0000000000000000     
   4.2159704538551161E-002  0.12044746384367339        0.0000000000000000     
   4.3205849264066974E-002  0.12760941369580406        0.0000000000000000     
   4.4197159893159782E-002  0.13490456379301177        0.0000000000000000     
   3.4677167577945436E-002  0.10619597081991945        0.0000000000000000     
   3.5686829075727684E-002  0.11310640384409976        0.0000000000000000     
   3.6648180052792516E-002  0.12015065062229725        0.0000000000000000     
   3.7561220509139931E-002  0.12732871115451200        0.0000000000000000     
   3.8425950444769930E-002  0.13464058544074392        0.0000000000000000     
   2.9533778422952631E-002  0.10591303619129758        0.0000000000000000     
   3.0397984746038418E-002  0.11283660533596540        0.0000000000000000     
   3.1220464466731615E-002  0.11989447268660668        0.0000000000000000     
   3.2001217585032223E-002  0.12708663824322136        0.0000000000000000     
   3.2740244100940230E-002  0.13441310200580947        0.0000000000000000     
   2.4472745333272174E-002  0.10567436098877758        0.0000000000000000     
   2.5192192727544568E-002  0.11260931871221676        0.0000000000000000     
   2.5876557780368459E-002  0.11967893003660163        0.0000000000000000     
   2.6525840491743835E-002  0.12688319496193221        0.0000000000000000     
   2.7140040861670704E-002  0.13422211348820848        0.0000000000000000     
   1.9494068308904069E-002  0.10547994521235954        0.0000000000000000     
   2.0069453020246143E-002  0.11242454397285380        0.0000000000000000     
   2.0616459993703051E-002  0.11950402267228212        0.0000000000000000     
   2.1135089229274779E-002  0.12671838131064447        0.0000000000000000     
   2.1625340726961338E-002  0.13406761988794086        0.0000000000000000     
   4.4197159893159782E-002  0.13490456379301177        0.0000000000000000     
   4.5135581363432792E-002  0.14232202133706395        0.0000000000000000     
   4.6023058612489162E-002  0.14985089352972802        0.0000000000000000     
   4.6859591640328914E-002  0.15749118037100390        0.0000000000000000     
   4.7645180446952033E-002  0.16524288186089170        0.0000000000000000     
   3.8425950444769930E-002  0.13464058544074392        0.0000000000000000     
   3.9243728339317767E-002  0.14207508443694386        0.0000000000000000     
   4.0015912672418719E-002  0.14962101909906259        0.0000000000000000     
   4.0742503444072785E-002  0.15727838942710015        0.0000000000000000     
   4.1423500654279952E-002  0.16504719542105648        0.0000000000000000     
   3.2740244100940230E-002  0.13441310200580947        0.0000000000000000     
   3.3438509818825436E-002  0.14186247971706054        0.0000000000000000     
   3.4096980543057626E-002  0.14942338711966408        0.0000000000000000     
   3.4715656273636784E-002  0.15709582421362009        0.0000000000000000     
   3.5294537010562919E-002  0.16487979099892855        0.0000000000000000     
   2.7140040861670704E-002  0.13422211348820848        0.0000000000000000     
   2.7719925801955803E-002  0.14168420717741401        0.0000000000000000     
   2.8266262224405873E-002  0.14925799759153244        0.0000000000000000     
   2.8779050129020916E-002  0.15694348473056371        0.0000000000000000     
   2.9258289515800933E-002  0.16474066859450789        0.0000000000000000     
   2.1625340726961338E-002  0.13406761988794086        0.0000000000000000     
   2.2087976288708858E-002  0.14154026681800427        0.0000000000000000     
   2.2523757716463470E-002  0.14912485051466767        0.0000000000000000     
   2.2932685010225183E-002  0.15682137097793106        0.0000000000000000     
   2.3314758169993986E-002  0.16462982820779443        0.0000000000000000     
   4.7645180446952033E-002  0.16524288186089170        0.0000000000000000     
   4.8376994995397951E-002  0.17309445444584270        0.0000000000000000     
   4.9052205248706120E-002  0.18103435457230824        0.0000000000000000     
   4.9670811206876532E-002  0.18906258224028841        0.0000000000000000     
   5.0232812869909181E-002  0.19717913744978308        0.0000000000000000     
   4.1423500654279952E-002  0.16504719542105648        0.0000000000000000     
   4.2056471322507928E-002  0.17291603336112982        0.0000000000000000     
   4.2638982468224382E-002  0.18087349952751841        0.0000000000000000     
   4.3171034091429326E-002  0.18891959392022217        0.0000000000000000     
   4.3652626192122748E-002  0.19705431653924119        0.0000000000000000     
   3.5294537010562919E-002  0.16487979099892855        0.0000000000000000     
   3.5831496078868867E-002  0.17276386520243506        0.0000000000000000     
   3.6324406803587443E-002  0.18073662455098502        0.0000000000000000     
   3.6773269184718661E-002  0.18879806904457858        0.0000000000000000     
   3.7178083222262508E-002  0.19694819868321567        0.0000000000000000     
   2.9258289515800933E-002  0.16474066859450789        0.0000000000000000     
   2.9702069264480782E-002  0.17263794996975823        0.0000000000000000     
   3.0108478254795314E-002  0.18062372964270809        0.0000000000000000     
   3.0477516486744533E-002  0.18869800761335756        0.0000000000000000     
   3.0809183960328442E-002  0.19686078388170652        0.0000000000000000     
   2.3314758169993986E-002  0.16462982820779443        0.0000000000000000     
   2.3668190879343663E-002  0.17253828766309945        0.0000000000000000     
   2.3991196821847981E-002  0.18053481480268765        0.0000000000000000     
   2.4283775997506946E-002  0.18861940962655910        0.0000000000000000     
   2.4545928406320555E-002  0.19679207213471375        0.0000000000000000     
   5.0232812869909181E-002  0.19717913744978308        0.0000000000000000     
   5.0736153228634645E-002  0.20537568261610212        0.0000000000000000     
   5.1178775273883467E-002  0.21364388015455527        0.0000000000000000     
   5.1560679005655669E-002  0.22198373006514249        0.0000000000000000     
   5.1881864423951242E-002  0.23039523234786391        0.0000000000000000     
   4.3652626192122748E-002  0.19705431653924119        0.0000000000000000     
   4.4082595906819552E-002  0.20526733087926363        0.0000000000000000     
   4.4459780372034595E-002  0.21354830043497769        0.0000000000000000     
   4.4784179587767890E-002  0.22189722520638333        0.0000000000000000     
   4.5055793554019404E-002  0.23031410519348064        0.0000000000000000     
   3.7178083222262508E-002  0.19694819868321567        0.0000000000000000     
   3.7538432364036797E-002  0.20517484056898724        0.0000000000000000     
   3.7853900057859331E-002  0.21346582180398427        0.0000000000000000     
   3.8124486303730103E-002  0.22182114238820674        0.0000000000000000     
   3.8350191101649118E-002  0.23024080232165459        0.0000000000000000     
   3.0809183960328442E-002  0.19686078388170652        0.0000000000000000     
   3.1103662600286380E-002  0.20509821168527304        0.0000000000000000     
   3.1361134331357676E-002  0.21339644426157509        0.0000000000000000     
   3.1581599153542340E-002  0.22175548161061259        0.0000000000000000     
   3.1765057066840366E-002  0.23017532373238567        0.0000000000000000     
   2.4545928406320555E-002  0.19679207213471375        0.0000000000000000     
   2.4778286615568294E-002  0.20503744422812092        0.0000000000000000     
   2.4981483192529640E-002  0.21334016780775006        0.0000000000000000     
   2.5155518137204590E-002  0.22170024287360104        0.0000000000000000     
   2.5300391449593149E-002  0.23011766942567397        0.0000000000000000     
   5.1881864423951242E-002  0.23039523234786391        0.0000000000000000     
   5.2150430941563124E-002  0.23886998671939277        0.0000000000000000     
   5.2374477971284285E-002  0.24739959289640256        0.0000000000000000     
   5.2554005513114711E-002  0.25598405087889337        0.0000000000000000     
   5.2689013567054410E-002  0.26462336066686504        0.0000000000000000     
   4.5055793554019404E-002  0.23031410519348064        0.0000000000000000     
   4.5283470788825282E-002  0.23878364841724339        0.0000000000000000     
   4.5476059810221597E-002  0.24729056289864537        0.0000000000000000     
   4.5633560618208363E-002  0.25583484863768668        0.0000000000000000     
   4.5755973212785572E-002  0.26441650563436719        0.0000000000000000     
   3.8350191101649118E-002  0.23024080232165459        0.0000000000000000     
   3.8539806636804202E-002  0.23870403305698840        0.0000000000000000     
   3.8702125094383172E-002  0.24719006604686866        0.0000000000000000     
   3.8837146474386033E-002  0.25569890129129547        0.0000000000000000     
   3.8944870776812794E-002  0.26423053879026870        0.0000000000000000     
   3.1765057066840366E-002  0.23017532373238567        0.0000000000000000     
   3.1919438485499878E-002  0.23863114063862778        0.0000000000000000     
   3.2052673823768987E-002  0.24709810234107249        0.0000000000000000     
   3.2164763081647729E-002  0.25557620883971982        0.0000000000000000     
   3.2255706259136069E-002  0.26406546013456966        0.0000000000000000     
   2.5300391449593149E-002  0.23011766942567397        0.0000000000000000     
   2.5422366334912311E-002  0.23856497116216160        0.0000000000000000     
   2.5527705998379075E-002  0.24701467178125683        0.0000000000000000     
   2.5616410439993437E-002  0.25546677128295958        0.0000000000000000     
   2.5688479659755407E-002  0.26392126966726992        0.0000000000000000     
   5.2689013567054410E-002  0.26462336066686504        0.0000000000000000     
   5.2810367116868803E-002  0.27326833781430249        0.0000000000000000     
   5.2948931146323305E-002  0.28186979787519084        0.0000000000000000     
   5.3104705655417937E-002  0.29042774084952977        0.0000000000000000     
   5.3277690644152678E-002  0.29894216673731949        0.0000000000000000     
   4.5755973212785572E-002  0.26441650563436719        0.0000000000000000     
   4.5867444616920001E-002  0.27298560736325339        0.0000000000000000     
   4.5992121853578406E-002  0.28149222729891182        0.0000000000000000     
   4.6130004922760794E-002  0.28993636544134233        0.0000000000000000     
   4.6281093824467170E-002  0.29831802179054506        0.0000000000000000     
   3.8944870776812794E-002  0.26423053879026870        0.0000000000000000     
   3.9044097558943322E-002  0.27273380903620303        0.0000000000000000     
   3.9153626378057513E-002  0.28115754252151326        0.0000000000000000     
   3.9273457234155366E-002  0.28950173924619904        0.0000000000000000     
   3.9403590127236883E-002  0.29776639921026077        0.0000000000000000     
   3.2255706259136069E-002  0.26406546013456966        0.0000000000000000     
   3.2340325942938786E-002  0.27251294283315153        0.0000000000000000     
   3.2433444719760653E-002  0.28086574354299504        0.0000000000000000     
   3.2535062589601656E-002  0.28912386226410020        0.0000000000000000     
   3.2645179552461802E-002  0.29728729899646666        0.0000000000000000     
   2.5688479659755407E-002  0.26392126966726992        0.0000000000000000     
   2.5756129768906386E-002  0.27232300875409887        0.0000000000000000     
   2.5831576878687805E-002  0.28061683036335727        0.0000000000000000     
   2.5914820989099654E-002  0.28880273449504523        0.0000000000000000     
   2.6005862100141938E-002  0.29688072114916275        0.0000000000000000     
   1.4026894483761335E-002   5.5775887975939742E-002   0.0000000000000000     
   1.4793843423269032E-002   6.1370183644489373E-002   0.0000000000000000     
   1.5536664134124977E-002   6.7147861285582658E-002   0.0000000000000000     
   1.6255356616329170E-002   7.3108920899219595E-002   0.0000000000000000     
   1.6949920869881611E-002   7.9253362485400172E-002   0.0000000000000000     
   1.0429373560389994E-002   5.5574702173022988E-002   0.0000000000000000     
   1.1019161718748616E-002   6.1174195010876752E-002   0.0000000000000000     
   1.1587383319003818E-002   6.6957381463503149E-002   0.0000000000000000     
   1.2134038361155605E-002   7.2924261530902160E-002   0.0000000000000000     
   1.2659126845203974E-002   7.9074835213073791E-002   0.0000000000000000     
   6.8923841727663773E-003   5.5430998040263538E-002   0.0000000000000000     
   7.2952939147558097E-003   6.1034203133521280E-002   0.0000000000000000     
   7.6815123601917633E-003   6.6821324446053113E-002   0.0000000000000000     
   8.0510395090742388E-003   7.2792361977859044E-002   0.0000000000000000     
   8.4038753614032319E-003   7.8947315728939094E-002   0.0000000000000000     
   3.4159263208904857E-003   5.5344775577661404E-002   0.0000000000000000     
   3.6222400112906161E-003   6.0950208012422930E-002   0.0000000000000000     
   3.8190512576888099E-003   6.6739690233232549E-002   0.0000000000000000     
   4.0063600600850676E-003   7.2713222240090275E-002   0.0000000000000000     
   4.1841664184793887E-003   7.8870804032996067E-002   0.0000000000000000     
   4.7623185776834998E-012   5.5316034785216572E-002   0.0000000000000000     
   8.3530344099913556E-012   6.0922209647581722E-002   0.0000000000000000     
   1.1494959281307948E-011   6.6712478825041457E-002   0.0000000000000000     
   1.4188094980566862E-011   7.2686842317595812E-002   0.0000000000000000     
   1.6432440911456903E-011   7.8845300125244738E-002   0.0000000000000000     
   1.6949920869881611E-002   7.9253362485400172E-002   0.0000000000000000     
   1.7620805189240439E-002   8.5569623335174441E-002   0.0000000000000000     
   1.8268457868863795E-002   9.2046140739592427E-002   0.0000000000000000     
   1.8892878908751666E-002   9.8682914698654117E-002   0.0000000000000000     
   1.9494068308904069E-002  0.10547994521235954        0.0000000000000000     
   1.2659126845203974E-002   7.9074835213073791E-002   0.0000000000000000     
   1.3164445620930387E-002   8.5397548061103196E-002   0.0000000000000000     
   1.3651791538116307E-002   9.1880845626075444E-002   0.0000000000000000     
   1.4121164596761731E-002   9.8524727907990536E-002   0.0000000000000000     
   1.4572564796866663E-002  0.10532919490684851        0.0000000000000000     
   8.4038753614032319E-003   7.8947315728939094E-002   0.0000000000000000     
   8.7421915696158665E-003   8.5274637148733859E-002   0.0000000000000000     
   9.0681597861492578E-003   9.1762777686683852E-002   0.0000000000000000     
   9.3817800110033989E-003   9.8411737342789143E-002   0.0000000000000000     
   9.6830522441782984E-003  0.10522151611704969        0.0000000000000000     
   4.1841664184793887E-003   7.8870804032996067E-002   0.0000000000000000     
   4.3540430352968784E-003   8.5200890598066417E-002   0.0000000000000000     
   4.5175626129626400E-003   9.1691936921417708E-002   0.0000000000000000     
   4.6747251514766752E-003   9.8343943003049925E-002   0.0000000000000000     
   4.8255306508389814E-003  0.10515690884296307        0.0000000000000000     
   1.6432440911456903E-011   7.8845300125244738E-002   0.0000000000000000     
   1.7973421145497936E-011   8.5176308409100898E-002   0.0000000000000000     
   1.8556459428949179E-011   9.1668323330276968E-002   0.0000000000000000     
   1.8181556005756119E-011   9.8321344888772880E-002   0.0000000000000000     
   1.6848709927241856E-011  0.10513537308458867        0.0000000000000000     
   1.9494068308904069E-002  0.10547994521235954        0.0000000000000000     
   2.0069453020246143E-002  0.11242454397285380        0.0000000000000000     
   2.0616459993703051E-002  0.11950402267228212        0.0000000000000000     
   2.1135089229274779E-002  0.12671838131064447        0.0000000000000000     
   2.1625340726961338E-002  0.13406761988794086        0.0000000000000000     
   1.4572564796866663E-002  0.10532919490684851        0.0000000000000000     
   1.5004202043651927E-002  0.11228146502529567        0.0000000000000000     
   1.5414286242338354E-002  0.11936875666597828        0.0000000000000000     
   1.5802817392925942E-002  0.12659106982889640        0.0000000000000000     
   1.6169795495414689E-002  0.13394840451404993        0.0000000000000000     
   9.6830522441782984E-003  0.10522151611704969        0.0000000000000000     
   9.9708762172706945E-003  0.11217926577696143        0.0000000000000000     
   1.0244151661877331E-002  0.11927213809002021        0.0000000000000000     
   1.0502878577998202E-002  0.12650013305622607        0.0000000000000000     
   1.0747056965633309E-002  0.13386325067557897        0.0000000000000000     
   4.8255306508389814E-003  0.10515690884296307        0.0000000000000000     
   4.9694755411024538E-003  0.11211794622785114        0.0000000000000000     
   5.1060562523199795E-003  0.11921416694440795        0.0000000000000000     
   5.2352727844915611E-003  0.12644557099263354        0.0000000000000000     
   5.3571251376171962E-003  0.13381215837252791        0.0000000000000000     
   1.6848709927241856E-011  0.10513537308458867        0.0000000000000000     
   1.5147200117457404E-011  0.11209750637796473        0.0000000000000000     
   1.3666304199411172E-011  0.11919484322914145        0.0000000000000000     
   1.2406020004698814E-011  0.12642738363811878        0.0000000000000000     
   1.1366349701724676E-011  0.13379512760489681        0.0000000000000000     
   2.1625340726961338E-002  0.13406761988794086        0.0000000000000000     
   2.2087976288708858E-002  0.14154026681800427        0.0000000000000000     
   2.2523757716463470E-002  0.14912485051466767        0.0000000000000000     
   2.2932685010225183E-002  0.15682137097793106        0.0000000000000000     
   2.3314758169993986E-002  0.16462982820779443        0.0000000000000000     
   1.6169795495414689E-002  0.13394840451404993        0.0000000000000000     
   1.6516003575244288E-002  0.14142933933238327        0.0000000000000000     
   1.6842224657854416E-002  0.14902245289484073        0.0000000000000000     
   1.7148458743245075E-002  0.15672774520142227        0.0000000000000000     
   1.7434705831416264E-002  0.16454521625212787        0.0000000000000000     
   1.0747056965633309E-002  0.13386325067557897        0.0000000000000000     
   1.0977349957721771E-002  0.14135010541410309        0.0000000000000000     
   1.1194420687202698E-002  0.14894931173782255        0.0000000000000000     
   1.1398269154076091E-002  0.15666086964673745        0.0000000000000000     
   1.1588895358341952E-002  0.16448477914084764        0.0000000000000000     
   5.3571251376171962E-003  0.13381215837252791        0.0000000000000000     
   5.4720154361413090E-003  0.14130256506316360        0.0000000000000000     
   5.5803458045083224E-003  0.14890542704361318        0.0000000000000000     
   5.6821162427182336E-003  0.15662074431387663        0.0000000000000000     
   5.7773267507710497E-003  0.16444851687395387        0.0000000000000000     
   1.1366349701724676E-011  0.13379512760489681        0.0000000000000000     
   1.0502902367259814E-011  0.14128671827956490        0.0000000000000000     
   9.7712866443944169E-012  0.14889079881221257        0.0000000000000000     
   9.1715037257508736E-012  0.15660736920283977        0.0000000000000000     
   8.7035543702707052E-012  0.16443642945144649        0.0000000000000000     
   2.3314758169993986E-002  0.16462982820779443        0.0000000000000000     
   2.3668190879343663E-002  0.17253828766309945        0.0000000000000000     
   2.3991196821847981E-002  0.18053481480268765        0.0000000000000000     
   2.4283775997506946E-002  0.18861940962655910        0.0000000000000000     
   2.4545928406320555E-002  0.19679207213471375        0.0000000000000000     
   1.7434705831416264E-002  0.16454521625212787        0.0000000000000000     
   1.7699350822021932E-002  0.17246256879984617        0.0000000000000000     
   1.7940778614716026E-002  0.18046750559746572        0.0000000000000000     
   1.8158989209498537E-002  0.18856002664498647        0.0000000000000000     
   1.8353982606369477E-002  0.19674013194240852        0.0000000000000000     
   1.1588895358341952E-002  0.16448477914084764        0.0000000000000000     
   1.1765038991080013E-002  0.17240848389738581        0.0000000000000000     
   1.1925439743370016E-002  0.18041942759358426        0.0000000000000000     
   1.2070097615211953E-002  0.18851761022944305        0.0000000000000000     
   1.2199012606605830E-002  0.19670303180496215        0.0000000000000000     
   5.7773267507710497E-003  0.16444851687395387        0.0000000000000000     
   5.8652553865179060E-003  0.17237603295571835        0.0000000000000000     
   5.9451802078099537E-003  0.18039058079104331        0.0000000000000000     
   6.0171012146471919E-003  0.18849216037992869        0.0000000000000000     
   6.0810184070296171E-003  0.19668077172237458        0.0000000000000000     
   8.7035543702707052E-012  0.16443642945144649        0.0000000000000000     
   8.3356095463560376E-012  0.17236521597484383        0.0000000000000000     
   8.0358400055685619E-012  0.18038096518984281        0.0000000000000000     
   7.8042485126238181E-012  0.18848367709644348        0.0000000000000000     
   7.6408341459499596E-012  0.19667335169464584        0.0000000000000000     
   2.4545928406320555E-002  0.19679207213471375        0.0000000000000000     
   2.4778286615568294E-002  0.20503744422812092        0.0000000000000000     
   2.4981483192529640E-002  0.21334016780775006        0.0000000000000000     
   2.5155518137204590E-002  0.22170024287360104        0.0000000000000000     
   2.5300391449593149E-002  0.23011766942567397        0.0000000000000000     
   1.8353982606369477E-002  0.19674013194240852        0.0000000000000000     
   1.8526634381162661E-002  0.20499121207722104        0.0000000000000000     
   1.8677820109711907E-002  0.21329665763691305        0.0000000000000000     
   1.8807539792017217E-002  0.22165646862148472        0.0000000000000000     
   1.8915793428078587E-002  0.23007064503093591        0.0000000000000000     
   1.2199012606605830E-002  0.19670303180496215        0.0000000000000000     
   1.2313035868349590E-002  0.20495818911226324        0.0000000000000000     
   1.2413018551241167E-002  0.21326557894346790        0.0000000000000000     
   1.2498960655280569E-002  0.22162520129857610        0.0000000000000000     
   1.2570862180467792E-002  0.23003705617758788        0.0000000000000000     
   6.0810184070296171E-003  0.19668077172237458        0.0000000000000000     
   6.1374910771290776E-003  0.20493837533324766        0.0000000000000000     
   6.1870785171174239E-003  0.21324693172741457        0.0000000000000000     
   6.2297807269946527E-003  0.22160644090487533        0.0000000000000000     
   6.2655977067607640E-003  0.23001690286563004        0.0000000000000000     
   7.6408341459499596E-012  0.19667335169464584        0.0000000000000000     
   7.5011312265782504E-012  0.20493177074017421        0.0000000000000000     
   7.3406764607847341E-012  0.21324071598875308        0.0000000000000000     
   7.1594665417527847E-012  0.22160018744038240        0.0000000000000000     
   6.9575048847192456E-012  0.23001018509506221        0.0000000000000000     
   2.5300391449593149E-002  0.23011766942567397        0.0000000000000000     
   2.5422366334912311E-002  0.23856497116216160        0.0000000000000000     
   2.5527705998379075E-002  0.24701467178125683        0.0000000000000000     
   2.5616410439993437E-002  0.25546677128295958        0.0000000000000000     
   2.5688479659755407E-002  0.26392126966726992        0.0000000000000000     
   1.8915793428078587E-002  0.23007064503093591        0.0000000000000000     
   1.9006900326730938E-002  0.23851001415734779        0.0000000000000000     
   1.9085179796809189E-002  0.24694540329280151        0.0000000000000000     
   1.9150631838313326E-002  0.25537681243729710        0.0000000000000000     
   1.9203256451243367E-002  0.26380424159083449        0.0000000000000000     
   1.2570862180467792E-002  0.23003705617758788        0.0000000000000000     
   1.2631350602645188E-002  0.23847075915394433        0.0000000000000000     
   1.2683053397655110E-002  0.24689592580108649        0.0000000000000000     
   1.2725970565497553E-002  0.25531255611901438        0.0000000000000000     
   1.2760102106172521E-002  0.26372065010772799        0.0000000000000000     
   6.2655977067607640E-003  0.23001690286563004        0.0000000000000000     
   6.2957171626550614E-003  0.23844720615195120        0.0000000000000000     
   6.3213268009168419E-003  0.24686623930611173        0.0000000000000000     
   6.3424266215461132E-003  0.25527400232811148        0.0000000000000000     
   6.3590166245428674E-003  0.26367049521795055        0.0000000000000000     
   6.9575048847192456E-012  0.23001018509506221        0.0000000000000000     
   6.7605573916829087E-012  0.23843935515136847        0.0000000000000000     
   6.5943919162064768E-012  0.24685634380787722        0.0000000000000000     
   6.4590074282978860E-012  0.25526115106458841        0.0000000000000000     
   6.3544061505715899E-012  0.26365377692150205        0.0000000000000000     
   2.5688479659755407E-002  0.26392126966726992        0.0000000000000000     
   2.5756129768906386E-002  0.27232300875409887        0.0000000000000000     
   2.5831576878687805E-002  0.28061683036335727        0.0000000000000000     
   2.5914820989099654E-002  0.28880273449504523        0.0000000000000000     
   2.6005862100141938E-002  0.29688072114916275        0.0000000000000000     
   1.9203256451243367E-002  0.26380424159083449        0.0000000000000000     
   1.9253065318956139E-002  0.27217034923921185        0.0000000000000000     
   1.9310070124808478E-002  0.28041779386822752        0.0000000000000000     
   1.9374270868800385E-002  0.28854657547788143        0.0000000000000000     
   1.9445667550931862E-002  0.29655669406817364        0.0000000000000000     
   1.2760102106172521E-002  0.26372065010772799        0.0000000000000000     
   1.2792688875198046E-002  0.27206130672865758        0.0000000000000000     
   1.2830971728092163E-002  0.28027562494323344        0.0000000000000000     
   1.2874950664854869E-002  0.28836360475145567        0.0000000000000000     
   1.2924625685486160E-002  0.29632524615332401        0.0000000000000000     
   6.3590166245428674E-003  0.26367049521795055        0.0000000000000000     
   6.3750004376321142E-003  0.27199588122243601        0.0000000000000000     
   6.3942816885388578E-003  0.28019032358837503        0.0000000000000000     
   6.4168603772630957E-003  0.28825382231576768        0.0000000000000000     
   6.4427365038048313E-003  0.29618637740461384        0.0000000000000000     
   6.3544061505715899E-012  0.26365377692150205        0.0000000000000000     
   6.2583397665572083E-012  0.27197407272054708        0.0000000000000000     
   6.1485621281887060E-012  0.28016188980365225        0.0000000000000000     
   6.0250744280884727E-012  0.28821722817081763        0.0000000000000000     
   5.8878743894319463E-012  0.29614008782204321        0.0000000000000000     
   4.7623185776834998E-012   5.5316034785216572E-002   0.0000000000000000     
   8.3530344099913556E-012   6.0922209647581722E-002   0.0000000000000000     
   1.1494959281307948E-011   6.6712478825041457E-002   0.0000000000000000     
   1.4188094980566862E-011   7.2686842317595812E-002   0.0000000000000000     
   1.6432440911456903E-011   7.8845300125244738E-002   0.0000000000000000     
  -3.4159263132230557E-003   5.5344775641732069E-002   0.0000000000000000     
  -3.6222399966339500E-003   6.0950208030361601E-002   0.0000000000000000     
  -3.8190512369412231E-003   6.6739690221169504E-002   0.0000000000000000     
  -4.0063600341448732E-003   7.2713222214155812E-002   0.0000000000000000     
  -4.1841663882449028E-003   7.8870804009320478E-002   0.0000000000000000     
  -6.8923841706705702E-003   5.5430998126010940E-002   0.0000000000000000     
  -7.2952939062473519E-003   6.1034203152126529E-002   0.0000000000000000     
  -7.6815123461711748E-003   6.6821324421306366E-002   0.0000000000000000     
  -8.0510394904420336E-003   7.2792361933550417E-002   0.0000000000000000     
  -8.4038753390599345E-003   7.8947315688858682E-002   0.0000000000000000     
  -1.0429373567580223E-002   5.5574702238053143E-002   0.0000000000000000     
  -1.1019161720487171E-002   6.1174195012876506E-002   0.0000000000000000     
  -1.1587383316194893E-002   6.6957381425451989E-002   0.0000000000000000     
  -1.2134038354703388E-002   7.2924261475779628E-002   0.0000000000000000     
  -1.2659126836012656E-002   7.9074835163859380E-002   0.0000000000000000     
  -1.4026894503952017E-002   5.5775887977858735E-002   0.0000000000000000     
  -1.4793843439353405E-002   6.1370183612611526E-002   0.0000000000000000     
  -1.5536664147012377E-002   6.7147861233606415E-002   0.0000000000000000     
  -1.6255356626928931E-002   7.3108920840843430E-002   0.0000000000000000     
  -1.6949920879103065E-002   7.9253362434322516E-002   0.0000000000000000     
   1.6432440911456903E-011   7.8845300125244738E-002   0.0000000000000000     
   1.7973421145497936E-011   8.5176308409100898E-002   0.0000000000000000     
   1.8556459428949179E-011   9.1668323330276968E-002   0.0000000000000000     
   1.8181556005756119E-011   9.8321344888772880E-002   0.0000000000000000     
   1.6848709927241856E-011  0.10513537308458867        0.0000000000000000     
  -4.1841663882449028E-003   7.8870804009320478E-002   0.0000000000000000     
  -4.3540430020889420E-003   8.5200890583504926E-002   0.0000000000000000     
  -4.5175625785246259E-003   9.1691936913550612E-002   0.0000000000000000     
  -4.6747251175519545E-003   9.8343942999457437E-002   0.0000000000000000     
  -4.8255306191709270E-003  0.10515690884122549        0.0000000000000000     
  -8.4038753390599345E-003   7.8947315688858682E-002   0.0000000000000000     
  -8.7421915446246508E-003   8.5274637122946098E-002   0.0000000000000000     
  -9.0681597597359574E-003   9.1762777671527559E-002   0.0000000000000000     
  -9.3817799843938510E-003   9.8411737334603053E-002   0.0000000000000000     
  -9.6830522185983384E-003  0.10522151611217256        0.0000000000000000     
  -1.2659126836012656E-002   7.9074835163859380E-002   0.0000000000000000     
  -1.3164445609633703E-002   8.5397548027424400E-002   0.0000000000000000     
  -1.3651791525077530E-002   9.1880845604207811E-002   0.0000000000000000     
  -1.4121164582344137E-002   9.8524727894209657E-002   0.0000000000000000     
  -1.4572564781433527E-002  0.10532919489742990        0.0000000000000000     
  -1.6949920879103065E-002   7.9253362434322516E-002   0.0000000000000000     
  -1.7620805197116101E-002   8.5569623296939831E-002   0.0000000000000000     
  -1.8268457874549348E-002   9.2046140711591423E-002   0.0000000000000000     
  -1.8892878911402813E-002   9.8682914678277320E-002   0.0000000000000000     
  -1.9494068307676492E-002  0.10547994519699749        0.0000000000000000     
   1.6848709927241856E-011  0.10513537308458867        0.0000000000000000     
   1.5147200117457404E-011  0.11209750637796473        0.0000000000000000     
   1.3666304199411172E-011  0.11919484322914145        0.0000000000000000     
   1.2406020004698814E-011  0.12642738363811878        0.0000000000000000     
   1.1366349701724676E-011  0.13379512760489681        0.0000000000000000     
  -4.8255306191709270E-003  0.10515690884122549        0.0000000000000000     
  -4.9694755123814551E-003  0.11211794622669097        0.0000000000000000     
  -5.1060562261834542E-003  0.11921416694369012        0.0000000000000000     
  -5.2352727605769200E-003  0.12644557099222298        0.0000000000000000     
  -5.3571251155618577E-003  0.13381215837228949        0.0000000000000000     
  -9.6830522185983384E-003  0.10522151611217256        0.0000000000000000     
  -9.9708761932699088E-003  0.11217926577341855        0.0000000000000000     
  -1.0244151639329053E-002  0.11927213808752340        0.0000000000000000     
  -1.0502878556775766E-002  0.12650013305448715        0.0000000000000000     
  -1.0747056945610055E-002  0.13386325067430979        0.0000000000000000     
  -1.4572564781433527E-002  0.10532919489742990        0.0000000000000000     
  -1.5004202027518161E-002  0.11228146501814747        0.0000000000000000     
  -1.5414286225770488E-002  0.11936875666064130        0.0000000000000000     
  -1.5802817376190516E-002  0.12659106982491139        0.0000000000000000     
  -1.6169795478778243E-002  0.13394840451095777        0.0000000000000000     
  -1.9494068307676492E-002  0.10547994519699749        0.0000000000000000     
  -2.0069453015126203E-002  0.11242454396087774        0.0000000000000000     
  -2.0616459985507762E-002  0.11950402266304380        0.0000000000000000     
  -2.1135089218821169E-002  0.12671838130349566        0.0000000000000000     
  -2.1625340715066423E-002  0.13406761988223334        0.0000000000000000     
   1.1366349701724676E-011  0.13379512760489681        0.0000000000000000     
   1.0502902367259814E-011  0.14128671827956490        0.0000000000000000     
   9.7712866443944169E-012  0.14889079881221257        0.0000000000000000     
   9.1715037257508736E-012  0.15660736920283977        0.0000000000000000     
   8.7035543702707052E-012  0.16443642945144649        0.0000000000000000     
  -5.3571251155618577E-003  0.13381215837228949        0.0000000000000000     
  -5.4720154156493589E-003  0.14130256506297545        0.0000000000000000     
  -5.5803457853505177E-003  0.14890542704336665        0.0000000000000000     
  -5.6821162246653402E-003  0.15662074431346312        0.0000000000000000     
  -5.7773267335938204E-003  0.16444851687326481        0.0000000000000000     
  -1.0747056945610055E-002  0.13386325067430979        0.0000000000000000     
  -1.0977349938771379E-002  0.14135010541306375        0.0000000000000000     
  -1.1194420669199207E-002  0.14894931173682147        0.0000000000000000     
  -1.1398269136893534E-002  0.15666086964558290        0.0000000000000000     
  -1.1588895341854359E-002  0.16448477913934803        0.0000000000000000     
  -1.6169795478778243E-002  0.13394840451095777        0.0000000000000000     
  -1.6516003558863165E-002  0.14142933932982979        0.0000000000000000     
  -1.6842224641774782E-002  0.14902245289257685        0.0000000000000000     
  -1.7148458727513079E-002  0.15672774519919905        0.0000000000000000     
  -1.7434705816078071E-002  0.16454521624969626        0.0000000000000000     
  -2.1625340715066423E-002  0.13406761988223334        0.0000000000000000     
  -2.2087976275924712E-002  0.14154026681327356        0.0000000000000000     
  -2.2523757703077234E-002  0.14912485051063296        0.0000000000000000     
  -2.2932684996523980E-002  0.15682137097431162        0.0000000000000000     
  -2.3314758156264947E-002  0.16462982820430944        0.0000000000000000     
   8.7035543702707052E-012  0.16443642945144649        0.0000000000000000     
   8.3356095463560376E-012  0.17236521597484383        0.0000000000000000     
   8.0358400055685619E-012  0.18038096518984281        0.0000000000000000     
   7.8042485126238181E-012  0.18848367709644348        0.0000000000000000     
   7.6408341459499596E-012  0.19667335169464584        0.0000000000000000     
  -5.7773267335938204E-003  0.16444851687326481        0.0000000000000000     
  -5.8652553700389385E-003  0.17237603295479034        0.0000000000000000     
  -5.9451801919036791E-003  0.18039058079005860        0.0000000000000000     
  -6.0171011991880363E-003  0.18849216037906938        0.0000000000000000     
  -6.0810183918920142E-003  0.19668077172182280        0.0000000000000000     
  -1.1588895341854359E-002  0.16448477913934803        0.0000000000000000     
  -1.1765038975177796E-002  0.17240848389558608        0.0000000000000000     
  -1.1925439727959952E-002  0.18041942759176616        0.0000000000000000     
  -1.2070097600200827E-002  0.18851761022788829        0.0000000000000000     
  -1.2199012591900420E-002  0.19670303180395243        0.0000000000000000     
  -1.7434705816078071E-002  0.16454521624969626        0.0000000000000000     
  -1.7699350807080964E-002  0.17246256879723099        0.0000000000000000     
  -1.7940778600132982E-002  0.18046750559496563        0.0000000000000000     
  -1.8158989195234128E-002  0.18856002664290017        0.0000000000000000     
  -1.8353982592384393E-002  0.19674013194103471        0.0000000000000000     
  -2.3314758156264947E-002  0.16462982820430944        0.0000000000000000     
  -2.3668190865748451E-002  0.17253828765972504        0.0000000000000000     
  -2.3991196808422776E-002  0.18053481479965694        0.0000000000000000     
  -2.4283775984287929E-002  0.18861940962410512        0.0000000000000000     
  -2.4545928393343922E-002  0.19679207213306965        0.0000000000000000     
   7.6408341459499596E-012  0.19667335169464584        0.0000000000000000     
   7.5011312265782504E-012  0.20493177074017421        0.0000000000000000     
   7.3406764607847341E-012  0.21324071598875308        0.0000000000000000     
   7.1594665417527847E-012  0.22160018744038240        0.0000000000000000     
   6.9575048847192456E-012  0.23001018509506221        0.0000000000000000     
  -6.0810183918920142E-003  0.19668077172182280        0.0000000000000000     
  -6.1374910622695204E-003  0.20493837533304354        0.0000000000000000     
  -6.1870785025744720E-003  0.21324693172745632        0.0000000000000000     
  -6.2297807128068655E-003  0.22160644090506113        0.0000000000000000     
  -6.2655976929667009E-003  0.23001690286585802        0.0000000000000000     
  -1.2199012591900420E-002  0.19670303180395243        0.0000000000000000     
  -1.2313035853918144E-002  0.20495818911185623        0.0000000000000000     
  -1.2413018537113409E-002  0.21326557894349718        0.0000000000000000     
  -1.2498960641486215E-002  0.22162520129887545        0.0000000000000000     
  -1.2570862167036560E-002  0.23003705617799100        0.0000000000000000     
  -1.8353982592384393E-002  0.19674013194103471        0.0000000000000000     
  -1.8526634367444741E-002  0.20499121207661219        0.0000000000000000     
  -1.8677820096276141E-002  0.21329665763687577        0.0000000000000000     
  -1.8807539778878581E-002  0.22165646862182539        0.0000000000000000     
  -1.8915793415252079E-002  0.23007064503146110        0.0000000000000000     
  -2.4545928393343922E-002  0.19679207213306965        0.0000000000000000     
  -2.4778286602849305E-002  0.20503744422731157        0.0000000000000000     
  -2.4981483180062658E-002  0.21334016780759199        0.0000000000000000     
  -2.5155518124983973E-002  0.22170024287391094        0.0000000000000000     
  -2.5300391437613257E-002  0.23011766942626838        0.0000000000000000     
   6.9575048847192456E-012  0.23001018509506221        0.0000000000000000     
   6.7605573916829087E-012  0.23843935515136847        0.0000000000000000     
   6.5943919162064768E-012  0.24685634380787722        0.0000000000000000     
   6.4590074282978860E-012  0.25526115106458841        0.0000000000000000     
   6.3544061505715899E-012  0.26365377692150205        0.0000000000000000     
  -6.2655976929667009E-003  0.23001690286585802        0.0000000000000000     
  -6.2957171492447435E-003  0.23844720615218534        0.0000000000000000     
  -6.3213267878317637E-003  0.24686623930638152        0.0000000000000000     
  -6.3424266087277557E-003  0.25527400232844649        0.0000000000000000     
  -6.3590166119327270E-003  0.26367049521838037        0.0000000000000000     
  -1.2570862167036560E-002  0.23003705617799100        0.0000000000000000     
  -1.2631350589567264E-002  0.23847075915439109        0.0000000000000000     
  -1.2683053384881139E-002  0.24689592580162312        0.0000000000000000     
  -1.2725970552978184E-002  0.25531255611968712        0.0000000000000000     
  -1.2760102093858399E-002  0.26372065010858303        0.0000000000000000     
  -1.8915793415252079E-002  0.23007064503146110        0.0000000000000000     
  -1.9006900314207008E-002  0.23851001415798573        0.0000000000000000     
  -1.9085179784553728E-002  0.24694540329360209        0.0000000000000000     
  -1.9150631826292265E-002  0.25537681243831023        0.0000000000000000     
  -1.9203256439422608E-002  0.26380424159211013        0.0000000000000000     
  -2.5300391437613257E-002  0.23011766942626838        0.0000000000000000     
  -2.5422366323163963E-002  0.23856497116296929        0.0000000000000000     
  -2.5527705986849544E-002  0.24701467178231845        0.0000000000000000     
  -2.5616410428670012E-002  0.25546677128431589        0.0000000000000000     
  -2.5688479648625355E-002  0.26392126966896168        0.0000000000000000     
   6.3544061505715899E-012  0.26365377692150205        0.0000000000000000     
   6.2583397665572083E-012  0.27197407272054708        0.0000000000000000     
   6.1485621281887060E-012  0.28016188980365225        0.0000000000000000     
   6.0250744280884727E-012  0.28821722817081763        0.0000000000000000     
   5.8878743894319463E-012  0.29614008782204321        0.0000000000000000     
  -6.3590166119327270E-003  0.26367049521838037        0.0000000000000000     
  -6.3750004252141005E-003  0.27199588122298246        0.0000000000000000     
  -6.3942816763393048E-003  0.28019032358905233        0.0000000000000000     
  -6.4168603653083408E-003  0.28825382231658986        0.0000000000000000     
  -6.4427364921212076E-003  0.29618637740559506        0.0000000000000000     
  -1.2760102093858399E-002  0.26372065010858303        0.0000000000000000     
  -1.2792688863076034E-002  0.27206130672973378        0.0000000000000000     
  -1.2830971716185330E-002  0.28027562494456226        0.0000000000000000     
  -1.2874950653186288E-002  0.28836360475306849        0.0000000000000000     
  -1.2924625674078911E-002  0.29632524615525246        0.0000000000000000     
  -1.9203256439422608E-002  0.26380424159211013        0.0000000000000000     
  -1.9253065307327458E-002  0.27217034924080108        0.0000000000000000     
  -1.9310070113389505E-002  0.28041779387018223        0.0000000000000000     
  -1.9374270857608778E-002  0.28854657548025364        0.0000000000000000     
  -1.9445667539985240E-002  0.29655669407101543        0.0000000000000000     
  -2.5688479648625355E-002  0.26392126966896168        0.0000000000000000     
  -2.5756129757968371E-002  0.27232300875618420        0.0000000000000000     
  -2.5831576867951848E-002  0.28061683036591206        0.0000000000000000     
  -2.5914820978575785E-002  0.28880273449814536        0.0000000000000000     
  -2.6005862089840188E-002  0.29688072115288389        0.0000000000000000     
  -1.4026894503952017E-002   5.5775887977858735E-002   0.0000000000000000     
  -1.4793843439353405E-002   6.1370183612611526E-002   0.0000000000000000     
  -1.5536664147012377E-002   6.7147861233606415E-002   0.0000000000000000     
  -1.6255356626928931E-002   7.3108920840843430E-002   0.0000000000000000     
  -1.6949920879103065E-002   7.9253362434322516E-002   0.0000000000000000     
  -1.7677693241483550E-002   5.6035275300401477E-002   0.0000000000000000     
  -1.8622859863062714E-002   6.1622986579647099E-002   0.0000000000000000     
  -1.9541109196894040E-002   6.7393586792380306E-002   0.0000000000000000     
  -2.0432441242977533E-002   7.3347075938601083E-002   0.0000000000000000     
  -2.1296856001313196E-002   7.9483454018309460E-002   0.0000000000000000     
  -2.1374516041872422E-002   5.6353584160655230E-002   0.0000000000000000     
  -2.2509731791831748E-002   6.1933421542298736E-002   0.0000000000000000     
  -2.3612472824110289E-002   6.7695381048384282E-002   0.0000000000000000     
  -2.4682739138708068E-002   7.3639462678911874E-002   0.0000000000000000     
  -2.5720530735625080E-002   7.9765666433881513E-002   0.0000000000000000     
  -2.5117362905118634E-002   5.6730814558619960E-002   0.0000000000000000     
  -2.6454459225660497E-002   6.2301488500566424E-002   0.0000000000000000     
  -2.7750755028661134E-002   6.8053244001618371E-002   0.0000000000000000     
  -2.9006250314120536E-002   7.3986081061775774E-002   0.0000000000000000     
  -3.0220945082038708E-002   8.0099999681038633E-002   0.0000000000000000     
  -2.8906233831222185E-002   5.7166966494295687E-002   0.0000000000000000     
  -3.0457042164548982E-002   6.2727187454450190E-002   0.0000000000000000     
  -3.1955955810546569E-002   6.8467175652082560E-002   0.0000000000000000     
  -3.3402974769214937E-002   7.4386931087192784E-002   0.0000000000000000     
  -3.4798099040554094E-002   8.0486453759780863E-002   0.0000000000000000     
  -1.6949920879103065E-002   7.9253362434322516E-002   0.0000000000000000     
  -1.7620805197116101E-002   8.5569623296939831E-002   0.0000000000000000     
  -1.8268457874549348E-002   9.2046140711591423E-002   0.0000000000000000     
  -1.8892878911402813E-002   9.8682914678277320E-002   0.0000000000000000     
  -1.9494068307676492E-002  0.10547994519699749        0.0000000000000000     
  -2.1296856001313196E-002   7.9483454018309460E-002   0.0000000000000000     
  -2.2133566171163455E-002   8.5791252612431659E-002   0.0000000000000000     
  -2.2941784451790754E-002   9.2259003301893960E-002   0.0000000000000000     
  -2.3721510843195091E-002   9.8886706086696280E-002   0.0000000000000000     
  -2.4472745345376468E-002  0.10567436096683870        0.0000000000000000     
  -2.5720530735625080E-002   7.9765666433881513E-002   0.0000000000000000     
  -2.6725024395867387E-002   8.6062825654839220E-002   0.0000000000000000     
  -2.7695396900441101E-002   9.2519773683331016E-002   0.0000000000000000     
  -2.8631648249346199E-002   9.9136510519356930E-002   0.0000000000000000     
  -2.9533778442582693E-002  0.10591303616291695        0.0000000000000000     
  -3.0220945082038708E-002   8.0099999681038633E-002   0.0000000000000000     
  -3.1395179871227898E-002   8.6384342424162416E-002   0.0000000000000000     
  -3.2529295220500375E-002   9.2828451855902633E-002   0.0000000000000000     
  -3.3623291129856125E-002   9.9432327976259186E-002   0.0000000000000000     
  -3.4677167599295171E-002  0.10619597078523216        0.0000000000000000     
  -3.4798099040554094E-002   8.0486453759780863E-002   0.0000000000000000     
  -3.6144032597244982E-002   8.6755802920401359E-002   0.0000000000000000     
  -3.7443479411968593E-002   9.3185037819608768E-002   0.0000000000000000     
  -3.8696439484724884E-002   9.9774158457403103E-002   0.0000000000000000     
  -3.9902912815513891E-002  0.10652316483378436        0.0000000000000000     
  -1.9494068307676492E-002  0.10547994519699749        0.0000000000000000     
  -2.0069453015126203E-002  0.11242454396087774        0.0000000000000000     
  -2.0616459985507762E-002  0.11950402266304380        0.0000000000000000     
  -2.1135089218821169E-002  0.12671838130349566        0.0000000000000000     
  -2.1625340715066423E-002  0.13406761988223334        0.0000000000000000     
  -2.4472745345376468E-002  0.10567436096683870        0.0000000000000000     
  -2.5192192732873604E-002  0.11260931869472875        0.0000000000000000     
  -2.5876557780225205E-002  0.11967893002277392        0.0000000000000000     
  -2.6525840487431299E-002  0.12688319495097425        0.0000000000000000     
  -2.7140040854491867E-002  0.13422211347932972        0.0000000000000000     
  -2.9533778442582693E-002  0.10591303616291695        0.0000000000000000     
  -3.0397984757539905E-002  0.11283660531281993        0.0000000000000000     
  -3.1220464471607170E-002  0.11989447266787480        0.0000000000000000     
  -3.2001217584784483E-002  0.12708663822808147        0.0000000000000000     
  -3.2740244097071845E-002  0.13441310199344003        0.0000000000000000     
  -3.4677167599295171E-002  0.10619597078523216        0.0000000000000000     
  -3.5686829089125127E-002  0.11310640381515129        0.0000000000000000     
  -3.6648180059653646E-002  0.12015065059834636        0.0000000000000000     
  -3.7561220510880726E-002  0.12732871113481736        0.0000000000000000     
  -3.8425950442806361E-002  0.13464058542456434        0.0000000000000000     
  -3.9902912815513891E-002  0.10652316483378436        0.0000000000000000     
  -4.1058725727629253E-002  0.11341871420172281        0.0000000000000000     
  -4.2159704544364629E-002  0.12044746381418864        0.0000000000000000     
  -4.3205849265720020E-002  0.12760941367118189        0.0000000000000000     
  -4.4197159891695419E-002  0.13490456377270257        0.0000000000000000     
  -2.1625340715066423E-002  0.13406761988223334        0.0000000000000000     
  -2.2087976275924712E-002  0.14154026681327356        0.0000000000000000     
  -2.2523757703077234E-002  0.14912485051063296        0.0000000000000000     
  -2.2932684996523980E-002  0.15682137097431162        0.0000000000000000     
  -2.3314758156264947E-002  0.16462982820430944        0.0000000000000000     
  -2.7140040854491867E-002  0.13422211347932972        0.0000000000000000     
  -2.7719925792818897E-002  0.14168420717006394        0.0000000000000000     
  -2.8266262213824368E-002  0.14925799758540054        0.0000000000000000     
  -2.8779050117508292E-002  0.15694348472533942        0.0000000000000000     
  -2.9258289503870664E-002  0.16474066858988073        0.0000000000000000     
  -3.2740244097071845E-002  0.13441310199344003        0.0000000000000000     
  -3.3438509812408576E-002  0.14186247970686985        0.0000000000000000     
  -3.4096980534733992E-002  0.14942338711129033        0.0000000000000000     
  -3.4715656264048100E-002  0.15709582420670140        0.0000000000000000     
  -3.5294537000350880E-002  0.16487979099310321        0.0000000000000000     
  -3.8425950442806361E-002  0.13464058542456434        0.0000000000000000     
  -3.9243728334693750E-002  0.14207508442369135        0.0000000000000000     
  -4.0015912665806098E-002  0.14962101908830241        0.0000000000000000     
  -4.0742503436143378E-002  0.15727838941839764        0.0000000000000000     
  -4.1423500645705602E-002  0.16504719541397692        0.0000000000000000     
  -4.4197159891695419E-002  0.13490456377270257        0.0000000000000000     
  -4.5135581359674444E-002  0.14232202132052829        0.0000000000000000     
  -4.6023058607040687E-002  0.14985089351643677        0.0000000000000000     
  -4.6859591633794148E-002  0.15749118036042795        0.0000000000000000     
  -4.7645180439934841E-002  0.16524288185250186        0.0000000000000000     
  -2.3314758156264947E-002  0.16462982820430944        0.0000000000000000     
  -2.3668190865748451E-002  0.17253828765972504        0.0000000000000000     
  -2.3991196808422776E-002  0.18053481479965694        0.0000000000000000     
  -2.4283775984287929E-002  0.18861940962410512        0.0000000000000000     
  -2.4545928393343922E-002  0.19679207213306965        0.0000000000000000     
  -2.9258289503870664E-002  0.16474066858988073        0.0000000000000000     
  -2.9702069252440576E-002  0.17263794996563495        0.0000000000000000     
  -3.0108478242747136E-002  0.18062372963921275        0.0000000000000000     
  -3.0477516474790335E-002  0.18869800761061403        0.0000000000000000     
  -3.0809183948570188E-002  0.19686078387983894        0.0000000000000000     
  -3.5294537000350880E-002  0.16487979099310321        0.0000000000000000     
  -3.5831496068417706E-002  0.17276386519752737        0.0000000000000000     
  -3.6324406793023872E-002  0.18073662454700556        0.0000000000000000     
  -3.6773269174169433E-002  0.18879806904153784        0.0000000000000000     
  -3.7178083211854340E-002  0.19694819868112415        0.0000000000000000     
  -4.1423500645705602E-002  0.16504719541397692        0.0000000000000000     
  -4.2056471313679802E-002  0.17291603335540218        0.0000000000000000     
  -4.2638982459253016E-002  0.18087349952303541        0.0000000000000000     
  -4.3171034082425210E-002  0.18891959391687643        0.0000000000000000     
  -4.3652626183196402E-002  0.19705431653692537        0.0000000000000000     
  -4.7645180439934841E-002  0.16524288185250186        0.0000000000000000     
  -4.8376994988226903E-002  0.17309445443925961        0.0000000000000000     
  -4.9052205241434527E-002  0.18103435456730230        0.0000000000000000     
  -4.9670811199557664E-002  0.18906258223662997        0.0000000000000000     
  -5.0232812862596371E-002  0.19717913744724253        0.0000000000000000     
  -2.4545928393343922E-002  0.19679207213306965        0.0000000000000000     
  -2.4778286602849305E-002  0.20503744422731157        0.0000000000000000     
  -2.4981483180062658E-002  0.21334016780759199        0.0000000000000000     
  -2.5155518124983973E-002  0.22170024287391094        0.0000000000000000     
  -2.5300391437613257E-002  0.23011766942626838        0.0000000000000000     
  -3.0809183948570188E-002  0.19686078387983894        0.0000000000000000     
  -3.1103662588763594E-002  0.20509821168426512        0.0000000000000000     
  -3.1361134320047501E-002  0.21339644426127033        0.0000000000000000     
  -3.1581599142421889E-002  0.22175548161085468        0.0000000000000000     
  -3.1765057055886781E-002  0.23017532373301802        0.0000000000000000     
  -3.7178083211854340E-002  0.19694819868112415        0.0000000000000000     
  -3.7538432353819352E-002  0.20517484056778360        0.0000000000000000     
  -3.7853900047805200E-002  0.21346582180353527        0.0000000000000000     
  -3.8124486293811856E-002  0.22182114238837911        0.0000000000000000     
  -3.8350191091839347E-002  0.23024080232231511        0.0000000000000000     
  -4.3652626183196402E-002  0.19705431653692537        0.0000000000000000     
  -4.4082595898016594E-002  0.20526733087786717        0.0000000000000000     
  -4.4459780363335741E-002  0.21354830043438680        0.0000000000000000     
  -4.4784179579153871E-002  0.22189722520648433        0.0000000000000000     
  -4.5055793545470957E-002  0.23031410519415974        0.0000000000000000     
  -5.0232812862596371E-002  0.19717913744724253        0.0000000000000000     
  -5.0736153221355287E-002  0.20537568261451566        0.0000000000000000     
  -5.1178775266639144E-002  0.21364388015382496        0.0000000000000000     
  -5.1560678998447913E-002  0.22198373006517028        0.0000000000000000     
  -5.1881864416781602E-002  0.23039523234855180        0.0000000000000000     
  -2.5300391437613257E-002  0.23011766942626838        0.0000000000000000     
  -2.5422366323163963E-002  0.23856497116296929        0.0000000000000000     
  -2.5527705986849544E-002  0.24701467178231845        0.0000000000000000     
  -2.5616410428670012E-002  0.25546677128431589        0.0000000000000000     
  -2.5688479648625355E-002  0.26392126966896168        0.0000000000000000     
  -3.1765057055886781E-002  0.23017532373301802        0.0000000000000000     
  -3.1919438474705443E-002  0.23863114063958515        0.0000000000000000     
  -3.2052673813141162E-002  0.24709810234238072        0.0000000000000000     
  -3.2164763071193953E-002  0.25557620884140475        0.0000000000000000     
  -3.2255706248863793E-002  0.26406546013665722        0.0000000000000000     
  -3.8350191091839347E-002  0.23024080232231511        0.0000000000000000     
  -3.8539806627098751E-002  0.23870403305807680        0.0000000000000000     
  -3.8702125084801177E-002  0.24719006604839755        0.0000000000000000     
  -3.8837146464946619E-002  0.25569890129327738        0.0000000000000000     
  -3.8944870767535070E-002  0.26423053879271635        0.0000000000000000     
  -4.5055793545470957E-002  0.23031410519415974        0.0000000000000000     
  -4.5283470780343907E-002  0.23878364841844416        0.0000000000000000     
  -4.5476059801829595E-002  0.24729056290036891        0.0000000000000000     
  -4.5633560609928021E-002  0.25583484863993394        0.0000000000000000     
  -4.5755973204639186E-002  0.26441650563713920        0.0000000000000000     
  -5.1881864416781602E-002  0.23039523234855180        0.0000000000000000     
  -5.2150430934440876E-002  0.23886998672068732        0.0000000000000000     
  -5.2374477964226389E-002  0.24739959289829477        0.0000000000000000     
  -5.2554005506138146E-002  0.25598405088137416        0.0000000000000000     
  -5.2689013560176148E-002  0.26462336066992559        0.0000000000000000     
  -2.5688479648625355E-002  0.26392126966896168        0.0000000000000000     
  -2.5756129757968371E-002  0.27232300875618420        0.0000000000000000     
  -2.5831576867951848E-002  0.28061683036591206        0.0000000000000000     
  -2.5914820978575785E-002  0.28880273449814536        0.0000000000000000     
  -2.6005862089840188E-002  0.29688072115288389        0.0000000000000000     
  -3.2255706248863793E-002  0.26406546013665722        0.0000000000000000     
  -3.2340325932853395E-002  0.27251294283570388        0.0000000000000000     
  -3.2433444709865450E-002  0.28086574354611044        0.0000000000000000     
  -3.2535062579899965E-002  0.28912386226787701        0.0000000000000000     
  -3.2645179542956933E-002  0.29728729900100354        0.0000000000000000     
  -3.8944870767535070E-002  0.26423053879271635        0.0000000000000000     
  -3.9044097549837134E-002  0.27273380903918049        0.0000000000000000     
  -3.9153626369123430E-002  0.28115754252513581        0.0000000000000000     
  -3.9273457225393923E-002  0.28950173925058231        0.0000000000000000     
  -3.9403590118648649E-002  0.29776639921552001        0.0000000000000000     
  -4.5755973204639186E-002  0.26441650563713920        0.0000000000000000     
  -4.5867444608919596E-002  0.27298560736661404        0.0000000000000000     
  -4.5992121845725757E-002  0.28149222730298806        0.0000000000000000     
  -4.6130004915057678E-002  0.28993636544626111        0.0000000000000000     
  -4.6281093816915336E-002  0.29831802179643324        0.0000000000000000     
  -5.2689013560176148E-002  0.26462336066992559        0.0000000000000000     
  -5.2810367110100787E-002  0.27326833781800469        0.0000000000000000     
  -5.2948931139672473E-002  0.28186979787966737        0.0000000000000000     
  -5.3104705648891207E-002  0.29042774085491363        0.0000000000000000     
  -5.3277690637756989E-002  0.29894216674374341        0.0000000000000000     
  -2.8906233831222185E-002   5.7166966494295687E-002   0.0000000000000000     
  -3.0457042164548982E-002   6.2727187454450190E-002   0.0000000000000000     
  -3.1955955810546569E-002   6.8467175652082560E-002   0.0000000000000000     
  -3.3402974769214937E-002   7.4386931087192784E-002   0.0000000000000000     
  -3.4798099040554094E-002   8.0486453759780863E-002   0.0000000000000000     
  -3.2819758760826101E-002   5.7662760878671712E-002   0.0000000000000000     
  -3.4583296536343087E-002   6.3210173334041206E-002   0.0000000000000000     
  -3.6283799407655665E-002   6.8936224247465580E-002   0.0000000000000000     
  -3.7921267374763819E-002   7.4840913618944890E-002   0.0000000000000000     
  -3.9495700437667570E-002   8.0924241448479095E-002   0.0000000000000000     
  -3.6936567634573404E-002   5.8218918622737377E-002   0.0000000000000000     
  -3.8899038268888714E-002   6.3750101069430645E-002   0.0000000000000000     
  -4.0790010057877503E-002   6.9459438035456192E-002   0.0000000000000000     
  -4.2609483001539765E-002   7.5346929520814052E-002   0.0000000000000000     
  -4.4357457099875514E-002   8.1412575525504211E-002   0.0000000000000000     
  -4.1256660452464108E-002   5.8835439726492668E-002   0.0000000000000000     
  -4.3404267362185861E-002   6.4346970660618522E-002   0.0000000000000000     
  -4.5474587761212083E-002   7.0036817016054381E-002   0.0000000000000000     
  -4.7467621649542761E-002   7.5904978792800254E-002   0.0000000000000000     
  -4.9383369027177895E-002   8.1951455990856167E-002   0.0000000000000000     
  -4.5780037214498200E-002   5.9512324189937592E-002   0.0000000000000000     
  -4.8098983816234536E-002   6.5000782107604835E-002   0.0000000000000000     
  -5.0337532517659413E-002   7.0668361189260148E-002   0.0000000000000000     
  -5.2495683318772808E-002   7.6515061434903553E-002   0.0000000000000000     
  -5.4573436219574736E-002   8.2540882844535035E-002   0.0000000000000000     
  -3.4798099040554094E-002   8.0486453759780863E-002   0.0000000000000000     
  -3.6144032597244982E-002   8.6755802920401359E-002   0.0000000000000000     
  -3.7443479411968593E-002   9.3185037819608768E-002   0.0000000000000000     
  -3.8696439484724884E-002   9.9774158457403103E-002   0.0000000000000000     
  -3.9902912815513891E-002  0.10652316483378436        0.0000000000000000     
  -3.9495700437667570E-002   8.0924241448479095E-002   0.0000000000000000     
  -4.1012297944453519E-002   8.7176876813404469E-002   0.0000000000000000     
  -4.2476259243208248E-002   9.3589488791057315E-002   0.0000000000000000     
  -4.3887584333931771E-002  0.10016207738143755        0.0000000000000000     
  -4.5246273216624090E-002  0.10689464258454526        0.0000000000000000     
  -4.4357457099875514E-002   8.1412575525504211E-002   0.0000000000000000     
  -4.6040691283388335E-002   8.7647233773020305E-002   0.0000000000000000     
  -4.7665944482581851E-002   9.4041761986856084E-002   0.0000000000000000     
  -4.9233216697456068E-002  0.10059616016701149        0.0000000000000000     
  -5.0742507928010973E-002  0.10731042831348654        0.0000000000000000     
  -4.9383369027177895E-002   8.1951455990856167E-002   0.0000000000000000     
  -5.1229212614049467E-002   8.8166873799248854E-002   0.0000000000000000     
  -5.3012535130089432E-002   9.4541857407005103E-002   0.0000000000000000     
  -5.4733336575297796E-002  0.10107640681412486        0.0000000000000000     
  -5.6391616949674553E-002  0.10777052202060818        0.0000000000000000     
  -5.4573436219574736E-002   8.2540882844535035E-002   0.0000000000000000     
  -5.6577861936436893E-002   8.8735796892090102E-002   0.0000000000000000     
  -5.8516031185730961E-002   9.5089775051504330E-002   0.0000000000000000     
  -6.0387943967456940E-002  0.10160281732277768        0.0000000000000000     
  -6.2193600281614830E-002  0.10827492370591019        0.0000000000000000     
  -3.9902912815513891E-002  0.10652316483378436        0.0000000000000000     
  -4.1058725727629253E-002  0.11341871420172281        0.0000000000000000     
  -4.2159704544364629E-002  0.12044746381418864        0.0000000000000000     
  -4.3205849265720020E-002  0.12760941367118189        0.0000000000000000     
  -4.4197159891695419E-002  0.13490456377270257        0.0000000000000000     
  -4.5246273216624090E-002  0.10689464258454526        0.0000000000000000     
  -4.6548035159855915E-002  0.11377352055573677        0.0000000000000000     
  -4.7788579432197983E-002  0.12078504745036850        0.0000000000000000     
  -4.8967906033650262E-002  0.12792922326844042        0.0000000000000000     
  -5.0086014964212777E-002  0.13520604800995253        0.0000000000000000     
  -5.0742507928010973E-002  0.10731042831348654        0.0000000000000000     
  -5.2189117872608742E-002  0.11417080696039553        0.0000000000000000     
  -5.3568346229611527E-002  0.12116353664185277        0.0000000000000000     
  -5.4880192999019355E-002  0.12828861735785826        0.0000000000000000     
  -5.6124658180832190E-002  0.13554604910841203        0.0000000000000000     
  -5.6391616949674553E-002  0.10777052202060818        0.0000000000000000     
  -5.7981973865887722E-002  0.11461057341569904        0.0000000000000000     
  -5.9499004936605308E-002  0.12158293138864147        0.0000000000000000     
  -6.0942710161827264E-002  0.12868759593943543        0.0000000000000000     
  -6.2313089541553665E-002  0.13592456706808098        0.0000000000000000     
  -6.2193600281614830E-002  0.10827492370591019        0.0000000000000000     
  -6.3926603139692853E-002  0.11509281992164733        0.0000000000000000     
  -6.5580555553179265E-002  0.12204323169073458        0.0000000000000000     
  -6.7155457522074039E-002  0.12912615901317198        0.0000000000000000     
  -6.8651309046377201E-002  0.13634160188895947        0.0000000000000000     
  -4.4197159891695419E-002  0.13490456377270257        0.0000000000000000     
  -4.5135581359674444E-002  0.14232202132052829        0.0000000000000000     
  -4.6023058607040687E-002  0.14985089351643677        0.0000000000000000     
  -4.6859591633794148E-002  0.15749118036042795        0.0000000000000000     
  -4.7645180439934841E-002  0.16524288185250186        0.0000000000000000     
  -5.0086014964212777E-002  0.13520604800995253        0.0000000000000000     
  -5.1145519876630324E-002  0.14260486649477930        0.0000000000000000     
  -5.2149034423647753E-002  0.15011502354279510        0.0000000000000000     
  -5.3096558605265007E-002  0.15773651915400003        0.0000000000000000     
  -5.3988092421482121E-002  0.16546935332839402        0.0000000000000000     
  -5.6124658180832190E-002  0.13554604910841203        0.0000000000000000     
  -5.7304994874841135E-002  0.14292519604384274        0.0000000000000000     
  -5.8424456180837248E-002  0.15041542231447921        0.0000000000000000     
  -5.9483042098820563E-002  0.15801672792032143        0.0000000000000000     
  -6.0480752628791032E-002  0.16572911286136943        0.0000000000000000     
  -6.2313089541553665E-002  0.13592456706808098        0.0000000000000000     
  -6.3614006354306848E-002  0.14328300996771864        0.0000000000000000     
  -6.4849323878609227E-002  0.15075208983148908        0.0000000000000000     
  -6.6019042114460816E-002  0.15833180665939220        0.0000000000000000     
  -6.7123161061861558E-002  0.16602216045142806        0.0000000000000000     
  -6.8651309046377201E-002  0.13634160188895947        0.0000000000000000     
  -7.0072554315027472E-002  0.14367830826640707        0.0000000000000000     
  -7.1423637516963651E-002  0.15112502609382467        0.0000000000000000     
  -7.2704558652185725E-002  0.15868175537121229        0.0000000000000000     
  -7.3915317720693693E-002  0.16634849609856994        0.0000000000000000     
  -4.7645180439934841E-002  0.16524288185250186        0.0000000000000000     
  -4.8376994988226903E-002  0.17309445443925961        0.0000000000000000     
  -4.9052205241434527E-002  0.18103435456730230        0.0000000000000000     
  -4.9670811199557664E-002  0.18906258223662997        0.0000000000000000     
  -5.0232812862596371E-002  0.19717913744724253        0.0000000000000000     
  -5.3988092421482121E-002  0.16546935332839402        0.0000000000000000     
  -5.4820507886737084E-002  0.17330189133222956        0.0000000000000000     
  -5.5590677015467854E-002  0.18122249843175908        0.0000000000000000     
  -5.6298599807674439E-002  0.18923117462698263        0.0000000000000000     
  -5.6944276263356824E-002  0.19732791991790019        0.0000000000000000     
  -6.0480752628791032E-002  0.16572911286136943        0.0000000000000000     
  -6.1414450803888417E-002  0.17354110691744215        0.0000000000000000     
  -6.2280999657252444E-002  0.18144123986835858        0.0000000000000000     
  -6.3080399188883085E-002  0.18942951171411879        0.0000000000000000     
  -6.3812649398780369E-002  0.19750592245472276        0.0000000000000000     
  -6.7123161061861558E-002  0.16602216045142806        0.0000000000000000     
  -6.8158823739680921E-002  0.17381210119489734        0.0000000000000000     
  -6.9123173166788288E-002  0.18169057887710080        0.0000000000000000     
  -7.0016209343183644E-002  0.18965759349803843        0.0000000000000000     
  -7.0837932268867018E-002  0.19771314505771026        0.0000000000000000     
  -7.3915317720693693E-002  0.16634849609856994        0.0000000000000000     
  -7.5053626694114570E-002  0.17411487416459520        0.0000000000000000     
  -7.6117197544075366E-002  0.18197051545798576        0.0000000000000000     
  -7.7106030270576095E-002  0.18991541997874156        0.0000000000000000     
  -7.8020124873616731E-002  0.19794958772686266        0.0000000000000000     
  -5.0232812862596371E-002  0.19717913744724253        0.0000000000000000     
  -5.0736153221355287E-002  0.20537568261451566        0.0000000000000000     
  -5.1178775266639144E-002  0.21364388015382496        0.0000000000000000     
  -5.1560678998447913E-002  0.22198373006517028        0.0000000000000000     
  -5.1881864416781602E-002  0.23039523234855180        0.0000000000000000     
  -5.6944276263356824E-002  0.19732791991790019        0.0000000000000000     
  -5.7525098513855601E-002  0.20550603967050965        0.0000000000000000     
  -5.8038458690511302E-002  0.21375883925080891        0.0000000000000000     
  -5.8484356793323963E-002  0.22208631865879802        0.0000000000000000     
  -5.8862792822293536E-002  0.23048847789447693        0.0000000000000000     
  -6.3812649398780369E-002  0.19750592245472276        0.0000000000000000     
  -6.4475425965537611E-002  0.20566454593862948        0.0000000000000000     
  -6.5066404567748135E-002  0.21389945601429808        0.0000000000000000     
  -6.5585585205411939E-002  0.22221065268172843        0.0000000000000000     
  -6.6032967878528998E-002  0.23059813594092066        0.0000000000000000     
  -7.0837932268867018E-002  0.19771314505771026        0.0000000000000000     
  -7.1587135576401340E-002  0.20585120141887522        0.0000000000000000     
  -7.2262612898349635E-002  0.21406573044429231        0.0000000000000000     
  -7.2864364234711834E-002  0.22235673213396162        0.0000000000000000     
  -7.3392389585488008E-002  0.23072420648788303        0.0000000000000000     
  -7.8020124873616731E-002  0.19794958772686266        0.0000000000000000     
  -7.8860227346446807E-002  0.20606600611124681        0.0000000000000000     
  -7.9627083682315788E-002  0.21425766254079173        0.0000000000000000     
  -8.0320693881223718E-002  0.22252455701549753        0.0000000000000000     
  -8.0941057943170525E-002  0.23086668953536402        0.0000000000000000     
  -5.1881864416781602E-002  0.23039523234855180        0.0000000000000000     
  -5.2150430934440876E-002  0.23886998672068732        0.0000000000000000     
  -5.2374477964226389E-002  0.24739959289829477        0.0000000000000000     
  -5.2554005506138146E-002  0.25598405088137416        0.0000000000000000     
  -5.2689013560176148E-002  0.26462336066992559        0.0000000000000000     
  -5.8862792822293536E-002  0.23048847789447693        0.0000000000000000     
  -5.9179831896797243E-002  0.23896443238963083        0.0000000000000000     
  -5.9441539136212258E-002  0.24751329757604490        0.0000000000000000     
  -5.9647914540538562E-002  0.25613507345371916        0.0000000000000000     
  -5.9798958109776180E-002  0.26482976002265357        0.0000000000000000     
  -6.6032967878528998E-002  0.23059813594092066        0.0000000000000000     
  -6.6410818474820582E-002  0.23906836985009933        0.0000000000000000     
  -6.6721402882007841E-002  0.24762781846748894        0.0000000000000000     
  -6.6964721100090829E-002  0.25627648179308954        0.0000000000000000     
  -6.7140773129069506E-002  0.26501435982690119        0.0000000000000000     
  -7.3392389585488008E-002  0.23072420648788303        0.0000000000000000     
  -7.3843390668510853E-002  0.23918179910209275        0.0000000000000000     
  -7.4214069201613164E-002  0.24774315557262688        0.0000000000000000     
  -7.4504425184794915E-002  0.25640827589948539        0.0000000000000000     
  -7.4714458618056132E-002  0.26517716008266840        0.0000000000000000     
  -8.0941057943170525E-002  0.23086668953536402        0.0000000000000000     
  -8.1477548477868089E-002  0.23930472014561116        0.0000000000000000     
  -8.1919538095028194E-002  0.24785930889145871        0.0000000000000000     
  -8.2267026794650852E-002  0.25653045577290673        0.0000000000000000     
  -8.2520014576736064E-002  0.26531816078995518        0.0000000000000000     
  -5.2689013560176148E-002  0.26462336066992559        0.0000000000000000     
  -5.2810367110100787E-002  0.27326833781800469        0.0000000000000000     
  -5.2948931139672473E-002  0.28186979787966737        0.0000000000000000     
  -5.3104705648891207E-002  0.29042774085491363        0.0000000000000000     
  -5.3277690637756989E-002  0.29894216674374341        0.0000000000000000     
  -5.9798958109776180E-002  0.26482976002265357        0.0000000000000000     
  -5.9931596229832088E-002  0.27355326701168620        0.0000000000000000     
  -6.0082755286613304E-002  0.28226150414965495        0.0000000000000000     
  -6.0252435280119809E-002  0.29095447143655984        0.0000000000000000     
  -6.0440636210351617E-002  0.29963216887240096        0.0000000000000000     
  -6.7140773129069506E-002  0.26501435982690119        0.0000000000000000     
  -6.7289863144564893E-002  0.27381166156599246        0.0000000000000000     
  -6.7452295322197986E-002  0.28263859600743219        0.0000000000000000     
  -6.7628069661968770E-002  0.29149516315122020        0.0000000000000000     
  -6.7817186163877274E-002  0.30038136299735657        0.0000000000000000     
  -7.4714458618056132E-002  0.26517716008266840        0.0000000000000000     
  -7.4885167854299203E-002  0.27404352148092359        0.0000000000000000     
  -7.5057551246426518E-002  0.28300107345299907        0.0000000000000000     
  -7.5231608794438076E-002  0.29204981599889462        0.0000000000000000     
  -7.5407340498333905E-002  0.30118974911861024        0.0000000000000000     
  -8.2520014576736064E-002  0.26531816078995518        0.0000000000000000     
  -8.2717510359035004E-002  0.27424884675647959        0.0000000000000000     
  -8.2898523059298901E-002  0.28334893648635551        0.0000000000000000     
  -8.3063052677527754E-002  0.29261842997958304        0.0000000000000000     
  -8.3211099213721551E-002  0.30205732723616197        0.0000000000000000     
  -4.5780037214498200E-002   5.9512324189937592E-002   0.0000000000000000     
  -4.8098983816234536E-002   6.5000782107604835E-002   0.0000000000000000     
  -5.0337532517659413E-002   7.0668361189260148E-002   0.0000000000000000     
  -5.2495683318772808E-002   7.6515061434903553E-002   0.0000000000000000     
  -5.4573436219574736E-002   8.2540882844535035E-002   0.0000000000000000     
  -5.0464997311312855E-002   6.0247462009538663E-002   0.0000000000000000     
  -5.2956393353960754E-002   6.5710834379438615E-002   0.0000000000000000     
  -5.5364060500056329E-002   7.1354209279674799E-002   0.0000000000000000     
  -5.7687998749599602E-002   7.7177586710247228E-002   0.0000000000000000     
  -5.9928208102590544E-002   8.3180966671155876E-002   0.0000000000000000     
  -5.5269840133545231E-002   6.1038743181762410E-002   0.0000000000000000     
  -5.7949701698290522E-002   6.6476426445168935E-002   0.0000000000000000     
  -6.0539387881239706E-002   7.2094500011899668E-002   0.0000000000000000     
  -6.3038898682392819E-002   7.7892963881954616E-002   0.0000000000000000     
  -6.5448234101749853E-002   8.3871818055333766E-002   0.0000000000000000     
  -6.0194565681195342E-002   6.1886167706608812E-002   0.0000000000000000     
  -6.3078908849223833E-002   6.7297558304795752E-002   0.0000000000000000     
  -6.5863514661209557E-002   7.2889233385934726E-002   0.0000000000000000     
  -6.8548383117152473E-002   7.8661192950025716E-002   0.0000000000000000     
  -7.1133514217052607E-002   8.4613436997068747E-002   0.0000000000000000     
  -6.5239173954263180E-002   6.2789735584077896E-002   0.0000000000000000     
  -6.8344014806760722E-002   6.8174229958319080E-002   0.0000000000000000     
  -7.1336440839965848E-002   7.3738409401779975E-002   0.0000000000000000     
  -7.4216452053878584E-002   7.9482273914460555E-002   0.0000000000000000     
  -7.6984048448498904E-002   8.5405823496360833E-002   0.0000000000000000     
  -5.4573436219574736E-002   8.2540882844535035E-002   0.0000000000000000     
  -5.6577861936436893E-002   8.8735796892090102E-002   0.0000000000000000     
  -5.8516031185730961E-002   9.5089775051504330E-002   0.0000000000000000     
  -6.0387943967456940E-002  0.10160281732277768        0.0000000000000000     
  -6.2193600281614830E-002  0.10827492370591019        0.0000000000000000     
  -5.9928208102590544E-002   8.3180966671155876E-002   0.0000000000000000     
  -6.2091517485519318E-002   8.9353652907955841E-002   0.0000000000000000     
  -6.4184755824876080E-002   9.5684949166202335E-002   0.0000000000000000     
  -6.6207923120660830E-002  0.10217485544589526        0.0000000000000000     
  -6.8161019372873541E-002  0.10882337174703470        0.0000000000000000     
  -6.5448234101749853E-002   8.3871818055333766E-002   0.0000000000000000     
  -6.7775057496265487E-002   9.0020091703257865E-002   0.0000000000000000     
  -7.0027032222894470E-002   9.6326813996947550E-002   0.0000000000000000     
  -7.2204158281636788E-002  0.10279198493640287        0.0000000000000000     
  -7.4306435672492441E-002  0.10941560452162383        0.0000000000000000     
  -7.1133514217052607E-002   8.4613436997068747E-002   0.0000000000000000     
  -7.3628481968675372E-002   9.0735113277996104E-002   0.0000000000000000     
  -7.6042860379786109E-002   9.7015369543740015E-002   0.0000000000000000     
  -7.8376649450384847E-002  0.10345420579430049        0.0000000000000000     
  -8.0629849180471558E-002  0.11005162202967753        0.0000000000000000     
  -7.6984048448498904E-002   8.5405823496360833E-002   0.0000000000000000     
  -7.9651790902748987E-002   9.1498717632170629E-002   0.0000000000000000     
  -8.2232240295551012E-002   9.7750615806579719E-002   0.0000000000000000     
  -8.4725396626904981E-002  0.10416151801958815        0.0000000000000000     
  -8.7131259896810878E-002  0.11073142427119587        0.0000000000000000     
  -6.2193600281614830E-002  0.10827492370591019        0.0000000000000000     
  -6.3926603139692853E-002  0.11509281992164733        0.0000000000000000     
  -6.5580555553179265E-002  0.12204323169073458        0.0000000000000000     
  -6.7155457522074039E-002  0.12912615901317198        0.0000000000000000     
  -6.8651309046377201E-002  0.13634160188895947        0.0000000000000000     
  -6.8161019372873541E-002  0.10882337174703470        0.0000000000000000     
  -7.0036678912455227E-002  0.11561758273860077        0.0000000000000000     
  -7.1827536070346892E-002  0.12254457308957367        0.0000000000000000     
  -7.3533590846548494E-002  0.12960434279995339        0.0000000000000000     
  -7.5154843241060060E-002  0.13679689186973992        0.0000000000000000     
  -7.4306435672492441E-002  0.10941560452162383        0.0000000000000000     
  -7.6325874402605895E-002  0.11618489812691983        0.0000000000000000     
  -7.8254484479121561E-002  0.12308709112660030        0.0000000000000000     
  -8.0092265902039425E-002  0.13012218352066526        0.0000000000000000     
  -8.1839218671359543E-002  0.13729017530911478        0.0000000000000000     
  -8.0629849180471558E-002  0.11005162202967753        0.0000000000000000     
  -8.2794189610144883E-002  0.11679476608660443        0.0000000000000000     
  -8.4861400779503299E-002  0.12367078580181448        0.0000000000000000     
  -8.6831482688546902E-002  0.13067968117530768        0.0000000000000000     
  -8.8704435337275594E-002  0.13782145220708406        0.0000000000000000     
  -8.7131259896810878E-002  0.11073142427119587        0.0000000000000000     
  -8.9441624535072123E-002  0.11744718661765464        0.0000000000000000     
  -9.1648284971492106E-002  0.12429565711521622        0.0000000000000000     
  -9.3751241206070840E-002  0.13127683576388055        0.0000000000000000     
  -9.5750493238808299E-002  0.13839072256364771        0.0000000000000000     
  -6.8651309046377201E-002  0.13634160188895947        0.0000000000000000     
  -7.0072554315027472E-002  0.14367830826640707        0.0000000000000000     
  -7.1423637516963651E-002  0.15112502609382467        0.0000000000000000     
  -7.2704558652185725E-002  0.15868175537121229        0.0000000000000000     
  -7.3915317720693693E-002  0.16634849609856994        0.0000000000000000     
  -7.5154843241060060E-002  0.13679689186973992        0.0000000000000000     
  -7.6696351898662737E-002  0.14411057801358468        0.0000000000000000     
  -7.8163175464137702E-002  0.15153375894613896        0.0000000000000000     
  -7.9555313937484898E-002  0.15906643466740289        0.0000000000000000     
  -8.0872767318704381E-002  0.16670860517737635        0.0000000000000000     
  -8.1839218671359543E-002  0.13729017530911478        0.0000000000000000     
  -8.3501112246872372E-002  0.14457930628292820        0.0000000000000000     
  -8.5083716088368483E-002  0.15197781623308498        0.0000000000000000     
  -8.6587030195847917E-002  0.15948570515958510        0.0000000000000000     
  -8.8011054569310604E-002  0.16710297306242858        0.0000000000000000     
  -8.8704435337275594E-002  0.13782145220708406        0.0000000000000000     
  -9.0486835359656376E-002  0.14508449307443769        0.0000000000000000     
  -9.2185259389656105E-002  0.15245719795466264        0.0000000000000000     
  -9.3799707427274767E-002  0.15993956684775898        0.0000000000000000     
  -9.5330179472512350E-002  0.16753159975372670        0.0000000000000000     
  -9.5750493238808299E-002  0.13839072256364771        0.0000000000000000     
  -9.7653521237014762E-002  0.14562613838811306        0.0000000000000000     
  -9.9467805368000456E-002  0.15297190411087200        0.0000000000000000     
 -0.10119334563176541       0.16042801973192450        0.0000000000000000     
 -0.10283014202830962       0.16799448525127059        0.0000000000000000     
  -7.3915317720693693E-002  0.16634849609856994        0.0000000000000000     
  -7.5053626694114570E-002  0.17411487416459520        0.0000000000000000     
  -7.6117197544075366E-002  0.18197051545798576        0.0000000000000000     
  -7.7106030270576095E-002  0.18991541997874156        0.0000000000000000     
  -7.8020124873616731E-002  0.19794958772686266        0.0000000000000000     
  -8.0872767318704381E-002  0.16670860517737635        0.0000000000000000     
  -8.2113971687317072E-002  0.17445049891256381        0.0000000000000000     
  -8.3277363122843853E-002  0.18228234430946963        0.0000000000000000     
  -8.4362941625284765E-002  0.19020414136809385        0.0000000000000000     
  -8.5370707194639808E-002  0.19821589008843646        0.0000000000000000     
  -8.8011054569310604E-002  0.16710297306242858        0.0000000000000000     
  -8.9354970739416090E-002  0.17482004852483118        0.0000000000000000     
  -9.0617960236823919E-002  0.18262736013000863        0.0000000000000000     
  -9.1800023061534022E-002  0.19052490787796089        0.0000000000000000     
  -9.2901159213546441E-002  0.19851269176868805        0.0000000000000000     
  -9.5330179472512350E-002  0.16753159975372670        0.0000000000000000     
  -9.6776623850411678E-002  0.17522352300139740        0.0000000000000000     
  -9.8138988886015507E-002  0.18300556291960274        0.0000000000000000     
  -9.9417274579323839E-002  0.19087771950834273        0.0000000000000000     
 -0.10061148093033669       0.19883999276761744        0.0000000000000000     
 -0.10283014202830962       0.16799448525127059        0.0000000000000000     
 -0.10437893102030378       0.17566092234226241        0.0000000000000000     
 -0.10584044907041865       0.18341695267825203        0.0000000000000000     
 -0.10721469617865421       0.19126257625923940        0.0000000000000000     
 -0.10850167234501049       0.19919779308522456        0.0000000000000000     
  -7.8020124873616731E-002  0.19794958772686266        0.0000000000000000     
  -7.8860227346446807E-002  0.20606600611124681        0.0000000000000000     
  -7.9627083682315788E-002  0.21425766254079173        0.0000000000000000     
  -8.0320693881223718E-002  0.22252455701549753        0.0000000000000000     
  -8.0941057943170525E-002  0.23086668953536402        0.0000000000000000     
  -8.5370707194639808E-002  0.19821589008843646        0.0000000000000000     
  -8.6303525060450470E-002  0.20630969260436574        0.0000000000000000     
  -8.7164260452258321E-002  0.21447765104974995        0.0000000000000000     
  -8.7952913370063349E-002  0.22271976542458904        0.0000000000000000     
  -8.8669483813865524E-002  0.23103603572888307        0.0000000000000000     
  -9.2901159213546441E-002  0.19851269176868805        0.0000000000000000     
  -9.3925852503188856E-002  0.20658299348685344        0.0000000000000000     
  -9.4878586740788931E-002  0.21472809471712048        0.0000000000000000     
  -9.5759361926346639E-002  0.22294799545948918        0.0000000000000000     
  -9.6568178059861995E-002  0.23124269571395956        0.0000000000000000     
 -0.10061148093033669       0.19883999276761744        0.0000000000000000     
 -0.10172720967466195       0.20688590875870994        0.0000000000000000     
 -0.10277006254790758       0.21500899354290343        0.0000000000000000     
 -0.10374003955007358       0.22320924712019799        0.0000000000000000     
 -0.10463714068115991       0.23148666949059346        0.0000000000000000     
 -0.10850167234501049       0.19919779308522456        0.0000000000000000     
 -0.10970759657486974       0.20721843841993517        0.0000000000000000     
 -0.11083868787361430       0.21532034752709875        0.0000000000000000     
 -0.11189494624124414       0.22350352040671534        0.0000000000000000     
 -0.11287637167775927       0.23176795705878495        0.0000000000000000     
  -8.0941057943170525E-002  0.23086668953536402        0.0000000000000000     
  -8.1477548477868089E-002  0.23930472014561116        0.0000000000000000     
  -8.1919538095028194E-002  0.24785930889145871        0.0000000000000000     
  -8.2267026794650852E-002  0.25653045577290673        0.0000000000000000     
  -8.2520014576736064E-002  0.26531816078995518        0.0000000000000000     
  -8.8669483813865524E-002  0.23103603572888307        0.0000000000000000     
  -8.9299594823803813E-002  0.23945208464585077        0.0000000000000000     
  -8.9828869440017112E-002  0.24799353485871103        0.0000000000000000     
  -9.0257307662505393E-002  0.25666038636746391        0.0000000000000000     
  -9.0584909491268670E-002  0.26545263917210932        0.0000000000000000     
  -9.6568178059861995E-002  0.23124269571395956        0.0000000000000000     
  -9.7295832627229614E-002  0.23963884426800786        0.0000000000000000     
  -9.7933123114344045E-002  0.24816308990911043        0.0000000000000000     
  -9.8480049521205287E-002  0.25681543263726736        0.0000000000000000     
  -9.8936611847813369E-002  0.26559587245247851        0.0000000000000000     
 -0.10463714068115991       0.23148666949059346        0.0000000000000000     
 -0.10546626188814545       0.23986499901208236        0.0000000000000000     
 -0.10623229911800901       0.24836797404265687        0.0000000000000000     
 -0.10693525237075055       0.25699559458231702        0.0000000000000000     
 -0.10757512164637012       0.26574786063106287        0.0000000000000000     
 -0.11287637167775927       0.23176795705878495        0.0000000000000000     
 -0.11381088260655134       0.24013054887807433        0.0000000000000000     
 -0.11472639745101197       0.24860818725935036        0.0000000000000000     
 -0.11562291621114118       0.25720087220261301        0.0000000000000000     
 -0.11650043888693896       0.26590860370786229        0.0000000000000000     
  -8.2520014576736064E-002  0.26531816078995518        0.0000000000000000     
  -8.2717510359035004E-002  0.27424884675647959        0.0000000000000000     
  -8.2898523059298901E-002  0.28334893648635551        0.0000000000000000     
  -8.3063052677527754E-002  0.29261842997958304        0.0000000000000000     
  -8.3211099213721551E-002  0.30205732723616197        0.0000000000000000     
  -9.0584909491268670E-002  0.26545263917210932        0.0000000000000000     
  -9.0842019235842855E-002  0.27443332864094039        0.0000000000000000     
  -9.1058981205763834E-002  0.28366549014225018        0.0000000000000000     
  -9.1235795401031619E-002  0.29314912367603868        0.0000000000000000     
  -9.1372461821646198E-002  0.30288422924230596        0.0000000000000000     
  -9.8936611847813369E-002  0.26559587245247851        0.0000000000000000     
  -9.9313823061793260E-002  0.27460265838258591        0.0000000000000000     
  -9.9622696130769975E-002  0.28393403945543133        0.0000000000000000     
  -9.9863231054743526E-002  0.29359001567101473        0.0000000000000000     
 -0.10003542783371389       0.30357058702933631        0.0000000000000000     
 -0.10757512164637012       0.26574786063106287        0.0000000000000000     
 -0.10813292183688619       0.27475683598141626        0.0000000000000000     
 -0.10858966783431734       0.28415458442589903        0.0000000000000000     
 -0.10894535963866345       0.29394110596451134        0.0000000000000000     
 -0.10919999724992460       0.30411640059725303        0.0000000000000000     
 -0.11650043888693896       0.26590860370786229        0.0000000000000000     
 -0.11729931556112173       0.27489586143743133        0.0000000000000000     
 -0.11795989631640587       0.28432712505365332        0.0000000000000000     
 -0.11848218115279142       0.29420239455652830        0.0000000000000000     
 -0.11886617007027833       0.30452166994605617        0.0000000000000000     
 </DataArray>
 <DataArray  type="Float64" Name="stress" NumberOfComponents="3" format="ascii">
   6079767388.1121712        35182162.921088219        140383132.26860836     
   5859799905.5363169        21412131.934965372        104330966.99171269     
   5640368041.8129349        9427497.1237287521        78790954.438446596     
   5421471796.9420128       -771741.51264095306        63763094.608821645     
   5203111170.9235506       -9185583.9741225243        59247387.502833970     
   5636704384.4632950        10058545.851494551        248552442.07145825     
   5443102915.7263050        3039462.9652850628        224770172.66666836     
   5249724639.8543510       -3235643.7041745186        209199388.54508722     
   5056569556.8474245       -8766774.1568596363        201840089.70671228     
   4863637666.7055206       -13553928.392800331        202692276.15154356     
   5230720207.7394981       -3941423.1405816078        356458286.50092989     
   5056911417.2973080       -6181558.5901005268        344581415.98290002     
   4883013393.7327080       -8719137.7809875011        338615363.30765748     
   4709026137.0456991       -11554160.713236809        338560128.47519261     
   4534949647.2362843       -14686627.386843443        344415711.48551309     
   4861814857.9408016       -6817744.0551223755        464100665.55700833     
   4701225410.2493248       -6250932.7311773300        463764696.94040108     
   4540234303.4480076       -7022985.1067152023        467038878.72615278     
   4378841537.5368443       -9133901.1817407608        473923210.91425431     
   4217047112.5158377       -12583680.956247568        484417693.50471610     
   4529988335.0671759        1429583.1078546047        571479579.23971295     
   4376044894.5823545        2831340.5420503616        582320015.53917873     
   4221387369.0002470        1852814.3186337948        594469934.80057800     
   4066015758.3208580       -1505995.5623836517        607929337.02391005     
   3909930062.5441866       -7245089.1010134220        622698222.20916665     
   5203111170.9235506       -9185583.9741225243        59247387.502833970     
   5037841997.7834873       -1407229.9505908489        47368612.754165553     
   4872211773.2337046        5167619.3738892078        40795865.553723447     
   4706220497.2742081        10538963.999314547        39529145.901512779     
   4539868169.9049931        14706803.925679445        43568453.797513053     
   4863637666.7055206       -13553928.392800331        202692276.15154356     
   4711129716.8603268       -6141980.0652914047        193919686.46343276     
   4558445994.2431259        684059.02220511436        189741949.99914998     
   4405586498.8539314        6924188.8697109222        190159066.75870061     
   4252551230.6927285        12578409.477200747        195171036.74209139     
   4534949647.2362843       -14686627.386843443        344415711.48551309     
   4393170994.0448380       -8250662.7477138042        338965465.26861280     
   4251401846.7191124       -1783011.8895220757        337398897.95115882     
   4109642205.2591009        4716325.1877212524        339716009.53315383     
   3967892069.6648164        11247348.484037876        345916800.01459169     
   4217047112.5158377       -12583680.956247568        484417693.50471610     
   4083965829.3370342       -7733277.9978258610        482505949.16970849     
   3951079330.6616726       -2233593.3612742424        483766709.40975070     
   3818387616.4897375        3915372.9533820152        488199974.22485673     
   3685890686.8212476        10713620.946172953        495805743.61501658     
   3909930062.5441866       -7245089.1010134220        622698222.20916665     
   3783514222.7369175       -4589825.8156166077        624541138.16671062     
   3657478446.0708013       -667685.39304780960        628845384.37493181     
   3531822732.5458331        4521332.1666870117        635610960.83381701     
   3406547082.1620231        10977226.863604546        644837867.54336989     
   4539868169.9049931        14706803.925679445        43568453.797513053     
   4338785383.1237936        8137728.1838083267        33320594.034164526     
   4137854123.8987060        2073744.2956285477        28029367.952776294     
   3937074392.2297311       -3485147.7388343811        27694775.553354774     
   3736446188.1168642       -8538947.9196038246        32316816.835885864     
   4252551230.6927285        12578409.477200747        195171036.74209139     
   4064560928.4679813        7571327.7832243443        185875804.02949372     
   3876631151.4883604        2765996.9063284397        181334619.43654296     
   3688761899.7538791       -1837583.1534321308        181547482.96322438     
   3500953173.2645140       -6239412.3961391449        186514394.60954505     
   3967892069.6648164        11247348.484037876        345916800.01459169     
   3792415436.1041684        7628616.0702400208        337468024.98993975     
   3616908325.4776716        3908293.4369251728        333570712.52259159     
   3441370737.7853308        86380.584127664566        334224862.61258304     
   3265802673.0271254       -3837122.4882028103        339430475.25988591     
   3685890686.8212476        10713620.946172953        495805743.61501658     
   3522348906.0323672        8309593.0448491573        488097256.91548908     
   3358685645.8666515        5500633.8874225616        484737647.21096301     
   3194900906.3241014        2286743.4738867283        485726914.50144362     
   3030994687.4047232       -1332078.1957556009        491065058.78691399     
   3406547082.1620231        10977226.863604546        644837867.54336989     
   3254361338.2525630        9614258.7070674896        637763499.80616331     
   3101963112.6552830        7543018.2578064203        634835423.50163078     
   2949352405.3701935        4763505.5158364773        636053638.62978780     
   2796529216.3972902        1275720.4811658859        641418145.19062018     
   3736446188.1168642       -8538947.9196038246        32316816.835885864     
   3567177903.5769491       -4805812.7700290680        24681979.355811734     
   3397348614.2007656       -2942693.7413604259        20598169.567938626     
   3226958319.9883289       -2949590.8335350752        20065387.472253736     
   3056007020.9396319       -4826504.0465660095        23083633.068769865     
   3500953173.2645140       -6239412.3961391449        186514394.60954505     
   3340773017.0528998       -2726916.3847122192        178462801.96935049     
   3180285580.1043692       -238689.49634969234        173901966.30598846     
   3019490862.4189405        1225268.2690136433        172831887.61946404     
   2858388863.9965816        1664956.9112857580        175252565.90979263     
   3265802673.0271254       -3837122.4882028103        339430475.25988591     
   3114538443.0999460       -596926.22806692123        331258138.90880913     
   2963220656.5351939        2464747.9068280458        326516288.81920433     
   2811849313.3328757        5347899.9165126085        325204924.99108422     
   2660424413.4929938        8052529.8009693623        327324047.42444664     
   3030994687.4047232       -1332078.1957556009        491065058.78691399     
   2888474181.7180867        1584157.6999135017        483067990.17418230     
   2746153843.4932308        5167618.4681824446        478441137.10757113     
   2604033672.7301464        9418304.1090223789        477184499.58708328     
   2462113669.4288473        14336214.622482061        479298077.61272514     
   2796529216.3972902        1275720.4811658859        641418145.19062018     
   2662580232.9073310        3816335.3992319107        633892355.76547432     
   2529085140.9784899        7869922.1877075434        629676511.17108810     
   2396043940.6107616        13436480.846560001        628770611.40747392     
   2263456631.8041592        20516011.375825644        631174656.47462010     
   3056007020.9396319       -4826504.0465660095        23083633.068769865     
   2888112507.5698233       -5940852.8055820465        13735025.874486504     
   2720677149.8606815       -5524682.6956875324        6757666.3721582787     
   2553700947.8122058       -3577993.7169163227        2151554.5617839098     
   2387183901.4243803       -100785.86931109428       -83309.556658379006     
   2858388863.9965816        1664956.9112857580        175252565.90979263     
   2697016900.7890115        1866204.6034526825        166154911.44994840     
   2535848404.1329260        2745674.1339133978        159399756.39576164     
   2374883374.0283489        4303365.5027252436        154987100.74722660     
   2214121810.4752469        6539278.7098079920        152916944.50435287     
   2660424413.4929938        8052529.8009693623        327324047.42444664     
   2505492862.4868326        9544732.5560573339        318179041.73831886     
   2350509088.9230042        10862860.118906260        311347787.17156559     
   2195473092.8014846        12006912.489465117        306830283.72418499     
   2040384874.1222937        12976889.667774558        304626531.39617890     
   2462113669.4288473        14336214.622482061        479298077.61272514     
   2313540392.6633029        17094731.052293301        469807416.73961961     
   2164659204.2308946        18826875.259235144        462601758.69960010     
   2015470104.1316354        19532647.243336082        457681103.49266744     
   1865973092.3655243        19212047.004599690        455045451.11881715     
   2263456631.8041592        20516011.375825644        631174656.47462010     
   2121159491.3183980        24516200.092093706        621040036.45383525     
   1978298750.0565999        26637719.554893613        613161670.97985208     
   1834874408.0187731        26880569.764282584        607539560.05266738     
   1690886465.2049298        25244750.720270395        604173703.67227018     
   2387183901.4243803       -100785.86931109428       -83309.556658379006     
   2245570197.9029131        6784295.5328480005       -6368893.7004668079     
   2100818352.3655653        3208903.5487166643       -10825175.268821456     
   1952928364.8123310       -10826961.821698785       -13452154.261710793     
   1801900235.2432344       -35323300.578308940       -14249830.679133538     
   2214121810.4752469        6539278.7098079920        152916944.50435287     
   2076077157.5682724        12796011.066984653        142987090.72337452     
   1935986672.8062267        12233303.907256603        134118361.54228559     
   1793850356.1891069        4851157.2306261063        126310756.96113351     
   1649668207.7169340       -9350428.9628707170        119564276.97986574     
   2040384874.1222937        12976889.667774558        304626531.39617890     
   1903714477.6139400        17946834.715223908        292326769.83230478     
   1766090559.4113195        19738374.115135908        280319954.89277619     
   1627513119.5144444        18351507.867518365        268606086.57760924     
   1487982157.9233088        13786235.972370148        257185164.88679433     
   1865973092.3655243        19212047.004599690        455045451.11881715     
   1728482158.0399001        22236766.477532625        441650143.62633991     
   1591130012.1808398        25724114.172331929        427779604.78264427     
   1453916654.7883289        29674090.088961840        413433834.58774948     
   1316842085.8623610        34086694.227427542        398612833.04164422     
   1690886465.2049298        25244750.720270395        604173703.67227018     
   1550380198.8461802        25665806.353964031        590957212.10546017     
   1411105031.1147909        30190524.078863859        576497311.21187735     
   1273060962.0107598        38818903.894957721        560794000.99154222     
   1136247991.5341048        51550945.802299082        543847281.44443941     
   1801900235.2432344       -35323300.578308940       -14249830.679133538     
   1771123324.4259803       -16338062.699436665       -8567148.3596309125     
   1748367771.6751258        29385035.400768399       -41647632.253171399     
   1733633576.9907117        101845993.72243053       -113491282.35976395     
   1726920740.3726711        201044812.26535916       -224098098.67942268     
   1649668207.7169340       -9350428.9628707170        119564276.97986574     
   1527188101.5120528       -13879995.419503272        135232457.85373065     
   1408838271.3754671       -4641974.9818173647        124549378.71990487     
   1294618717.3071671        18363632.350132585        87515039.578385845     
   1184529439.3071399        55136826.576324165        24129440.429163311     
   1487982157.9233088        13786235.972370148        257185164.88679433     
   1309261445.4889956       -3619358.0722656250        278299248.65052819     
   1130779927.1248326       -20227638.549734175        285473978.61193848     
   952537602.83083022       -36038605.460002720        278709354.77101499     
   774534472.60698867       -51052258.803063422        258005377.12775642     
   1316842085.8623610        34086694.227427542        398612833.04164422     
   1117343356.3567801        14443849.342202961        420633224.03078407     
   914192738.92321956       -17371955.302938640        441126167.42294908     
   707390233.56170416       -61360719.707948327        460091663.21814483     
   496935840.27220380       -117522443.87288445        477529711.41636592     
   1136247991.5341048        51550945.802299082        543847281.44443941     
   951433834.11542428        40309626.823932707        562234383.99448991     
   759076706.77064657        3925074.7585872114        591505945.15292633     
   559176609.49976897       -57602710.393755347        631661964.91976440     
   351733542.30280697       -144273728.63306242        682702443.29497683     
   1726920740.3726711        201044812.26535916       -224098098.67942268     
   1456444271.2249782        184550462.86759460       -96576388.348110437     
   1153838260.5942657        60957641.859731734        60117923.586427554     
   819102708.48054826       -169733650.75814277        245984837.12413362     
   452237614.88381100       -507523414.98606062        461024352.26506287     
   1184529439.3071399        55136826.576324165        24129440.429163311     
   977496550.28634620        11774032.438511908        155531555.36656234     
   732672129.11520827       -157560535.53381500        312764232.96914607     
   450056175.79368758       -452866877.34075040        495827473.23693120     
   129648690.32181627       -874144992.98217738        704721276.16990876     
   774534472.60698867       -51052258.803063422        258005377.12775642     
   621396481.03306818       -124148102.48497128        386682240.89266324     
   424804966.64144492       -342089022.22589171        537847628.38475919     
   184759929.43213081       -704875018.02577984        711501539.60402429     
  -98738630.594908118       -1212506089.8847396        907643974.55048800     
   496935840.27220380       -117522443.87288445        477529711.41636592     
   388144063.46514767       -223215941.90284392        596875668.23020983     
   230236773.17305535       -492627818.21627057        735368109.83322072     
   23213969.395894706       -925758072.81324661        893007036.22541749     
  -232924347.86629722       -1522606705.6937146        1069792447.4068046     
   351733542.30280697       -144273728.63306242        682702443.29497683     
   277739297.58260536       -285429485.81506979        786111837.37918520     
   148967548.71000379       -609176923.50507128        905325677.31455779     
  -34581704.314999819       -1115516041.7030599        1040343963.1011112     
  -272908461.49240208       -1804446840.4090776        1191166694.7388468     
   4529988335.0671759        1429583.1078546047        571479579.23971295     
   4376044894.5823545        2831340.5420503616        582320015.53917873     
   4221387369.0002470        1852814.3186337948        594469934.80057800     
   4066015758.3208580       -1505995.5623836517        607929337.02391005     
   3909930062.5441866       -7245089.1010134220        622698222.20916665     
   4203406039.0660973        19352525.682860851        738932965.24490094     
   4053861605.5076585        15504712.793793678        738990155.56163526     
   3904011247.8991609        10637153.071199894        742333153.70364499     
   3753854966.2406054        4749846.5150766373        748961959.67092979     
   3603392760.5319905       -2157206.8745703697        758876573.46348441     
   3844891162.8408566        27695694.190612316        903621614.07464790     
   3705392378.6755023        20292303.718295574        893371746.29708040     
   3565995831.5073104        13229703.236532211        888384011.20813406     
   3426701521.3362832        6507892.7453198433        888658408.80779850     
   3287509448.1624236        126872.24465870857        894194939.09608293     
   3454443706.3914647        26459088.631123066        1065545525.7289637     
   3330637214.0858841        17194113.315564156        1045464787.7455183     
   3207341119.8246932        9630464.8146332502        1032622507.3140428     
   3084555423.6078920        3768143.1283358335        1027018684.4345193     
   2962280125.4354792       -392851.74332439899        1028653319.1069599     
   3032063669.7179136        15642709.004383206        1224704700.2078409     
   2929596111.7388048        6210141.5855844021        1195269279.9069524     
   2828047112.8513136       -160562.19448947906        1175048642.0213685     
   2727416673.0554347       -3469402.3358603716        1164042786.5510864     
   2627704792.3511682       -3716378.8385171890        1162251713.4961102     
   3909930062.5441866       -7245089.1010134220        622698222.20916665     
   3783514222.7369175       -4589825.8156166077        624541138.16671062     
   3657478446.0708013       -667685.39304780960        628845384.37493181     
   3531822732.5458331        4521332.1666870117        635610960.83381701     
   3406547082.1620231        10977226.863604546        644837867.54336989     
   3603392760.5319905       -2157206.8745703697        758876573.46348441     
   3484058554.4866838        196964.76981711388        758115978.73605013     
   3364979387.9650931        3401268.1599264145        760410947.03045499     
   3246155260.9672198        7455703.2957478762        765761478.34669960     
   3127586173.4930606        12360270.177293777        774167572.68478882     
   3287509448.1624236        126872.24465870857        894194939.09608293     
   3176954683.7967210        2689294.6233344078        890684972.79664767     
   3066529935.3372955        5685103.3562736511        890824802.29023039     
   2956235202.7841487        9114298.4434713125        894614427.57682669     
   2846070486.1372776        12976879.884933472        902053848.65644300     
   2962280125.4354792       -392851.74332439899        1028653319.1069599     
   2862202610.6670246        2887163.7449370623        1022248120.3485147     
   2762130088.1874080        6183820.1959956884        1020086950.1542642     
   2662062557.9966326        9497117.6098545790        1022169808.5242069     
   2562000020.0947008        12827055.986526608        1028496695.4583424     
   2627704792.3511682       -3716378.8385171890        1162251713.4961102     
   2539802335.0975976        790572.13461053371        1152805421.3916504     
   2451779846.5154295        4897418.6790872812        1148197390.6225574     
   2363637326.6046691        8604160.7949205637        1148427621.1888309     
   2275374775.3653116        11910798.482092738        1153496113.0904725     
   3406547082.1620231        10977226.863604546        644837867.54336989     
   3254361338.2525630        9614258.7070674896        637763499.80616331     
   3101963112.6552830        7543018.2578064203        634835423.50163078     
   2949352405.3701935        4763505.5158364773        636053638.62978780     
   2796529216.3972902        1275720.4811658859        641418145.19062018     
   3127586173.4930606        12360270.177293777        774167572.68478882     
   2986321686.5056400        10764058.212984681        766125816.83414066     
   2845005132.0877771        8994288.1471891403        762392561.90801799     
   2703636510.2394662        7050959.9798961878        762967807.90642548     
   2562215820.9607043        4934073.7111058235        767851554.82936549     
   2846070486.1372776        12976879.884933472        902053848.65644300     
   2716190711.7629075        11286460.820157409        893231854.65928042     
   2586419284.2154579        9957197.8451105356        888880571.07849324     
   2456756203.4949255        8989090.9597849846        888999997.91408730     
   2327201469.6013074        8382140.1641975641        893590135.16606510     
   2562000020.0947008        12827055.986526608        1028496695.4583424     
   2443968414.0243735        11181466.528590322        1019081613.2815853     
   2326205569.0383344        10431747.351594448        1014299451.0130553     
   2208711485.1365776        10577898.455548525        1014150208.6527609     
   2091486162.3191059        11619919.840453863        1018633886.2006958     
   2275374775.3653116        11910798.482092738        1153496113.0904725     
   2169654793.2900305        10449075.338282466        1143675092.7010493     
   2064363986.5564041        10417936.666644692        1138649201.7117128     
   1959502355.1644194        11817382.467153549        1138418440.1224520     
   1855069899.1140947        14647412.739857316        1142982807.9332788     
   2796529216.3972902        1275720.4811658859        641418145.19062018     
   2662580232.9073310        3816335.3992319107        633892355.76547432     
   2529085140.9784899        7869922.1877075434        629676511.17108810     
   2396043940.6107616        13436480.846560001        628770611.40747392     
   2263456631.8041592        20516011.375825644        631174656.47462010     
   2562215820.9607043        4934073.7111058235        767851554.82936549     
   2437240268.0253382        8184344.2383919954        760601840.19359183     
   2312602683.1092539        12561174.829940081        756781052.93614948     
   2188303066.2124357        18064565.485711694        756389193.05704224     
   2064341417.3348970        24694516.205751538        759426260.55627596     
   2327201469.6013074        8382140.1641975641        893590135.16606510     
   2211539297.3564625        12444051.341497302        886481251.18749952     
   2096099169.5890529        17246110.776889324        882920277.13484156     
   1980881086.2990632        22788318.470366478        882907213.00809407     
   1865885047.4865098        29070674.421949983        886442058.80725253     
   2091486162.3191059        11619919.840453863        1018633886.2006958     
   1985477320.9007075        16595456.708533883        1011530588.7471911     
   1879574600.4178846        21924730.028543472        1008094183.7671658     
   1773778000.8706443        27607739.800495386        1008324671.2606220     
   1668087522.2589943        33644486.024404883        1012222051.2275600     
   1855069899.1140947        14647412.739857316        1142982807.9332788     
   1759054338.6580601        20638560.339506149        1135749852.8726759     
   1663028975.5957503        26597032.584915459        1132302772.8331316     
   1566993809.9271820        32522829.476119041        1132641567.8146369     
   1470948841.6523533        38415951.013122201        1136766237.8171875     
   2263456631.8041592        20516011.375825644        631174656.47462010     
   2121159491.3183980        24516200.092093706        621040036.45383525     
   1978298750.0565999        26637719.554893613        613161670.97985208     
   1834874408.0187731        26880569.764282584        607539560.05266738     
   1690886465.2049298        25244750.720270395        604173703.67227018     
   2064341417.3348970        24694516.205751538        759426260.55627596     
   1928315003.9844193        27677942.811244011        749258782.24304652     
   1791932757.9293950        29475260.401575804        741893323.05109811     
   1655194679.1698251        30086468.976753533        737329882.98044276     
   1518100767.7057018        29511568.536759496        735568462.03108191     
   1865885047.4865098        29070674.421949983        886442058.80725253     
   1737688688.6270175        31505137.123405576        876484118.28496456     
   1609344265.1344519        33446051.047937334        869873961.45845759     
   1480851777.0088255        34893416.195602477        866611588.32773018     
   1352211224.2501261        35847232.566367507        866696998.89279509     
   1668087522.2589943        33644486.024404883        1012222051.2275600     
   1549280545.2461734        35997783.028508842        1002716044.5796044     
   1430533271.6717682        38550091.493982792        997103586.20192301     
   1311845701.5357802        41301411.420844257        995384676.09452224     
   1193217834.8381903        44251742.809055805        997559314.25739515     
   1470948841.6523533        38415951.013122201        1136766237.8171875     
   1363090573.8419075        41155880.526608706        1127954561.1269648     
   1255499777.5413427        44787381.739697576        1123582197.2815089     
   1148176452.7506778        49310454.652450264        1123649146.2808175     
   1041120599.4699075        54725099.264846683        1128155408.1248980     
   1690886465.2049298        25244750.720270395        604173703.67227018     
   1550380198.8461802        25665806.353964031        590957212.10546017     
   1411105031.1147909        30190524.078863859        576497311.21187735     
   1273060962.0107598        38818903.894957721        560794000.99154222     
   1136247991.5341048        51550945.802299082        543847281.44443941     
   1518100767.7057018        29511568.536759496        735568462.03108191     
   1375904258.1563644        27369511.414585412        726566402.64205968     
   1234039596.3072131        26333613.293039918        718099053.06914735     
   1092506782.1582322        26403874.172054470        710166413.31236351     
   951305815.70944023        27580294.051695883        702768483.37171638     
   1352211224.2501261        35847232.566367507        866696998.89279509     
   1213404811.9184494        32666164.810797095        860860245.59983563     
   1074030996.3597746        27593752.965237677        857336321.26588905     
   934089777.57409358        20629997.029661298        856125225.89095461     
   793581155.56141233        11774897.004087061        857226959.47503448     
   1193217834.8381903        44251742.809055805        997559314.25739515     
   1062881860.1324265        41555766.542576253        993838740.97879791     
   931079231.27246904        33970943.095468700        994209115.80210340     
   797809948.25834370        21497272.467788070        998670438.72731173     
   663074011.09002709        4134754.6594792604        1007222709.7544094     
   1041120599.4699075        54725099.264846683        1128155408.1248980     
   924335402.79829240        54038316.609908789        1125501888.7789536     
   805184301.04532146        45465183.683785498        1128717436.6777914     
   683667294.21097803        29005700.486414731        1137802051.8214197     
   559784382.29527605        4659867.0178485215        1152755734.2098341     
   1136247991.5341048        51550945.802299082        543847281.44443941     
   951433834.11542428        40309626.823932707        562234383.99448991     
   759076706.77064657        3925074.7585872114        591505945.15292633     
   559176609.49976897       -57602710.393755347        631661964.91976440     
   351733542.30280697       -144273728.63306242        682702443.29497683     
   951305815.70944023        27580294.051695883        702768483.37171638     
   792025875.29971170        10711478.945522428        720819353.81939626     
   624092190.83978796       -35003149.661304176        748926124.00276744     
   447504762.32966608       -109563591.76879579        787088793.92181718     
   262263589.76934063       -212969847.37695473        835307363.57654977     
   793581155.56141233        11774897.004087061        857226959.47503448     
   657468121.09576929       -11431607.549345106        873645694.67556906     
   511590568.45582092       -67186506.017127335        899291770.73907340     
   355948497.64157254       -155489798.39923316        934165187.66555429     
   190541908.65302527       -276341484.69568831        978265945.45501769     
   663074011.09002709        4134754.6594792604        1007222709.7544094     
   547760571.50358915       -26119632.660683155        1020713406.5629930     
   421571839.61874181       -92624994.308877796        1042602885.3618585     
   284507815.43549645       -195381330.28506535        1072891146.1509929     
   136568498.95384264       -334388640.58928216        1111578188.9303927     
   559784382.29527605        4659867.0178485215        1152755734.2098341     
   462903226.52317321       -33352596.388498634        1162022489.4816930     
   354036004.32854867       -111318614.53657912        1178859467.8711193     
   233182715.71143991       -229238187.42627931        1203266669.3781118     
   100343360.67180124       -387111315.05774027        1235244094.0026743     
   351733542.30280697       -144273728.63306242        682702443.29497683     
   277739297.58260536       -285429485.81506979        786111837.37918520     
   148967548.71000379       -609176923.50507128        905325677.31455779     
  -34581704.314999819       -1115516041.7030599        1040343963.1011112     
  -272908461.49240208       -1804446840.4090776        1191166694.7388468     
   262263589.76934063       -212969847.37695473        835307363.57654977     
   223581965.33744645       -352623192.97946632        884775196.37989485     
   140665104.01100370       -639727328.23045349        945255427.03550303     
   13513005.789995313       -1074282253.1299996        1016748055.5433398     
  -157874329.32556325       -1656287967.6780522        1099253081.9034600     
   190541908.65302527       -276341484.69568831        978265945.45501769     
   173481338.79822132       -418599888.43205267        986091528.77833652     
   122727799.30671898       -673168190.95742941        1000137461.9549739     
   38281290.178506196       -1040046392.2718585        1020403744.9849416     
  -79858188.586426735       -1519234492.3753242        1046890377.8682413     
   136568498.95384264       -334388640.58928216        1111578188.9303927     
   127437417.96493539       -483359572.17286569        1090060834.5744879     
   95155634.597162515       -709499511.68599606        1069971782.0730000     
   39723148.850526452       -1012808459.1286776        1051311031.4259157     
  -38860039.274979353       -1393286414.5009160        1034078582.6332241     
   100343360.67180124       -387111315.05774027        1235244094.0026743     
   85450202.837565184       -546902244.20193064        1196683113.7683699     
   57948609.882330894       -748721290.41612029        1154758387.3895526     
   17838581.806061864       -992568453.70042586        1109469914.8662255     
  -34879881.391227007       -1278443734.0548031        1060817696.1983787     
   3032063669.7179136        15642709.004383206        1224704700.2078409     
   2929596111.7388048        6210141.5855844021        1195269279.9069524     
   2828047112.8513136       -160562.19448947906        1175048642.0213685     
   2727416673.0554347       -3469402.3358603716        1164042786.5510864     
   2627704792.3511682       -3716378.8385171890        1162251713.4961102     
   2606746467.8803711        1176860.1930702925        1265925555.8455889     
   2526870150.2185302       -3954239.5222491026        1246197771.1207571     
   2447739111.4329262       -6601076.3167778254        1233640434.7546434     
   2369353351.5235643       -6763650.1905057430        1228253546.7472436     
   2291712870.4904404       -4441961.1434342861        1230037107.0985596     
   2209312781.6326585       -4923933.9412868023        1306295220.6890833     
   2146186749.8406820       -7505852.2873625755        1296072911.2890425     
   2083632716.7095759       -8181108.4305477142        1290976716.1911261     
   2021650682.2393293       -6949702.3708584309        1291006635.3953362     
   1960240646.4299507       -3811634.1082799435        1296162668.9016709     
   1839762610.9747720       -2659673.3987008333        1345813694.7383220     
   1787545910.6052654       -4444696.7097445726        1344894700.4117987     
   1735727928.6812513       -4900658.5358186960        1347057486.3308156     
   1684308665.2027283       -4027558.8769220114        1352302052.4953651     
   1633288120.1696923       -1825397.7330595255        1360628398.9054551     
   1498095955.9067135        7969641.8208367229        1384480977.9933102     
   1450947632.5122786        5229227.2106059194        1392663138.4890361     
   1404024747.3479638        3240273.3674331903        1401882745.1737103     
   1357327300.4137616        2002780.2913077474        1412139798.0473313     
   1310855291.7096772        1516747.9822405577        1423434297.1099019     
   2627704792.3511682       -3716378.8385171890        1162251713.4961102     
   2539802335.0975976        790572.13461053371        1152805421.3916504     
   2451779846.5154295        4897418.6790872812        1148197390.6225574     
   2363637326.6046691        8604160.7949205637        1148427621.1888309     
   2275374775.3653116        11910798.482092738        1153496113.0904725     
   2291712870.4904404       -4441961.1434342861        1230037107.0985596     
   2215866687.5111661       -498168.40531599522        1221948543.6102369     
   2139989828.4742632        3343370.8073667288        1218425735.5133197     
   2064082293.3797307        7082656.4946132898        1219468682.8078039     
   1988144082.2275646        10719688.656429887        1225077385.4936941     
   1960240646.4299507       -3811634.1082799435        1296162668.9016709     
   1895672149.3136523       -664576.12857735157        1289536081.8456132     
   1831162331.4106908        2678079.2289178371        1287202744.2369967     
   1766711192.7210648        6216331.9641914368        1289162656.0758233     
   1702318733.2447727        9950182.0772551298        1295415817.3620923     
   1633288120.1696923       -1825397.7330595255        1360628398.9054551     
   1579218720.5050561        291348.96485000849        1355568036.0977845     
   1525297355.3247168        2901543.9437533617        1354528416.7935967     
   1471524024.6286781        6005187.2036582828        1357509540.9928892     
   1417898728.4169393        9602278.7445620298        1364511408.6956604     
   1310855291.7096772        1516747.9822405577        1423434297.1099019     
   1266506401.0853710        2369606.8749290109        1420044406.3667502     
   1222394900.2163386        4013764.9518635273        1420402753.1831150     
   1178520789.1025636        6449222.2129898667        1424509337.5589986     
   1134884067.7440650        9675978.6583700776        1432364159.4944031     
   2275374775.3653116        11910798.482092738        1153496113.0904725     
   2169654793.2900305        10449075.338282466        1143675092.7010493     
   2064363986.5564041        10417936.666644692        1138649201.7117128     
   1959502355.1644194        11817382.467153549        1138418440.1224520     
   1855069899.1140947        14647412.739857316        1142982807.9332788     
   1988144082.2275646        10719688.656429887        1225077385.4936941     
   1895081991.7194905        9700052.8876501322        1216223568.6660388     
   1802367387.7368600        9838705.5370168686        1212209441.9419146     
   1710000270.2796705        11135646.604520679        1213035005.3213165     
   1617980639.3479254        13590876.090167820        1218700258.8042552     
   1702318733.2447727        9950182.0772551298        1295415817.3620923     
   1622041850.5994759        9410828.5721746683        1287433900.4772880     
   1542030765.6634154        9757467.4312230945        1284336234.3994706     
   1462285478.4365892        10990098.654378355        1286122819.1286285     
   1382805988.9189987        13108722.241659403        1292793654.6647713     
   1417898728.4169393        9602278.7445620298        1364511408.6956604     
   1350534369.9299905        9581402.3918634057        1357306088.1348050     
   1283354120.3360693        10174222.349250019        1355029579.0843835     
   1216357979.6351779        11380738.616741955        1357681881.5443902     
   1149545947.8273129        13200951.194315732        1365262995.5148289     
   1134884067.7440650        9675978.6583700776        1432364159.4944031     
   1080559549.7110329        10211774.346703708        1425840131.6385863     
   1026337451.7548269        11088970.291122198        1424289475.9966512     
   972217773.87543797        12307566.491602182        1427712192.5685961     
   918200516.07287002        13867562.948151588        1436108281.3544261     
   1855069899.1140947        14647412.739857316        1142982807.9332788     
   1759054338.6580601        20638560.339506149        1135749852.8726759     
   1663028975.5957503        26597032.584915459        1132302772.8331316     
   1566993809.9271820        32522829.476119041        1132641567.8146369     
   1470948841.6523533        38415951.013122201        1136766237.8171875     
   1617980639.3479254        13590876.090167820        1218700258.8042552     
   1531885441.7383029        18405677.318201780        1212318318.9088006     
   1445826653.2597771        23341842.316545248        1210053016.8829844     
   1359804273.9123452        28399371.085208178        1211904352.7267992     
   1273818303.6960006        33578263.624162793        1217872326.4402664     
   1382805988.9189987        13108722.241659403        1292793654.6647713     
   1307576190.8660440        17030688.111161947        1287316643.6280448     
   1232429013.6815379        21228056.875488043        1286287033.3095434     
   1157364457.3654876        25700828.534667611        1289704823.7092681     
   1082382521.9178865        30449003.088681579        1297570014.8272231     
   1149545947.8273129        13200951.194315732        1365262995.5148289     
   1086126586.0412695        16513592.718353271        1360744827.0304170     
   1022836056.8610342        20255676.261745214        1361004822.1128187     
   959674360.28661478        24427201.824524283        1366042980.7620306     
   896641496.31800270        29028169.406666160        1375859302.9780576     
   918200516.07287002        13867562.948151588        1436108281.3544261     
   867536627.26399064        16854391.139809936        1432602869.1159136     
   817047782.79827654        20424700.475352705        1434206383.2927985     
   766733982.67572904        24578490.954787016        1440918823.8850896     
   716595226.89635134        29315762.578120470        1452740190.8927753     
   1470948841.6523533        38415951.013122201        1136766237.8171875     
   1363090573.8419075        41155880.526608706        1127954561.1269648     
   1255499777.5413427        44787381.739697576        1123582197.2815089     
   1148176452.7506778        49310454.652450264        1123649146.2808175     
   1041120599.4699075        54725099.264846683        1128155408.1248980     
   1273818303.6960006        33578263.624162793        1217872326.4402664     
   1177640482.7310324        35926471.147948265        1211374223.9752016     
   1081575837.3884137        38651930.746232450        1209512165.1595130     
   985624367.66815078        41754642.419039726        1212286149.9932010     
   889786073.57024503        45234606.166363031        1219696178.4762568     
   1082382521.9178865        30449003.088681579        1297570014.8272231     
   998447235.81155491        32574115.026708603        1293205474.7185287     
   914470829.44003928        34562159.414127886        1293673709.0638168     
   830453302.80334330        36413136.250941962        1298974717.8630872     
   746394655.90146613        38127045.537154466        1309108501.1163387     
   896641496.31800270        29028169.406666160        1375859302.9780576     
   825510833.08347237        31098812.162893325        1373448313.3569400     
   754184753.69622397        32518067.743397325        1376066828.9944131     
   682663258.15625322        33285936.148160905        1383714849.8904736     
   610946346.46356630        33402417.377197921        1396392376.0451231     
   716595226.89635134        29315762.578120470        1452740190.8927753     
   658831274.54678190        31500562.556488961        1452102739.8904445     
   600717610.15696096        32519655.734022439        1456691524.9513044     
   542254233.72688270        32373042.110694915        1466506546.0753641     
   483441145.25654912        31060721.686519548        1481547803.2626181     
   1041120599.4699075        54725099.264846683        1128155408.1248980     
   924335402.79829240        54038316.609908789        1125501888.7789536     
   805184301.04532146        45465183.683785498        1128717436.6777914     
   683667294.21097803        29005700.486414731        1137802051.8214197     
   559784382.29527605        4659867.0178485215        1152755734.2098341     
   889786073.57024503        45234606.166363031        1219696178.4762568     
   787940113.34756553        43573668.774000436        1217081734.5742624     
   683779701.91862464        34197894.027436346        1220314748.7122128     
   577304839.28341055        17107281.926625609        1229395220.8901181     
   468515525.44193852       -7698167.5283756256        1244323151.1079776     
   746394655.90146613        38127045.537154466        1309108501.1163387     
   659426191.54247904        35473431.231780857        1306593162.1792338     
   570194729.85233009        25276492.489195436        1309903672.0772400     
   478700270.83101714        7536229.3094022572        1319040030.8103707     
   384942814.47854525       -17747358.307593122        1334002238.3786261     
   610946346.46356630        33402417.377197921        1396392376.0451231     
   538793637.38303697        29737603.983246297        1394036171.5938563     
   464429384.84644747        18700979.069084287        1397484206.7728784     
   387853588.85379797        292542.63472776115        1406736481.5821931     
   309066249.40508461       -25487705.319842502        1421792996.0217974     
   483441145.25654912        31060721.686519548        1481547803.2626181     
   426042450.86924660        26366187.028427199        1479410762.8181512     
   366483666.90097529        14471353.767102972        1483056352.7991335     
   304764793.35174781       -4623778.0974043757        1492484573.2055724     
   240885830.22156057       -30919208.565110922        1507695424.0374722     
   559784382.29527605        4659867.0178485215        1152755734.2098341     
   462903226.52317321       -33352596.388498634        1162022489.4816930     
   354036004.32854867       -111318614.53657912        1178859467.8711193     
   233182715.71143991       -229238187.42627931        1203266669.3781118     
   100343360.67180124       -387111315.05774027        1235244094.0026743     
   468515525.44193852       -7698167.5283756256        1244323151.1079776     
   390836210.08971792       -42064652.881293997        1242769255.5344572     
   303013740.15603673       -110241653.50573929        1247574403.7694106     
   205048115.64090461       -212229169.40168613        1258738595.8128428     
   96939336.544314548       -348027200.56917077        1276261831.6647542     
   384942814.47854525       -17747358.307593122        1334002238.3786261     
   323004827.23451197       -49506019.300604507        1323777755.7742939     
   252766597.25008062       -108932156.09494436        1318701137.6693423     
   174228124.52524871       -196025768.69062215        1318772384.0637760     
   87389409.060013995       -310786857.08763552        1323991494.9575956     
   309066249.40508461       -25487705.319842502        1421792996.0217974     
   259409077.95755470       -55676695.646445453        1405047990.2012053     
   203294575.61068583       -107390122.30417854        1392239669.5709121     
   140722742.36446211       -180627985.29308748        1383368034.1309097     
   71693578.218894422       -275390284.61315095        1378433083.8811963     
   240885830.22156057       -30919208.565110922        1507695424.0374722     
   200048962.25884506       -60576681.918812111        1486579958.8151920     
   154597675.23784673       -105615552.13345599        1468189999.4741158     
   104531969.15854450       -166035819.20911297        1452525546.0142388     
   49851844.020959988       -241837483.14571083        1439586598.4355681     
   100343360.67180124       -387111315.05774027        1235244094.0026743     
   85450202.837565184       -546902244.20193064        1196683113.7683699     
   57948609.882330894       -748721290.41612029        1154758387.3895526     
   17838581.806061864       -992568453.70042586        1109469914.8662255     
  -34879881.391227007       -1278443734.0548031        1060817696.1983787     
   96939336.544314548       -348027200.56917077        1276261831.6647542     
   79954293.481836647       -489161338.93092984        1221951547.0593779     
   51569617.305527419       -668294254.33879900        1165090452.8577716     
   11785308.015376508       -885425946.79280424        1105678549.0599563     
  -39398634.388600469       -1140556416.2929022        1043715835.6658841     
   87389409.060013995       -310786857.08763552        1323991494.9575956     
   70635156.621538430       -432567401.91132009        1255342174.9895301     
   43690073.076414108       -588317383.75716317        1184954981.9735241     
   6554158.4246337712       -778036802.62519288        1112829915.9095764     
  -40772587.333790302       -1001725658.5153725        1038966976.7976779     
   71693578.218894422       -275390284.61315095        1378433083.8811963     
   57492792.256672233       -377120433.14308405        1296854997.5588269     
   34309977.194989204       -508790678.67121130        1214351974.7367935     
   2145133.0338319838       -670401021.19757617        1130924015.4151123     
  -39001740.226787418       -861951460.72216523        1046571119.5937774     
   49851844.020959988       -241837483.14571083        1439586598.4355681     
   40527200.387237594       -322820432.62621856        1346490014.7672620     
   23429329.661244184       -429714139.08096868        1253281431.1475911     
  -1441768.1570407748       -562518602.51002395        1159960847.5765688     
  -34086093.067598283       -721233822.91331542        1066528264.0541562     
   1498095955.9067135        7969641.8208367229        1384480977.9933102     
   1450947632.5122786        5229227.2106059194        1392663138.4890361     
   1404024747.3479638        3240273.3674331903        1401882745.1737103     
   1357327300.4137616        2002780.2913077474        1412139798.0473313     
   1310855291.7096772        1516747.9822405577        1423434297.1099019     
   1157987756.4319675        16301988.680440903        1432904030.7470598     
   1115304374.8466599        12050021.924622893        1434140227.1877916     
   1072790073.5452770        8361656.1152178049        1438122367.7878845     
   1030444852.5278151        5236891.2522210479        1444850452.5473421     
   988268711.79428077        2675727.3356487751        1454324481.4661593     
   794935703.12847710        17751179.391421735        1480263407.1662228     
   761598686.12491035        13452087.321798950        1474487888.6147311     
   728374391.45907497        9528736.3779471219        1473166812.1930225     
   695262819.13097298        5981126.5598741174        1476300177.9010906     
   662263969.14060247        2809257.8675724268        1483887985.7389359     
   408939795.99624419        12317213.953781500        1526559107.2507882     
   389830566.34703249        9435423.4021365345        1513706122.7698565     
   370777701.08936125        6741514.1556265801        1507016078.3891189     
   351781200.22323054        4235486.2142494768        1506488974.1085751     
   332841063.74864131        1917339.5780145824        1512124809.9282196     
   35.035266171728843        92.367514415491669        1571791131.0007720     
   15.513026028592556        30.165637204266339        1551794929.6531732     
   2.4361327058195150       -10.551753381305728        1539670166.3761797     
  -4.1954099763860508       -29.784640790818795        1535416841.1697974     
  -4.3816050604622383       -27.533035512677881        1539034954.0340204     
   1310855291.7096772        1516747.9822405577        1423434297.1099019     
   1266506401.0853710        2369606.8749290109        1420044406.3667502     
   1222394900.2163386        4013764.9518635273        1420402753.1831150     
   1178520789.1025636        6449222.2129898667        1424509337.5589986     
   1134884067.7440650        9675978.6583700776        1432364159.4944031     
   988268711.79428077        2675727.3356487751        1454324481.4661593     
   953848443.40762901        2967794.0393021703        1450115739.0930660     
   919606217.09936273        3853334.3375759125        1449925574.4638104     
   885542032.86948025        5332348.2304631472        1453753987.5783970     
   851655890.71798229        7404835.7179641128        1461600978.4368188     
   662263969.14060247        2809257.8675724268        1483887985.7389359     
   638544723.51823318        2772252.5401734710        1478791152.7795348     
   614944172.29736865        3130895.2177898586        1477983237.7482967     
   591462315.47800398        3885185.9004053771        1481464240.6452165     
   568099153.06014252        5035124.5880327225        1489234161.4702985     
   332841063.74864131        1917339.5780145824        1512124809.9282196     
   320595241.41718775        1782982.3775560707        1506070647.4261537     
   308408765.81035239        1846447.5924919248        1504575743.0365689     
   296281636.92814034        2107735.2228380293        1507640096.7594657     
   284213854.77054507        2566845.2685748637        1515263708.5948427     
  -4.3816050604622383       -27.533035512677881        1539034954.0340204     
  -2.8955114862559861       -16.448562475438429        1531954223.0329242     
  -2.3616826443191470       -8.5383066002091379        1529703090.3286304     
  -2.7801129301604899       -3.8022474706290952        1532281555.9211376     
  -4.1508100070639431       -2.2404102840333611        1539689619.8104484     
   1134884067.7440650        9675978.6583700776        1432364159.4944031     
   1080559549.7110329        10211774.346703708        1425840131.6385863     
   1026337451.7548269        11088970.291122198        1424289475.9966512     
   972217773.87543797        12307566.491602182        1427712192.5685961     
   918200516.07287002        13867562.948151588        1436108281.3544261     
   851655890.71798229        7404835.7179641128        1461600978.4368188     
   810343370.58881390        7635943.1199674606        1455132906.8877478     
   769107665.50728190        8123100.6807596684        1453771004.9630728     
   727948775.47338700        8866308.4003416300        1457515272.6627982     
   686866700.48713005        9865566.2787166536        1466365709.9869194     
   568099153.06014252        5035124.5880327225        1489234161.4702985     
   540178052.00773740        5075370.0555622280        1482792173.6939225     
   512308160.97378594        5286315.5846047401        1481589152.9524620     
   484489479.95828903        5667961.1751602292        1485625099.2459178     
   456722008.96124405        6220306.8272246122        1494900012.5742841     
   284213854.77054507        2566845.2685748637        1515263708.5948427     
   270063593.96781075        2530055.1535111368        1508817932.0571151     
   255938938.15434247        2578615.0026657879        1507743919.9648211     
   241839887.33014956        2712524.8160730749        1512041672.3179543     
   227766441.49522412        2931784.5937056988        1521711189.1165266     
  -4.1508100070639431       -2.2404102840333611        1539689619.8104484     
  -3.5309705251249195       -1.5862013396900381        1533210181.9773211     
  -2.9510481055154192       -1.0650506575572414        1532235306.0001433     
  -2.4110359770950169      -0.67693289160932602        1536764991.8789127     
  -1.9109409110041384      -0.42187338787193651        1546799239.6136315     
   918200516.07287002        13867562.948151588        1436108281.3544261     
   867536627.26399064        16854391.139809936        1432602869.1159136     
   817047782.79827654        20424700.475352705        1434206383.2927985     
   766733982.67572904        24578490.954787016        1440918823.8850896     
   716595226.89635134        29315762.578120470        1452740190.8927753     
   686866700.48713005        9865566.2787166536        1466365709.9869194     
   649192869.91054261        12202913.228022277        1463417372.2352111     
   611650322.58172333        14977871.003226191        1465502340.8411767     
   574239058.50067449        18190439.604329854        1472620615.8048160     
   536959077.66739392        21840619.031323403        1484772197.1261320     
   456722008.96124405        6220306.8272246122        1494900012.5742841     
   431822179.30917269        7843355.3418698013        1492457694.6980770     
   407009871.80946749        9758144.3643988818        1494973063.1218190     
   382285086.46213090        11964673.894822642        1502446117.8455198     
   357647823.26715779        14462943.933129489        1514876858.8691645     
   227766441.49522412        2931784.5937056988        1521711189.1165266     
   215424555.45988110        3775717.4813349545        1519723836.5045145     
   203126430.48150793        4765520.5588621348        1522618550.1347353     
   190872066.56009564        5901193.8262595832        1530395330.0071812     
   178661463.69565547        7182737.2835656404        1543054176.1218591     
  -1.9109409110041384      -0.42187338787193651        1546799239.6136315     
  -1.6373294203969417      -0.35356225731025270        1545215797.6545243     
  -1.4021620403221062      -0.41340024352461041        1548438801.8799214     
  -1.2054228723249178      -0.60133157610840193        1556468252.2898202     
  -1.0471233770180555      -0.91739445710388945        1569304148.8842216     
   716595226.89635134        29315762.578120470        1452740190.8927753     
   658831274.54678190        31500562.556488961        1452102739.8904445     
   600717610.15696096        32519655.734022439        1456691524.9513044     
   542254233.72688270        32373042.110694915        1466506546.0753641     
   483441145.25654912        31060721.686519548        1481547803.2626181     
   536959077.66739392        21840619.031323403        1484772197.1261320     
   492798227.95849919        23227853.302432448        1483989214.9196982     
   448375094.23708946        23740807.531824380        1488627975.3830276     
   403689676.50317413        23379481.719525546        1498688478.5161326     
   358741974.75674117        22143875.865506724        1514170724.3190031     
   357647823.26715779        14462943.933129489        1514876858.8691645     
   327648666.50344265        15220189.588340446        1514050344.8243170     
   297474653.75495470        15394581.960973948        1518841080.0558171     
   267125785.02168900        14986121.051016510        1529249064.5636628     
   236602060.30365300        13994806.858489849        1545274298.3478472     
   178661463.69565547        7182737.2835656404        1543054176.1218591     
   163382590.18161270        7477571.4142113999        1542286129.6043019     
   148016288.71053734        7480979.0214154571        1547330838.9696634     
   132562559.28243327        7192960.1051896065        1558188304.2179415     
   117021401.89728758        6613514.6654931419        1574858525.3491423     
  -1.0471233770180555      -0.91739445710388945        1569304148.8842216     
  -1.0069829585564076       -1.2199273642547854        1568696569.2596481     
 -0.89614606943913089       -1.2868012058839098        1574097252.1245732     
 -0.71460182094040692       -1.1179873190218288        1585506197.4789836     
 -0.46234993855454287      -0.71347854364505259        1602923405.3228936     
   483441145.25654912        31060721.686519548        1481547803.2626181     
   426042450.86924660        26366187.028427199        1479410762.8181512     
   366483666.90097529        14471353.767102972        1483056352.7991335     
   304764793.35174781       -4623778.0974043757        1492484573.2055724     
   240885830.22156057       -30919208.565110922        1507695424.0374722     
   358741974.75674117        22143875.865506724        1514170724.3190031     
   316547834.99088913        18879439.273859307        1510624595.9209149     
   272733628.02979326        10214778.698072553        1512661625.7139201     
   227299353.87343907       -3850105.8619140834        1520281813.6980240     
   180245012.52183485       -23315214.406066045        1533485159.8732193     
   236602060.30365300        13994806.858489849        1545274298.3478472     
   209042554.48966268        11989492.132464007        1540949108.1127970     
   180403003.86612654        6384028.0412833914        1542007603.8344855     
   150683408.43304679       -2821585.4150421843        1548449785.5129063     
   119883768.19041848       -15627348.236528367        1560275653.1480598     
   117021401.89728758        6613514.6654931419        1574858525.3491423     
   103526609.36555569        5696345.6042012349        1570384299.3937948     
   89491794.409974307        2979101.7967452593        1571094287.1608200     
   74916957.030565694       -1538216.7568036020        1576988488.6502154     
   59802097.227317885       -7855610.0564826280        1588066903.8619874     
 -0.46234993855454287      -0.71347854364505259        1602923405.3228936     
 -0.38143828754895853      -0.31095428429963579        1598930169.7639055     
 -0.33865154270583930       -3.5511657716988596E-002   1599921675.6929283     
 -0.33400036399625960       0.11281033341902236        1605897923.1099646     
 -0.36747949006110547       0.13403408419784307        1616858912.0150068     
   240885830.22156057       -30919208.565110922        1507695424.0374722     
   200048962.25884506       -60576681.918812111        1486579958.8151920     
   154597675.23784673       -105615552.13345599        1468189999.4741158     
   104531969.15854450       -166035819.20911297        1452525546.0142388     
   49851844.020959988       -241837483.14571083        1439586598.4355681     
   180245012.52183485       -23315214.406066045        1533485159.8732193     
   148876764.41187036       -45780498.565011799        1507843395.5440686     
   114047702.01103634       -79781830.360196173        1485099943.0985770     
   75757825.319328412       -125319209.79162630        1465254802.5367572     
   34007134.336759478       -182392636.85925421        1448307973.8585963     
   119883768.19041848       -15627348.236528367        1560275653.1480598     
   98477871.368799791       -30752323.770080216        1531453461.9406953     
   74764765.023742378       -53567997.715093091        1505702388.6194572     
   48744449.155236110       -84074370.071602106        1483022433.1843445     
   20416923.763285726       -122271440.83959293        1463413595.6353605     
   59802097.227317885       -7855610.0564826280        1588066903.8619874     
   48852283.129650891       -15492157.533948813        1557410158.0050728     
   36748864.275965326       -26974054.198149100        1529997336.0367544     
   23491840.666264784       -42301300.049061805        1505828437.9570186     
   9081212.3005428873       -61473895.086712375        1484903463.7658720     
 -0.36747949006110547       0.13403408419784307        1616858912.0150068     
 -0.30558467844078319       0.14334659832763980        1585713483.7372141     
 -0.23228259974813026       0.19068194825309104        1557984785.3504658     
 -0.14756995991483202       0.27605319587008403        1533672816.8547699     
  -5.1463961297643496E-002  0.39940230610004446        1512777578.2501276     
   49851844.020959988       -241837483.14571083        1439586598.4355681     
   40527200.387237594       -322820432.62621856        1346490014.7672620     
   23429329.661244184       -429714139.08096868        1253281431.1475911     
  -1441768.1570407748       -562518602.51002395        1159960847.5765688     
  -34086093.067598283       -721233822.91331542        1066528264.0541562     
   34007134.336759478       -182392636.85925421        1448307973.8585963     
   29858179.445521519       -242276490.58994913        1347733433.9759071     
   19879304.236063629       -321593412.04804653        1246383170.9811430     
   4070508.7083792388       -420343401.23356420        1144257184.8743348     
  -17568207.137514621       -538526458.14644957        1041355475.6554340     
   20416923.763285726       -122271440.83959293        1463413595.6353605     
   19547305.726813443       -161625104.38680393        1357628290.7746923     
   14791074.146182522       -213934146.41454786        1250403539.6412547     
   6148229.0213908404       -279198566.92282706        1141739342.2350421     
  -6381229.6475659758       -357418365.91165102        1031635698.5560882     
   9081212.3005428873       -61473895.086712375        1484903463.7658720     
   9594579.2311236635       -80866274.016753271        1376174585.1636152     
   8164639.3916048035       -106736342.18045819        1265342537.1279018     
   4791392.7819896787       -139084099.57782030        1152407319.6587327     
  -525160.59773122519       -177909546.20886657        1037368932.7560635     
  -5.1463961297643496E-002  0.39940230610004446        1512777578.2501276     
  -4.1540763503037842E-002  0.52023165994843579        1403372317.1426969     
  -2.7660062884815345E-002  0.65425199598615935        1291200163.4411018     
  -9.8211731787438694E-003  0.80146352009248478        1176261117.1453521     
   1.1973389312991745E-002  0.96186547737675654        1058555178.2554330     
   35.035266171728843        92.367514415491669        1571791131.0007720     
   15.513026028592556        30.165637204266339        1551794929.6531732     
   2.4361327058195150       -10.551753381305728        1539670166.3761797     
  -4.1954099763860508       -29.784640790818795        1535416841.1697974     
  -4.3816050604622383       -27.533035512677881        1539034954.0340204     
  -408939753.16441756       -12317118.786739036        1526559064.4853392     
  -389830546.65992987       -9435399.6349631101        1513706091.6321440     
  -370777697.01780063       -6741536.6910477728        1507016058.8780584     
  -351781204.23802727       -4235529.9549843669        1506488966.2230794     
  -332841068.32061511       -1917379.4267931581        1512124813.6672080     
  -794935688.34482837       -17751174.035212249        1480263343.3143868     
  -761598678.58932745       -13452100.362490922        1474487841.7632775     
  -728374389.00389218       -9528760.5899904966        1473166782.3397713     
  -695262819.58852136       -5981154.7177011371        1476300165.0438721     
  -662263970.34321475       -2809282.7456276715        1483887989.8755836     
  -1157987770.5059664       -16302073.377902031        1432903967.4879248     
  -1115304380.2751675       -12050072.016955614        1434140180.0465701     
  -1072790073.5221416       -8361682.2485800982        1438122336.7613208     
  -1030444850.2468874       -5236904.0727777481        1444850437.6321797     
  -988268710.44940162       -2675737.4895383120        1454324482.6591449     
  -1498095999.6478310       -7969816.8148114681        1384480937.0059428     
  -1450947651.7174520       -5229314.5983537436        1392663106.4820173     
  -1404024750.5725489       -3240301.6668186784        1401882722.1427064     
  -1357327296.2131245       -2002778.0202094316        1412139783.9879975     
  -1310855288.6391773       -1516743.6585255861        1423434292.0178957     
  -4.3816050604622383       -27.533035512677881        1539034954.0340204     
  -2.8955114862559861       -16.448562475438429        1531954223.0329242     
  -2.3616826443191470       -8.5383066002091379        1529703090.3286304     
  -2.7801129301604899       -3.8022474706290952        1532281555.9211376     
  -4.1508100070639431       -2.2404102840333611        1539689619.8104484     
  -332841068.32061511       -1917379.4267931581        1512124813.6672080     
  -320595245.14408755       -1783008.2518443316        1506070649.2179863     
  -308408769.85090154       -1846463.3547001481        1504575743.1360321     
  -296281642.44105899       -2107744.7353675216        1507640095.4213462     
  -284213862.91455638       -2566852.3938355148        1515263706.0739317     
  -662263970.34321475       -2809282.7456276715        1483887989.8755836     
  -638544725.27491820       -2772271.4197934270        1478791153.8919768     
  -614944175.02104628       -3130909.4753747582        1477983236.3461037     
  -591462319.58159339       -3885196.9123507440        1481464237.2379634     
  -568099158.95656240       -5035133.7307369113        1489234156.5675616     
  -988268710.44940162       -2675737.4895383120        1454324482.6591449     
  -953848443.28800952       -2967805.9524335861        1450115737.0548952     
  -919606217.87211549       -3853346.9003234506        1449925569.9588444     
  -885542034.20172381       -5332360.3332211375        1453753981.3709931     
  -851655892.27683032       -7404846.2511128187        1461600971.2913451     
  -1310855288.6391773       -1516743.6585255861        1423434292.0178957     
  -1266506399.1833508       -2369611.8497321606        1420044398.7067411     
  -1222394898.4041104       -4013775.6295547485        1420402743.9742529     
  -1178520786.3014455       -6449234.9979626536        1424509327.8204312     
  -1134884062.8753624       -9675989.9549778700        1432364150.2452748     
  -4.1508100070639431       -2.2404102840333611        1539689619.8104484     
  -3.5309705251249195       -1.5862013396900381        1533210181.9773211     
  -2.9510481055154192       -1.0650506575572414        1532235306.0001433     
  -2.4110359770950169      -0.67693289160932602        1536764991.8789127     
  -1.9109409110041384      -0.42187338787193651        1546799239.6136315     
  -284213862.91455638       -2566852.3938355148        1515263706.0739317     
  -270063600.92453331       -2530060.6416914165        1508817930.1098561     
  -255938944.01498517       -2578619.1577943712        1507743918.4750700     
  -241839892.18590897       -2712527.9421388358        1512041671.1695642     
  -227766445.43729970       -2931786.9947071075        1521711188.1933458     
  -568099158.95656240       -5035133.7307369113        1489234156.5675616     
  -540178057.10110927       -5075377.3320896626        1482792169.9252245     
  -512308165.36668658       -5286321.3368773460        1481589150.0855086     
  -484489483.75329387       -5667965.7450983524        1485625097.0484183     
  -456722012.26092726       -6220310.5567397773        1494900010.8139496     
  -851655892.27683032       -7404846.2511128187        1461600971.2913451     
  -810343372.06069744       -7635951.6573910415        1455132901.4234271     
  -769107667.00614953       -8123107.6022871733        1453771000.8314638     
  -727948777.11319089       -8866314.0858114958        1457515269.5154645     
  -686866702.38181460       -9865571.1079478860        1466365707.4754264     
  -1134884062.8753624       -9675989.9549778700        1432364150.2452748     
  -1080559545.8032959       -10211783.617593944        1425840124.6044567     
  -1026337448.9333729       -11088977.954020083        1424289470.7129374     
  -972217772.26560032       -12307572.964283824        1427712188.5707150     
  -918200515.79996276       -13867568.648327589        1436108278.1777878     
  -1.9109409110041384      -0.42187338787193651        1546799239.6136315     
  -1.6373294203969417      -0.35356225731025270        1545215797.6545243     
  -1.4021620403221062      -0.41340024352461041        1548438801.8799214     
  -1.2054228723249178      -0.60133157610840193        1556468252.2898202     
  -1.0471233770180555      -0.91739445710388945        1569304148.8842216     
  -227766445.43729970       -2931786.9947071075        1521711188.1933458     
  -215424558.84554869       -3775719.4947812706        1519723835.7426093     
  -203126433.37141231       -4765522.3869021758        1522618549.4832578     
  -190872069.01489243       -5901195.6710801348        1530395329.4152920     
  -178661465.77598745       -7182739.3473069742        1543054175.5387051     
  -456722012.26092726       -6220310.5567397773        1494900010.8139496     
  -431822182.18850720       -7843358.4764054120        1492457693.2792008     
  -407009874.31289005       -9758147.0520794094        1494973061.9427178     
  -382285088.63406992       -11964676.283741161        1502446116.8044991     
  -357647825.15204853       -14462946.171401918        1514876857.8645489     
  -686866702.38181460       -9865571.1079478860        1466365707.4754264     
  -649192871.66621411       -12202917.298469096        1463417370.2642906     
  -611650324.22659183       -14977874.408917040        1465502339.2582977     
  -574239060.06295586       -18190442.439321339        1472620614.4574578     
  -536959079.17529607       -21840621.389644504        1484772195.8617613     
  -918200515.79996276       -13867568.648327589        1436108278.1777878     
  -867536627.27866066       -16854395.960941255        1432602866.6978800     
  -817047783.11252332       -20424704.457436800        1434206381.4300041     
  -766733983.30154407       -24578494.137793899        1440918822.3741534     
  -716595227.84573317       -29315765.002043873        1452740189.5303292     
  -1.0471233770180555      -0.91739445710388945        1569304148.8842216     
  -1.0069829585564076       -1.2199273642547854        1568696569.2596481     
 -0.89614606943913089       -1.2868012058839098        1574097252.1245732     
 -0.71460182094040692       -1.1179873190218288        1585506197.4789836     
 -0.46234993855454287      -0.71347854364505259        1602923405.3228936     
  -178661465.77598745       -7182739.3473069742        1543054175.5387051     
  -163382592.09196874       -7477573.7150145322        1542286129.2112217     
  -148016290.36177382       -7480981.2621361092        1547330838.7507243     
  -132562560.58538893       -7192961.9886246920        1558188304.1572218     
  -117021402.76282318       -6613515.8945084177        1574858525.4307091     
  -357647825.15204853       -14462946.171401918        1514876857.8645489     
  -327648668.17414719       -15220191.709262833        1514050344.1388688     
  -297474655.17458934       -15394583.841601506        1518841079.6576781     
  -267125786.15337747       -14986122.568426028        1529249064.4209783     
  -236602061.11050281       -13994807.889710195        1545274298.4287708     
  -536959079.17529607       -21840621.389644504        1484772195.8617613     
  -492798229.25352097       -23227855.202674717        1483989214.0426071     
  -448375095.33460480       -23740809.025236502        1488627974.8454406     
  -403689677.41856200       -23379482.857374400        1498688478.2702639     
  -358741975.50538951       -22143876.699082434        1514170724.3170838     
  -716595227.84573317       -29315765.002043873        1452740189.5303292     
  -658831275.33008099       -31500564.195222527        1452102738.9224253     
  -600717610.84181702       -32519656.813032180        1456691524.3140063     
  -542254234.38095248       -32373042.855506629        1466506545.7050769     
  -483441145.94747299       -31060722.322593704        1481547803.0956337     
 -0.46234993855454287      -0.71347854364505259        1602923405.3228936     
 -0.38143828754895853      -0.31095428429963579        1598930169.7639055     
 -0.33865154270583930       -3.5511657716988596E-002   1599921675.6929283     
 -0.33400036399625960       0.11281033341902236        1605897923.1099646     
 -0.36747949006110547       0.13403408419784307        1616858912.0150068     
  -117021402.76282318       -6613515.8945084177        1574858525.4307091     
  -103526610.12170345       -5696346.2218096480        1570384299.4021802     
  -89491795.109383702       -2979101.9784455672        1571094287.1003749     
  -74916957.725859717        1538216.8355975933        1576988488.5252988     
  -59802097.971142903        7855610.2202855982        1588066903.6769397     
  -236602061.11050281       -13994807.889710195        1545274298.4287708     
  -209042555.22713023       -11989492.742206857        1540949108.0749178     
  -180403004.56323463       -6384028.3262901232        1542007603.6865020     
  -150683409.11880928        2821585.3580573723        1548449785.2635210     
  -119883768.89386013        15627348.310817637        1560275652.8059816     
  -358741975.50538951       -22143876.699082434        1514170724.3170838     
  -316547835.69772786       -18879439.872165278        1510624595.7821157     
  -272733628.70021635       -10214779.079083085        1512661625.4513059     
  -227299354.51284775        3850105.6801873595        1520281813.3246424     
  -180245013.13562828        23315214.405632734        1533485159.4021306     
  -483441145.94747299       -31060722.322593704        1481547803.0956337     
  -426042451.53348756       -26366187.611665696        1479410762.5237763     
  -366483667.52032727       -14471354.236821473        1483056352.3947840     
  -304764793.90797657        4623777.8019902408        1492484572.7086565     
  -240885830.69644481        30919208.504739985        1507695423.4653938     
 -0.36747949006110547       0.13403408419784307        1616858912.0150068     
 -0.30558467844078319       0.14334659832763980        1585713483.7372141     
 -0.23228259974813026       0.19068194825309104        1557984785.3504658     
 -0.14756995991483202       0.27605319587008403        1533672816.8547699     
  -5.1463961297643496E-002  0.39940230610004446        1512777578.2501276     
  -59802097.971142903        7855610.2202855982        1588066903.6769397     
  -48852283.736202538        15492157.780863579        1557410157.8568571     
  -36748864.730623133        26974054.576900512        1529997335.9208503     
  -23491840.954395525        42301300.608432867        1505828437.8689265     
  -9081212.4075182155        61473895.875463165        1484903463.7010765     
  -119883768.89386013        15627348.310817637        1560275652.8059816     
  -98477871.934367776        30752323.988084704        1531453461.6627247     
  -74764765.444991603        53567998.098303191        1505702388.3965745     
  -48744449.425726548        84074370.641480654        1483022433.0075369     
  -20416923.876568124        122271441.61763865        1463413595.4955978     
  -180245013.13562828        23315214.405632734        1533485159.4021306     
  -148876764.90007117        45780498.765046880        1507843395.1548183     
  -114047702.37538451        79781830.754895627        1485099942.7776403     
  -75757825.561569214        125319210.37517175        1465254802.2705972     
  -34007134.458613649        182392637.62591547        1448307973.6337030     
  -240885830.69644481        30919208.504739985        1507695423.4653938     
  -200048962.63330549        60576682.111773103        1486579958.3331366     
  -154597675.52179903        105615552.54669325        1468189999.0640466     
  -104531969.36192027        166035819.80952322        1452525545.6581216     
  -49851844.153661802        241837483.90028480        1439586598.1153653     
  -5.1463961297643496E-002  0.39940230610004446        1512777578.2501276     
  -4.1540763503037842E-002  0.52023165994843579        1403372317.1426969     
  -2.7660062884815345E-002  0.65425199598615935        1291200163.4411018     
  -9.8211731787438694E-003  0.80146352009248478        1176261117.1453521     
   1.1973389312991745E-002  0.96186547737675654        1058555178.2554330     
  -9081212.4075182155        61473895.875463165        1484903463.7010765     
  -9594579.3236649074        80866275.022164434        1376174585.1092629     
  -8164639.4597624466        106736343.43569379        1265342537.0855949     
  -4791392.8157944009        139084101.11610943        1152407319.6300488     
   525160.60822278261        177909548.06335315        1037368932.7426678     
  -20416923.876568124        122271441.61763865        1463413595.4955978     
  -19547305.826486394        161625105.35788801        1357628290.6581836     
  -14791074.220250264        213934147.61865324        1250403539.5512094     
  -6148229.0578608066        279198568.39993399        1141739342.1746764     
   6381229.6606833190        357418367.70171744        1031635698.5285999     
  -34007134.458613649        182392637.62591547        1448307973.6337030     
  -29858179.549998999        242276491.52742428        1347733433.7894478     
  -19879304.309133351        321593413.20309746        1246383170.8379478     
  -4070508.7360221446        420343402.65292680        1144257184.7791920     
   17568207.169342697        538526459.87693477        1041355475.6132038     
  -49851844.153661802        241837483.90028480        1439586598.1153653     
  -40527200.494219884        322820433.53071463        1346490014.5030682     
  -23429329.726421565        429714140.18899852        1253281430.9458232     
   1441768.1497215629        562518603.87509906        1159960847.4436398     
   34086093.134209275        721233824.58901429        1066528263.9964998     
  -1498095999.6478310       -7969816.8148114681        1384480937.0059428     
  -1450947651.7174520       -5229314.5983537436        1392663106.4820173     
  -1404024750.5725489       -3240301.6668186784        1401882722.1427064     
  -1357327296.2131245       -2002778.0202094316        1412139783.9879975     
  -1310855288.6391773       -1516743.6585255861        1423434292.0178957     
  -1839762647.2796950        2659541.3007274866        1345813693.6922758     
  -1787545926.8617091        4444634.4412075281        1344894697.6617141     
  -1735727931.9364908        4900642.6057963371        1347057482.5314753     
  -1684308662.5040410        4027565.7944929600        1352302048.3015475     
  -1633288118.5643542        1825404.0073089600        1360628394.9719348     
  -2209312815.9654050        4923843.1001156569        1306295252.3851900     
  -2146186766.7292206        7505814.0637906790        1296072932.3561578     
  -2083632721.6930904        8181104.3606181145        1290976727.9431539     
  -2021650680.8570156        6949713.9905881882        1291006639.1461732     
  -1960240644.2209959        3811642.9537075758        1296162665.9652140     
  -2606746505.7049637       -1176911.4166538715        1265925613.0846944     
  -2526870171.3199821        3954224.2694015503        1246197810.5653546     
  -2447739119.8423448        6601083.5976414680        1233640458.3777480     
  -2369353351.2720494        6763666.5680654049        1228253556.5218725     
  -2291712865.6091013        4441973.1806719303        1230037104.9977283     
  -3032063716.4983730       -15642722.249575257        1224704775.7907872     
  -2929596140.6339998       -6210134.9419713020        1195269332.2892983     
  -2828047126.3842554        160580.31686711311        1175048673.8352528     
  -2727416673.7491493        3469423.5269154310        1164042800.4286487     
  -2627704782.7286739        3716394.6881862879        1162251712.0694833     
  -1310855288.6391773       -1516743.6585255861        1423434292.0178957     
  -1266506399.1833508       -2369611.8497321606        1420044398.7067411     
  -1222394898.4041104       -4013775.6295547485        1420402743.9742529     
  -1178520786.3014455       -6449234.9979626536        1424509327.8204312     
  -1134884062.8753624       -9675989.9549778700        1432364150.2452748     
  -1633288118.5643542        1825404.0073089600        1360628394.9719348     
  -1579218718.0037782       -291351.81773352623        1355568031.3230250     
  -1525297350.8674369       -2901552.3902228475        1354528411.7069075     
  -1471524017.1553347       -6005197.7101761103        1357509536.1235886     
  -1417898716.8674662       -9602287.7775786519        1364511404.5730648     
  -1960240644.2209959        3811642.9537075758        1296162665.9652140     
  -1895672145.5438697        664575.59837245941        1289536079.7729483     
  -1831162325.0386376       -2678085.6632698774        1287202743.0676057     
  -1766711182.7052917       -6216340.8312066793        1289162655.8491900     
  -1702318718.5438418       -9950189.9054542780        1295415818.1176987     
  -2291712865.6091013        4441973.1806719303        1230037104.9977283     
  -2215866681.8036289        498170.39857661724        1221948544.0565109     
  -2139989820.9177001       -3343375.4486637115        1218425738.0563459     
  -2064082282.9513187       -7082664.3610615730        1219468686.9972367     
  -1988144067.9044805       -10719696.338605642        1225077390.8791821     
  -2627704782.7286739        3716394.6881862879        1162251712.0694833     
  -2539802326.7830524       -790567.41712057590        1152805424.1737130     
  -2451779838.5046339       -4897421.7464275360        1148197396.6731277     
  -2363637317.8934159       -8604168.2997362614        1148427629.5677264     
  -2275374764.9493976       -11910807.077053785        1153496122.8575096     
  -1134884062.8753624       -9675989.9549778700        1432364150.2452748     
  -1080559545.8032959       -10211783.617593944        1425840124.6044567     
  -1026337448.9333729       -11088977.954020083        1424289470.7129374     
  -972217772.26560032       -12307572.964283824        1427712188.5707150     
  -918200515.79996276       -13867568.648327589        1436108278.1777878     
  -1417898716.8674662       -9602287.7775786519        1364511404.5730648     
  -1350534360.5444381       -9581410.2988184690        1357306084.9925559     
  -1283354113.1693001       -10174229.313029349        1355029576.6693261     
  -1216357974.7420535       -11380744.820216179        1357681879.6033776     
  -1149545945.2626998       -13200956.820366800        1365262993.7947080     
  -1702318718.5438418       -9950189.9054542780        1295415818.1176987     
  -1622041838.6613274       -9410835.9927660823        1287433901.0607955     
  -1542030756.4724548       -9757474.3922060132        1284336234.7691529     
  -1462285471.9772198       -10990105.103772223        1286122819.2427728     
  -1382805985.1756191       -13108728.127457321        1292793654.4816535     
  -1988144067.9044805       -10719696.338605642        1225077390.8791821     
  -1895081980.1539688       -9700060.6994365454        1216223572.8091776     
  -1802367378.8428383       -9838713.1915451288        1212209445.0124178     
  -1710000263.9710927       -11135653.814938664        1213035007.4889007     
  -1617980635.5387330       -13590882.569607854        1218700260.2386305     
  -2275374764.9493976       -11910807.077053785        1153496122.8575096     
  -2169654785.0223598       -10449084.418840051        1143675100.2377014     
  -2064363980.2804534       -10417945.711064458        1138649207.3991218     
  -1959502350.7236743       -11817390.953717232        1138418444.3417637     
  -1855069896.3520293       -14647420.146809936        1142982811.0656347     
  -918200515.79996276       -13867568.648327589        1436108278.1777878     
  -867536627.27866066       -16854395.960941255        1432602866.6978800     
  -817047783.11252332       -20424704.457436800        1434206381.4300041     
  -766733983.30154407       -24578494.137793899        1440918822.3741534     
  -716595227.84573317       -29315765.002043873        1452740189.5303292     
  -1149545945.2626998       -13200956.820366800        1365262993.7947080     
  -1086126584.1796284       -16513597.401410580        1360744825.6936357     
  -1022836055.7280258       -20255680.087341189        1361004821.0284567     
  -959674359.90787029       -24427204.878100097        1366042979.7991700     
  -896641496.71917641       -29028171.773731053        1375859302.0057714     
  -1382805985.1756191       -13108728.127457321        1292793654.4816535     
  -1307576188.0340374       -17030692.927925706        1287316643.4370754     
  -1232429011.8002100       -21228060.754243553        1286287033.0522528     
  -1157364456.4741333       -25700831.606393993        1289704823.3271821     
  -1082382522.0558071       -30449005.484384477        1297570014.2618709     
  -1617980635.5387330       -13590882.569607854        1218700260.2386305     
  -1531885438.8418856       -18405682.540472567        1212318319.9282012     
  -1445826651.3290832       -23341846.458152473        1210053017.5013888     
  -1359804273.0003283       -28399374.322657406        1211904352.9581978     
  -1273818303.8556216       -33578266.133991361        1217872326.2986183     
  -1855069896.3520293       -14647420.146809936        1142982811.0656347     
  -1759054336.6031675       -20638566.239049315        1135749855.1670125     
  -1663028974.3146427       -26597037.199074864        1132302774.3758693     
  -1566993809.4864619       -32522833.026912689        1132641568.6922054     
  -1470948842.1186178       -38415953.722546101        1136766238.1160254     
  -716595227.84573317       -29315765.002043873        1452740189.5303292     
  -658831275.33008099       -31500564.195222527        1452102738.9224253     
  -600717610.84181702       -32519656.813032180        1456691524.3140063     
  -542254234.38095248       -32373042.855506629        1466506545.7050769     
  -483441145.94747299       -31060722.322593704        1481547803.0956337     
  -896641496.71917641       -29028171.773731053        1375859302.0057714     
  -825510833.44434988       -31098813.743116677        1373448312.6139367     
  -754184754.08722615       -32518068.771521449        1376066828.4472585     
  -682663258.64782643       -33285936.859000236        1383714849.5057347     
  -610946347.12614179       -33402418.005531996        1396392375.7893689     
  -1082382522.0558071       -30449005.484384477        1297570014.2618709     
  -998447235.94846416       -32574116.607954383        1293205474.2140639     
  -914470829.64915609       -34562160.424979508        1293673708.6170793     
  -830453303.15788531       -36413136.935462475        1298974717.4709213     
  -746394656.47465265       -38127046.139406234        1309108500.7755792     
  -1273818303.8556216       -33578266.133991361        1217872326.2986183     
  -1177640482.8424301       -35926472.789745927        1211374223.7228036     
  -1081575837.5275977       -38651931.773381531        1209512164.8234742     
  -985624367.91112924       -41754643.084890306        1212286149.6006339     
  -889786073.99301672       -45234606.724248081        1219696178.0542898     
  -1470948842.1186178       -38415953.722546101        1136766238.1160254     
  -1363090574.1262486       -41155882.288506746        1127954561.1401517     
  -1255499777.7225599       -44787382.816751301        1123582197.0664361     
  -1148176452.9075494       -49310455.307255566        1123649145.8948774     
  -1041120599.6812238       -54725099.760029495        1128155407.6254742     
  -483441145.94747299       -31060722.322593704        1481547803.0956337     
  -426042451.53348756       -26366187.611665696        1479410762.5237763     
  -366483667.52032727       -14471354.236821473        1483056352.3947840     
  -304764793.90797657        4623777.8019902408        1492484572.7086565     
  -240885830.69644481        30919208.504739985        1507695423.4653938     
  -610946347.12614179       -33402418.005531996        1396392375.7893689     
  -538793637.98051846       -29737604.540979624        1394036171.2472768     
  -464429385.36296630       -18700979.503331959        1397484206.3435133     
  -387853589.27348977       -292542.89259859920        1406736481.0780766     
  -309066249.71208519        25487705.291219890        1421792995.4509711     
  -746394656.47465265       -38127046.139406234        1309108500.7755792     
  -659426192.03892899       -35473431.753704160        1306593161.7814636     
  -570194730.25852525       -25276492.885745049        1309903671.6211345     
  -478700271.13344866       -7536229.5355411172        1319040030.2946017     
  -384942814.66369641        17747358.296915233        1334002237.8018613     
  -889786073.99301672       -45234606.724248081        1219696178.0542898     
  -787940113.70871377       -43573669.249835938        1217081734.1263404     
  -683779702.20699060       -34197894.384026766        1220314748.2276542     
  -577304839.48784709       -17107282.126812160        1229395220.3582222     
  -468515525.55127579        7698167.5218234360        1244323150.5180461     
  -1041120599.6812238       -54725099.760029495        1128155407.6254742     
  -924335402.98988175       -54038317.029395998        1125501888.2819076     
  -805184301.20836103       -45465183.998161644        1128717436.1630659     
  -683667294.33668399       -29005700.666411847        1137802051.2689419     
  -559784382.37483478       -4659867.0340822041        1152755733.5995429     
  -240885830.69644481        30919208.504739985        1507695423.4653938     
  -200048962.63330549        60576682.111773103        1486579958.3331366     
  -154597675.52179903        105615552.54669325        1468189999.0640466     
  -104531969.36192027        166035819.80952322        1452525545.6581216     
  -49851844.153661802        241837483.90028480        1439586598.1153653     
  -309066249.71208519        25487705.291219890        1421792995.4509711     
  -259409078.21236119        55676695.839489609        1405047989.6964579     
  -203294575.82217586        107390122.68929353        1392239669.1204808     
  -140722742.54154870        180627985.84057376        1383368033.7230310     
  -71693578.370455563        275390285.29340374        1378433083.5041244     
  -384942814.66369641        17747358.296915233        1334002237.8018613     
  -323004827.39775920        49506019.485331729        1323777755.2408457     
  -252766597.39928728        108932156.44886093        1318701137.1737390     
  -174228124.66828364        196025769.18749923        1318772383.6005309     
  -87389409.204742774        310786857.70125794        1323991494.5212243     
  -468515525.55127579        7698167.5218234360        1244323150.5180461     
  -390836210.18950444        42064653.049272209        1242769254.9663026     
  -303013740.25312310        110241653.82542396        1247574403.2238202     
  -205048115.74212921        212229169.85028136        1258738595.2906115     
  -96939336.656513095        348027201.12388223        1276261831.1666741     
  -559784382.37483478       -4659867.0340822041        1152755733.5995429     
  -462903226.58761400        33352596.531276733        1162022488.8728158     
  -354036004.38368827        111318614.81897146        1178859467.2707303     
  -233182715.76308608        229238187.82893097        1203266668.7932782     
  -100343360.72577345        387111315.56125283        1235244093.4404676     
  -49851844.153661802        241837483.90028480        1439586598.1153653     
  -40527200.494219884        322820433.53071463        1346490014.5030682     
  -23429329.726421565        429714140.18899852        1253281430.9458232     
   1441768.1497215629        562518603.87509906        1159960847.4436398     
   34086093.134209275        721233824.58901429        1066528263.9964998     
  -71693578.370455563        275390285.29340374        1378433083.5041244     
  -57492792.372164607        377120433.96476465        1296854997.2619741     
  -34309977.261855155        508790679.67618114        1214351974.5236607     
  -2145133.0395399928        670401022.42762494        1130924015.2892034     
   39001740.294782937        861951462.21908283        1046571119.5585703     
  -87389409.204742774        310786857.70125794        1323991494.5212243     
  -70635156.728212327        432567402.65536052        1255342174.6534951     
  -43690073.136000574        588317384.66173100        1184954981.7383902     
  -6554158.4281158745        778036803.72033691        1112829915.7759235     
   40772587.395439863        1001725659.8312031        1038966976.7660801     
  -96939336.656513095        348027201.12388223        1276261831.1666741     
  -79954293.562354177        489161339.60253310        1221951546.6776426     
  -51569617.348850667        668294255.14566588        1165090452.5900307     
  -11785308.016010225        885425947.75326967        1105678548.9038339     
   39398634.436179519        1140556417.4253414        1043715835.6190517     
  -100343360.72577345        387111315.56125283        1235244093.4404676     
  -85450202.874593049        546902244.80628324        1196683113.3344121     
  -57948609.900401771        748721291.12800527        1154758387.0785604     
  -17838581.803213775        992568454.52639699        1109469914.6729209     
   34879881.416988850        1278443735.0014873        1060817696.1174792     
  -3032063716.4983730       -15642722.249575257        1224704775.7907872     
  -2929596140.6339998       -6210134.9419713020        1195269332.2892983     
  -2828047126.3842554        160580.31686711311        1175048673.8352528     
  -2727416673.7491493        3469423.5269154310        1164042800.4286487     
  -2627704782.7286739        3716394.6881862879        1162251712.0694833     
  -3454443762.6787329       -26459085.499594450        1065545593.5998136     
  -3330637252.5736361       -17194105.390854836        1045464836.1061432     
  -3207341141.1783514       -9630454.3148117065        1032622536.9499404     
  -3084555428.4928651       -3768132.2714436054        1027018696.1312035     
  -2962280114.5171895        392860.73923540115        1028653313.6499361     
  -3844891210.1389203       -27695669.133560181        903621667.35368323     
  -3705392413.5358925       -20292290.546539545        893371785.92346203     
  -3565995852.7378402       -13229697.976106882        888384036.12073600     
  -3426701527.7447643       -6507891.4222624302        888658417.94550145     
  -3287509438.5566692       -126870.88500618935        894194931.39776111     
  -4203406058.8789349       -19352473.151475191        738932997.05238998     
  -4053861623.5207582       -15504690.409003019        738990181.74125516     
  -3904011261.0627217       -10637150.667019367        742333171.34763741     
  -3753854971.5048399       -4749853.9255301952        748961965.87154007     
  -3603392754.8471026        2157199.8154685497        758876565.31295860     
  -4529988308.8987799       -1429497.5533390045        571479582.69593549     
  -4376044882.5282307       -2831304.9782452583        582320023.55951703     
  -4221387366.1530032       -1852812.3875522614        594469942.63064408     
  -4066015759.7730937        1505980.2187440395        607929339.90931797     
  -3909930063.3885002        7245072.8406503201        622698215.39553487     
  -2627704782.7286739        3716394.6881862879        1162251712.0694833     
  -2539802326.7830524       -790567.41712057590        1152805424.1737130     
  -2451779838.5046339       -4897421.7464275360        1148197396.6731277     
  -2363637317.8934159       -8604168.2997362614        1148427629.5677264     
  -2275374764.9493976       -11910807.077053785        1153496122.8575096     
  -2962280114.5171895        392860.73923540115        1028653313.6499361     
  -2862202601.9393225       -2887162.0675942898        1022248119.2990230     
  -2762130081.0240669       -6183823.7498027086        1020086952.8934692     
  -2662062551.7714276       -9497124.3073849678        1022169814.4332720     
  -2562000014.1813951       -12827063.740338445        1028496703.9184337     
  -3287509438.5566692       -126870.88500618935        894194931.39776111     
  -3176954676.3460603       -2689296.4932173491        890684969.26372766     
  -3066529929.7934752       -5685107.6281702518        890824802.62522542     
  -2956235198.8989167       -9114304.2898736000        894614431.48225057     
  -2846070483.6623745       -12976886.478314519        902053855.83480918     
  -3603392754.8471026        2157199.8154685497        758876565.31295860     
  -3484058550.0032597       -196970.69397115707        758115974.06782520     
  -3364979384.8128548       -3401273.3815293312        760410945.86839545     
  -3246155259.2758846       -7455708.2472025156        765761480.71466672     
  -3127586173.3923507       -12360275.290994525        774167578.60664320     
  -3909930063.3885002        7245072.8406503201        622698215.39553487     
  -3783514222.9109316        4589815.3301265240        624541133.71131814     
  -3657478446.0822091        667678.99011707306        628845382.62298000     
  -3531822732.9023337       -4521336.1793828011        635610962.13051498     
  -3406547083.3713007       -10977230.178359985        644837872.23392928     
  -2275374764.9493976       -11910807.077053785        1153496122.8575096     
  -2169654785.0223598       -10449084.418840051        1143675100.2377014     
  -2064363980.2804534       -10417945.711064458        1138649207.3991218     
  -1959502350.7236743       -11817390.953717232        1138418444.3417637     
  -1855069896.3520293       -14647420.146809936        1142982811.0656347     
  -2562000014.1813951       -12827063.740338445        1028496703.9184337     
  -2443968409.2892160       -11181474.460942507        1019081620.0038469     
  -2326205565.3574748       -10431755.049682856        1014299456.2917153     
  -2208711482.3861723       -10577905.506546140        1014150212.7820414     
  -2091486160.3753088       -11619925.831536770        1018633889.4748284     
  -2846070483.6623745       -12976886.478314519        902053855.83480918     
  -2716190709.7443995       -11286467.359552026        893231860.55425525     
  -2586419282.5621624       -9957204.0266040564        888880575.89738309     
  -2456756202.1156774       -8989096.4794768095        889000001.86420345     
  -2327201468.4049330       -8382144.7181687355        893590138.45471132     
  -3127586173.3923507       -12360275.290994525        774167578.60664320     
  -2986321686.3879070       -10764063.114655972        766125821.88892376     
  -2845005131.8945231       -8994292.6418337822        762392566.21612167     
  -2703636509.9121895       -7050963.8725165129        762967811.58824086     
  -2562215820.4409075       -4934076.8067051172        767851558.00527823     
  -3406547083.3713007       -10977230.178359985        644837872.23392928     
  -3254361339.2197409       -9614261.7262560129        637763504.00785613     
  -3101963113.3545403       -7543020.8953455687        634835427.24793470     
  -2949352405.7757025       -4763507.6856485605        636053641.95415974     
  -2796529216.4832225       -1275722.0971435308        641418148.12653708     
  -1855069896.3520293       -14647420.146809936        1142982811.0656347     
  -1759054336.6031675       -20638566.239049315        1135749855.1670125     
  -1663028974.3146427       -26597037.199074864        1132302774.3758693     
  -1566993809.4864619       -32522833.026912689        1132641568.6922054     
  -1470948842.1186178       -38415953.722546101        1136766238.1160254     
  -2091486160.3753088       -11619925.831536770        1018633889.4748284     
  -1985477319.4978166       -16595461.467491508        1011530591.1418681     
  -1879574599.6187482       -21924733.764866948        1008094185.3873841     
  -1773778000.7381110       -27607742.723675251        1008324672.2113837     
  -1668087522.8559039       -33644488.343917310        1012222051.6138519     
  -2327201468.4049330       -8382144.7181687355        893590138.45471132     
  -2211539296.4816737       -12444054.922702789        886481253.55964327     
  -2096099169.0949321       -17246113.582288742        882920278.71404946     
  -1980881086.2447085       -22788320.696932077        882907213.91793609     
  -1865885047.9309990       -29070676.266631126        886442059.17129207     
  -2562215820.4409075       -4934076.8067051172        767851558.00527823     
  -2437240267.5547438       -8184346.6046813726        760601842.42033696     
  -2312602682.7431865       -12561176.651328564        756781054.35586536     
  -2188303066.0062342       -18064566.946669221        756389193.81187212     
  -2064341417.3438835       -24694517.490668535        759426260.78834784     
  -2796529216.4832225       -1275722.0971435308        641418148.12653708     
  -2662580232.7170224       -3816336.5134090185        633892357.72395003     
  -2529085140.5635180       -7869922.9720015526        629676512.31283188     
  -2396043940.0227027       -13436481.472883224        628770611.89318836     
  -2263456631.0945787       -20516012.016075611        631174656.46501243     
  -1470948842.1186178       -38415953.722546101        1136766238.1160254     
  -1363090574.1262486       -41155882.288506746        1127954561.1401517     
  -1255499777.7225599       -44787382.816751301        1123582197.0664361     
  -1148176452.9075494       -49310455.307255566        1123649145.8948774     
  -1041120599.6812238       -54725099.760029495        1128155407.6254742     
  -1668087522.8559039       -33644488.343917310        1012222051.6138519     
  -1549280545.6150792       -35997784.629284441        1002716044.6905450     
  -1430533271.8633437       -38550092.544967830        997103586.06836927     
  -1311845701.6006899       -41301412.090918660        995384675.74732816     
  -1193217834.8271213       -44251743.267144263        997559313.72742605     
  -1865885047.9309990       -29070676.266631126        886442059.17129207     
  -1737688688.8732061       -31505138.500871181        876484118.41674244     
  -1609344265.2049043       -33446052.033404946        869873961.36230528     
  -1480851776.9260926       -34893416.864240408        866611588.00798368     
  -1352211224.0367630       -35847232.993359149        866696998.35377753     
  -2064341417.3438835       -24694517.490668535        759426260.78834784     
  -1928315003.9006186       -27677943.903223515        749258782.31875229     
  -1791932757.7472439       -29475261.282085299        741893322.94824743     
  -1655194678.8837616       -30086469.627252042        737329882.67683685     
  -1518100767.3101659       -29511568.938707232        735568461.50452280     
  -2263456631.0945787       -20516012.016075611        631174656.46501243     
  -2121159490.6973214       -24516200.836376309        621040036.39656830     
  -1978298749.4903595       -26637720.290988564        613161670.82619429     
  -1834874407.4737020       -26880570.379957557        607539559.75389159     
  -1690886464.6473265       -25244751.103189409        604173703.17966425     
  -1041120599.6812238       -54725099.760029495        1128155407.6254742     
  -924335402.98988175       -54038317.029395998        1125501888.2819076     
  -805184301.20836103       -45465183.998161644        1128717436.1630659     
  -683667294.33668399       -29005700.666411847        1137802051.2689419     
  -559784382.37483478       -4659867.0340822041        1152755733.5995429     
  -1193217834.8271213       -44251743.267144263        997559313.72742605     
  -1062881860.1357355       -41555766.891453981        993838740.45283353     
  -931079231.28941321       -33970943.332636356        994209115.26623178     
  -797809948.28812456       -21497272.590598732        998670438.16762269     
  -663074011.13190246       -4134754.6654521525        1007222709.1570057     
  -1352211224.0367630       -35847232.993359149        866696998.35377753     
  -1213404811.7360010       -32666165.089848876        860860245.05706394     
  -1074030996.2155166       -27593753.120585620        857336320.71161938     
  -934089777.47529936       -20629997.085538983        856125225.31743503     
  -793581155.51534808       -11774896.984738827        857226958.87451422     
  -1518100767.3101659       -29511568.938707232        735568461.50452280     
  -1375904257.7906907       -27369511.624580860        726566402.09460545     
  -1234039595.9866929       -26333613.362057090        718099052.49922240     
  -1092506781.8981876       -26403874.151176751        710166412.71837389     
  -951305815.52517998       -27580293.991953075        702768482.75205207     
  -1690886464.6473265       -25244751.103189409        604173703.17966425     
  -1550380198.2997682       -25665806.495592713        590957211.56545365     
  -1411105030.6029439       -30190524.057087719        576497310.62904871     
  -1273060961.5568039       -38818903.787535429        560794000.37044489     
  -1136247991.1613832       -51550945.687058628        543847280.78964007     
  -559784382.37483478       -4659867.0340822041        1152755733.5995429     
  -462903226.58761400        33352596.531276733        1162022488.8728158     
  -354036004.38368827        111318614.81897146        1178859467.2707303     
  -233182715.76308608        229238187.82893097        1203266668.7932782     
  -100343360.72577345        387111315.56125283        1235244093.4404676     
  -663074011.13190246       -4134754.6654521525        1007222709.1570057     
  -547760571.52891040        26119632.776851982        1020713405.9772177     
  -421571839.63049197        92624994.537238508        1042602884.7902365     
  -284507815.43663931        195381330.61575389        1072891145.5960687     
  -136568498.94733948        334388641.01240289        1111578188.3947206     
  -793581155.51534808       -11774896.984738827        857226958.87451422     
  -657468121.04466891        11431607.650045276        873645694.10018504     
  -511590568.39981532        67186506.198754638        899291770.18684304     
  -355948497.58078218        155489798.66137952        934165187.13449025     
  -190541908.58757654        276341485.03793490        978265944.94313157     
  -951305815.52517998       -27580293.991953075        702768482.75205207     
  -792025875.13487148       -10711478.849079639        720819353.24172246     
  -624092190.69164431        35003149.803523242        748926123.46055353     
  -447504762.19550425        109563591.96584159        787088793.40855014     
  -262263589.64644870        212969847.63787806        835307363.08571851     
  -1136247991.1613832       -51550945.687058628        543847280.78964007     
  -951433833.79951882       -40309626.720521271        562234383.40183580     
  -759076706.50599790       -3925074.6484738290        591505944.61136460     
  -559176609.28081512        57602710.529121608        631661964.41824317     
  -351733542.12397426        144273728.81223851        682702442.82246244     
  -100343360.72577345        387111315.56125283        1235244093.4404676     
  -85450202.874593049        546902244.80628324        1196683113.3344121     
  -57948609.900401771        748721291.12800527        1154758387.0785604     
  -17838581.803213775        992568454.52639699        1109469914.6729209     
   34879881.416988850        1278443735.0014873        1060817696.1174792     
  -136568498.94733948        334388641.01240289        1111578188.3947206     
  -127437417.95950848        483359572.68043399        1090060834.1676037     
  -95155634.593352139        709499512.27620387        1069971781.7900915     
  -39723148.848890841        1012808459.7996584        1051311031.2621820     
   38860039.273881733        1393286415.2508266        1034078582.5838758     
  -190541908.58757654        276341485.03793490        978265944.94313157     
  -173481338.75050116        418599888.84279829        986091528.39281225     
  -122727799.27981430        673168191.42636800        1000137461.6915004     
  -38281290.175515115        1040046392.7886621        1020403744.8391742     
   79858188.562396705        1519234492.9296525        1046890377.8358723     
  -262263589.64644870        212969847.63787806        835307363.08571851     
  -223581965.24757299        352623193.29332715        884775196.01004088     
  -140665103.95977873        639727328.57850528        945255426.78276420     
  -13513005.783075988        1074282253.4933784        1016748055.4038959     
   157874329.28254175        1656287968.0379674        1099253081.8734252     
  -351733542.12397426        144273728.81223851        682702442.82246244     
  -277739297.45073724        285429486.03200829        786111837.01928341     
  -148967548.63327250        609176923.73253715        905325677.06390965     
   34581704.328413010        1115516041.9138045        1040343962.9563450     
   272908461.43430942        1804446840.5757694        1191166694.6965728     
  -4529988308.8987799       -1429497.5533390045        571479582.69593549     
  -4376044882.5282307       -2831304.9782452583        582320023.55951703     
  -4221387366.1530032       -1852812.3875522614        594469942.63064408     
  -4066015759.7730937        1505980.2187440395        607929339.90931797     
  -3909930063.3885002        7245072.8406503201        622698215.39553487     
  -4861814805.4160786        6817790.5269987583        464100661.07691991     
  -4701225375.7970057        6250951.3224306107        463764697.13729262     
  -4540234284.4979219        7022984.3845555782        467038880.20736867     
  -4378841531.5188389        9133889.7133631706        473923210.28715301     
  -4217047116.8597407        12583667.308867693        484417687.37664390     
  -5230720142.9439459        3941426.3041627407        356458284.40849406     
  -5056911370.6415920        6181557.1503651142        344581415.95353985     
  -4883013364.9839134        8719132.5143406391        338615363.31044561     
  -4709026125.9708967        11554152.396094799        338560126.47922188     
  -4534949653.6025496        14686616.795621634        344415705.45986164     
  -5636704321.4823399       -10058590.221833467        248552452.69066361     
  -5443102867.0619698       -3039487.4944393635        224770180.00825915     
  -5249724607.6109562        3235632.0018038750        209199391.93987390     
  -5056569543.1292696        8766768.2669317722        201840088.48552233     
  -4863637673.6169310        13553921.300901651        202692269.64519408     
  -6079767341.0312843       -35182259.050987959        140383165.92342576     
  -5859799865.0581665       -21412182.611995459        104330989.30144879     
  -5640368012.3790560       -9427517.1530301571        78790966.095661536     
  -5421471782.9939623        771737.32585954666        63763096.306059189     
  -5203111176.9028883        9185580.8247056007        59247379.932638220     
  -3909930063.3885002        7245072.8406503201        622698215.39553487     
  -3783514222.9109316        4589815.3301265240        624541133.71131814     
  -3657478446.0822091        667678.99011707306        628845382.62298000     
  -3531822732.9023337       -4521336.1793828011        635610962.13051498     
  -3406547083.3713007       -10977230.178359985        644837872.23392928     
  -4217047116.8597407        12583667.308867693        484417687.37664390     
  -4083965832.7228718        7733268.9041593075        482505945.31121260     
  -3951079333.4595575        2233587.5876123905        483766707.97879398     
  -3818387619.0697899       -3915376.6407637596        488199975.37938815     
  -3685890689.5535822       -10713623.781003237        495805747.51299530     
  -4534949653.6025496        14686616.795621634        344415705.45986164     
  -4393170999.7002745        8250655.3285672665        338965461.58439434     
  -4251401851.8962674        1783006.8672988415        337398896.57907337     
  -4109642210.1905069       -4716328.5881361961        339716010.44390243     
  -3967892074.5830121       -11247351.037780762        345916803.17888236     
  -4863637673.6169310        13553921.300901651        202692269.64519408     
  -4711129723.8431549        6141974.6033062935        193919682.53086212     
  -4558446001.3923397       -684063.17081975937        189741948.42382315     
  -4405586506.2644796       -6924192.0214767456        190159067.32406193     
  -4252551238.4595976       -12578411.948706627        195171039.23158959     
  -5203111176.9028883        9185580.8247056007        59247379.932638220     
  -5037842005.1514893        1407226.7284495831        47368608.150623642     
  -4872211781.9477739       -5167622.5267438889        40795863.513035312     
  -4706220507.2917156       -10538966.940797567        39529146.019869067     
  -4539868181.1833353       -14706806.513778210        43568455.671119452     
  -3406547083.3713007       -10977230.178359985        644837872.23392928     
  -3254361339.2197409       -9614261.7262560129        637763504.00785613     
  -3101963113.3545403       -7543020.8953455687        634835427.24793470     
  -2949352405.7757025       -4763507.6856485605        636053641.95415974     
  -2796529216.4832225       -1275722.0971435308        641418148.12653708     
  -3685890689.5535822       -10713623.781003237        495805747.51299530     
  -3522348908.1933274       -8309595.3964080811        488097260.16957533     
  -3358685647.4727454       -5500635.8107228279        484737649.99765712     
  -3194900907.3918362       -2286745.0239478350        485726916.99724144     
  -3030994687.9506030        1332076.9639075994        491065061.16832972     
  -3967892074.5830121       -11247351.037780762        345916803.17888236     
  -3792415439.7130561       -7628617.8304018974        337468027.30591923     
  -3616908327.8360882       -3908294.5996434689        333570714.30980957     
  -3441370738.9521055       -86381.345507860184        334224864.19055283     
  -3265802673.0611072        3837121.9320151806        339430476.94815207     
  -4252551238.4595976       -12578411.948706627        195171039.23158959     
  -4064560933.7789392       -7571329.0282540321        185875805.41688174     
  -3876631154.4445696       -2765997.2620978355        181334620.18438450     
  -3688761900.4565034        1837583.3497133255        181547483.53408670     
  -3500953171.8147378        6239412.8071911335        186514395.46600515     
  -4539868181.1833353       -14706806.513778210        43568455.671119452     
  -4338785390.3909578       -8137728.9899199009        33320594.502466843     
  -4137854127.2981901       -2073743.7980945110        28029367.621379845     
  -3937074391.9050431        3485149.0616621971        27694775.027848851     
  -3736446184.2114930        8538949.5894300938        32316816.721884750     
  -2796529216.4832225       -1275722.0971435308        641418148.12653708     
  -2662580232.7170224       -3816336.5134090185        633892357.72395003     
  -2529085140.5635180       -7869922.9720015526        629676512.31283188     
  -2396043940.0227027       -13436481.472883224        628770611.89318836     
  -2263456631.0945787       -20516012.016075611        631174656.46501243     
  -3030994687.9506030        1332076.9639075994        491065061.16832972     
  -2888474181.7543325       -1584158.6660082340        483067991.83537990     
  -2746153843.0355101       -5167619.2207705975        478441138.12185282     
  -2604033671.7941327       -9418304.7003397942        477184500.02775353     
  -2462113668.0302067       -14336215.104748368        479298077.55308342     
  -3265802673.0611072        3837121.9320151806        339430476.94815207     
  -3114538442.6406059        596925.62670016289        331258140.17595768     
  -2963220655.5623097       -2464748.4859720469        326516289.65113914     
  -2811849311.8262210       -5347900.4060038328        325204925.37370294     
  -2660424411.4323392       -8052530.1333792210        327324047.34364653     
  -3500953171.8147378        6239412.8071911335        186514395.46600515     
  -3340773015.3758521        2726916.3647184372        178462802.74568021     
  -3180285578.1439333        238689.23234117031        173901966.90068886     
  -3019490860.1189675       -1225268.5898668766        172831887.93103170     
  -2858388861.3009562       -1664957.1019319296        175252565.83672065     
  -3736446184.2114930        8538949.5894300938        32316816.721884750     
  -3567177899.9600677        4805813.5480322838        24681979.544546660     
  -3397348610.7803421        2942693.9342939854        20598169.870504294     
  -3226958316.6723561        2949590.7480858564        20065387.699750923     
  -3056007017.6360850        4826503.9895082712        23083633.032286230     
  -2263456631.0945787       -20516012.016075611        631174656.46501243     
  -2121159490.6973214       -24516200.836376309        621040036.39656830     
  -1978298749.4903595       -26637720.290988564        613161670.82619429     
  -1834874407.4737020       -26880570.379957557        607539559.75389159     
  -1690886464.6473265       -25244751.103189409        604173703.17966425     
  -2462113668.0302067       -14336215.104748368        479298077.55308342     
  -2313540391.4570584       -17094731.610574126        469807416.66157562     
  -2164659203.1938534       -18826875.816190124        462601758.56548959     
  -2015470103.2405920       -19532647.721627116        457681103.26483136     
  -1865973091.5972562       -19212047.326820374        455045450.75959939     
  -2660424411.4323392       -8052530.1333792210        327324047.34364653     
  -2505492860.6908607       -9544732.9269880056        318179041.65615475     
  -2350509087.3789659       -10862860.485884070        311347787.06145173     
  -2195473091.4966531       -12006912.810041189        306830283.55951959     
  -2040384873.0439234       -12976889.899482608        304626531.15037423     
  -2858388861.3009562       -1664957.1019319296        175252565.83672065     
  -2697016898.3987288       -1866204.7856702805        166154911.38033509     
  -2535848402.0456944       -2745674.3000627756        159399756.31407675     
  -2374883372.2418919       -4303365.6452151537        154987100.63796297     
  -2214121808.9873109       -6539278.8211193085        152916944.35197493     
  -3056007017.6360850        4826503.9895082712        23083633.032286230     
  -2888112504.5806246        5940852.8135193586        13735025.834088050     
  -2720677147.1940346        5524682.7412852049        6757666.3233774267     
  -2553700945.4763136        3577993.7728298903        2151554.5001513199     
  -2387183899.4274549        100785.90815687180       -83309.635582425792     
  -1690886464.6473265       -25244751.103189409        604173703.17966425     
  -1550380198.2997682       -25665806.495592713        590957211.56545365     
  -1411105030.6029439       -30190524.057087719        576497310.62904871     
  -1273060961.5568039       -38818903.787535429        560794000.37044489     
  -1136247991.1613832       -51550945.687058628        543847280.78964007     
  -1865973091.5972562       -19212047.326820374        455045450.75959939     
  -1728482157.2956839       -22236766.606337905        441650143.22636437     
  -1591130011.4787631       -25724114.168028891        427779604.33851653     
  -1453916654.1464984       -29674090.011906624        413433834.09605974     
  -1316842085.2988858       -34086694.137967944        398612832.49899399     
  -2040384873.0439234       -12976889.899482608        304626531.15037423     
  -1903714476.5952199       -17946834.808150768        292326769.55851161     
  -1766090558.4651179       -19738374.112172365        280319954.57962573     
  -1627513118.6536148       -18351507.811511397        268606086.21371669     
  -1487982157.1607056       -13786235.906162500        257185164.46078575     
  -2214121808.9873109       -6539278.8211193085        152916944.35197493     
  -2076077156.1983950       -12796011.101097941        142987090.56188607     
  -1935986671.5619931       -12233303.889458060        134118361.35236667     
  -1793850355.0781534       -4851157.1863660812        126310756.72341013     
  -1649668206.7468326        9350429.0083491802        119564276.67501393     
  -2387183899.4274549        100785.90815687180       -83309.635582425792     
  -2245570196.1051812       -6784295.4850751162       -6368893.7634945959     
  -2100818350.7693956       -3208903.4999215603       -10825175.343261268     
  -1952928363.4200902        10826961.863624811       -13452154.374870755     
  -1801900234.0572672        35323300.605561852       -14249830.858333781     
  -1136247991.1613832       -51550945.687058628        543847280.78964007     
  -951433833.79951882       -40309626.720521271        562234383.40183580     
  -759076706.50599790       -3925074.6484738290        591505944.61136460     
  -559176609.28081512        57602710.529121608        631661964.41824317     
  -351733542.12397426        144273728.81223851        682702442.82246244     
  -1316842085.2988858       -34086694.137967944        398612832.49899399     
  -1117343355.8848884       -14443849.264635921        420633223.55686253     
  -914192738.53825283        17371955.384168565        441126167.00207502     
  -707390233.25895154        61360719.808502764        460091662.83463627     
  -496935840.04700696        117522444.00832590        477529711.05453449     
  -1487982157.1607056       -13786235.906162500        257185164.46078575     
  -1309261444.8659942        3619358.1225269437        278299248.29881978     
  -1130779926.6376450        20227638.596683860        285473978.31419617     
  -952537602.47565842        36038605.516313016        278709354.50692636     
  -774534472.38002956        51052258.881402999        258005376.87700185     
  -1649668206.7468326        9350429.0083491802        119564276.67501393     
  -1527188100.7428248        13879995.440973282        135232457.62768871     
  -1408838270.8041804        4641974.9890625477        124549378.54771593     
  -1294618716.9309106       -18363632.347427070        87515039.435099453     
  -1184529439.1230185       -55136826.568523169        24129440.289838221     
  -1801900234.0572672        35323300.605561852       -14249830.858333781     
  -1771123323.5153730        16338062.690717578       -8567148.4565175157     
  -1748367771.0378680       -29385035.438724518       -41647632.297341190     
  -1733633576.6247411       -101845993.78276581       -113491282.38082018     
  -1726920740.2759864       -201044812.34140313       -224098098.70692888     
  -351733542.12397426        144273728.81223851        682702442.82246244     
  -277739297.45073724        285429486.03200829        786111837.01928341     
  -148967548.63327250        609176923.73253715        905325677.06390965     
   34581704.328413010        1115516041.9138045        1040343962.9563450     
   272908461.43430942        1804446840.5757694        1191166694.6965728     
  -496935840.04700696        117522444.00832590        477529711.05453449     
  -388144063.29312122        223215942.07412615        596875667.95664954     
  -230236773.06307322        492627818.39380038        735368109.64698970     
  -23213969.356840849        925758072.96743643        893007036.12555957     
   232924347.82558802        1522606705.7950110        1069792447.3923558     
  -774534472.38002956        51052258.881402999        258005376.87700185     
  -621396480.85857260        124148102.59924713        386682240.70501590     
  -424804966.52898008        342089022.34425181        537847628.26169038     
  -184759929.39124629        704875018.11636972        711501539.54701281     
   98738630.554616511        1212506089.9155910        907643974.56100273     
  -1184529439.1230185       -55136826.568523169        24129440.289838221     
  -977496550.14706075       -11774032.392511308        155531555.26438269     
  -732672129.03099775        157560535.58383998        312764232.90800816     
  -450056175.77481794        452866877.36054295        495827473.22073746     
  -129648690.37859428        874144992.93747938        704721276.20252240     
  -1726920740.2759864       -201044812.34140313       -224098098.70692888     
  -1456444271.1585727       -184550462.90115017       -96576388.365242884     
  -1153838260.5691171       -60957641.887402236        60117923.585962541     
  -819102708.50758243        169733650.69994164        245984837.14665824     
  -452237614.97400695        507523414.86073381        461024352.31688809     
 </DataArray>
 <DataArray  type="Float64" Name="VM" NumberOfComponents="1" format="ascii">
   6067127177.0786095     
   5851913999.3379822     
   5637312304.1764946     
   5422982409.3546724     
   5208721014.3477001     
   5648112551.2908278     
   5455492587.4165154     
   5263829276.7401361     
   5073018885.0739603     
   4883065526.3951893     
   5268989792.9475002     
   5095081937.0243483     
   4922443761.5992079     
   4751140745.6082592     
   4581315713.0494480     
   4931186985.6236582     
   4772439581.4208250     
   4615196506.4496746     
   4459612334.5457983     
   4305890404.8973684     
   4636171598.7670202     
   4489396024.4177999     
   4344246403.6078053     
   4200874201.0524168     
   4059457181.0541492     
   5208721014.3477001     
   5039213701.9078331     
   4870142650.8381548     
   4701458434.4073038     
   4533160814.4509840     
   4883065526.3951893     
   4726153947.1544695     
   4569936337.3056726     
   4414432765.6322107     
   4259710677.5105906     
   4581315713.0494480     
   4436322665.0630236     
   4292262246.2372780     
   4149219178.5111046     
   4007323422.4478683     
   4305890404.8973684     
   4172392013.5607452     
   4040043150.5224600     
   3908985361.0378056     
   3779402824.1782684     
   4059457181.0541492     
   3937324156.2252073     
   3816533849.7855697     
   3697272994.1729550     
   3579767689.1954050     
   4533160814.4509840     
   4335106429.2925158     
   4137102504.9059215     
   3939110204.5894098     
   3741141734.7757039     
   4259710677.5105906     
   4073522822.6584682     
   3887955853.4370542     
   3703056116.5370622     
   3518937169.1570716     
   4007323422.4478683     
   3833431381.6886382     
   3660835072.9519830     
   3489678218.8473234     
   3320188586.5330400     
   3779402824.1782684     
   3618350228.4629889     
   3459369362.2557645     
   3302708436.7292109     
   3148714462.6540375     
   3579767689.1954050     
   3432185706.9666672     
   3287534323.7451029     
   3146163654.2365685     
   3008531436.9253612     
   3741141734.7757039     
   3569839223.4161968     
   3399008160.6449838     
   3228621186.3630047     
   3058684455.7380376     
   3518937169.1570716     
   3356401154.7012324     
   3194636318.9588718     
   3033684140.9919114     
   2873633755.5751305     
   3320188586.5330400     
   3167239347.3391542     
   3015496278.0579324     
   2865093785.8875465     
   2716233210.2269535     
   3148714462.6540375     
   3006455364.5089078     
   2865992729.6009541     
   2727575779.3438783     
   2591542359.2636814     
   3008531436.9253612     
   2878305980.6042695     
   2750619459.1200037     
   2625846558.9498448     
   2504468819.8701506     
   3058684455.7380376     
   2891185389.1118884     
   2723468845.4299798     
   2555494540.4761186     
   2387234300.3156757     
   2873633755.5751305     
   2711400528.1961136     
   2549469925.5171237     
   2387871975.6721106     
   2226667952.3273582     
   2716233210.2269535     
   2560739157.8220196     
   2406302154.9939065     
   2253068992.0407219     
   2101250331.5199308     
   2591542359.2636814     
   2444456801.4170117     
   2299424126.6744671     
   2156745181.0230207     
   2016822899.8040962     
   2504468819.8701506     
   2367485594.8445425     
   2233736745.8040347     
   2103681805.7364607     
   1977909482.5014055     
   2387234300.3156757     
   2242212883.9461656     
   2099299472.7981620     
   1958502893.3856676     
   1819986381.8111780     
   2226667952.3273582     
   2084473679.4050505     
   1943829658.7888908     
   1804739207.1910162     
   1667274596.5951467     
   2101250331.5199308     
   1961287860.8608842     
   1822180985.1397557     
   1683958461.9149623     
   1546673823.5847042     
   2016822899.8040962     
   1880125990.0422182     
   1743677781.7074380     
   1607604784.6542552     
   1472081777.7187335     
   1977909482.5014055     
   1847224138.0649745     
   1716558861.6955514     
   1586266693.7822766     
   1456863732.9044797     
   1819986381.8111780     
   1779410485.1423299     
   1735361942.7342525     
   1696447807.8687594     
   1681114415.3560536     
   1667274596.5951467     
   1551952630.8808603     
   1427558845.7403922     
   1294441033.9965801     
   1158699942.8872170     
   1546673823.5847042     
   1396878210.0729368     
   1243556024.4671347     
   1084431420.6325221     
   917470457.62433934     
   1472081777.7187335     
   1327901724.2067733     
   1198210478.5410657     
   1087485664.2713945     
   1001629544.4993145     
   1456863732.9044797     
   1347895311.7918305     
   1273919648.0178111     
   1243059594.2798698     
   1262349072.7333312     
   1681114415.3560536     
   1383648192.4580288     
   1129409491.9328284     
   1010095872.9650879     
   1152931227.7452443     
   1158699942.8872170     
   1008315055.7807771     
   985159063.52646554     
   1161459923.7905574     
   1544074556.6225486     
   917470457.62433934     
   962943922.70126927     
   1144834262.4865446     
   1476455554.2671156     
   1957460573.7765329     
   1001629544.4993145     
   1164432395.3836732     
   1425275744.9427502     
   1808712834.4678187     
   2334802004.3801932     
   1262349072.7333312     
   1446305485.1230466     
   1715482204.4370532     
   2110436488.5824349     
   2663586473.3702173     
   4636171598.7670202     
   4489396024.4177999     
   4344246403.6078053     
   4200874201.0524168     
   4059457181.0541492     
   4384713913.9923363     
   4243760090.1652999     
   4105248462.7335086     
   3969439694.0606151     
   3836651960.3797388     
   4138485742.3935633     
   4006181815.7990327     
   3877757429.6096001     
   3753553831.4588914     
   3634013629.7853765     
   3904950931.0621552     
   3783538344.3229175     
   3668128861.8044062     
   3559097560.9585209     
   3456971273.4593725     
   3694039781.8693871     
   3584743322.9729314     
   3484325258.7963443     
   3393119962.1814966     
   3311661059.0872769     
   4059457181.0541492     
   3937324156.2252073     
   3816533849.7855697     
   3697272994.1729550     
   3579767689.1954050     
   3836651960.3797388     
   3723197191.2242980     
   3611969971.8983259     
   3503219821.8921776     
   3397248376.3461647     
   3634013629.7853765     
   3530504735.9196501     
   3430293152.2274761     
   3333687231.3993287     
   3241057841.8563085     
   3456971273.4593725     
   3364360582.8275380     
   3276286389.4208298     
   3193098603.0981927     
   3115214611.6024623     
   3311661059.0872769     
   3230397753.8668365     
   3155045602.1377811     
   3085964408.5781641     
   3023579096.6688952     
   3579767689.1954050     
   3432185706.9666672     
   3287534323.7451029     
   3146163654.2365685     
   3008531436.9253612     
   3397248376.3461647     
   3262964057.6362767     
   3132454877.2879152     
   3006159757.9648361     
   2884635180.9721036     
   3241057841.8563085     
   3121017882.8950534     
   3005700647.0953941     
   2895619248.2889719     
   2791404664.4078698     
   3115214611.6024623     
   3010209541.9604917     
   2910925095.3897533     
   2817917090.3051600     
   2731847629.4451032     
   3023579096.6688952     
   2934078794.4128118     
   2851274592.6695232     
   2775720190.5234480     
   2708053913.8869944     
   3008531436.9253612     
   2878305980.6042695     
   2750619459.1200037     
   2625846558.9498448     
   2504468819.8701506     
   2884635180.9721036     
   2766912606.5250559     
   2652808442.5136967     
   2542801551.0847888     
   2437482744.4594913     
   2791404664.4078698     
   2687208111.7260952     
   2587745011.7695842     
   2493560441.7809315     
   2405300012.1997542     
   2731847629.4451032     
   2641785020.3949881     
   2557505397.1938691     
   2479563774.1700044     
   2408590133.0446115     
   2708053913.8869944     
   2632143034.1675358     
   2562902621.6492481     
   2500838864.4096279     
   2446501751.4259100     
   2504468819.8701506     
   2367485594.8445425     
   2233736745.8040347     
   2103681805.7364607     
   1977909482.5014055     
   2437482744.4594913     
   2312997881.3246560     
   2193237612.2111139     
   2078879921.3062112     
   1970756764.7324214     
   2405300012.1997542     
   2295752961.5905495     
   2192560949.6834397     
   2096548233.0861275     
   2008675745.9842737     
   2408590133.0446115     
   2315623842.8370199     
   2230562944.0247145     
   2154259926.8414321     
   2087653899.8982072     
   2446501751.4259100     
   2370749881.8087006     
   2304206135.5925689     
   2247640050.4741898     
   2201852716.6052284     
   1977909482.5014055     
   1847224138.0649745     
   1716558861.6955514     
   1586266693.7822766     
   1456863732.9044797     
   1970756764.7324214     
   1854696741.4684191     
   1743000061.0964139     
   1636591221.3548155     
   1536605595.8358259     
   2008675745.9842737     
   1912334207.6385548     
   1824758656.2718096     
   1747149177.1539106     
   1680797293.6802821     
   2087653899.8982072     
   2012566070.7416470     
   1949817483.2867813     
   1900484160.4158974     
   1865592493.8628004     
   2201852716.6052284     
   2146539087.0685604     
   2106131559.2840748     
   2081391980.9717066     
   2072995199.3439648     
   1456863732.9044797     
   1347895311.7918305     
   1273919648.0178111     
   1243059594.2798698     
   1262349072.7333312     
   1536605595.8358259     
   1475695624.7681055     
   1447491793.8120615     
   1455960586.8962910     
   1504396143.9832900     
   1680797293.6802821     
   1652174727.1158729     
   1651298878.4246953     
   1680540557.0997047     
   1742509181.9447844     
   1865592493.8628004     
   1854885106.6387472     
   1867193783.3203967     
   1904728933.7834136     
   1970520713.6418190     
   2072995199.3439648     
   2069231648.5778661     
   2084771704.2327018     
   2122246625.9788845     
   2185463778.2148395     
   1262349072.7333312     
   1446305485.1230466     
   1715482204.4370532     
   2110436488.5824349     
   2663586473.3702173     
   1504396143.9832900     
   1612964240.8771338     
   1788728180.6232417     
   2066424827.6614544     
   2476247321.6322074     
   1742509181.9447844     
   1787475991.4353311     
   1884584517.8967884     
   2060739595.7119346     
   2341167624.9955769     
   1970520713.6418190     
   1968799821.3517642     
   2003615699.5433350     
   2093646459.8899491     
   2257558308.4116974     
   2185463778.2148395     
   2156220798.9703994     
   2146562314.4502826     
   2167022574.8296595     
   2228686962.1289511     
   3694039781.8693871     
   3584743322.9729314     
   3484325258.7963443     
   3393119962.1814966     
   3311661059.0872769     
   3405842523.5885639     
   3324771705.8664694     
   3251650997.7717471     
   3186805117.0221887     
   3130674235.0220890     
   3164046038.4116907     
   3108327176.7732935     
   3059166765.4943867     
   3016830132.4081135     
   2981634221.9229312     
   2970398998.3022938     
   2937602849.7509766     
   2909462713.8335056     
   2886149351.0858111     
   2867846532.8047786     
   2825381116.8387389     
   2813577952.3922038     
   2804027863.6611824     
   2796790912.9748607     
   2791926083.1503539     
   3311661059.0872769     
   3230397753.8668365     
   3155045602.1377811     
   3085964408.5781641     
   3023579096.6688952     
   3130674235.0220890     
   3064415772.9428811     
   3004346298.8584723     
   2950792825.1663361     
   2904128667.8107028     
   2981634221.9229312     
   2929768434.0145597     
   2884255774.4754591     
   2845372678.4854712     
   2813424268.3864522     
   2867846532.8047786     
   2829516893.3597779     
   2797562585.4515162     
   2772197449.9934759     
   2753649960.0282331     
   2791926083.1503539     
   2765975651.5400305     
   2746268548.4720345     
   2732953138.7751350     
   2726183341.9591246     
   3023579096.6688952     
   2934078794.4128118     
   2851274592.6695232     
   2775720190.5234480     
   2708053913.8869944     
   2904128667.8107028     
   2830308597.6189394     
   2763918817.8935280     
   2705465716.0428104     
   2655512615.1575007     
   2813424268.3864522     
   2754687226.4001575     
   2703972349.0493579     
   2661703337.8451829     
   2628334781.2998834     
   2753649960.0282331     
   2708862182.7355986     
   2672519347.6178350     
   2644941110.5022292     
   2626458488.5530000     
   2726183341.9591246     
   2693647904.5136199     
   2669814982.1532540     
   2654897277.7798867     
   2649107827.3424869     
   2708053913.8869944     
   2632143034.1675358     
   2562902621.6492481     
   2500838864.4096279     
   2446501751.4259100     
   2655512615.1575007     
   2593831819.0514574     
   2539664585.3585639     
   2493470088.4359360     
   2455729417.9805851     
   2628334781.2998834     
   2580567580.9508257     
   2541018069.0318050     
   2510064419.7283607     
   2488088709.6173973     
   2626458488.5530000     
   2591695827.1444178     
   2565713942.1693659     
   2548793770.1123638     
   2541209792.8073792     
   2649107827.3424869     
   2625896991.5628257     
   2611922690.5023074     
   2607370535.4683762     
   2612417038.7431240     
   2446501751.4259100     
   2370749881.8087006     
   2304206135.5925689     
   2247640050.4741898     
   2201852716.6052284     
   2455729417.9805851     
   2397519944.1517053     
   2349096486.3997993     
   2311051184.9955468     
   2283964230.6903734     
   2488088709.6173973     
   2445930420.1240087     
   2413839338.2208028     
   2392225981.8641820     
   2381469301.5049801     
   2541209792.8073792     
   2513134233.1257768     
   2495196823.9203267     
   2487652377.1183014     
   2490722601.6790800     
   2612417038.7431240     
   2596171119.0860066     
   2590025992.5106835     
   2594119811.7575002     
   2608565843.2462258     
   2201852716.6052284     
   2146539087.0685604     
   2106131559.2840748     
   2081391980.9717066     
   2072995199.3439648     
   2283964230.6903734     
   2243274100.7783093     
   2216493764.6429696     
   2204072423.3459578     
   2206398215.0821705     
   2381469301.5049801     
   2352502121.3843880     
   2336427036.8624291     
   2333495866.2219887     
   2343931221.9430842     
   2490722601.6790800     
   2470864427.7042165     
   2462974912.6738529     
   2467192658.4885778     
   2483653544.6279259     
   2608565843.2462258     
   2595562144.5548124     
   2593758782.1779132     
   2603236970.9914703     
   2624093453.9142132     
   2072995199.3439648     
   2069231648.5778661     
   2084771704.2327018     
   2122246625.9788845     
   2185463778.2148395     
   2206398215.0821705     
   2191891656.8013096     
   2192418975.3472285     
   2209948347.6111670     
   2247396378.5058112     
   2343931221.9430842     
   2319468966.7299986     
   2306557965.7176113     
   2306602815.0315971     
   2321690180.7301769     
   2483653544.6279259     
   2450982572.1027884     
   2426867743.5658932     
   2412253962.2298226     
   2408517550.9309568     
   2624093453.9142132     
   2585646407.7481685     
   2553062597.8494158     
   2526923477.7573442     
   2508038146.0975852     
   2185463778.2148395     
   2156220798.9703994     
   2146562314.4502826     
   2167022574.8296595     
   2228686962.1289511     
   2247396378.5058112     
   2182722795.9331326     
   2134490010.4652648     
   2112375009.2729042     
   2127325330.7269914     
   2321690180.7301769     
   2224929274.7530131     
   2141514586.4355898     
   2079820873.2788587     
   2050031923.7850788     
   2408517550.9309568     
   2283135038.2870159     
   2168283625.6960287     
   2070711862.1679103     
   1999199133.2846072     
   2508038146.0975852     
   2357550545.3029356     
   2215268409.4748340     
   2086179699.6395261     
   1977170619.8309140     
   2825381116.8387389     
   2813577952.3922038     
   2804027863.6611824     
   2796790912.9748607     
   2791926083.1503539     
   2735318222.7260780     
   2720456612.9835086     
   2710454941.8330050     
   2705406842.2652693     
   2705405138.0147533     
   2681728191.6691961     
   2663139505.6108432     
   2652233197.3321147     
   2649085569.1048660     
   2653773096.7712712     
   2674601763.8778491     
   2649961765.6784225     
   2635965540.3831997     
   2632642223.1442904     
   2640021401.9899597     
   2722422097.7794871     
   2687787661.0870681     
   2666786955.0615697     
   2659419979.7030025     
   2665686735.0113554     
   2791926083.1503539     
   2765975651.5400305     
   2746268548.4720345     
   2732953138.7751350     
   2726183341.9591246     
   2705405138.0147533     
   2686170472.1339188     
   2673761284.5862947     
   2668275300.0064592     
   2669812442.1633153     
   2653773096.7712712     
   2639402709.4595499     
   2632402736.0899625     
   2632822385.4227028     
   2640711402.8692503     
   2640021401.9899597     
   2628109445.4561114     
   2624079727.2903833     
   2627945728.4649596     
   2639720987.2832341     
   2665686735.0113554     
   2653422549.1627283     
   2649523472.9443116     
   2653989506.3561020     
   2666820649.3981047     
   2726183341.9591246     
   2693647904.5136199     
   2669814982.1532540     
   2654897277.7798867     
   2649107827.3424869     
   2669812442.1633153     
   2646273281.4510813     
   2631671607.8415823     
   2626135206.5213223     
   2629789354.8636370     
   2640711402.8692503     
   2623946336.1216226     
   2616313939.2581515     
   2617873549.4557962     
   2628682346.2411580     
   2639720987.2832341     
   2627137629.9062681     
   2623876255.8295059     
   2629952081.0609965     
   2645379597.3991075     
   2666820649.3981047     
   2655597933.8666444     
   2653909399.1430941     
   2661755045.2274499     
   2679134872.1197157     
   2649107827.3424869     
   2625896991.5628257     
   2611922690.5023074     
   2607370535.4683762     
   2612417038.7431240     
   2629789354.8636370     
   2615042918.4343419     
   2609266289.0430155     
   2612560078.1166167     
   2625018090.8242574     
   2628682346.2411580     
   2620197490.5262418     
   2620422480.1402631     
   2629399957.2993107     
   2647169090.6383653     
   2645379597.3991075     
   2640888151.8530140     
   2644885026.1228857     
   2657380325.6485648     
   2678383244.2930312     
   2679134872.1197157     
   2676392270.1957059     
   2681974677.2671027     
   2695882093.3339019     
   2718114518.3961053     
   2612417038.7431240     
   2596171119.0860066     
   2590025992.5106835     
   2594119811.7575002     
   2608565843.2462258     
   2625018090.8242574     
   2615074559.4906669     
   2615147952.1317625     
   2625314336.7184711     
   2645634359.6740947     
   2647169090.6383653     
   2641901543.9637299     
   2646655123.7811861     
   2661463073.9320693     
   2686351272.7910256     
   2678383244.2930312     
   2676091851.2958856     
   2683944048.5412092     
   2701948080.1456890     
   2730110244.8280797     
   2718114518.3961053     
   2717062159.6167006     
   2726416416.7343178     
   2746177289.7489333     
   2776344778.6605725     
   2608565843.2462258     
   2595562144.5548124     
   2593758782.1779132     
   2603236970.9914703     
   2624093453.9142132     
   2645634359.6740947     
   2634490980.9753408     
   2633654806.8474612     
   2643165777.1210732     
   2663074261.3619595     
   2686351272.7910256     
   2676734705.7240524     
   2676713778.6159830     
   2686303935.1111546     
   2705525852.5287971     
   2730110244.8280797     
   2721852499.1632838     
   2722638945.6916256     
   2732472915.7095146     
   2751359165.3624430     
   2776344778.6605725     
   2769428291.7858148     
   2771145630.4308877     
   2781496794.5957971     
   2800481784.2805290     
   2624093453.9142132     
   2585646407.7481685     
   2553062597.8494158     
   2526923477.7573442     
   2508038146.0975852     
   2663074261.3619595     
   2617604040.7188649     
   2577796826.0083308     
   2543983681.6134562     
   2516627539.2868838     
   2705525852.5287971     
   2655131096.2401710     
   2610341615.2896996     
   2571304978.3850298     
   2538228046.9607606     
   2751359165.3624430     
   2698140578.3521233     
   2650612172.5595493     
   2608810620.8854413     
   2572787332.0190802     
   2800481784.2805290     
   2746536320.0798998     
   2698508805.6462984     
   2656399240.9797392     
   2620207626.0802240     
   2508038146.0975852     
   2357550545.3029356     
   2215268409.4748340     
   2086179699.6395261     
   1977170619.8309140     
   2516627539.2868838     
   2348612264.9073691     
   2184175723.1054144     
   2026422875.6324751     
   1879926095.2741475     
   2538228046.9607606     
   2357780276.9964032     
   2177080142.4248657     
   1997601660.5033309     
   1821626878.1821249     
   2572787332.0190802     
   2385157595.3483448     
   2194448901.3458867     
   2001040140.0171971     
   1805536363.3238270     
   2620207626.0802240     
   2430712155.2268147     
   2236424285.8212266     
   2037344017.8634768     
   1833471351.3535395     
   2722422097.7794871     
   2687787661.0870681     
   2666786955.0615697     
   2659419979.7030025     
   2665686735.0113554     
   2674601691.0381432     
   2649961711.1216116     
   2635965504.8242154     
   2632642207.2884598     
   2640021406.5064225     
   2681728082.3592353     
   2663139423.8559933     
   2652233143.6791940     
   2649085544.0974731     
   2653773100.9320235     
   2735318111.8034887     
   2720456530.5965600     
   2710454887.3462129     
   2705406815.0851679     
   2705405137.6035194     
   2825381033.8167243     
   2813577892.3796320     
   2804027823.6783600     
   2796790890.1909251     
   2791926074.9338980     
   2665686735.0113554     
   2653422549.1627283     
   2649523472.9443116     
   2653989506.3561020     
   2666820649.3981047     
   2640021406.5064225     
   2628109447.4293666     
   2624079727.0197601     
   2627945726.2526670     
   2639720983.4382806     
   2653773100.9320235     
   2639402709.4895163     
   2632402732.7144237     
   2632822379.3691931     
   2640711394.8714018     
   2705405137.6035194     
   2686170466.6886287     
   2673761275.3803720     
   2668275288.3172145     
   2669812429.2721562     
   2791926074.9338980     
   2765975637.7373605     
   2746268531.0171428     
   2732953119.6158571     
   2726183323.0509748     
   2666820649.3981047     
   2655597933.8666444     
   2653909399.1430941     
   2661755045.2274499     
   2679134872.1197157     
   2639720983.4382806     
   2627137626.9862027     
   2623876253.6315770     
   2629952079.3837667     
   2645379596.0424991     
   2640711394.8714018     
   2623946330.0412521     
   2616313934.6917682     
   2617873545.9998469     
   2628682343.4921479     
   2669812429.2721562     
   2646273271.6029835     
   2631671600.4401979     
   2626135200.9639568     
   2629789350.5411887     
   2726183323.0509748     
   2693647889.9588504     
   2669814971.1771674     
   2654897269.5891957     
   2649107821.1243229     
   2679134872.1197157     
   2676392270.1957059     
   2681974677.2671027     
   2695882093.3339019     
   2718114518.3961053     
   2645379596.0424991     
   2640888150.7321930     
   2644885025.1501875     
   2657380324.7373896     
   2678383243.3578243     
   2628682343.4921479     
   2620197488.3229856     
   2620422478.3076577     
   2629399955.6628280     
   2647169089.0241899     
   2629789350.5411887     
   2615042915.0709701     
   2609266286.3771672     
   2612560075.8843465     
   2625018088.7593780     
   2649107821.1243229     
   2625896986.8445754     
   2611922686.9391108     
   2607370532.7064776     
   2612417036.4200416     
   2718114518.3961053     
   2717062159.6167006     
   2726416416.7343178     
   2746177289.7489333     
   2776344778.6605725     
   2678383243.3578243     
   2676091850.6664219     
   2683944048.1957664     
   2701948080.0616422     
   2730110244.9819236     
   2647169089.0241899     
   2641901542.8683457     
   2646655123.1564274     
   2661463073.7289076     
   2686351272.9595966     
   2625018088.7593780     
   2615074558.0736070     
   2615147951.2824492     
   2625314336.3567328     
   2645634359.7196426     
   2612417036.4200416     
   2596171117.4676738     
   2590025991.4783492     
   2594119811.1935987     
   2608565843.0342736     
   2776344778.6605725     
   2769428291.7858148     
   2771145630.4308877     
   2781496794.5957971     
   2800481784.2805290     
   2730110244.9819236     
   2721852499.1953139     
   2722638945.6068058     
   2732472915.5136189     
   2751359165.0614948     
   2686351272.9595966     
   2676734705.6934962     
   2676713778.3974586     
   2686303934.7170682     
   2705525851.9722443     
   2645634359.7196426     
   2634490980.7873182     
   2633654806.4448333     
   2643165776.5241675     
   2663074260.5923667     
   2608565843.0342736     
   2595562144.1151657     
   2593758781.5395374     
   2603236970.1845922     
   2624093452.9710441     
   2800481784.2805290     
   2746536320.0798998     
   2698508805.6462984     
   2656399240.9797392     
   2620207626.0802240     
   2751359165.0614948     
   2698140578.1118422     
   2650612172.3739381     
   2608810620.7494178     
   2572787331.9287825     
   2705525851.9722443     
   2655131095.7899990     
   2610341614.9337482     
   2571304978.1126885     
   2538228046.7632694     
   2663074260.5923667     
   2617604040.0874171     
   2577796825.4963498     
   2543983681.2041721     
   2516627538.9654145     
   2624093452.9710441     
   2585646406.9620600     
   2553062597.1946344     
   2526923477.2101989     
   2508038145.6355009     
   2620207626.0802240     
   2430712155.2268147     
   2236424285.8212266     
   2037344017.8634768     
   1833471351.3535395     
   2572787331.9287825     
   2385157595.2923164     
   2194448901.3380027     
   2001040140.0776575     
   1805536363.4826872     
   2538228046.7632694     
   2357780276.8699789     
   2177080142.3962693     
   1997601660.6112087     
   1821626878.4822724     
   2516627538.9654145     
   2348612264.6957579     
   2184175723.0416427     
   2026422875.7700710     
   1879926095.6873393     
   2508038145.6355009     
   2357550544.9910522     
   2215268409.3601894     
   2086179699.7863812     
   1977170620.3234284     
   2825381033.8167243     
   2813577892.3796320     
   2804027823.6783600     
   2796790890.1909251     
   2791926074.9338980     
   2970398978.3560114     
   2937602836.8386955     
   2909462705.7224679     
   2886149345.6421366     
   2867846528.0819521     
   3164046069.8126712     
   3108327201.5192504     
   3059166782.3766198     
   3016830140.2156391     
   2981634219.5586672     
   3405842596.7731123     
   3324771760.4561906     
   3251651033.7528405     
   3186805134.2599149     
   3130674233.3919749     
   3694039889.9632082     
   3584743401.6633220     
   3484325309.3225827     
   3393119985.5603991     
   3311661056.2505660     
   2791926074.9338980     
   2765975637.7373605     
   2746268531.0171428     
   2732953119.6158571     
   2726183323.0509748     
   2867846528.0819521     
   2829516884.3055582     
   2797562573.3411217     
   2772197436.1155562     
   2753649945.6786485     
   2981634219.5586672     
   2929768428.6664395     
   2884255766.8307137     
   2845372669.2360830     
   2813424258.2204738     
   3130674233.3919749     
   3064415770.0701642     
   3004346294.9263306     
   2950792820.3458328     
   2904128662.2458835     
   3311661056.2505660     
   3230397752.1625676     
   3155045601.3376207     
   3085964408.4194264     
   3023579096.8291807     
   2726183323.0509748     
   2693647889.9588504     
   2669814971.1771674     
   2654897269.5891957     
   2649107821.1243229     
   2753649945.6786485     
   2708862171.4064593     
   2672519338.8709893     
   2644941103.8737249     
   2626458483.5516272     
   2813424258.2204738     
   2754687218.0497570     
   2703972342.3915167     
   2661703332.7303815     
   2628334777.5506134     
   2904128662.2458835     
   2830308592.6474733     
   2763918813.6809988     
   2705465712.7350268     
   2655512612.8804121     
   3023579096.8291807     
   2934078793.8019528     
   2851274591.7097673     
   2775720189.6300521     
   2708053913.4717054     
   2649107821.1243229     
   2625896986.8445754     
   2611922686.9391108     
   2607370532.7064776     
   2612417036.4200416     
   2626458483.5516272     
   2591695823.3131332     
   2565713939.2641854     
   2548793767.8778162     
   2541209790.9768367     
   2628334777.5506134     
   2580567578.0508537     
   2541018066.8282433     
   2510064418.0562482     
   2488088708.3002596     
   2655512612.8804121     
   2593831817.2754555     
   2539664584.0113940     
   2493470087.4352732     
   2455729417.2349257     
   2708053913.4717054     
   2632143033.8472128     
   2562902621.4202261     
   2500838864.2624450     
   2446501751.3471832     
   2612417036.4200416     
   2596171117.4676738     
   2590025991.4783492     
   2594119811.1935987     
   2608565843.0342736     
   2541209790.9768367     
   2513134231.7839317     
   2495196822.9887371     
   2487652376.5198731     
   2490722601.3383679     
   2488088708.3002596     
   2445930419.0771470     
   2413839337.4032507     
   2392225981.2373300     
   2381469301.0333495     
   2455729417.2349257     
   2397519943.4443913     
   2349096485.7241144     
   2311051184.3492455     
   2283964230.0772448     
   2446501751.3471832     
   2370749881.5126143     
   2304206135.1024313     
   2247640049.8208990     
   2201852715.8300939     
   2608565843.0342736     
   2595562144.1151657     
   2593758781.5395374     
   2603236970.1845922     
   2624093452.9710441     
   2490722601.3383679     
   2470864427.1902003     
   2462974912.0007834     
   2467192657.6719847     
   2483653543.6853032     
   2381469301.0333495     
   2352502120.7917528     
   2336427036.1481252     
   2333495865.3864408     
   2343931220.9884720     
   2283964230.0772448     
   2243274100.0982723     
   2216493763.8798661     
   2204072422.4840002     
   2206398214.1067643     
   2201852715.8300939     
   2146539086.2870386     
   2106131558.4637842     
   2081391980.0790246     
   2072995198.3450875     
   2624093452.9710441     
   2585646406.9620600     
   2553062597.1946344     
   2526923477.2101989     
   2508038145.6355009     
   2483653543.6853032     
   2450982571.2791991     
   2426867742.8462534     
   2412253961.6020231     
   2408517550.3846245     
   2343931220.9884720     
   2319468965.8579235     
   2306557964.9235559     
   2306602814.3149071     
   2321690180.0924520     
   2206398214.1067643     
   2191891655.8718548     
   2192418974.4698658     
   2209948346.7969561     
   2247396377.7686472     
   2072995198.3450875     
   2069231647.5852878     
   2084771703.2641025     
   2122246625.0581992     
   2185463777.3695507     
   2508038145.6355009     
   2357550544.9910522     
   2215268409.3601894     
   2086179699.7863812     
   1977170620.3234284     
   2408517550.3846245     
   2283135037.9396796     
   2168283625.5906038     
   2070711862.3614142     
   1999199133.8467753     
   2321690180.0924520     
   2224929274.3544455     
   2141514586.3124037     
   2079820873.4763901     
   2050031924.3530822     
   2247396377.7686472     
   2182722795.4667959     
   2134490010.2970340     
   2112375009.4331524     
   2127325331.2428524     
   2185463777.3695507     
   2156220798.4192977     
   2146562314.2099352     
   2167022574.9138021     
   2228686962.5420842     
   3694039889.9632082     
   3584743401.6633220     
   3484325309.3225827     
   3393119985.5603991     
   3311661056.2505660     
   3904951037.5887117     
   3783538421.6570773     
   3668128910.0390429     
   3559097580.0083890     
   3456971263.0868263     
   4138485832.5497379     
   4006181880.4883022     
   3877757468.6200724     
   3753553844.3954959     
   3634013616.0278506     
   4384713973.9709930     
   4243760131.6256471     
   4105248485.9431238     
   3969439699.0505004     
   3836651946.8835106     
   4636171616.2512379     
   4489396033.1032887     
   4344246404.9935188     
   4200874196.2799411     
   4059457170.8728638     
   3311661056.2505660     
   3230397752.1625676     
   3155045601.3376207     
   3085964408.4194264     
   3023579096.8291807     
   3456971263.0868263     
   3364360575.1616626     
   3276286384.4556618     
   3193098600.8204250     
   3115214611.9743118     
   3634013616.0278506     
   3530504725.7041740     
   3430293145.6347656     
   3333687228.5271964     
   3241057842.8131185     
   3836651946.8835106     
   3723197181.4058228     
   3611969965.8018417     
   3503219819.5960569     
   3397248377.9667716     
   4059457170.8728638     
   3937324149.2222104     
   3816533845.8613391     
   3697272993.2703857     
   3579767691.3120856     
   3023579096.8291807     
   2934078793.8019528     
   2851274591.7097673     
   2775720189.6300521     
   2708053913.4717054     
   3115214611.9743118     
   3010209541.7614970     
   2910925094.9245491     
   2817917089.8759785     
   2731847629.3557048     
   3241057842.8131185     
   3121017883.3814850     
   3005700647.3116336     
   2895619248.4347205     
   2791404664.6858959     
   3397248377.9667716     
   3262964058.8623471     
   3132454878.2300649     
   3006159758.7329149     
   2884635181.6775022     
   3579767691.3120856     
   3432185708.8017125     
   3287534325.3360868     
   3146163655.6188946     
   3008531438.1326628     
   2708053913.4717054     
   2632143033.8472128     
   2562902621.4202261     
   2500838864.2624450     
   2446501751.3471832     
   2731847629.3557048     
   2641785020.3373289     
   2557505397.1849895     
   2479563774.2228122     
   2408590133.1700621     
   2791404664.6858959     
   2687208111.8987551     
   2587745011.8699274     
   2493560441.8404155     
   2405300012.2511616     
   2884635181.6775022     
   2766912606.9123945     
   2652808442.6251931     
   2542801550.9634066     
   2437482744.1528802     
   3008531438.1326628     
   2878305981.2084436     
   2750619459.1648374     
   2625846558.4811239     
   2504468818.9404235     
   2446501751.3471832     
   2370749881.5126143     
   2304206135.1024313     
   2247640049.8208990     
   2201852715.8300939     
   2408590133.1700621     
   2315623842.7144713     
   2230562943.6479678     
   2154259926.2078938     
   2087653899.0110781     
   2405300012.2511616     
   2295752961.4237275     
   2192560949.2735381     
   2096548232.4068656     
   2008675745.0087218     
   2437482744.1528802     
   2312997880.8867478     
   2193237611.6112771     
   2078879920.5079255     
   1970756763.6923010     
   2504468818.9404235     
   2367485593.9205208     
   2233736744.8622036     
   2103681804.7450278     
   1977909481.4180729     
   2201852715.8300939     
   2146539086.2870386     
   2106131558.4637842     
   2081391980.0790246     
   2072995198.3450875     
   2087653899.0110781     
   2012566069.8792491     
   1949817482.4225104     
   1900484159.5215223     
   1865592492.9089847     
   2008675745.0087218     
   1912334206.7075768     
   1824758655.3633764     
   1747149176.2443020     
   1680797292.7443087     
   1970756763.6923010     
   1854696740.4816635     
   1743000060.1441076     
   1636591220.4167018     
   1536605594.8906131     
   1977909481.4180729     
   1847224137.0344276     
   1716558860.7006342     
   1586266692.8052542     
   1456863731.9279301     
   2072995198.3450875     
   2069231647.5852878     
   2084771703.2641025     
   2122246625.0581992     
   2185463777.3695507     
   1865592492.9089847     
   1854885105.6981635     
   1867193782.4029026     
   1904728932.9045322     
   1970520712.8207567     
   1680797292.7443087     
   1652174726.2033303     
   1651298877.5395014     
   1680540556.2504227     
   1742509181.1432889     
   1536605594.8906131     
   1475695623.8588998     
   1447491792.9388785     
   1455960586.0627043     
   1504396143.1952550     
   1456863731.9279301     
   1347895310.8653479     
   1273919647.1386189     
   1243059593.4484763     
   1262349071.9520888     
   2185463777.3695507     
   2156220798.4192977     
   2146562314.2099352     
   2167022574.9138021     
   2228686962.5420842     
   1970520712.8207567     
   1968799820.8159509     
   2003615699.3122559     
   2093646459.9738235     
   2257558308.8005691     
   1742509181.1432889     
   1787475990.9031913     
   1884584517.6535323     
   2060739595.7602167     
   2341167625.3093925     
   1504396143.1952550     
   1612964240.3365815     
   1788728180.3475368     
   2066424827.6438773     
   2476247321.8331165     
   1262349071.9520888     
   1446305484.5615008     
   1715482204.1105869     
   2110436488.4746881     
   2663586473.4316134     
   4636171616.2512379     
   4489396033.1032887     
   4344246404.9935188     
   4200874196.2799411     
   4059457170.8728638     
   4931186955.5099144     
   4772439556.6987066     
   4615196487.8863325     
   4459612322.7768774     
   4305890400.3669653     
   5268989729.7463293     
   5095081889.9676790     
   4922443730.4342556     
   4751140730.0495319     
   4581315712.7265234     
   5648112467.8337574     
   5455492527.5606346     
   5263829239.1352844     
   5073018868.2970781     
   4883065528.9269476     
   6067127084.7646418     
   5851913934.8853550     
   5637312265.2534771     
   5422982393.3759804     
   5208721018.4889784     
   4059457170.8728638     
   3937324149.2222104     
   3816533845.8613391     
   3697272993.2703857     
   3579767691.3120856     
   4305890400.3669653     
   4172392011.0720196     
   4040043149.9190130     
   3908985362.1920762     
   3779402826.9989009     
   4581315712.7265234     
   4436322666.1369219     
   4292262248.5533671     
   4149219181.9362469     
   4007323426.8730640     
   4883065528.9269476     
   4726153950.9061537     
   4569936342.1716843     
   4414432771.5273771     
   4259710684.3687515     
   5208721018.4889784     
   5039213707.5335054     
   4870142657.9262686     
   4701458442.9610777     
   4533160824.4941730     
   3579767691.3120856     
   3432185708.8017125     
   3287534325.3360868     
   3146163655.6188946     
   3008531438.1326628     
   3779402826.9989009     
   3618350230.7418294     
   3459369364.0546741     
   3302708438.1142297     
   3148714463.7004042     
   4007323426.8730640     
   3833431384.9998064     
   3660835075.1962466     
   3489678220.0759220     
   3320188586.8100896     
   4259710684.3687515     
   4073522827.5238953     
   3887955856.3111258     
   3703056117.4189701     
   3518937168.0548091     
   4533160824.4941730     
   4335106436.1679401     
   4137102508.5469980     
   3939110204.9159045     
   3741141731.7054996     
   3008531438.1326628     
   2878305981.2084436     
   2750619459.1648374     
   2625846558.4811239     
   2504468818.9404235     
   3148714463.7004042     
   3006455364.8808880     
   2865992729.3115468     
   2727575778.4029341     
   2591542357.6792474     
   3320188586.8100896     
   3167239346.9892092     
   3015496277.0884771     
   2865093784.3013020     
   2716233208.0206771     
   3518937168.0548091     
   3356401153.1451797     
   3194636316.9728570     
   3033684138.5968676     
   2873633752.7865109     
   3741141731.7054996     
   3569839220.1932516     
   3399008157.3268371     
   3228621183.0086861     
   3058684452.4053564     
   2504468818.9404235     
   2367485593.9205208     
   2233736744.8622036     
   2103681804.7450278     
   1977909481.4180729     
   2591542357.6792474     
   2444456799.9743023     
   2299424125.3639121     
   2156745179.8301830     
   2016822898.7078145     
   2716233208.0206771     
   2560739155.8574328     
   2406302153.2688332     
   2253068990.5509667     
   2101250330.2581534     
   2873633752.7865109     
   2711400525.7160363     
   2549469923.3443947     
   2387871973.8051043     
   2226667950.7635818     
   3058684452.4053564     
   2891185386.1262007     
   2723468842.7858667     
   2555494538.1680908     
   2387234298.3381829     
   1977909481.4180729     
   1847224137.0344276     
   1716558860.7006342     
   1586266692.8052542     
   1456863731.9279301     
   2016822898.7078145     
   1880125989.0228758     
   1743677780.7469862     
   1607604783.7337804     
   1472081776.8183258     
   2101250330.2581534     
   1961287859.7100551     
   1822180984.0846860     
   1683958460.9400001     
   1546673822.6731818     
   2226667950.7635818     
   2084473677.9948850     
   1943829657.5230324     
   1804739206.0602226     
   1667274595.5897381     
   2387234298.3381829     
   2242212882.1727762     
   2099299471.2275496     
   1958502892.0170081     
   1819986380.6437166     
   1456863731.9279301     
   1347895310.8653479     
   1273919647.1386189     
   1243059593.4484763     
   1262349071.9520888     
   1472081776.8183258     
   1327901723.3936980     
   1198210477.8118849     
   1087485663.6175334     
   1001629543.9063542     
   1546673822.6731818     
   1396878209.3016777     
   1243556023.8372250     
   1084431420.1376283     
   917470457.25230408     
   1667274595.5897381     
   1551952630.0721331     
   1427558845.1341984     
   1294441033.5951934     
   1158699942.6982841     
   1819986380.6437166     
   1779410484.2287629     
   1735361942.0823169     
   1696447807.4827716     
   1681114415.2435520     
   1262349071.9520888     
   1446305484.5615008     
   1715482204.1105869     
   2110436488.4746881     
   2663586473.4316134     
   1001629543.9063542     
   1164432394.9505515     
   1425275744.6934204     
   1808712834.3893247     
   2334802004.4305515     
   917470457.25230408     
   962943922.40296543     
   1144834262.3118823     
   1476455554.2187352     
   1957460573.8199379     
   1158699942.6982841     
   1008315055.6210389     
   985159063.42547655     
   1161459923.7703795     
   1544074556.6608615     
   1681114415.2435520     
   1383648192.3829608     
   1129409491.8950992     
   1010095872.9723597     
   1152931227.7828972     
 </DataArray>
 <DataArray  type="Float64" Name="strain" NumberOfComponents="3" format="ascii">
  0.10115354565393075       -2.9812467558542721E-002   6.0832690649730292E-003
   9.7556271099263792E-002  -2.8942130662098831E-002   4.5210085696408830E-003
   9.3958996544596940E-002  -2.8044715257002528E-002   3.4142746923326861E-003
   9.0361721989930088E-002  -2.7120221343254078E-002   2.7630674330489380E-003
   8.6764447435263126E-002  -2.6168648920853133E-002   2.5673867917894722E-003
   9.3894780345130768E-002  -2.8015879491458229E-002   1.0770605823096524E-002
   9.0703184613945331E-002  -2.7164856862543441E-002   9.7400408155556284E-003
   8.7511588882760061E-002  -2.6302550594341334E-002   9.0653068369537793E-003
   8.4319993151574707E-002  -2.5428960686851451E-002   8.7464038872908656E-003
   8.1128397420389353E-002  -2.4544087140074278E-002   8.7833319665668874E-003
   8.7198377244694536E-002  -2.6219291424373847E-002   1.5446525748373630E-002
   8.4312764747905639E-002  -2.5387583062988217E-002   1.4931861359259002E-002
   8.1427152251116741E-002  -2.4560385931680001E-002   1.4673332409998491E-002
   7.8541539754327844E-002  -2.3737700030449109E-002   1.4670938900591679E-002
   7.5655927257538946E-002  -2.2919525359295478E-002   1.4924680831038900E-002
   8.1064336352622307E-002  -2.4422703357289383E-002   2.0111028840803694E-002
   7.8385011501144630E-002  -2.3610309263432910E-002   2.0096470200750713E-002
   7.5705686649667037E-002  -2.2818221269018626E-002   2.0238351411466619E-002
   7.3026361798189443E-002  -2.2046439374046569E-002   2.0536672472951021E-002
   7.0347036946711877E-002  -2.1294963578516651E-002   2.0991433385204365E-002
   7.5492657668913665E-002  -2.2626115290204973E-002   2.4764115100387563E-002
   7.2919924873662334E-002  -2.1833035463877604E-002   2.5233867340031080E-002
   7.0347192078410947E-002  -2.1076056606357335E-002   2.5760363841358380E-002
   6.7774459283159560E-002  -2.0355178717644022E-002   2.6343604604369436E-002
   6.5201726487908174E-002  -1.9670401797737824E-002   2.6983589629063887E-002
   8.6764447435263126E-002  -2.6168648920853133E-002   2.5673867917894722E-003
   8.3971069446144408E-002  -2.5212663821427284E-002   2.0526398860138406E-003
   8.1177691457025636E-002  -2.4274931876603706E-002   1.7678208406613494E-003
   7.8384313467906891E-002  -2.3355453086382462E-002   1.7129296557322204E-003
   7.5590935478788146E-002  -2.2454227450763642E-002   1.8879663312255657E-003
   8.1128397420389353E-002  -2.4544087140074278E-002   8.7833319665668874E-003
   7.8549538514665229E-002  -2.3658014918723158E-002   8.4031864134154199E-003
   7.5970679608941077E-002  -2.2780828987512214E-002   8.2221511666298319E-003
   7.3391820703216967E-002  -2.1912529346441140E-002   8.2402262262103593E-003
   7.0812961797492802E-002  -2.1053115995510296E-002   8.4574115921572934E-003
   7.5655927257538946E-002  -2.2919525359295478E-002   1.4924680831038900E-002
   7.3260769881152543E-002  -2.2103366016019421E-002   1.4688503494973221E-002
   7.0865612504766154E-002  -2.1286726098420930E-002   1.4620618911216882E-002
   6.8470455128379737E-002  -2.0469605606500147E-002   1.4721027079770001E-002
   6.6075297751993417E-002  -1.9652004540256784E-002   1.4989728000632307E-002
   7.0347036946711877E-002  -2.1294963578516651E-002   2.0991433385204365E-002
   6.8104763545606364E-002  -2.0548717113315601E-002   2.0908591130687368E-002
   6.5862490144500907E-002  -1.9792623209329598E-002   2.0963224074422530E-002
   6.3620216743395380E-002  -1.9026681866558988E-002   2.1155332216410458E-002
   6.1377943342289930E-002  -1.8250893085003356E-002   2.1484915556650719E-002
   6.5201726487908174E-002  -1.9670401797737824E-002   2.6983589629063887E-002
   6.3081519508026707E-002  -1.8994068210611531E-002   2.7063449320557459E-002
   6.0961312528145267E-002  -1.8298520320238140E-002   2.7249966656247043E-002
   5.8841105548263786E-002  -1.7583758126617718E-002   2.7543141636132071E-002
   5.6720898568382361E-002  -1.6849781629750038E-002   2.7942974260212694E-002
   7.5590935478788146E-002  -2.2454227450763642E-002   1.8879663312255657E-003
   7.2272401077810855E-002  -2.1558298112555496E-002   1.4438924081471294E-003
   6.8953866676833619E-002  -2.0654708214566386E-002   1.2146059446203061E-003
   6.5635332275856356E-002  -1.9743457756795896E-002   1.2001069406453735E-003
   6.2316797874879093E-002  -1.8824546739244385E-002   1.4003953962217208E-003
   7.0812961797492802E-002  -2.1053115995510296E-002   8.4574115921572934E-003
   6.7704825502216903E-002  -2.0196615845952837E-002   8.0546181746113943E-003
   6.4596689206941033E-002  -1.9337055809002995E-002   7.8578335089168616E-003
   6.1488552911665148E-002  -1.8474435884659933E-002   7.8670575950730570E-003
   5.8380416616389263E-002  -1.7608756072924892E-002   8.0822904330802858E-003
   6.6075297751993417E-002  -1.9652004540256784E-002   1.4989728000632307E-002
   6.3168780854718276E-002  -1.8834933579350177E-002   1.4623614416230724E-002
   6.0262263957443232E-002  -1.8019403403439604E-002   1.4454730875978969E-002
   5.7355747060168209E-002  -1.7205414012524525E-002   1.4483077379878598E-002
   5.4449230162893103E-002  -1.6392965406605675E-002   1.4708653927928389E-002
   6.1377943342289930E-002  -1.8250893085003356E-002   2.1484915556650719E-002
   5.8664267135315203E-002  -1.7473251312747684E-002   2.1150881133004527E-002
   5.5950590928340413E-002  -1.6701750997876214E-002   2.1005298045808397E-002
   5.3236914721365589E-002  -1.5936392140389062E-002   2.1048166295062558E-002
   5.0523238514390834E-002  -1.5177174740286209E-002   2.1279485880766273E-002
   5.6720898568382361E-002  -1.6849781629750038E-002   2.7942974260212694E-002
   5.4191284344007384E-002  -1.6111569046145024E-002   2.7636418324933743E-002
   5.1661670119632352E-002  -1.5384098592312975E-002   2.7509535018404002E-002
   4.9132055895257376E-002  -1.4667370268253693E-002   2.7562324340624139E-002
   4.6602441670882344E-002  -1.3961384073967020E-002   2.7794786291593543E-002
   6.2316797874879093E-002  -1.8824546739244385E-002   1.4003953962217208E-003
   5.9476994123465965E-002  -1.7915986397385231E-002   1.0695524387518418E-003
   5.6637190372052892E-002  -1.7035787966693167E-002   8.9258734794400718E-004
   5.3797386620639820E-002  -1.6183951447167229E-002   8.6950012379766184E-004
   5.0957582869226692E-002  -1.5360476838807591E-002   1.0002907663133609E-003
   5.8380416616389263E-002  -1.7608756072924892E-002   8.0822904330802858E-003
   5.5693184866138556E-002  -1.6749313691676371E-002   7.7333880853385217E-003
   5.3005953115887905E-002  -1.5905406058794341E-002   7.5357518732594997E-003
   5.0318721365637281E-002  -1.5077033174277811E-002   7.4893817968434417E-003
   4.7631489615386602E-002  -1.4264195038128147E-002   7.5942778560910140E-003
   5.4449230162893103E-002  -1.6392965406605675E-002   1.4708653927928389E-002
   5.1911958682806097E-002  -1.5582640985967511E-002   1.4354519352715062E-002
   4.9374687202719092E-002  -1.4775024150895502E-002   1.4149039182165521E-002
   4.6837415722632031E-002  -1.3970114901389167E-002   1.4092213416280315E-002
   4.4300144242545053E-002  -1.3167913237448814E-002   1.4184042055059354E-002
   5.0523238514390834E-002  -1.5177174740286209E-002   2.1279485880766273E-002
   4.8133315573468539E-002  -1.4415968280258540E-002   2.0932946240881233E-002
   4.5743392632546273E-002  -1.3644642242996448E-002   2.0732449274661415E-002
   4.3353469691623993E-002  -1.2863196628500358E-002   2.0677994982106943E-002
   4.0963546750701713E-002  -1.2071631436769537E-002   2.0769583363218089E-002
   4.6602441670882344E-002  -1.3961384073967020E-002   2.7794786291593543E-002
   4.4357255538126028E-002  -1.3249295574549458E-002   2.7468668749837222E-002
   4.2112069405369629E-002  -1.2514260335097324E-002   2.7285982150747151E-002
   3.9866883272613229E-002  -1.1756278355611143E-002   2.7246726494323872E-002
   3.7621697139856858E-002  -1.0975349636090370E-002   2.7350901780566872E-002
   5.0957582869226692E-002  -1.5360476838807591E-002   1.0002907663133609E-003
   4.8164912723524966E-002  -1.4539576751275485E-002   5.9518445456108182E-004
   4.5372242577823130E-002  -1.3695463794231533E-002   2.9283220946019206E-004
   4.2579572432121349E-002  -1.2828137967676304E-002   9.3234031010636098E-005
   3.9786902286419568E-002  -1.1937599271610422E-002  -3.6100807885297570E-006
   4.7631489615386602E-002  -1.4264195038128147E-002   7.5942778560910140E-003
   4.4940950656799594E-002  -1.3453981093887513E-002   7.2000461628310974E-003
   4.2250411698212531E-002  -1.2633480785099405E-002   6.9073227771496715E-003
   3.9559872739625523E-002  -1.1802694111762990E-002   6.7161076990464863E-003
   3.6869333781038405E-002  -1.0961621073879435E-002   6.6264009285219583E-003
   4.4300144242545053E-002  -1.3167913237448814E-002   1.4184042055059354E-002
   4.1710490712000253E-002  -1.2368385436499874E-002   1.3787758475327150E-002
   3.9120837181455537E-002  -1.1571497775966583E-002   1.3491737444101176E-002
   3.6531183650910751E-002  -1.0777250255849670E-002   1.3295978961381349E-002
   3.3941530120366020E-002  -9.9856428761485594E-003   1.3200483027167753E-002
   4.0963546750701713E-002  -1.2071631436769537E-002   2.0769583363218089E-002
   3.8473532889126909E-002  -1.1282789779111624E-002   2.0358321392050183E-002
   3.5983519027552063E-002  -1.0509514766833886E-002   2.0046076210316004E-002
   3.3493505165977246E-002  -9.7518063999359091E-003   1.9832847818015590E-002
   3.1003491304402407E-002  -9.0096646784176282E-003   1.9718636215148744E-002
   3.7621697139856858E-002  -1.0975349636090370E-002   2.7350901780566872E-002
   3.5230077188179498E-002  -1.0197194121723763E-002   2.6911734912999530E-002
   3.2838457236502194E-002  -9.4475317577014384E-003   2.6570339075793592E-002
   3.0446837284824807E-002  -8.7263625440224882E-003   2.6326714268948920E-002
   2.8055217333147475E-002  -8.0336864806868080E-003   2.6180860492465041E-002
   3.9786902286419568E-002  -1.1937599271610422E-002  -3.6100807885297570E-006
   3.7392248487384316E-002  -1.1114779397300434E-002  -2.7598539368689501E-004
   3.4997594688349176E-002  -1.0450610036015884E-002  -4.6909092831559640E-004
   3.2602940889314008E-002  -9.9450911877566328E-003  -5.8292668467413433E-004
   3.0208287090278785E-002  -9.5982228525213209E-003  -6.1749266276245329E-004
   3.6869333781038405E-002  -1.0961621073879435E-002   6.6264009285219583E-003
   3.4537305904136284E-002  -1.0167118936724950E-002   6.1961072646795623E-003
   3.2205278027234163E-002  -9.4760449655768575E-003   5.8117956668323756E-003
   2.9873250150331987E-002  -8.8883991604351009E-003   5.4734661349824520E-003
   2.7541222273429922E-002  -8.4041815212991811E-003   5.1811186691275157E-003
   3.3941530120366020E-002  -9.9856428761485594E-003   1.3200483027167753E-002
   3.1638840453322881E-002  -9.2194584761493004E-003   1.2667493359399873E-002
   2.9336150786279644E-002  -8.5014798951376647E-003   1.2147198045353635E-002
   2.7033461119236483E-002  -7.8317071331135829E-003   1.1639597085029735E-002
   2.4730771452193295E-002  -7.2101401900770412E-003   1.1144690478427755E-002
   3.1003491304402407E-002  -9.0096646784176282E-003   1.9718636215148744E-002
   2.8696852134944002E-002  -8.2717980155739557E-003   1.9138172890474731E-002
   2.6390212965485670E-002  -7.5269148246986661E-003   1.8537116207247920E-002
   2.4083573796027338E-002  -6.7750151057922800E-003   1.7915466165469143E-002
   2.1776934626568878E-002  -6.0160988588546793E-003   1.7273222765137916E-002
   2.8055217333147475E-002  -8.0336864806868080E-003   2.6180860492465041E-002
   2.5711340948999850E-002  -7.3241375549981669E-003   2.5608145857903275E-002
   2.3367464564852197E-002  -6.5523497542595566E-003   2.4981550152514687E-002
   2.1023588180704544E-002  -5.7183230784711714E-003   2.4301073376300164E-002
   1.8679711796556919E-002  -4.8220575276322064E-003   2.3566715529259041E-002
   3.0208287090278785E-002  -9.5982228525213209E-003  -6.1749266276245329E-004
   2.9600412387263519E-002  -9.1279176671205109E-003  -3.7124309558400626E-004
   2.8992537684248254E-002  -8.2520882683628227E-003  -1.8047307309707605E-003
   2.8384662981233044E-002  -6.9707346562463829E-003  -4.9179555689231047E-003
   2.7776788278217723E-002  -5.2838568307740363E-003  -9.7109176094416494E-003
   2.7541222273429922E-002  -8.4041815212991811E-003   5.1811186691275157E-003
   2.5522535002298397E-002  -7.8672737645519852E-003   5.8600731736616618E-003
   2.3503847731166871E-002  -7.1215576065742914E-003   5.3971397445292113E-003
   2.1485160460035457E-002  -6.1670330473669599E-003   3.7923183817300532E-003
   1.9466473188904043E-002  -5.0037000869302961E-003   1.0456090852637434E-003
   2.4730771452193295E-002  -7.2101401900770412E-003   1.1144690478427755E-002
   2.1839120881844587E-002  -6.6066298619827379E-003   1.2059634108189554E-002
   1.8947470311495879E-002  -5.9910269447863984E-003   1.2370539073184000E-002
   1.6055819741147184E-002  -5.3633314384875300E-003   1.2077405373410649E-002
   1.3164169170798462E-002  -4.7235433430860008E-003   1.1180233008869445E-002
   2.1776934626568878E-002  -6.0160988588546793E-003   1.7273222765137916E-002
   1.8550170025901987E-002  -5.3459859594138515E-003   1.8227439708000642E-002
   1.5323405425235019E-002  -4.8604962829984083E-003   1.9115467254994460E-002
   1.2096640824568145E-002  -4.5596298296076594E-003   1.9937305406119609E-002
   8.8698762239011533E-003  -4.4433865992424271E-003   2.0692954161375857E-002
   1.8679711796556919E-002  -4.8220575276322064E-003   2.3566715529259041E-002
   1.5655682434470741E-002  -4.0853420568449095E-003   2.4363489973094565E-002
   1.2631653072384508E-002  -3.7299656212101129E-003   2.5631924289960140E-002
   9.6076237102982603E-003  -3.7559282207281011E-003   2.7372018479856458E-002
   6.5835943482120962E-003  -4.1632298553984093E-003   2.9583772542782327E-002
   2.7776788278217723E-002  -5.2838568307740363E-003  -9.7109176094416494E-003
   2.3351318872744997E-002  -4.2063803083316476E-003  -4.1849768284181188E-003
   1.8925849467272438E-002  -4.7532306053091333E-003   2.6051100220785273E-003
   1.4500380061799850E-002  -6.9244077217051198E-003   1.0659342942045791E-002
   1.0074910656327152E-002  -1.0719911657520065E-002   1.9977721931486059E-002
   1.9466473188904043E-002  -5.0037000869302961E-003   1.0456090852637434E-003
   1.6232739009246544E-002  -4.6912488774565331E-003   6.7397007325510350E-003
   1.2999004829589211E-002  -6.2893695711396247E-003   1.3553116761996331E-002
   9.7652706499318787E-003  -9.7980621679809449E-003   2.1485857173600353E-002
   6.5315364702744905E-003  -1.5217326667978703E-002   3.0537921967362713E-002
   1.3164169170798462E-002  -4.7235433430860008E-003   1.1180233008869445E-002
   1.0977348529642661E-002  -5.1761174465815296E-003   1.6756230438682074E-002
   8.7905278884868737E-003  -7.8255085369720867E-003   2.3306730563339567E-002
   6.6037072473310796E-003  -1.2671716614256985E-002   3.0831733382841051E-002
   4.4168866061752299E-003  -1.9714741678437786E-002   3.9331238897187815E-002
   8.8698762239011533E-003  -4.4433865992424271E-003   2.0692954161375857E-002
   7.5851474339333480E-003  -5.6609860157064706E-003   2.5864612289975761E-002
   6.3004186439656086E-003  -9.3616475028031193E-003   3.1865951426106230E-002
   5.0156898539978120E-003  -1.5545371060533584E-002   3.8696971569768090E-002
   3.7309610640302859E-003  -2.4212156688897091E-002   4.6357672720961529E-002
   6.5835943482120962E-003  -4.1632298553984093E-003   2.9583772542782327E-002
   6.0561357221187717E-003  -6.1458545848308566E-003   3.4064846286431361E-002
   5.5286770960254195E-003  -1.0897786468634540E-002   3.9230779350297507E-002
   5.0012184699319701E-003  -1.8419025506809336E-002   4.5081571734381487E-002
   4.4737598438386872E-003  -2.8709571699355951E-002   5.1617223438683357E-002
   7.5492657668913665E-002  -2.2626115290204973E-002   2.4764115100387563E-002
   7.2919924873662334E-002  -2.1833035463877604E-002   2.5233867340031080E-002
   7.0347192078410947E-002  -2.1076056606357335E-002   2.5760363841358380E-002
   6.7774459283159560E-002  -2.0355178717644022E-002   2.6343604604369436E-002
   6.5201726487908174E-002  -1.9670401797737824E-002   2.6983589629063887E-002
   6.9960004689353983E-002  -2.0694488100616137E-002   3.2020428493945707E-002
   6.7486836527825333E-002  -2.0010896147641732E-002   3.2022906741004192E-002
   6.5013668366296684E-002  -1.9342770354975808E-002   3.2167769993824619E-002
   6.2540500204768035E-002  -1.8690110722618412E-002   3.2455018252406959E-002
   6.0067332043239358E-002  -1.8052917250569456E-002   3.2884651516750990E-002
   6.3943040909727883E-002  -1.8762860911027412E-002   3.9156936609901410E-002
   6.1655078126000226E-002  -1.8188756831405917E-002   3.8712775672873484E-002
   5.9367115342272514E-002  -1.7609484103594350E-002   3.8496640485685810E-002
   5.7079152558544788E-002  -1.7025042727592751E-002   3.8508531048337936E-002
   5.4791189774817103E-002  -1.6435432703401143E-002   3.8748447360830260E-002
   5.7441766330035463E-002  -1.6831233721438604E-002   4.6173639448255095E-002
   5.5424649668186915E-002  -1.6366617515170018E-002   4.5303474135639128E-002
   5.3407533006338388E-002  -1.5876197852212913E-002   4.4746975316941856E-002
   5.1390416344489862E-002  -1.5359974732567198E-002   4.4504142992162501E-002
   4.9373299682641272E-002  -1.4817948156232802E-002   4.4574977161301599E-002
   5.0456180950276652E-002  -1.4899606531849852E-002   5.3070537009006435E-002
   4.8795551154385497E-002  -1.4544478198934285E-002   5.1795002129301271E-002
   4.7134921358494342E-002  -1.4142911600831393E-002   5.0918774487592633E-002
   4.5474291562603214E-002  -1.3694906737541514E-002   5.0441854083880411E-002
   4.3813661766712059E-002  -1.3200463609064461E-002   5.0364240918164771E-002
   6.5201726487908174E-002  -1.9670401797737824E-002   2.6983589629063887E-002
   6.3081519508026707E-002  -1.8994068210611531E-002   2.7063449320557459E-002
   6.0961312528145267E-002  -1.8298520320238140E-002   2.7249966656247043E-002
   5.8841105548263786E-002  -1.7583758126617718E-002   2.7543141636132071E-002
   5.6720898568382361E-002  -1.6849781629750038E-002   2.7942974260212694E-002
   6.0067332043239358E-002  -1.8052917250569456E-002   3.2884651516750990E-002
   5.8066657750928979E-002  -1.7417010026269802E-002   3.2851692411895506E-002
   5.6065983458618587E-002  -1.6768209137160026E-002   3.2951141037986381E-002
   5.4065309166308258E-002  -1.6106514583240302E-002   3.3182997395023651E-002
   5.2064634873997873E-002  -1.5431926364510407E-002   3.3547261483007518E-002
   5.4791189774817103E-002  -1.6435432703401143E-002   3.8748447360830260E-002
   5.2935798256828676E-002  -1.5839951841928032E-002   3.8596348821188065E-002
   5.1080406738840227E-002  -1.5237897954081918E-002   3.8602408099243320E-002
   4.9225015220851792E-002  -1.4629271039862888E-002   3.8766625194995824E-002
   4.7369623702863295E-002  -1.4014071099270831E-002   3.9089000108445862E-002
   4.9373299682641272E-002  -1.4817948156232802E-002   4.4574977161301599E-002
   4.7688941025725726E-002  -1.4262893657586172E-002   4.4297418548435635E-002
   4.6004582368810158E-002  -1.3707586771003779E-002   4.4203767840018116E-002
   4.4320223711894598E-002  -1.3152027496485585E-002   4.4294025036048963E-002
   4.2635865054979044E-002  -1.2596215834031393E-002   4.4568190136528171E-002
   4.3813661766712059E-002  -1.3200463609064461E-002   5.0364240918164771E-002
   4.2326086057620241E-002  -1.2685835473244478E-002   4.9954901593638190E-002
   4.0838510348528395E-002  -1.2177275587925696E-002   4.9755220260310817E-002
   3.9350934639436549E-002  -1.1674783953108003E-002   4.9765196918182666E-002
   3.7863358930344732E-002  -1.1178360568791679E-002   4.9984831567253807E-002
   5.6720898568382361E-002  -1.6849781629750038E-002   2.7942974260212694E-002
   5.4191284344007384E-002  -1.6111569046145024E-002   2.7636418324933743E-002
   5.1661670119632352E-002  -1.5384098592312975E-002   2.7509535018404002E-002
   4.9132055895257376E-002  -1.4667370268253693E-002   2.7562324340624139E-002
   4.6602441670882344E-002  -1.3961384073967020E-002   2.7794786291593543E-002
   5.2064634873997873E-002  -1.5431926364510407E-002   3.3547261483007518E-002
   4.9718207817362414E-002  -1.4752207462311789E-002   3.3198785396146097E-002
   4.7371780760727011E-002  -1.4075120857985735E-002   3.3037011016014112E-002
   4.5025353704091622E-002  -1.3400666551532395E-002   3.3061938342611771E-002
   4.2678926647456206E-002  -1.2728844542951756E-002   3.3273567375939173E-002
   4.7369623702863295E-002  -1.4014071099270831E-002   3.9089000108445862E-002
   4.5213412891947677E-002  -1.3392845878478582E-002   3.8706713701902151E-002
   4.3057202081032073E-002  -1.2766143123658778E-002   3.8518158080068039E-002
   4.0900991270116496E-002  -1.2133962834811543E-002   3.8523333242943783E-002
   3.8744780459200795E-002  -1.1496305011936575E-002   3.8722239190529487E-002
   4.2635865054979044E-002  -1.2596215834031393E-002   4.4568190136528171E-002
   4.0676899567763269E-002  -1.2033484294645361E-002   4.4160203242202031E-002
   3.8717934080547599E-002  -1.1457165389331763E-002   4.3952976210565729E-002
   3.6758968593331887E-002  -1.0867259118090413E-002   4.3946509041619640E-002
   3.4800003106116160E-002  -1.0263765480921297E-002   4.4140801735363486E-002
   3.7863358930344732E-002  -1.1178360568791679E-002   4.9984831567253807E-002
   3.6108667844809095E-002  -1.0674122710812112E-002   4.9559254017045473E-002
   3.4353976759273513E-002  -1.0148187655004609E-002   4.9341465407507556E-002
   3.2599285673737891E-002  -9.6005554013695385E-003   4.9331465738639585E-002
   3.0844594588202295E-002  -9.0312259499061853E-003   4.9529255010442086E-002
   4.6602441670882344E-002  -1.3961384073967020E-002   2.7794786291593543E-002
   4.4357255538126028E-002  -1.3249295574549458E-002   2.7468668749837222E-002
   4.2112069405369629E-002  -1.2514260335097324E-002   2.7285982150747151E-002
   3.9866883272613229E-002  -1.1756278355611143E-002   2.7246726494323872E-002
   3.7621697139856858E-002  -1.0975349636090370E-002   2.7350901780566872E-002
   4.2678926647456206E-002  -1.2728844542951756E-002   3.3273567375939173E-002
   4.0579749412563676E-002  -1.2049795602820157E-002   3.2959413075055649E-002
   3.8480572177671202E-002  -1.1353660501713936E-002   3.2793845627233142E-002
   3.6381394942778700E-002  -1.0640439239633648E-002   3.2776865032471833E-002
   3.4282217707886198E-002  -9.9101318165786267E-003   3.2908471290771957E-002
   3.8744780459200795E-002  -1.1496305011936575E-002   3.8722239190529487E-002
   3.6796768032566887E-002  -1.0850295631090690E-002   3.8414187551458312E-002
   3.4848755605933104E-002  -1.0193060668330443E-002   3.8259878675843136E-002
   3.2900743179299224E-002  -9.5246001236558766E-003   3.8259312563684075E-002
   3.0952730752665414E-002  -8.8449139970667168E-003   3.8412489214980944E-002
   3.4800003106116160E-002  -1.0263765480921297E-002   4.4140801735363486E-002
   3.3008311398135787E-002  -9.6507956593613053E-003   4.3832992179044947E-002
   3.1216619690155357E-002  -9.0324608349470308E-003   4.3684081296577186E-002
   2.9424927982174932E-002  -8.4087610076782997E-003   4.3694069087960287E-002
   2.7633236274194548E-002  -7.7796961775548901E-003   4.3862955553194270E-002
   3.0844594588202295E-002  -9.0312259499061853E-003   4.9529255010442086E-002
   2.9214379509270139E-002  -8.4512956876318657E-003   4.9215826957815956E-002
   2.7584164430337926E-002  -7.8718610015634932E-003   4.9066453489435696E-002
   2.5953949351405770E-002  -7.2929218917005927E-003   4.9081134605300933E-002
   2.4323734272473613E-002  -6.7144783580430634E-003   4.9259870305411457E-002
   3.7621697139856858E-002  -1.0975349636090370E-002   2.7350901780566872E-002
   3.5230077188179498E-002  -1.0197194121723763E-002   2.6911734912999530E-002
   3.2838457236502194E-002  -9.4475317577014384E-003   2.6570339075793592E-002
   3.0446837284824807E-002  -8.7263625440224882E-003   2.6326714268948920E-002
   2.8055217333147475E-002  -8.0336864806868080E-003   2.6180860492465041E-002
   3.4282217707886198E-002  -9.9101318165786267E-003   3.2908471290771957E-002
   3.2000193685684103E-002  -9.1802759730680306E-003   3.2467880563865348E-002
   2.9718169663482036E-002  -8.4684094496207118E-003   3.2148710665547586E-002
   2.7436145641279983E-002  -7.7745322462365665E-003   3.1950961595819186E-002
   2.5154121619077902E-002  -7.0986443629158513E-003   3.1874633354680215E-002
   3.0952730752665414E-002  -8.8449139970667168E-003   3.8412489214980944E-002
   2.8803952458166596E-002  -8.1633578244116600E-003   3.7980978459015130E-002
   2.6655174163667847E-002  -7.4892871415399714E-003   3.7694538329866495E-002
   2.4506395869169077E-002  -6.8227019484507524E-003   3.7553168827534976E-002
   2.2357617574670266E-002  -6.1636022451445061E-003   3.7556869952021121E-002
   2.7633236274194548E-002  -7.7796961775548901E-003   4.3862955553194270E-002
   2.5641353505627011E-002  -7.1464396757557197E-003   4.3451028598449522E-002
   2.3649470737059555E-002  -6.5101648334591269E-003   4.3207822068749999E-002
   2.1657587968492112E-002  -5.8708716506648290E-003   4.3133335964095965E-002
   1.9665705199924562E-002  -5.2285601273733551E-003   4.3227570284487121E-002
   2.4323734272473613E-002  -6.7144783580430634E-003   4.9259870305411457E-002
   2.2512396828065412E-002  -6.1295215270993908E-003   4.8878030982168474E-002
   2.0701059383657225E-002  -5.5310425253784212E-003   4.8688561882198722E-002
   1.8889721939249045E-002  -4.9190413528792179E-003   4.8691463005502089E-002
   1.7078384494840892E-002  -4.2935180096020931E-003   4.8886734352078909E-002
   2.8055217333147475E-002  -8.0336864806868080E-003   2.6180860492465041E-002
   2.5711340948999850E-002  -7.3241375549981669E-003   2.5608145857903275E-002
   2.3367464564852197E-002  -6.5523497542595566E-003   2.4981550152514687E-002
   2.1023588180704544E-002  -5.7183230784711714E-003   2.4301073376300164E-002
   1.8679711796556919E-002  -4.8220575276322064E-003   2.3566715529259041E-002
   2.5154121619077902E-002  -7.0986443629158513E-003   3.1874633354680215E-002
   2.2794890078866481E-002  -6.4233627672053983E-003   3.1484544114489255E-002
   2.0435658538655019E-002  -5.7313044266520674E-003   3.1117625632996387E-002
   1.8076426998443598E-002  -5.0224693412569202E-003   3.0773877910202418E-002
   1.5717195458232192E-002  -4.2968575110189366E-003   3.0453300946107709E-002
   2.2357617574670266E-002  -6.1636022451445061E-003   3.7556869952021121E-002
   2.0060082707920174E-002  -5.5225879794122967E-003   3.7303943975992876E-002
   1.7762547841170054E-002  -4.9102590990449113E-003   3.7151240588188528E-002
   1.5465012974419920E-002  -4.3266156040427800E-003   3.7098759788608035E-002
   1.3167478107669772E-002  -3.7716574944056114E-003   3.7146501577251495E-002
   1.9665705199924562E-002  -5.2285601273733551E-003   4.3227570284487121E-002
   1.7506918836160894E-002  -4.6218131916191951E-003   4.3066345442414576E-002
   1.5348132472397139E-002  -4.0892137714378662E-003   4.3082395018091149E-002
   1.3189346108633456E-002  -3.6307618668285843E-003   4.3275719011516840E-002
   1.1030559744869720E-002  -3.2464574777921473E-003   4.3646317422691074E-002
   1.7078384494840892E-002  -4.2935180096020931E-003   4.8886734352078909E-002
   1.5135398463588662E-002  -3.7210384038263156E-003   4.8771748513754654E-002
   1.3192412432336431E-002  -3.2681684438301828E-003   4.8911088922704293E-002
   1.1249426401084228E-002  -2.9349081296146454E-003   4.9304755578928189E-002
   9.3064403698320253E-003  -2.7212574611789053E-003   4.9952748482426146E-002
   1.8679711796556919E-002  -4.8220575276322064E-003   2.3566715529259041E-002
   1.5655682434470741E-002  -4.0853420568449095E-003   2.4363489973094565E-002
   1.2631653072384508E-002  -3.7299656212101129E-003   2.5631924289960140E-002
   9.6076237102982603E-003  -3.7559282207281011E-003   2.7372018479856458E-002
   6.5835943482120962E-003  -4.1632298553984093E-003   2.9583772542782327E-002
   1.5717195458232192E-002  -4.2968575110189366E-003   3.0453300946107709E-002
   1.3146873860267583E-002  -3.7816047274065179E-003   3.1235505332173841E-002
   1.0576552262302988E-002  -3.7038467818873433E-003   3.2453465373453255E-002
   8.0062306643384137E-003  -4.0635836744615933E-003   3.4107181069945411E-002
   5.4359090663737841E-003  -4.8608154051292818E-003   3.6196652421650488E-002
   1.3167478107669772E-002  -3.7716574944056114E-003   3.7146501577251495E-002
   1.1014960056009548E-002  -3.4778673979679320E-003   3.7857980102607991E-002
   8.8624420043493177E-003  -3.6777279425645598E-003   3.8969310065359850E-002
   6.7099239526890418E-003  -4.3712391281950820E-003   4.0480491465507355E-002
   4.5574059010288631E-003  -5.5584009548599322E-003   4.2391524303050765E-002
   1.1030559744869720E-002  -3.2464574777921473E-003   4.3646317422691074E-002
   9.2599410216965689E-003  -3.1741300685293322E-003   4.4230914284396364E-002
   7.4893222985234192E-003  -3.6516091032416723E-003   4.5179458365680533E-002
   5.7187035753502686E-003  -4.6788945819285725E-003   4.6491949666543027E-002
   3.9480848521771215E-003  -6.2559865045905827E-003   4.8168388186983685E-002
   9.3064403698320253E-003  -2.7212574611789053E-003   4.9952748482426146E-002
   7.8818167573287135E-003  -2.8703927390908435E-003   5.0354307877540028E-002
   6.4571931448253739E-003  -3.6254902639190623E-003   5.1083910274415167E-002
   5.0325695323220621E-003  -4.9865500356618547E-003   5.2141555673051510E-002
   3.6079459198187225E-003  -6.9535720543213442E-003   5.3527244073449221E-002
   6.5835943482120962E-003  -4.1632298553984093E-003   2.9583772542782327E-002
   6.0561357221187717E-003  -6.1458545848308566E-003   3.4064846286431361E-002
   5.5286770960254195E-003  -1.0897786468634540E-002   3.9230779350297507E-002
   5.0012184699319701E-003  -1.8419025506809336E-002   4.5081571734381487E-002
   4.4737598438386872E-003  -2.8709571699355951E-002   5.1617223438683357E-002
   5.4359090663737841E-003  -4.8608154051292818E-003   3.6196652421650488E-002
   5.4894820538547717E-003  -6.9949630430116705E-003   3.8340258509795444E-002
   5.5430550413356622E-003  -1.1365447657229244E-002   4.0961068504871800E-002
   5.5966280288165873E-003  -1.7972269247783307E-002   4.4059082406878058E-002
   5.6502010162975402E-003  -2.6815427814673054E-002   4.7634300215816605E-002
   4.5574059010288631E-003  -5.5584009548599322E-003   4.2391524303050765E-002
   4.9843550887972848E-003  -7.8440715011919848E-003   4.2730632913727917E-002
   5.4113042765657968E-003  -1.1833108845824086E-002   4.3339290018048870E-002
   5.8382534643343954E-003  -1.7525512988756840E-002   4.4217495616014138E-002
   6.2652026521028414E-003  -2.4921283929989935E-002   4.5365249707623789E-002
   3.9480848521771215E-003  -6.2559865045905827E-003   4.8168388186983685E-002
   4.5407548269465851E-003  -8.6931799593724379E-003   4.7235969498227809E-002
   5.1334248017160227E-003  -1.2300770034419081E-002   4.6365443889830001E-002
   5.7260947764854958E-003  -1.7078756729730592E-002   4.5556811361789684E-002
   6.3187647512549239E-003  -2.3027140045307037E-002   4.4810071914106381E-002
   3.6079459198187225E-003  -6.9535720543213442E-003   5.3527244073449221E-002
   4.1586812683024055E-003  -9.5422884175533351E-003   5.1856268263296035E-002
   4.7094166167861162E-003  -1.2768431223013660E-002   5.0039530120213949E-002
   5.2601519652698270E-003  -1.6632000470704074E-002   4.8077029644203101E-002
   5.8108873137535655E-003  -2.1132996160623918E-002   4.5968766835263075E-002
   5.0456180950276652E-002  -1.4899606531849852E-002   5.3070537009006435E-002
   4.8795551154385497E-002  -1.4544478198934285E-002   5.1795002129301271E-002
   4.7134921358494342E-002  -1.4142911600831393E-002   5.0918774487592633E-002
   4.5474291562603214E-002  -1.3694906737541514E-002   5.0441854083880411E-002
   4.3813661766712059E-002  -1.3200463609064461E-002   5.0364240918164771E-002
   4.3439890163707501E-002  -1.3014118002850683E-002   5.4856774086642190E-002
   4.2134273701253416E-002  -1.2700254743130135E-002   5.4001903415232810E-002
   4.0828657238799332E-002  -1.2348713495777597E-002   5.3457752172701212E-002
   3.9523040776345261E-002  -1.1959494260792916E-002   5.3224320359047228E-002
   3.8217424313891177E-002  -1.1532597038176107E-002   5.3301607974270915E-002
   3.6846499363584070E-002  -1.1128629473851404E-002   5.6606126229860276E-002
   3.5807308425448187E-002  -1.0856031287326123E-002   5.6163159489191844E-002
   3.4768117487312337E-002  -1.0554515390723676E-002   5.5942324368282129E-002
   3.3728926549176447E-002  -1.0224081784044287E-002   5.5943620867131234E-002
   3.2689735611040577E-002  -9.8647304672877523E-003   5.6167048985739071E-002
   3.0676008549906372E-002  -9.2431409448522073E-003   5.8318593438660617E-002
   2.9814655326969815E-002  -9.0118078315220701E-003   5.8278770351177941E-002
   2.8953302104033282E-002  -8.7603172856699010E-003   5.8372491074335342E-002
   2.8091948881096746E-002  -8.4886693072956741E-003   5.8599755608132485E-002
   2.7230595658160172E-002  -8.1968638963994533E-003   5.8960563952569725E-002
   2.4928417722674373E-002  -7.3576524158529555E-003   5.9994175713043441E-002
   2.4156314405818280E-002  -7.1675843757179614E-003   6.0348736001191561E-002
   2.3384211088962228E-002  -6.9661191806159317E-003   6.0748252290860782E-002
   2.2612107772106156E-002  -6.7532568305470123E-003   6.1192724582051022E-002
   2.1840004455250084E-002  -6.5289973255110434E-003   6.1682152874762419E-002
   4.3813661766712059E-002  -1.3200463609064461E-002   5.0364240918164771E-002
   4.2326086057620241E-002  -1.2685835473244478E-002   4.9954901593638190E-002
   4.0838510348528395E-002  -1.2177275587925696E-002   4.9755220260310817E-002
   3.9350934639436549E-002  -1.1674783953108003E-002   4.9765196918182666E-002
   3.7863358930344732E-002  -1.1178360568791679E-002   4.9984831567253807E-002
   3.8217424313891177E-002  -1.1532597038176107E-002   5.3301607974270915E-002
   3.6933602300546015E-002  -1.1087636244311097E-002   5.2951103556443599E-002
   3.5649780287200887E-002  -1.0644226295581871E-002   5.2798448538910525E-002
   3.4365958273855773E-002  -1.0202367191988429E-002   5.2843642921671499E-002
   3.3082136260510597E-002  -9.7620589335306596E-003   5.3086686704726743E-002
   3.2689735611040577E-002  -9.8647304672877523E-003   5.6167048985739071E-002
   3.1597858702537091E-002  -9.4894370153778829E-003   5.5879896879976576E-002
   3.0505981794033590E-002  -9.1111770032381578E-003   5.5778785583603191E-002
   2.9414104885530121E-002  -8.7299504308687992E-003   5.5863715096619013E-002
   2.8322227977026604E-002  -8.3457572982696127E-003   5.6134685419024000E-002
   2.7230595658160172E-002  -8.1968638963994533E-003   5.8960563952569725E-002
   2.6318855263593351E-002  -7.8912377864444466E-003   5.8741281564237330E-002
   2.5407114869026512E-002  -7.5781277108943612E-003   5.8696231394389189E-002
   2.4495374474459677E-002  -7.2575336697490861E-003   5.8825413443025193E-002
   2.3583634079892845E-002  -6.9294556630086629E-003   5.9128827710145278E-002
   2.1840004455250084E-002  -6.5289973255110434E-003   6.1682152874762419E-002
   2.1096591983714871E-002  -6.2930385575113712E-003   6.1535257609225846E-002
   2.0353179512179659E-002  -6.0450784185506340E-003   6.1550785971268313E-002
   1.9609767040644446E-002  -5.7851169086296540E-003   6.1728737960889943E-002
   1.8866354569109234E-002  -5.5131540277474911E-003   6.2069113578090807E-002
   3.7863358930344732E-002  -1.1178360568791679E-002   4.9984831567253807E-002
   3.6108667844809095E-002  -1.0674122710812112E-002   4.9559254017045473E-002
   3.4353976759273513E-002  -1.0148187655004609E-002   4.9341465407507556E-002
   3.2599285673737891E-002  -9.6005554013695385E-003   4.9331465738639585E-002
   3.0844594588202295E-002  -9.0312259499061853E-003   4.9529255010442086E-002
   3.3082136260510597E-002  -9.7620589335306596E-003   5.3086686704726743E-002
   3.1536199597553258E-002  -9.3137424104699496E-003   5.2703021308861675E-002
   2.9990262934595918E-002  -8.8478585130673526E-003   5.2529075817482965E-002
   2.8444326271638572E-002  -8.3644072413230075E-003   5.2564850230590383E-002
   2.6898389608681253E-002  -7.8633885952368310E-003   5.2810344548184396E-002
   2.8322227977026604E-002  -8.3457572982696127E-003   5.6134685419024000E-002
   2.6986976700463725E-002  -7.9533621101278013E-003   5.5788802354015815E-002
   2.5651725423900811E-002  -7.5475293711300268E-003   5.5654570157310387E-002
   2.4316474147337928E-002  -7.1282590812766396E-003   5.5731988828907238E-002
   2.2981222870775017E-002  -6.6955512405673379E-003   5.6021058368806761E-002
   2.3583634079892845E-002  -6.9294556630086629E-003   5.9128827710145278E-002
   2.2460999153540526E-002  -6.5929818097855628E-003   5.8816597152508213E-002
   2.1338364227188239E-002  -6.2472002291928466E-003   5.8717948426989949E-002
   2.0215729300835920E-002  -5.8921109212301901E-003   5.8832881533590238E-002
   1.9093094374483640E-002  -5.5277138858979696E-003   5.9161396472309252E-002
   1.8866354569109234E-002  -5.5131540277474911E-003   6.2069113578090807E-002
   1.7958266956783694E-002  -5.2326015094434353E-003   6.1786405704338743E-002
   1.7050179344458169E-002  -4.9468710872554306E-003   6.1719210626521553E-002
   1.6142091732132623E-002  -4.6559627611838204E-003   6.1867528344639169E-002
   1.5234004119807076E-002  -4.3598765312284904E-003   6.2231358858691799E-002
   3.0844594588202295E-002  -9.0312259499061853E-003   4.9529255010442086E-002
   2.9214379509270139E-002  -8.4512956876318657E-003   4.9215826957815956E-002
   2.7584164430337926E-002  -7.8718610015634932E-003   4.9066453489435696E-002
   2.5953949351405770E-002  -7.2929218917005927E-003   4.9081134605300933E-002
   2.4323734272473613E-002  -6.7144783580430634E-003   4.9259870305411457E-002
   2.6898389608681253E-002  -7.8633885952368310E-003   5.2810344548184396E-002
   2.5439395642380708E-002  -7.3526659200548183E-003   5.2533793819381364E-002
   2.3980401676080225E-002  -6.8401025610231314E-003   5.2435630731595989E-002
   2.2521407709779711E-002  -6.3256985181415898E-003   5.2515855284827967E-002
   2.1062413743479197E-002  -5.8094537914106237E-003   5.2774467479078213E-002
   2.2981222870775017E-002  -6.6955512405673379E-003   5.6021058368806761E-002
   2.1707783073878259E-002  -6.2540361524775212E-003   5.5783721223881949E-002
   2.0434343276981522E-002  -5.8083441204828876E-003   5.5739104776746880E-002
   1.9160903480084788E-002  -5.3584751445829772E-003   5.5887209027401616E-002
   1.7887463683188033E-002  -4.9044292247780730E-003   5.6228033975846331E-002
   1.9093094374483640E-002  -5.5277138858979696E-003   5.9161396472309252E-002
   1.8019541803762727E-002  -5.1554063849004600E-003   5.8965609171318073E-002
   1.6945989233041844E-002  -4.7765856799427513E-003   5.8976875624888812E-002
   1.5872436662320959E-002  -4.3912517710243361E-003   5.9195195833021332E-002
   1.4798884091600047E-002  -3.9994046581455778E-003   5.9620569795715832E-002
   1.5234004119807076E-002  -4.3598765312284904E-003   6.2231358858691799E-002
   1.4374671832034128E-002  -4.0567766173231212E-003   6.2079457661689597E-002
   1.3515339544261179E-002  -3.7448272394021709E-003   6.2148943276021273E-002
   1.2656007256488216E-002  -3.4240283974655283E-003   6.2439815701687218E-002
   1.1796674968715254E-002  -3.0943800915130826E-003   6.2952074938686930E-002
   2.4323734272473613E-002  -6.7144783580430634E-003   4.9259870305411457E-002
   2.2512396828065412E-002  -6.1295215270993908E-003   4.8878030982168474E-002
   2.0701059383657225E-002  -5.5310425253784212E-003   4.8688561882198722E-002
   1.8889721939249045E-002  -4.9190413528792179E-003   4.8691463005502089E-002
   1.7078384494840892E-002  -4.2935180096020931E-003   4.8886734352078909E-002
   2.1062413743479197E-002  -5.8094537914106237E-003   5.2774467479078213E-002
   1.9447709023110799E-002  -5.2894278945226914E-003   5.2492883038925409E-002
   1.7833004302742400E-002  -4.7636803411715278E-003   5.2412193823578895E-002
   1.6218299582373981E-002  -4.2322111313567584E-003   5.2532399833038715E-002
   1.4603594862005603E-002  -3.6950202650785080E-003   5.2853501067304465E-002
   1.7887463683188033E-002  -4.9044292247780730E-003   5.6228033975846331E-002
   1.6477916688392373E-002  -4.4493342619459642E-003   5.6038903904469584E-002
   1.5068369693596682E-002  -3.9963181569647316E-003   5.6059194059432063E-002
   1.3658822698801013E-002  -3.5453809098343510E-003   5.6288904440733777E-002
   1.2249275704005330E-002  -3.0965225205547564E-003   5.6728035048374675E-002
   1.4798884091600047E-002  -3.9994046581455778E-003   5.9620569795715832E-002
   1.3603019823910073E-002  -3.6092406293691398E-003   5.9516093578800736E-002
   1.2407155556220080E-002  -3.2289559727578312E-003   5.9629562589757906E-002
   1.1211291288530082E-002  -2.8585506883119175E-003   5.9960976828587191E-002
   1.0015427020840115E-002  -2.4980247760311991E-003   6.0510336295288673E-002
   1.1796674968715254E-002  -3.0943800915130826E-003   6.2952074938686930E-002
   1.0823018429663919E-002  -2.7691469967924265E-003   6.2924452061919267E-002
   9.8493618906125707E-003  -2.4615937885510975E-003   6.3123299414556522E-002
   8.8757053515612361E-003  -2.1717204667894979E-003   6.3548616996599111E-002
   7.9020488125098876E-003  -1.8995270315074197E-003   6.4200404808046785E-002
   1.7078384494840892E-002  -4.2935180096020931E-003   4.8886734352078909E-002
   1.5135398463588662E-002  -3.7210384038263156E-003   4.8771748513754654E-002
   1.3192412432336431E-002  -3.2681684438301828E-003   4.8911088922704293E-002
   1.1249426401084228E-002  -2.9349081296146454E-003   4.9304755578928189E-002
   9.3064403698320253E-003  -2.7212574611789053E-003   4.9952748482426146E-002
   1.4603594862005603E-002  -3.6950202650785080E-003   5.2853501067304465E-002
   1.2914466878589423E-002  -3.2134727538378205E-003   5.2740208498218033E-002
   1.1225338895173229E-002  -2.8489336091358508E-003   5.2880305777529224E-002
   9.5362109117570482E-003  -2.6014028309732928E-003   5.3273792905238454E-002
   7.8470829283408539E-003  -2.4708804193492862E-003   5.3920669881345695E-002
   1.2249275704005330E-002  -3.0965225205547564E-003   5.6728035048374675E-002
   1.0813069369549080E-002  -2.7059071038493809E-003   5.6619037027766800E-002
   9.3768630350928583E-003  -2.4296987744417270E-003   5.6762492456680400E-002
   7.9406567006366086E-003  -2.2678975323317148E-003   5.7158401335116064E-002
   6.5044503661803865E-003  -2.2205033775192784E-003   5.7806763663073801E-002
   1.0015427020840115E-002  -2.4980247760311991E-003   6.0510336295288673E-002
   8.8312059364677193E-003  -2.1983414538610802E-003   6.0408234102400440E-002
   7.6469848520953690E-003  -2.0104639397474991E-003   6.0557648960158070E-002
   6.4627637677229944E-003  -1.9343922336901940E-003   6.0958580868561700E-002
   5.2785426833506233E-003  -1.9701263356894649E-003   6.1611029827611227E-002
   7.9020488125098876E-003  -1.8995270315074197E-003   6.4200404808046785E-002
   6.9688765793453067E-003  -1.6907758038724463E-003   6.4107799722119885E-002
   6.0357043461807397E-003  -1.5912291050531602E-003   6.4265775287962457E-002
   5.1025321130161519E-003  -1.6008869350488120E-003   6.4674331505574806E-002
   4.1693598798515641E-003  -1.7197492938596515E-003   6.5333468374957127E-002
   9.3064403698320253E-003  -2.7212574611789053E-003   4.9952748482426146E-002
   7.8818167573287135E-003  -2.8703927390908435E-003   5.0354307877540028E-002
   6.4571931448253739E-003  -3.6254902639190623E-003   5.1083910274415167E-002
   5.0325695323220621E-003  -4.9865500356618547E-003   5.2141555673051510E-002
   3.6079459198187225E-003  -6.9535720543213442E-003   5.3527244073449221E-002
   7.8470829283408539E-003  -2.4708804193492862E-003   5.3920669881345695E-002
   6.7242600992351020E-003  -2.6552585984701560E-003   5.3853334406493147E-002
   5.6014372701293086E-003  -3.3524295925425052E-003   5.4061557496674462E-002
   4.4786144410235082E-003  -4.5623934015659590E-003   5.4545339151889860E-002
   3.3557916119177633E-003  -6.2851500255410864E-003   5.5304679372139343E-002
   6.5044503661803865E-003  -2.2205033775192784E-003   5.7806763663073801E-002
   5.6309438837448891E-003  -2.4401244578493020E-003   5.7363702750219403E-002
   4.7574374013093987E-003  -3.0793689211661424E-003   5.7143715965671499E-002
   3.8839309188739221E-003  -4.1382367674699452E-003   5.7146803309430297E-002
   3.0104244364384108E-003  -5.6167279967606620E-003   5.7372964781495811E-002
   5.2785426833506233E-003  -1.9701263356894649E-003   6.1611029827611227E-002
   4.6018681108581389E-003  -2.2249903172285312E-003   6.0885412908718892E-002
   3.9251935383656563E-003  -2.8063082497897379E-003   6.0330385681406189E-002
   3.2485189658731390E-003  -3.7140801333737684E-003   5.9945948145672751E-002
   2.5718443933806616E-003  -4.9483059679803210E-003   5.9732100301518508E-002
   4.1693598798515641E-003  -1.7197492938596515E-003   6.5333468374957127E-002
   3.6370327805748115E-003  -2.0098561766077605E-003   6.4418464881991655E-002
   3.1047056812980589E-003  -2.5332475784135000E-003   6.3621566643878358E-002
   2.5723785820213063E-003  -3.2899234992779386E-003   6.2942773660617013E-002
   2.0400514827445537E-003  -4.2798839391999799E-003   6.2382085932207954E-002
   3.6079459198187225E-003  -6.9535720543213442E-003   5.3527244073449221E-002
   4.1586812683024055E-003  -9.5422884175533351E-003   5.1856268263296035E-002
   4.7094166167861162E-003  -1.2768431223013660E-002   5.0039530120213949E-002
   5.2601519652698270E-003  -1.6632000470704074E-002   4.8077029644203101E-002
   5.8108873137535655E-003  -2.1132996160623918E-002   4.5968766835263075E-002
   3.3557916119177633E-003  -6.2851500255410864E-003   5.5304679372139343E-002
   3.7783782526852605E-003  -8.5524604495913481E-003   5.2951233705906375E-002
   4.2009648934527855E-003  -1.1396085658840954E-002   5.0487252957170103E-002
   4.6235515342202965E-003  -1.4816025653290286E-002   4.7912737125931443E-002
   5.0461381749878353E-003  -1.8812280432938699E-002   4.5227686212188312E-002
   3.0104244364384108E-003  -5.6167279967606620E-003   5.7372964781495811E-002
   3.3400896199155747E-003  -7.5626324816296941E-003   5.4398160916212968E-002
   3.6697548033927177E-003  -1.0023740094668124E-002   5.1348049218852707E-002
   3.9994199868698607E-003  -1.3000050835876385E-002   4.8222629689414979E-002
   4.3290851703470246E-003  -1.6491564705253925E-002   4.5021902327899377E-002
   2.5718443933806616E-003  -4.9483059679803210E-003   5.9732100301518508E-002
   2.8438153699932908E-003  -6.5728045136680957E-003   5.6197049894215832E-002
   3.1157863466058765E-003  -8.6513945304951337E-003   5.2621918905261050E-002
   3.3877573232184138E-003  -1.1184076018462096E-002   4.9006707334654870E-002
   3.6597282998310360E-003  -1.4170848977568817E-002   4.5351415182397020E-002
   2.0400514827445537E-003  -4.2798839391999799E-003   6.2382085932207954E-002
   2.2895555029183862E-003  -5.5829765457064973E-003   5.8347900639914685E-002
   2.5390595230922464E-003  -7.2790489663223656E-003   5.4308862016395620E-002
   2.7885635432661066E-003  -9.3681012010485287E-003   5.0264970061651315E-002
   3.0380675634399390E-003  -1.1850133249883932E-002   4.6216224775680104E-002
   2.4928417722674373E-002  -7.3576524158529555E-003   5.9994175713043441E-002
   2.4156314405818280E-002  -7.1675843757179614E-003   6.0348736001191561E-002
   2.3384211088962228E-002  -6.9661191806159317E-003   6.0748252290860782E-002
   2.2612107772106156E-002  -6.7532568305470123E-003   6.1192724582051022E-002
   2.1840004455250084E-002  -6.5289973255110434E-003   6.1682152874762419E-002
   1.9218285997130588E-002  -5.5182389708191559E-003   6.2092507999039259E-002
   1.8528156137821217E-002  -5.3756881754895847E-003   6.2146076511470971E-002
   1.7838026278511859E-002  -5.2245894324727538E-003   6.2318635937474998E-002
   1.7147896419202481E-002  -5.0649427417687257E-003   6.2610186277051491E-002
   1.6457766559893103E-002  -4.8967481033772575E-003   6.3020727530200243E-002
   1.3160172488517509E-002  -3.6788255257853564E-003   6.4144747643869654E-002
   1.2626050998806176E-002  -3.5837919752612357E-003   6.3894475173305015E-002
   1.2091929509094847E-002  -3.4830596843295897E-003   6.3837228528364307E-002
   1.1557808019383513E-002  -3.3766286529902968E-003   6.3973007709047264E-002
   1.1023686529672179E-002  -3.2644988812434717E-003   6.4301812715353887E-002
   6.7540771968351617E-003  -1.8394120807515291E-003   6.6150894647534153E-002
   6.4499989887731920E-003  -1.7918957750328868E-003   6.5593931986693776E-002
   6.1459207807112214E-003  -1.7415299361863631E-003   6.5304030063528487E-002
   5.8418425726492612E-003  -1.6883145642119946E-003   6.5281188878038257E-002
   5.5377643645872828E-003  -1.6322496591096303E-003   6.5525408430222851E-002
   1.2208353078468903E-010   1.3642822427328838E-009   6.8110949010033450E-002
   1.0772224778854422E-010   4.2519548992814293E-010   6.7244446951637504E-002
   9.3360978670187222E-011  -1.8804321988419304E-010   6.6719040542967789E-002
   7.8999704347659794E-011  -4.7543362996504968E-010   6.6534729784024554E-002
   6.4638426555685413E-011  -4.3697589990898678E-010   6.6691514674807550E-002
   2.1840004455250084E-002  -6.5289973255110434E-003   6.1682152874762419E-002
   2.1096591983714871E-002  -6.2930385575113712E-003   6.1535257609225846E-002
   2.0353179512179659E-002  -6.0450784185506340E-003   6.1550785971268313E-002
   1.9609767040644446E-002  -5.7851169086296540E-003   6.1728737960889943E-002
   1.8866354569109234E-002  -5.5131540277474911E-003   6.2069113578090807E-002
   1.6457766559893103E-002  -4.8967481033772575E-003   6.3020727530200243E-002
   1.5882635086597305E-002  -4.7197789830497744E-003   6.2838348694032861E-002
   1.5307503613301500E-002  -4.5338088465372156E-003   6.2830108226765116E-002
   1.4732372140005688E-002  -4.3388376938396818E-003   6.2996006128397203E-002
   1.4157240666709883E-002  -4.1348655249571764E-003   6.3336042398928816E-002
   1.1023686529672179E-002  -3.2644988812434717E-003   6.4301812715353887E-002
   1.0628550795936352E-002  -3.1465194085882747E-003   6.4080949953779845E-002
   1.0233415062200529E-002  -3.0225392745236793E-003   6.4045940302426191E-002
   9.8382793284647052E-003  -2.8925584790499299E-003   6.4196783761292717E-002
   9.4431435947288783E-003  -2.7565770221668340E-003   6.4533480330379603E-002
   5.5377643645872828E-003  -1.6322496591096303E-003   6.5525408430222851E-002
   5.3343391117320156E-003  -1.5732598341266710E-003   6.5263061388466659E-002
   5.1309138588767466E-003  -1.5112697025102297E-003   6.5198282198251314E-002
   4.9274886060214820E-003  -1.4462792642600678E-003   6.5331070859576845E-002
   4.7240633531662104E-003  -1.3782885193764777E-003   6.5661427372443182E-002
   6.4638426555685413E-011  -4.3697589990898678E-010   6.6691514674807550E-002
   3.3984287606259045E-011  -2.5966515049269390E-010   6.6384682998093386E-002
   3.3301555957265805E-012  -1.3049669678188991E-010   6.6287133914240653E-002
  -2.7323978149529360E-011  -4.9470226526349137E-011   6.6398867423249297E-002
  -5.7978115364232252E-011  -1.6586121365236295E-011   6.6719883525119428E-002
   1.8866354569109234E-002  -5.5131540277474911E-003   6.2069113578090807E-002
   1.7958266956783694E-002  -5.2326015094434353E-003   6.1786405704338743E-002
   1.7050179344458169E-002  -4.9468710872554306E-003   6.1719210626521553E-002
   1.6142091732132623E-002  -4.6559627611838204E-003   6.1867528344639169E-002
   1.5234004119807076E-002  -4.3598765312284904E-003   6.2231358858691799E-002
   1.4157240666709883E-002  -4.1348655249571764E-003   6.3336042398928816E-002
   1.3467543127547062E-002  -3.9244511342779453E-003   6.3055759298469072E-002
   1.2777845588384233E-002  -3.7101533161904149E-003   6.2996743548399819E-002
   1.2088148049221408E-002  -3.4919720706945746E-003   6.3158995148721253E-002
   1.1398450510058583E-002  -3.2699073977903725E-003   6.3542514099433178E-002
   9.4431435947288783E-003  -2.7565770221668340E-003   6.4533480330379603E-002
   8.9775906831844783E-003  -2.6163007591126497E-003   6.4254327526736640E-002
   8.5120377716400748E-003  -2.4734355451255172E-003   6.4202196627940022E-002
   8.0464848600956835E-003  -2.3279813802054416E-003   6.4377087633989777E-002
   7.5809319485512783E-003  -2.1799382643524767E-003   6.4779000544885640E-002
   4.7240633531662104E-003  -1.3782885193764777E-003   6.5661427372443182E-002
   4.4884096236959565E-003  -1.3081503839472014E-003   6.5382110389141657E-002
   4.2527558942257121E-003  -1.2367177740606160E-003   6.5335569865142246E-002
   4.0171021647554608E-003  -1.1639906897161966E-003   6.5521805800444685E-002
   3.7814484352852069E-003  -1.0899691309143589E-003   6.5940818195049489E-002
  -5.7978115364232252E-011  -1.6586121365236295E-011   6.6719883525119428E-002
  -5.0918502053631798E-011  -8.7818363692093726E-012   6.6439107885683912E-002
  -4.3858881804137440E-011  -2.9956037650435974E-012   6.6396863260006211E-002
  -3.6799268493536985E-011   7.7296502531964961E-013   6.6593149648086214E-002
  -2.9739648244042627E-011   2.5234814238217496E-012   6.7027967049924031E-002
   1.5234004119807076E-002  -4.3598765312284904E-003   6.2231358858691799E-002
   1.4374671832034128E-002  -4.0567766173231212E-003   6.2079457661689597E-002
   1.3515339544261179E-002  -3.7448272394021709E-003   6.2148943276021273E-002
   1.2656007256488216E-002  -3.4240283974655283E-003   6.2439815701687218E-002
   1.1796674968715254E-002  -3.0943800915130826E-003   6.2952074938686930E-002
   1.1398450510058583E-002  -3.2699073977903725E-003   6.3542514099433178E-002
   1.0758866599035598E-002  -3.0425824624190079E-003   6.3414752796859153E-002
   1.0119282688012592E-002  -2.8086204295215134E-003   6.3505101436450995E-002
   9.4796987769895924E-003  -2.5680212990978751E-003   6.3813560018208690E-002
   8.8401148659666140E-003  -2.3207850711482458E-003   6.4340128542132391E-002
   7.5809319485512783E-003  -2.1799382643524767E-003   6.4779000544885640E-002
   7.1578195451101959E-003  -2.0283883075147002E-003   6.4673166770250007E-002
   6.7347071416691308E-003  -1.8724136196406893E-003   6.4782166068612160E-002
   6.3115947382280692E-003  -1.7120142007302774E-003   6.5105998439972529E-002
   5.8884823347869833E-003  -1.5471900507836311E-003   6.5644663884330462E-002
   3.7814484352852069E-003  -1.0899691309143589E-003   6.5940818195049489E-002
   3.5715306702580104E-003  -1.0141941526104897E-003   6.5854699581862297E-002
   3.3616129052308217E-003  -9.3620680975983750E-004   6.5980137172505199E-002
   3.1516951402036295E-003  -8.5600710236281852E-004   6.6317130966977847E-002
   2.9417773751764294E-003  -7.7359503041884992E-004   6.6865680965280561E-002
  -2.9739648244042627E-011   2.5234814238217496E-012   6.7027967049924031E-002
  -2.5521012386731101E-011   2.2939428134804984E-012   6.6959351231696052E-002
  -2.1302366121078720E-011   1.2080614286702485E-013   6.7099014748129931E-002
  -1.7083723324873290E-011  -3.9950785735154426E-012   6.7446957599225546E-002
  -1.2865083998114812E-011  -1.0054290733307880E-011   6.8003179784982937E-002
   1.1796674968715254E-002  -3.0943800915130826E-003   6.2952074938686930E-002
   1.0823018429663919E-002  -2.7691469967924265E-003   6.2924452061919267E-002
   9.8493618906125707E-003  -2.4615937885510975E-003   6.3123299414556522E-002
   8.8757053515612361E-003  -2.1717204667894979E-003   6.3548616996599111E-002
   7.9020488125098876E-003  -1.8995270315074197E-003   6.4200404808046785E-002
   8.8401148659666140E-003  -2.3207850711482458E-003   6.4340128542132391E-002
   8.0971645327961583E-003  -2.0768602514186218E-003   6.4306199313186929E-002
   7.3542141996257027E-003  -1.8461953456550412E-003   6.4507212266597863E-002
   6.6112638664552748E-003  -1.6287903538571118E-003   6.4943167402365748E-002
   5.8683135332848191E-003  -1.4246452760252604E-003   6.5614064720490139E-002
   5.8884823347869833E-003  -1.5471900507836311E-003   6.5644663884330462E-002
   5.3847101604490091E-003  -1.3845735060448727E-003   6.5608848275720402E-002
   4.8809379861110419E-003  -1.2307969027585408E-003   6.5816446802418743E-002
   4.3771658117730677E-003  -1.0858602409248366E-003   6.6267459464425388E-002
   3.8733936374351005E-003  -9.4976352054343405E-004   6.6961886261740045E-002
   2.9417773751764294E-003  -7.7359503041884992E-004   6.6865680965280561E-002
   2.6856553126224881E-003  -6.9228676067120687E-004   6.6832398949519756E-002
   2.4295332500685451E-003  -6.1539845986242903E-004   6.7051003022018746E-002
   2.1734111875146064E-003  -5.4293012799233945E-004   6.7521493182777462E-002
   1.9172891249606607E-003  -4.7488176506155222E-004   6.8243869431796167E-002
  -1.2865083998114812E-011  -1.0054290733307880E-011   6.8003179784982937E-002
  -1.0683412487999533E-011  -1.5297207944797719E-011   6.7976851334584754E-002
  -8.5017617945659651E-012  -1.6965956417536177E-011   6.8210880925398176E-002
  -6.3200937538976376E-012  -1.5060112878995113E-011   6.8705268557422622E-002
  -4.1384395910171179E-012  -9.5795593679781632E-012   6.9460014230658729E-002
   7.9020488125098876E-003  -1.8995270315074197E-003   6.4200404808046785E-002
   6.9688765793453067E-003  -1.6907758038724463E-003   6.4107799722119885E-002
   6.0357043461807397E-003  -1.5912291050531602E-003   6.4265775287962457E-002
   5.1025321130161519E-003  -1.6008869350488120E-003   6.4674331505574806E-002
   4.1693598798515641E-003  -1.7197492938596515E-003   6.5333468374957127E-002
   5.8683135332848191E-003  -1.4246452760252604E-003   6.5614064720490139E-002
   5.1814000534788560E-003  -1.2680818537234573E-003   6.5460399156572979E-002
   4.4944865736728581E-003  -1.1934218285144238E-003   6.5548670447603208E-002
   3.8075730938668881E-003  -1.2006652003990967E-003   6.5878878593581047E-002
   3.1206596140609111E-003  -1.2898119693769416E-003   6.6451023594506164E-002
   3.8733936374351005E-003  -9.4976352054343405E-004   6.6961886261740045E-002
   3.4240951141653909E-003  -8.4538790357391314E-004   6.6774461351554543E-002
   2.9747965908956918E-003  -7.9561455197590947E-004   6.6820329499494374E-002
   2.5254980676259909E-003  -8.0044346574927039E-004   6.7099490705559275E-002
   2.0761995443562831E-003  -8.5987464489423182E-004   6.7611944969749260E-002
   1.9172891249606607E-003  -4.7488176506155222E-004   6.8243869431796167E-002
   1.6969617614049221E-003  -4.2269395342442451E-004   6.8049986307064436E-002
   1.4766343978491791E-003  -3.9780727543745065E-004   6.8080752443635539E-002
   1.2563070342934460E-003  -4.0022173109955511E-004   6.8336167841509338E-002
   1.0359796707377113E-003  -4.2993732041129995E-004   6.8816232500686123E-002
  -4.1384395910171179E-012  -9.5795593679781632E-012   6.9460014230658729E-002
  -4.8025333709844631E-012  -3.2753799672491368E-012   6.9286974023102577E-002
  -5.4666340898457122E-012   1.1013967515793865E-012   6.9329939280026898E-002
  -6.1307244003661054E-012   3.5501740436316709E-012   6.9588910001431803E-002
  -6.7948285886743065E-012   4.0712988536029115E-012   7.0063886187316959E-002
   4.1693598798515641E-003  -1.7197492938596515E-003   6.5333468374957127E-002
   3.6370327805748115E-003  -2.0098561766077605E-003   6.4418464881991655E-002
   3.1047056812980589E-003  -2.5332475784135000E-003   6.3621566643878358E-002
   2.5723785820213063E-003  -3.2899234992779386E-003   6.2942773660617013E-002
   2.0400514827445537E-003  -4.2798839391999799E-003   6.2382085932207954E-002
   3.1206596140609111E-003  -1.2898119693769416E-003   6.6451023594506164E-002
   2.7101818996895649E-003  -1.5073921314762151E-003   6.5339880473576306E-002
   2.2997041853182534E-003  -1.8999356827251179E-003   6.4354330867605003E-002
   1.8892264709469385E-003  -2.4674426231237473E-003   6.3494374776592810E-002
   1.4787487565755958E-003  -3.2099129526713677E-003   6.2760012200539173E-002
   2.0761995443562831E-003  -8.5987464489423182E-004   6.7611944969749260E-002
   1.7950594749970641E-003  -1.0049280863453358E-003   6.6362983350763460E-002
   1.5139194056378383E-003  -1.2666237870369301E-003   6.5247103506843152E-002
   1.2327793362786124E-003  -1.6449617469695491E-003   6.4264305437988264E-002
   9.5163926691939349E-004  -2.1399419661429775E-003   6.3414589144198952E-002
   1.0359796707377113E-003  -4.2993732041129995E-004   6.8816232500686123E-002
   8.9166550649725888E-004  -5.0246404121406796E-004   6.7487773513553159E-002
   7.4735134225683425E-004  -6.3331189134897825E-004   6.6299884561592692E-002
   6.0303717801638880E-004  -8.2248087081568735E-004   6.5252565644804139E-002
   4.5872301377594335E-004  -1.0699709796145873E-003   6.4345816763187791E-002
  -6.7948285886743065E-012   4.0712988536029115E-012   7.0063886187316959E-002
  -5.8098109656512520E-012   3.9170333643312460E-012   6.8714250961945944E-002
  -4.8247864037342936E-012   4.3394454696255025E-012   6.7512674031853515E-002
  -3.8397653112642871E-012   5.3387363974088942E-012   6.6459155397040032E-002
  -2.8547442187942806E-012   6.9140249081556249E-012   6.5553695057505523E-002
   2.0400514827445537E-003  -4.2798839391999799E-003   6.2382085932207954E-002
   2.2895555029183862E-003  -5.5829765457064973E-003   5.8347900639914685E-002
   2.5390595230922464E-003  -7.2790489663223656E-003   5.4308862016395620E-002
   2.7885635432661066E-003  -9.3681012010485287E-003   5.0264970061651315E-002
   3.0380675634399390E-003  -1.1850133249883932E-002   4.6216224775680104E-002
   1.4787487565755958E-003  -3.2099129526713677E-003   6.2760012200539173E-002
   1.7090187770417709E-003  -4.1872324070600930E-003   5.8401782138955971E-002
   1.9392887975079598E-003  -5.4592867219810937E-003   5.4009937409182862E-002
   2.1695588179741418E-003  -7.0260758974346332E-003   4.9584478011221178E-002
   2.3998288384403377E-003  -8.8875999334199207E-003   4.5125403945068809E-002
   9.5163926691939349E-004  -2.1399419661429775E-003   6.3414589144198952E-002
   1.1339139507142437E-003  -2.7914882684141329E-003   5.8830559266903337E-002
   1.3161886345091148E-003  -3.6395244776400437E-003   5.4184153384454370E-002
   1.4984633183039824E-003  -4.6840505938207377E-003   4.9475371496851828E-002
   1.6807380020988222E-003  -5.9250666169563537E-003   4.4704213604097154E-002
   4.5872301377594335E-004  -1.0699709796145873E-003   6.4345816763187791E-002
   5.6424102393582733E-004  -1.3957441297681727E-003   5.9634232023756659E-002
   6.6975903409570436E-004  -1.8197622332989938E-003   5.4831509942209075E-002
   7.7527704425559615E-004  -2.3420252902069533E-003   4.9937650518545082E-002
   8.8079505441547926E-004  -2.9625333004924537E-003   4.4952653752762750E-002
  -2.8547442187942806E-012   6.9140249081556249E-012   6.5553695057505523E-002
  -3.2935043581261425E-012   8.8782314833224518E-012   6.0812800409516865E-002
  -3.7322610280110524E-012   1.1042500247526732E-011   5.5952007082447741E-002
  -4.1710038201081545E-012   1.3406831200768465E-011   5.0971315076298596E-002
  -4.6097708983339203E-012   1.5971224343047652E-011   4.5870724391068762E-002
   1.2208353078468903E-010   1.3642822427328838E-009   6.8110949010033450E-002
   1.0772224778854422E-010   4.2519548992814293E-010   6.7244446951637504E-002
   9.3360978670187222E-011  -1.8804321988419304E-010   6.6719040542967789E-002
   7.8999704347659794E-011  -4.7543362996504968E-010   6.6534729784024554E-002
   6.4638426555685413E-011  -4.3697589990898678E-010   6.6691514674807550E-002
  -6.7540769588065978E-003   1.8394134527097705E-003   6.6150892794364702E-002
  -6.4499987794906823E-003   1.7918960727169309E-003   6.5593930637392911E-002
  -6.1459206001747719E-003   1.7415295402382069E-003   6.5304029218049203E-002
  -5.8418424208588667E-003   1.6883138552737306E-003   6.5281188536333440E-002
  -5.5377642415429529E-003   1.6322490178231897E-003   6.5525408592245676E-002
  -1.3160172268904410E-002   3.6788255411372706E-003   6.4144744876956761E-002
  -1.2626050808009669E-002   3.5837917202384550E-003   6.3894473143075364E-002
  -1.2091929347114918E-002   3.4830592685196199E-003   6.3837227234723418E-002
  -1.1557807886220184E-002   3.3766281859809212E-003   6.3973007151901129E-002
  -1.1023686425325441E-002   3.2644984726222792E-003   6.4301812894608623E-002
  -1.9218285808209931E-002   5.5182376295647984E-003   6.2092505257810078E-002
  -1.8528155977834679E-002   5.3756873677599099E-003   6.2146074468684705E-002
  -1.7838026147459461E-002   5.2245889968010398E-003   6.2318634592990571E-002
  -1.7147896317084237E-002   5.0649425166881413E-003   6.2610185630727788E-002
  -1.6457766486709002E-002   4.8967479274213688E-003   6.3020727581896280E-002
  -2.4928417576723129E-002   7.3576497179922984E-003   5.9994173936924189E-002
  -2.4156314288965766E-002   7.1675830152813647E-003   6.0348734614220745E-002
  -2.3384211001208386E-002   6.9661187250824319E-003   6.0748251292850608E-002
  -2.2612107713451027E-002   6.7532568473954654E-003   6.1192723972813223E-002
  -2.1840004425693657E-002   6.5289973822204583E-003   6.1682152654108813E-002
   6.4638426555685413E-011  -4.3697589990898678E-010   6.6691514674807550E-002
   3.3984287606259045E-011  -2.5966515049269390E-010   6.6384682998093386E-002
   3.3301555957265805E-012  -1.3049669678188991E-010   6.6287133914240653E-002
  -2.7323978149529360E-011  -4.9470226526349137E-011   6.6398867423249297E-002
  -5.7978115364232252E-011  -1.6586121365236295E-011   6.6719883525119428E-002
  -5.5377642415429529E-003   1.6322490178231897E-003   6.5525408592245676E-002
  -5.3343390444755712E-003   1.5732594215230322E-003   6.5263061466112743E-002
  -5.1309138474081913E-003   1.5112694600095053E-003   6.5198282202561395E-002
  -4.9274886503408123E-003   1.4462791332825031E-003   6.5331070801591673E-002
  -4.7240634532734298E-003   1.3782884413421903E-003   6.5661427263203703E-002
  -1.1023686425325441E-002   3.2644984726222792E-003   6.4301812894608623E-002
  -1.0628550730816337E-002   3.1465191027113676E-003   6.4080950001985659E-002
  -1.0233415036307231E-002   3.0225390505156519E-003   6.4045940241664490E-002
  -9.8382793417981368E-003   2.8925583160354547E-003   6.4196783613645086E-002
  -9.4431436472890221E-003   2.7565768992705297E-003   6.4533480117927672E-002
  -1.6457766486709002E-002   4.8967479274213688E-003   6.3020727581896280E-002
  -1.5882635025037992E-002   4.7197787838994879E-003   6.2838348605712122E-002
  -1.5307503563366975E-002   4.5338086410218539E-003   6.2830108031549925E-002
  -1.4732372101695959E-002   4.3388374987882675E-003   6.2996005859409704E-002
  -1.4157240640024943E-002   4.1348653571989386E-003   6.3336042089291625E-002
  -2.1840004425693657E-002   6.5289973822204583E-003   6.1682152654108813E-002
  -2.1096591927140522E-002   6.2930384650878857E-003   6.1535257277292116E-002
  -2.0353179428587401E-002   6.0450782315279727E-003   6.1550785572217631E-002
  -1.9609766930034279E-002   5.7851166815411845E-003   6.1728737538885359E-002
  -1.8866354431481151E-002   5.5131538151271808E-003   6.2069113177295243E-002
  -5.7978115364232252E-011  -1.6586121365236295E-011   6.6719883525119428E-002
  -5.0918502053631798E-011  -8.7818363692093726E-012   6.6439107885683912E-002
  -4.3858881804137440E-011  -2.9956037650435974E-012   6.6396863260006211E-002
  -3.6799268493536985E-011   7.7296502531964961E-013   6.6593149648086214E-002
  -2.9739648244042627E-011   2.5234814238217496E-012   6.7027967049924031E-002
  -4.7240634532734298E-003   1.3782884413421903E-003   6.5661427263203703E-002
  -4.4884097122004311E-003   1.3081503272611428E-003   6.5382110304760432E-002
  -4.2527559711274480E-003   1.2367177341116864E-003   6.5335569800586371E-002
  -4.0171022300544553E-003   1.1639906618938975E-003   6.5521805750681117E-002
  -3.7814484889814592E-003   1.0899691106080467E-003   6.5940818155044989E-002
  -9.4431436472890221E-003   2.7565768992705297E-003   6.4533480117927672E-002
  -8.9775907316913747E-003   2.6163006633040525E-003   6.4254327363426400E-002
  -8.5120378160937222E-003   2.4734354712188100E-003   6.4202196503705372E-002
  -8.0464849004960731E-003   2.3279813230148300E-003   6.4377087538764796E-002
  -7.5809319848984223E-003   2.1799382186923066E-003   6.4779000468604478E-002
  -1.4157240640024943E-002   4.1348653571989386E-003   6.3336042089291625E-002
  -1.3467543109391335E-002   3.9244509993469692E-003   6.3055759061681843E-002
  -1.2777845578757724E-002   3.7101532083259614E-003   6.2996743369363437E-002
  -1.2088148048124123E-002   3.4919719841357624E-003   6.3158995012336794E-002
  -1.1398450517490505E-002   3.2699073267766082E-003   6.3542513990601818E-002
  -1.8866354431481151E-002   5.5131538151271808E-003   6.2069113177295243E-002
  -1.7958266845300296E-002   5.2326013353899137E-003   6.1786405399526456E-002
  -1.7050179259119447E-002   4.9468709454331961E-003   6.1719210397560620E-002
  -1.6142091672938588E-002   4.6559626452566047E-003   6.1867528171397651E-002
  -1.5234004086757742E-002   4.3598764348610208E-003   6.2231358721037466E-002
  -2.9739648244042627E-011   2.5234814238217496E-012   6.7027967049924031E-002
  -2.5521012386731101E-011   2.2939428134804984E-012   6.6959351231696052E-002
  -2.1302366121078720E-011   1.2080614286702485E-013   6.7099014748129931E-002
  -1.7083723324873290E-011  -3.9950785735154426E-012   6.7446957599225546E-002
  -1.2865083998114812E-011  -1.0054290733307880E-011   6.8003179784982937E-002
  -3.7814484889814592E-003   1.0899691106080467E-003   6.5940818155044989E-002
  -3.5715307166185716E-003   1.0141941359813889E-003   6.5854699548846402E-002
  -3.3616129442556944E-003   9.3620679374202542E-004   6.5980137144274503E-002
  -3.1516951718928068E-003   8.5600708388979332E-004   6.6317130941329322E-002
  -2.9417773995299226E-003   7.7359500642482093E-004   6.6865680940010552E-002
  -7.5809319848984223E-003   2.1799382186923066E-003   6.4779000468604478E-002
  -7.1578195774264263E-003   2.0283882696691125E-003   6.4673166708765370E-002
  -6.7347071699544372E-003   1.8724135873631267E-003   6.4782166017517767E-002
  -6.3115947624824593E-003   1.7120141717746635E-003   6.5105998394861628E-002
  -5.8884823550104659E-003   1.5471900229035440E-003   6.5644663840797118E-002
  -1.1398450517490505E-002   3.2699073267766082E-003   6.3542513990601818E-002
  -1.0758866607944558E-002   3.0425824033565863E-003   6.3414752711452596E-002
  -1.0119282698398614E-002   2.8086203809843426E-003   6.3505101367859570E-002
  -9.4796987888526568E-003   2.5680212596594235E-003   6.3813559959823171E-002
  -8.8401148793067139E-003   2.3207850393824059E-003   6.4340128487342996E-002
  -1.5234004086757742E-002   4.3598764348610208E-003   6.2231358721037466E-002
  -1.4374671808172972E-002   4.0567765370442821E-003   6.2079457556908135E-002
  -1.3515339529588204E-002   3.7448271746053363E-003   6.2148943195300177E-002
  -1.2656007251003432E-002   3.4240283475444888E-003   6.2439815636213314E-002
  -1.1796674972418666E-002   3.0943800558612677E-003   6.2952074879647602E-002
  -1.2865083998114812E-011  -1.0054290733307880E-011   6.8003179784982937E-002
  -1.0683412487999533E-011  -1.5297207944797719E-011   6.7976851334584754E-002
  -8.5017617945659651E-012  -1.6965956417536177E-011   6.8210880925398176E-002
  -6.3200937538976376E-012  -1.5060112878995113E-011   6.8705268557422622E-002
  -4.1384395910171179E-012  -9.5795593679781632E-012   6.9460014230658729E-002
  -2.9417773995299226E-003   7.7359500642482093E-004   6.6865680940010552E-002
  -2.6856553329577398E-003   6.9228673187626821E-004   6.6832398932486270E-002
  -2.4295332663855501E-003   6.1539843077326739E-004   6.7051003012531391E-002
  -2.1734111998133587E-003   5.4293010311653317E-004   6.7521493180146275E-002
  -1.9172891332411776E-003   4.7488174890564228E-004   6.8243869435330728E-002
  -5.8884823550104659E-003   1.5471900229035440E-003   6.5644663840797118E-002
  -5.3847101776894725E-003   1.3845734790496889E-003   6.5608848246017648E-002
  -4.8809380003684809E-003   1.2307968785129214E-003   6.5816446785166058E-002
  -4.3771658230474944E-003   1.0858602212931202E-003   6.6267459458242389E-002
  -3.8733936457264959E-003   9.4976350739067739E-004   6.6961886265246739E-002
  -8.8401148793067139E-003   2.3207850393824059E-003   6.4340128487342996E-002
  -8.0971645448786427E-003   2.0768602262230262E-003   6.4306199275179637E-002
  -7.3542142104505645E-003   1.8461953262524158E-003   6.4507212243302428E-002
  -6.6112638760224950E-003   1.6287903394699033E-003   6.4943167391711437E-002
  -5.8683135415944134E-003   1.4246452658755737E-003   6.5614064720406970E-002
  -1.1796674972418666E-002   3.0943800558612677E-003   6.2952074879647602E-002
  -1.0823018434525239E-002   2.7691469733966967E-003   6.2924452019971766E-002
  -9.8493618966317906E-003   2.4615937739918825E-003   6.3123299386940279E-002
  -8.8757053587383422E-003   2.1717204576463187E-003   6.3548616980553335E-002
  -7.9020488208449147E-003   1.8995270243608031E-003   6.4200404800810795E-002
  -4.1384395910171179E-012  -9.5795593679781632E-012   6.9460014230658729E-002
  -4.8025333709844631E-012  -3.2753799672491368E-012   6.9286974023102577E-002
  -5.4666340898457122E-012   1.1013967515793865E-012   6.9329939280026898E-002
  -6.1307244003661054E-012   3.5501740436316709E-012   6.9588910001431803E-002
  -6.7948285886743065E-012   4.0712988536029115E-012   7.0063886187316959E-002
  -1.9172891332411776E-003   4.7488174890564228E-004   6.8243869435330728E-002
  -1.6969617709193426E-003   4.2269394691168971E-004   6.8049986307427812E-002
  -1.4766344085975006E-003   3.9780727590615905E-004   6.8080752441016246E-002
  -1.2563070462756499E-003   4.0022173588925847E-004   6.8336167836096279E-002
  -1.0359796839538096E-003   4.2993732686047448E-004   6.8816232492667384E-002
  -3.8733936457264959E-003   9.4976350739067739E-004   6.6961886265246739E-002
  -3.4240951234078033E-003   8.4538789709887041E-004   6.6774461349913106E-002
  -2.9747966010891264E-003   7.9561455071133769E-004   6.6820329493081754E-002
  -2.5254980787704417E-003   8.0044346822833595E-004   6.7099490694752573E-002
  -2.0761995564517570E-003   8.5987464964959459E-004   6.7611944954925868E-002
  -5.8683135415944134E-003   1.4246452658755737E-003   6.5614064720406970E-002
  -5.1814000622679712E-003   1.2680818472858846E-003   6.5460399150558346E-002
  -4.4944865829415238E-003   1.1934218255163637E-003   6.5548670436223255E-002
  -3.8075731036150660E-003   1.2006652005673614E-003   6.5878878577401170E-002
  -3.1206596242886351E-003   1.2898119724386869E-003   6.6451023574092327E-002
  -7.9020488208449147E-003   1.8995270243608031E-003   6.4200404800810795E-002
  -6.9688765874997977E-003   1.6907757974730098E-003   6.4107799709363644E-002
  -6.0357043541546807E-003   1.5912291003212786E-003   6.4265775270440639E-002
  -5.1025321208095602E-003   1.6008869329063868E-003   6.4674331484041780E-002
  -4.1693598874644466E-003   1.7197492952278903E-003   6.5333468350167068E-002
  -6.7948285886743065E-012   4.0712988536029115E-012   7.0063886187316959E-002
  -5.8098109656512520E-012   3.9170333643312460E-012   6.8714250961945944E-002
  -4.8247864037342936E-012   4.3394454696255025E-012   6.7512674031853515E-002
  -3.8397653112642871E-012   5.3387363974088942E-012   6.6459155397040032E-002
  -2.8547442187942806E-012   6.9140249081556249E-012   6.5553695057505523E-002
  -1.0359796839538096E-003   4.2993732686047448E-004   6.8816232492667384E-002
  -8.9166551784102682E-004   5.0246404836207237E-004   6.7487773507130477E-002
  -7.4735135172822147E-004   6.3331189993479087E-004   6.6299884556570182E-002
  -6.0303718561542305E-004   8.2248088157919202E-004   6.5252565640986818E-002
  -4.5872301950261943E-004   1.0699709932953105E-003   6.4345816760379981E-002
  -2.0761995564517570E-003   8.5987464964959459E-004   6.7611944954925868E-002
  -1.7950594855132198E-003   1.0049280928065840E-003   6.6362983338718068E-002
  -1.5139194145747095E-003   1.2666237955300114E-003   6.5247103497184891E-002
  -1.2327793436361792E-003   1.6449617578199772E-003   6.4264305430326601E-002
  -9.5163927269766198E-004   2.1399419796768182E-003   6.3414589138142574E-002
  -3.1206596242886351E-003   1.2898119724386869E-003   6.6451023574092327E-002
  -2.7101819088264207E-003   1.5073921372511373E-003   6.5339880456708799E-002
  -2.2997041933642201E-003   1.8999356911251833E-003   6.4354330853697753E-002
  -1.8892264779020124E-003   2.4674426340607087E-003   6.3494374765059217E-002
  -1.4787487624398046E-003   3.2099129660583259E-003   6.2760012190793801E-002
  -4.1693598874644466E-003   1.7197492952278903E-003   6.5333468350167068E-002
  -3.6370327877806238E-003   2.0098561816960792E-003   6.4418464861102587E-002
  -3.1047056880967837E-003   2.5332475867205495E-003   6.3621566626108683E-002
  -2.5723785884129539E-003   3.2899235103016553E-003   6.2942773645185274E-002
  -2.0400514887291207E-003   4.2798839524397225E-003   6.2382085918332497E-002
  -2.8547442187942806E-012   6.9140249081556249E-012   6.5553695057505523E-002
  -3.2935043581261425E-012   8.8782314833224518E-012   6.0812800409516865E-002
  -3.7322610280110524E-012   1.1042500247526732E-011   5.5952007082447741E-002
  -4.1710038201081545E-012   1.3406831200768465E-011   5.0971315076298596E-002
  -4.6097708983339203E-012   1.5971224343047652E-011   4.5870724391068762E-002
  -4.5872301950261943E-004   1.0699709932953105E-003   6.4345816760379981E-002
  -5.6424103050523727E-004   1.3957441469877319E-003   5.9634232021401390E-002
  -6.6975904150784298E-004   1.8197622545603753E-003   5.4831509940375778E-002
  -7.7527705251045388E-004   2.3420253160141291E-003   4.9937650517302118E-002
  -8.8079506351305265E-004   2.9625333313481050E-003   4.4952653752182270E-002
  -9.5163927269766198E-004   2.1399419796768182E-003   6.3414589138142574E-002
  -1.1339139572308799E-003   2.7914882850972322E-003   5.8830559261854626E-002
  -1.3161886417641039E-003   3.6395244980788055E-003   5.4184153380552408E-002
  -1.4984633262973505E-003   4.6840506186215380E-003   4.9475371494235976E-002
  -1.6807380108305320E-003   5.9250666467252078E-003   4.4704213602905996E-002
  -1.4787487624398046E-003   3.2099129660583259E-003   6.2760012190793801E-002
  -1.7090187834704379E-003   4.1872324232070657E-003   5.8401782130876073E-002
  -1.9392888045010432E-003   5.4592867415972912E-003   5.4009937402977742E-002
  -2.1695588255316697E-003   7.0260759212288915E-003   4.9584478007098323E-002
  -2.3998288465622956E-003   8.8875999621021995E-003   4.5125403943238829E-002
  -2.0400514887291207E-003   4.2798839524397225E-003   6.2382085918332497E-002
  -2.2895555092239048E-003   5.5829765613163440E-003   5.8347900628466287E-002
  -2.5390595297186853E-003   7.2790489851154161E-003   5.4308862007652337E-002
  -2.7885635502134694E-003   9.3681012238363767E-003   5.0264970055891062E-002
  -3.0380675707082500E-003   1.1850133277479191E-002   4.6216224773181658E-002
  -2.4928417576723129E-002   7.3576497179922984E-003   5.9994173936924189E-002
  -2.4156314288965766E-002   7.1675830152813647E-003   6.0348734614220745E-002
  -2.3384211001208386E-002   6.9661187250824319E-003   6.0748251292850608E-002
  -2.2612107713451027E-002   6.7532568473954654E-003   6.1192723972813223E-002
  -2.1840004425693657E-002   6.5289973822204583E-003   6.1682152654108813E-002
  -3.0676008494498554E-002   9.2431389247439322E-003   5.8318593393331952E-002
  -2.9814655286567855E-002   9.0118068749953373E-003   5.8278770232007615E-002
  -2.8953302078637159E-002   8.7603170364457250E-003   5.8372490909697261E-002
  -2.8091948870706481E-002   8.4886694090950884E-003   5.8599755426400391E-002
  -2.7230595662775782E-002   8.1968639929435871E-003   5.8960563782117170E-002
  -3.6846499481590668E-002   1.1128628131495621E-002   5.6606127603358231E-002
  -3.5807308515805963E-002   1.0856030734709282E-002   5.6163160402100176E-002
  -3.4768117550021266E-002   1.0554515347809088E-002   5.5942324877536670E-002
  -3.3728926584236534E-002   1.0224081970794881E-002   5.5943621029667510E-002
  -3.2689735618451801E-002   9.8647306036667715E-003   5.6167048858492608E-002
  -4.3439890537999466E-002   1.3014117338247255E-002   5.4856776567003419E-002
  -4.2134273976680042E-002   1.2700254594423269E-002   5.4001905124498699E-002
  -4.0828657415360618E-002   1.2348713659172415E-002   5.3457753196369084E-002
  -3.9523040854041153E-002   1.1959494532494673E-002   5.3224320782614479E-002
  -3.8217424292721715E-002   1.1532597214390039E-002   5.3301607883234896E-002
  -5.0456181663725008E-002   1.4899606544998945E-002   5.3070540284267442E-002
  -4.8795551669190140E-002   1.4544478454137144E-002   5.1795004399202926E-002
  -4.7134921674655259E-002   1.4142911970535729E-002   5.0918775866194282E-002
  -4.5474291680120398E-002   1.3694907094194336E-002   5.0441854685241441E-002
  -4.3813661685585495E-002   1.3200463825113140E-002   5.0364240856344278E-002
  -2.1840004425693657E-002   6.5289973822204583E-003   6.1682152654108813E-002
  -2.1096591927140522E-002   6.2930384650878857E-003   6.1535257277292116E-002
  -2.0353179428587401E-002   6.0450782315279727E-003   6.1550785572217631E-002
  -1.9609766930034279E-002   5.7851166815411845E-003   6.1728737538885359E-002
  -1.8866354431481151E-002   5.5131538151271808E-003   6.2069113177295243E-002
  -2.7230595662775782E-002   8.1968639929435871E-003   5.8960563782117170E-002
  -2.6318855207640972E-002   7.8912377263899991E-003   5.8741281357331088E-002
  -2.5407114752506166E-002   7.5781275478334700E-003   5.8696231173965996E-002
  -2.4495374297371364E-002   7.2575334572737380E-003   5.8825413232022172E-002
  -2.3583633842236544E-002   6.9294554547110199E-003   5.9128827531499478E-002
  -3.2689735618451801E-002   9.8647306036667715E-003   5.6167048858492608E-002
  -3.1597858637056359E-002   9.4894369876922235E-003   5.5879896790161095E-002
  -3.0505981655660947E-002   9.1111768641386898E-003   5.5778785532929587E-002
  -2.9414104674265494E-002   8.7299502330063471E-003   5.5863715086798237E-002
  -2.8322227692870093E-002   8.3457570942949699E-003   5.6134685451766947E-002
  -3.8217424292721715E-002   1.1532597214390039E-002   5.3301607883234896E-002
  -3.6933602215386697E-002   1.1087636248994420E-002   5.2951103575782137E-002
  -3.5649780138051680E-002   1.0644226180444104E-002   5.2798448649108320E-002
  -3.4365958060716670E-002   1.0202367008738901E-002   5.2843643103213593E-002
  -3.3082135983381646E-002   9.7620587338789755E-003   5.3086686938097892E-002
  -4.3813661685585495E-002   1.3200463825113140E-002   5.0364240856344278E-002
  -4.2326085942631944E-002   1.2685835510296589E-002   4.9954901714194228E-002
  -4.0838510199678428E-002   1.2177275496749379E-002   4.9755220522502197E-002
  -3.9350934456724912E-002   1.1674783784471475E-002   4.9765197281268145E-002
  -3.7863358713771361E-002   1.1178360373462759E-002   4.9984831990492085E-002
  -1.8866354431481151E-002   5.5131538151271808E-003   6.2069113177295243E-002
  -1.7958266845300296E-002   5.2326013353899137E-003   6.1786405399526456E-002
  -1.7050179259119447E-002   4.9468709454331961E-003   6.1719210397560620E-002
  -1.6142091672938588E-002   4.6559626452566047E-003   6.1867528171397651E-002
  -1.5234004086757742E-002   4.3598764348610208E-003   6.2231358721037466E-002
  -2.3583633842236544E-002   6.9294554547110199E-003   5.9128827531499478E-002
  -2.2460998957579879E-002   6.5929816310752176E-003   5.8816597016344091E-002
  -2.1338364072923187E-002   6.2472000772960112E-003   5.8717948322337468E-002
  -2.0215729188266477E-002   5.8921107933733313E-003   5.8832881449479700E-002
  -1.9093094303609830E-002   5.5277137793073861E-003   5.9161396397770682E-002
  -2.8322227692870093E-002   8.3457570942949699E-003   5.6134685451766947E-002
  -2.6986976464391625E-002   7.9533619267605354E-003   5.5788802379301144E-002
  -2.5651725235913216E-002   7.5475292091588403E-003   5.5654570173329962E-002
  -2.4316474007434800E-002   7.1282589414898949E-003   5.5731988833853489E-002
  -2.2981222778956367E-002   6.6955511237538068E-003   5.6021058360871651E-002
  -3.3082135983381646E-002   9.7620587338789755E-003   5.3086686938097892E-002
  -3.1536199365735630E-002   9.3137422224459018E-003   5.2703021488397700E-002
  -2.9990262748089580E-002   8.8478583410217734E-003   5.2529075950538101E-002
  -2.8444326130443516E-002   8.3644070896064845E-003   5.2564850324519026E-002
  -2.6898389512797508E-002   7.8633884682001998E-003   5.2810344610340662E-002
  -3.7863358713771361E-002   1.1178360373462759E-002   4.9984831990492085E-002
  -3.6108667661611790E-002   1.0674122518131129E-002   4.9559254343633730E-002
  -3.4353976609452233E-002   1.0148187472884526E-002   4.9341465653961941E-002
  -3.2599285557292648E-002   9.6005552377230845E-003   4.9331465921476428E-002
  -3.0844594505133105E-002   9.0312258126466483E-003   4.9529255146177509E-002
  -1.5234004086757742E-002   4.3598764348610208E-003   6.2231358721037466E-002
  -1.4374671808172972E-002   4.0567765370442821E-003   6.2079457556908135E-002
  -1.3515339529588204E-002   3.7448271746053363E-003   6.2148943195300177E-002
  -1.2656007251003432E-002   3.4240283475444888E-003   6.2439815636213314E-002
  -1.1796674972418666E-002   3.0943800558612677E-003   6.2952074879647602E-002
  -1.9093094303609830E-002   5.5277137793073861E-003   5.9161396397770682E-002
  -1.8019541749320085E-002   5.1554062975412984E-003   5.8965609113390882E-002
  -1.6945989195030389E-002   4.7765856105177751E-003   5.8976875577899796E-002
  -1.5872436640740673E-002   4.3912517182376834E-003   5.9195195791297367E-002
  -1.4798884086450952E-002   3.9994046207003642E-003   5.9620569753583430E-002
  -2.2981222778956367E-002   6.6955511237538068E-003   5.6021058360871651E-002
  -2.1707783002594329E-002   6.2540360580380927E-003   5.5783721215606596E-002
  -2.0434343226232284E-002   5.8083440464303249E-003   5.5739104765597625E-002
  -1.9160903449870252E-002   5.3584750889307670E-003   5.5887209010844555E-002
  -1.7887463673508196E-002   4.9044291855392941E-003   5.6228033951347733E-002
  -2.6898389512797508E-002   7.8633884682001998E-003   5.2810344610340662E-002
  -2.5439395567995734E-002   7.3526658185348870E-003   5.2533793863555382E-002
  -2.3980401623193957E-002   6.8401024823428747E-003   5.2435630758393512E-002
  -2.2521407678392183E-002   6.3256984596240171E-003   5.2515855294855245E-002
  -2.1062413733590402E-002   5.8094537503782517E-003   5.2774467472940130E-002
  -3.0844594505133105E-002   9.0312258126466483E-003   4.9529255146177509E-002
  -2.9214379445524213E-002   8.4512955790316813E-003   4.9215827057237205E-002
  -2.7584164385915336E-002   7.8718609182552995E-003   4.9066453556287665E-002
  -2.5953949326306465E-002   7.2929218303170971E-003   4.9081134643328903E-002
  -2.4323734266697566E-002   6.7144783152173204E-003   4.9259870318361099E-002
  -1.1796674972418666E-002   3.0943800558612677E-003   6.2952074879647602E-002
  -1.0823018434525239E-002   2.7691469733966967E-003   6.2924452019971766E-002
  -9.8493618966317906E-003   2.4615937739918825E-003   6.3123299386940279E-002
  -8.8757053587383422E-003   2.1717204576463187E-003   6.3548616980553335E-002
  -7.9020488208449147E-003   1.8995270243608031E-003   6.4200404800810795E-002
  -1.4798884086450952E-002   3.9994046207003642E-003   5.9620569753583430E-002
  -1.3603019822023582E-002   3.6092406048364722E-003   5.9516093546603921E-002
  -1.2407155557596162E-002   3.2289559575774396E-003   5.9629562566047872E-002
  -1.1211291293168772E-002   2.8585506789224613E-003   5.9960976811915173E-002
  -1.0015427028741371E-002   2.4980247688718427E-003   6.0510336284205990E-002
  -1.7887463673508196E-002   4.9044291855392941E-003   5.6228033951347733E-002
  -1.6477916682767966E-002   4.4493342362764143E-003   5.6038903882609431E-002
  -1.5068369692027704E-002   3.9963181411627885E-003   5.6059194040073437E-002
  -1.3658822701287442E-002   3.5453809001983853E-003   5.6288904423739926E-002
  -1.2249275710547181E-002   3.0965225133831598E-003   5.6728035033608432E-002
  -2.1062413733590402E-002   5.8094537503782517E-003   5.2774467472940130E-002
  -1.9447709016758435E-002   5.2894278677163842E-003   5.2492883027988158E-002
  -1.7833004299926389E-002   4.7636803247482970E-003   5.2412193809017210E-002
  -1.6218299583094370E-002   4.2322111214741411E-003   5.2532399816027468E-002
  -1.4603594866262372E-002   3.6950202578942826E-003   5.2853501049019230E-002
  -2.4323734266697566E-002   6.7144783152173204E-003   4.9259870318361099E-002
  -2.2512396823994946E-002   6.1295214991561320E-003   4.8878030982739906E-002
  -2.0701059381292242E-002   5.5310425083336112E-003   4.8688561872878899E-002
  -1.8889721938589545E-002   4.9190413427501536E-003   4.8691462988778023E-002
  -1.7078384495886917E-002   4.2935180024056274E-003   4.8886734330437220E-002
  -7.9020488208449147E-003   1.8995270243608031E-003   6.4200404800810795E-002
  -6.9688765874997977E-003   1.6907757974730098E-003   6.4107799709363644E-002
  -6.0357043541546807E-003   1.5912291003212786E-003   6.4265775270440639E-002
  -5.1025321208095602E-003   1.6008869329063868E-003   6.4674331484041780E-002
  -4.1693598874644466E-003   1.7197492952278903E-003   6.5333468350167068E-002
  -1.0015427028741371E-002   2.4980247688718427E-003   6.0510336284205990E-002
  -8.8312059436370764E-003   2.1983414475529317E-003   6.0408234087381996E-002
  -7.6469848585327786E-003   2.0104639350926323E-003   6.0557648941552245E-002
  -6.4627637734285034E-003   1.9343922314908057E-003   6.0958580846716653E-002
  -5.2785426883241865E-003   1.9701263367474242E-003   6.1611029802875417E-002
  -1.2249275710547181E-002   3.0965225133831598E-003   5.6728035033608432E-002
  -1.0813069375213629E-002   2.7059070976329092E-003   5.6619037010530088E-002
  -9.3768630398800290E-003   2.4296987698635419E-003   5.6762492436915835E-002
  -7.9406567045464393E-003   2.2678975300748916E-003   5.7158401312766074E-002
  -6.5044503692128497E-003   2.2205033782670691E-003   5.7806763638080655E-002
  -1.4603594866262372E-002   3.6950202578942826E-003   5.2853501049019230E-002
  -1.2914466882229383E-002   3.2134727477129699E-003   5.2740208478808087E-002
  -1.1225338898196376E-002   2.8489336046345071E-003   5.2880305756531687E-002
  -9.5362109141633906E-003   2.6014028286590329E-003   5.3273792882189627E-002
  -7.8470829301303807E-003   2.4708804197867695E-003   5.3920669855781998E-002
  -1.7078384495886917E-002   4.2935180024056274E-003   4.8886734330437220E-002
  -1.5135398464684383E-002   3.7210383977928085E-003   4.8771748492215994E-002
  -1.3192412433481876E-002   3.2681684394057775E-003   4.8911088900399524E-002
  -1.1249426402279342E-002   2.9349081272432229E-003   4.9304755554987478E-002
  -9.3064403710768351E-003   2.7212574613061369E-003   4.9952748455980189E-002
  -4.1693598874644466E-003   1.7197492952278903E-003   6.5333468350167068E-002
  -3.6370327877806238E-003   2.0098561816960792E-003   6.4418464861102587E-002
  -3.1047056880967837E-003   2.5332475867205495E-003   6.3621566626108683E-002
  -2.5723785884129539E-003   3.2899235103016553E-003   6.2942773645185274E-002
  -2.0400514887291207E-003   4.2798839524397225E-003   6.2382085918332497E-002
  -5.2785426883241865E-003   1.9701263367474242E-003   6.1611029802875417E-002
  -4.6018681160701347E-003   2.2249903217199662E-003   6.0885412886846513E-002
  -3.9251935438160655E-003   2.8063082572657716E-003   6.0330385661887503E-002
  -3.2485189715620137E-003   3.7140801433839729E-003   5.9945948127998014E-002
  -2.5718443993079446E-003   4.9483059800756735E-003   5.9732100285178724E-002
  -6.5044503692128497E-003   2.2205033782670691E-003   5.7806763638080655E-002
  -5.6309438873893124E-003   2.4401244617443252E-003   5.7363702727103311E-002
  -4.7574374055657596E-003   3.0793689278107855E-003   5.7143715944195358E-002
  -3.8839309237422232E-003   4.1382367764664051E-003   5.7146803289356334E-002
  -3.0104244419186695E-003   5.6167280077113468E-003   5.7372964762586381E-002
  -7.8470829301303807E-003   2.4708804197867695E-003   5.3920669855781998E-002
  -6.7242601017381025E-003   2.6552586017687257E-003   5.3853334381873112E-002
  -5.6014372733458381E-003   3.3524295983560146E-003   5.4061557473032207E-002
  -4.4786144449535607E-003   4.5623934095486689E-003   5.4545339129259837E-002
  -3.3557916165612963E-003   6.2851500353472700E-003   5.5304679350555878E-002
  -9.3064403710768351E-003   2.7212574613061369E-003   4.9952748455980189E-002
  -7.8818167591166166E-003   2.8703927417926822E-003   5.0354307851155355E-002
  -6.4571931471563287E-003   3.6254902689012991E-003   5.1083910248398312E-002
  -5.0325695351960895E-003   4.9865500426309467E-003   5.2141555647708726E-002
  -3.6079459232358224E-003   6.9535720629830822E-003   5.3527244049086931E-002
  -2.0400514887291207E-003   4.2798839524397225E-003   6.2382085918332497E-002
  -2.2895555092239048E-003   5.5829765613163440E-003   5.8347900628466287E-002
  -2.5390595297186853E-003   7.2790489851154161E-003   5.4308862007652337E-002
  -2.7885635502134694E-003   9.3681012238363767E-003   5.0264970055891062E-002
  -3.0380675707082500E-003   1.1850133277479191E-002   4.6216224773181658E-002
  -2.5718443993079446E-003   4.9483059800756735E-003   5.9732100285178724E-002
  -2.8438153760265671E-003   6.5728045279402347E-003   5.6197049881352212E-002
  -3.1157863527451583E-003   8.6513945475789611E-003   5.2621918896025299E-002
  -3.3877573294637912E-003   1.1184076038991450E-002   4.9006707329198818E-002
  -3.6597283061823652E-003   1.4170849002177466E-002   4.5351415180871379E-002
  -3.0104244419186695E-003   5.6167280077113468E-003   5.7372964762586381E-002
  -3.3400896254136749E-003   7.5626324945637369E-003   5.4398160901651449E-002
  -3.6697548089086648E-003   1.0023740110042187E-002   5.1348049208663579E-002
  -3.9994199924036156E-003   1.3000050854146194E-002   4.8222629683623348E-002
  -4.3290851758986844E-003   1.6491564726876184E-002   4.5021902326530139E-002
  -3.3557916165612963E-003   6.2851500353472700E-003   5.5304679350555878E-002
  -3.7783782573852353E-003   8.5524604611873223E-003   5.2951233689364510E-002
  -4.2009648982091734E-003   1.1396085672505350E-002   5.0487252945567995E-002
  -4.6235515390331862E-003   1.4816025669301213E-002   4.7912737119166139E-002
  -5.0461381798570489E-003   1.8812280451574792E-002   4.5227686210158907E-002
  -3.6079459232358224E-003   6.9535720629830822E-003   5.3527244049086931E-002
  -4.1586812719413002E-003   9.5422884278110187E-003   5.1856268244491188E-002
  -4.7094166206467225E-003   1.2768431234968763E-002   5.0039530106737617E-002
  -5.2601519693522142E-003   1.6632000484456018E-002   4.8077029635826579E-002
  -5.8108873180576226E-003   2.1132996176273178E-002   4.5968766831757435E-002
  -5.0456181663725008E-002   1.4899606544998945E-002   5.3070540284267442E-002
  -4.8795551669190140E-002   1.4544478454137144E-002   5.1795004399202926E-002
  -4.7134921674655259E-002   1.4142911970535729E-002   5.0918775866194282E-002
  -4.5474291680120398E-002   1.3694907094194336E-002   5.0441854685241441E-002
  -4.3813661685585495E-002   1.3200463825113140E-002   5.0364240856344278E-002
  -5.7441767283814241E-002   1.6831234055067090E-002   4.6173642389325253E-002
  -5.5424650349272991E-002   1.6366617839687264E-002   4.5303476231266210E-002
  -5.3407533414731791E-002   1.5876198133978225E-002   4.4746976601164085E-002
  -5.1390416480190534E-002   1.5359974937940266E-002   4.4504143499018822E-002
  -4.9373299545649334E-002   1.4817948251573204E-002   4.4574976924830562E-002
  -6.3943041823314201E-002   1.8762861565135264E-002   3.9156938918659609E-002
  -6.1655078772865510E-002   1.8188757225237134E-002   3.8712777390016689E-002
  -5.9367115722416805E-002   1.7609484297420756E-002   3.8496641565231894E-002
  -5.7079152671968093E-002   1.7025042781686116E-002   3.8508531444305064E-002
  -5.4791189621519451E-002   1.6435432678033240E-002   3.8748447027236316E-002
  -6.9960005282224874E-002   2.0694489075203423E-002   3.2020429872270231E-002
  -6.7486836939967612E-002   2.0010896610787074E-002   3.2022907875454393E-002
  -6.5013668597710267E-002   1.9342770460863284E-002   3.2167770758397621E-002
  -6.2540500255453019E-002   1.8690110625432032E-002   3.2455018521100068E-002
  -6.0067331913195715E-002   1.8052917104493318E-002   3.2884651163561540E-002
  -7.5492657660546303E-002   2.2626116585271583E-002   2.4764115250157204E-002
  -7.2919924850579299E-002   2.1833035996337069E-002   2.5233867687579070E-002
  -7.0347192040612294E-002   2.1076056624305811E-002   2.5760364180661244E-002
  -6.7774459230645290E-002   2.0355178469177872E-002   2.6343604729403780E-002
  -6.5201726420678258E-002   1.9670401530953341E-002   2.6983589333806512E-002
  -4.3813661685585495E-002   1.3200463825113140E-002   5.0364240856344278E-002
  -4.2326085942631944E-002   1.2685835510296589E-002   4.9954901714194228E-002
  -4.0838510199678428E-002   1.2177275496749379E-002   4.9755220522502197E-002
  -3.9350934456724912E-002   1.1674783784471475E-002   4.9765197281268145E-002
  -3.7863358713771361E-002   1.1178360373462759E-002   4.9984831990492085E-002
  -4.9373299545649334E-002   1.4817948251573204E-002   4.4574976924830562E-002
  -4.7688940888650742E-002   1.4262893641903376E-002   4.4297418502957667E-002
  -4.6004582231652102E-002   1.3707586675956958E-002   4.4203767958717000E-002
  -4.4320223574653532E-002   1.3152027353734054E-002   4.4294025292108456E-002
  -4.2635864917654892E-002   1.2596215675234668E-002   4.4568190503132127E-002
  -5.4791189621519451E-002   1.6435432678033240E-002   3.8748447027236316E-002
  -5.2935798123301583E-002   1.5839951773510011E-002   3.8596348668094867E-002
  -5.1080406625083730E-002   1.5237897855164537E-002   3.8602408113759770E-002
  -4.9225015126865911E-002   1.4629270922996689E-002   3.8766625364230860E-002
  -4.7369623628648008E-002   1.4014070977006632E-002   3.9089000419508399E-002
  -6.0067331913195715E-002   1.8052917104493318E-002   3.2884651163561540E-002
  -5.8066657646584474E-002   1.7417009905116777E-002   3.2851692209605758E-002
  -5.6065983379973268E-002   1.6768209034372115E-002   3.2951140987630467E-002
  -5.4065309113362069E-002   1.6106514492259381E-002   3.3182997497635557E-002
  -5.2064634846750876E-002   1.5431926278778513E-002   3.3547261739621206E-002
  -6.5201726420678258E-002   1.9670401530953341E-002   2.6983589333806512E-002
  -6.3081519458499491E-002   1.8994068036723433E-002   2.7063449127490452E-002
  -6.0961312496320738E-002   1.8298520213579667E-002   2.7249966580329132E-002
  -5.8841105534141978E-002   1.7583758061521952E-002   2.7543141692322318E-002
  -5.6720898571963219E-002   1.6849781580550505E-002   2.7942974463470271E-002
  -3.7863358713771361E-002   1.1178360373462759E-002   4.9984831990492085E-002
  -3.6108667661611790E-002   1.0674122518131129E-002   4.9559254343633730E-002
  -3.4353976609452233E-002   1.0148187472884526E-002   4.9341465653961941E-002
  -3.2599285557292648E-002   9.6005552377230845E-003   4.9331465921476428E-002
  -3.0844594505133105E-002   9.0312258126466483E-003   4.9529255146177509E-002
  -4.2635864917654892E-002   1.2596215675234668E-002   4.4568190503132127E-002
  -4.0676899449182222E-002   1.2033484138763706E-002   4.4160203533500031E-002
  -3.8717933980709503E-002   1.1457165242625994E-002   4.3952976439307664E-002
  -3.6758968512236811E-002   1.0867258986821761E-002   4.3946509220555131E-002
  -3.4800003043764127E-002   1.0263765371350930E-002   4.4140801877242564E-002
  -4.7369623628648008E-002   1.4014070977006632E-002   3.9089000419508399E-002
  -4.5213412825608895E-002   1.3392845759396130E-002   3.8706713957351063E-002
  -4.3057202022569692E-002   1.2766143012367413E-002   3.8518158288886599E-002
  -4.0900991219530572E-002   1.2133962735920439E-002   3.8523333414115485E-002
  -3.8744780416491369E-002   1.1496304930055185E-002   3.8722239333037492E-002
  -5.2064634846750876E-002   1.5431926278778513E-002   3.3547261739621206E-002
  -4.9718207790891839E-002   1.4752207380028602E-002   3.3198785615186695E-002
  -4.7371780735032877E-002   1.4075120782108718E-002   3.3037011202698606E-002
  -4.5025353679173909E-002   1.3400666485019006E-002   3.3061938502157107E-002
  -4.2678926623314933E-002   1.2728844488759453E-002   3.3273567513562058E-002
  -5.6720898571963219E-002   1.6849781580550505E-002   2.7942974463470271E-002
  -5.4191284345031066E-002   1.6111569000661102E-002   2.7636418507007099E-002
  -5.1661670118098940E-002   1.5384098551850273E-002   2.7509535180743838E-002
  -4.9132055891166801E-002   1.4667370234117703E-002   2.7562324484680253E-002
  -4.6602441664234662E-002   1.3961384047463721E-002   2.7794786418816608E-002
  -3.0844594505133105E-002   9.0312258126466483E-003   4.9529255146177509E-002
  -2.9214379445524213E-002   8.4512955790316813E-003   4.9215827057237205E-002
  -2.7584164385915336E-002   7.8718609182552995E-003   4.9066453556287665E-002
  -2.5953949326306465E-002   7.2929218303170971E-003   4.9081134643328903E-002
  -2.4323734266697566E-002   6.7144783152173204E-003   4.9259870318361099E-002
  -3.4800003043764127E-002   1.0263765371350930E-002   4.4140801877242564E-002
  -3.3008311350959482E-002   9.6507955730308903E-003   4.3832992282814287E-002
  -3.1216619658154802E-002   9.0324607686792929E-003   4.3684081366786642E-002
  -2.9424927965350140E-002   8.4087609582959681E-003   4.3694069129159963E-002
  -2.7633236272545478E-002   7.7796961418808985E-003   4.3862955569933582E-002
  -3.8744780416491369E-002   1.1496304930055185E-002   3.8722239333037492E-002
  -3.6796768000081047E-002   1.0850295567029988E-002   3.8414187654251211E-002
  -3.4848755583670760E-002   1.0193060619103182E-002   3.8259878744275479E-002
  -3.2900743167260479E-002   9.5246000862746743E-003   3.8259312603110565E-002
  -3.0952730750850165E-002   8.8449139685444766E-003   3.8412489230755992E-002
  -4.2678926623314933E-002   1.2728844488759453E-002   3.3273567513562058E-002
  -4.0579749392888990E-002   1.2049795561029031E-002   3.2959413171547935E-002
  -3.8480572162463131E-002   1.1353660469527124E-002   3.2793845688754167E-002
  -3.6381394932037230E-002   1.0640439214253353E-002   3.2776865065181127E-002
  -3.4282217701611384E-002   9.9101317952082768E-003   3.2908471300828405E-002
  -4.6602441664234662E-002   1.3961384047463721E-002   2.7794786418816608E-002
  -4.4357255529383327E-002   1.3249295555028295E-002   2.7468668834704502E-002
  -4.2112069394531965E-002   1.2514260319950898E-002   2.7285982200222714E-002
  -3.9866883259680630E-002   1.1756278342232127E-002   2.7246726515371494E-002
  -3.7621697124829268E-002   1.0975349621871633E-002   2.7350901780150538E-002
  -2.4323734266697566E-002   6.7144783152173204E-003   4.9259870318361099E-002
  -2.2512396823994946E-002   6.1295214991561320E-003   4.8878030982739906E-002
  -2.0701059381292242E-002   5.5310425083336112E-003   4.8688561872878899E-002
  -1.8889721938589545E-002   4.9190413427501536E-003   4.8691462988778023E-002
  -1.7078384495886917E-002   4.2935180024056274E-003   4.8886734330437220E-002
  -2.7633236272545478E-002   7.7796961418808985E-003   4.3862955569933582E-002
  -2.5641353503771565E-002   7.1464396509206551E-003   4.3451028603256947E-002
  -2.3649470734997555E-002   6.5101648169005877E-003   4.3207822062962670E-002
  -2.1657587966223576E-002   5.8708716398214733E-003   4.3133335949050888E-002
  -1.9665705197449632E-002   5.2285601196832010E-003   4.3227570261521797E-002
  -3.0952730750850165E-002   8.8449139685444766E-003   3.8412489230755992E-002
  -2.8803952455382413E-002   8.1633578026848452E-003   3.7980978464725507E-002
  -2.6655174159914714E-002   7.4892871254677723E-003   3.7694538325699897E-002
  -2.4506395864447007E-002   6.8227019368931226E-003   3.7553168813679295E-002
  -2.2357617568979256E-002   6.1636022369611632E-003   3.7556869928663694E-002
  -3.4282217701611384E-002   9.9101317952082768E-003   3.2908471300828405E-002
  -3.2000193678827525E-002   9.1802759544493684E-003   3.2467880567145932E-002
  -2.9718169656043639E-002   8.4684094340347973E-003   3.2148710661090721E-002
  -2.7436145633259766E-002   7.7745322339646070E-003   3.1950961582662932E-002
  -2.5154121610475897E-002   7.0986443542390421E-003   3.1874633331862655E-002
  -3.7621697124829268E-002   1.0975349621871633E-002   2.7350901780150538E-002
  -3.5230077174106811E-002   1.0197194106213670E-002   2.6911734910517959E-002
  -3.2838457223384382E-002   9.4475317426019889E-003   2.6570339069135085E-002
  -3.0446837272661911E-002   8.7263625310358833E-003   2.6326714256001971E-002
  -2.8055217321939496E-002   8.0336864715168099E-003   2.6180860471118783E-002
  -1.7078384495886917E-002   4.2935180024056274E-003   4.8886734330437220E-002
  -1.5135398464684383E-002   3.7210383977928085E-003   4.8771748492215994E-002
  -1.3192412433481876E-002   3.2681684394057775E-003   4.8911088900399524E-002
  -1.1249426402279342E-002   2.9349081272432229E-003   4.9304755554987478E-002
  -9.3064403710768351E-003   2.7212574613061369E-003   4.9952748455980189E-002
  -1.9665705197449632E-002   5.2285601196832010E-003   4.3227570261521797E-002
  -1.7506918834471655E-002   4.6218131858211109E-003   4.3066345419622787E-002
  -1.5348132471493706E-002   4.0892137675697937E-003   4.3082394994870044E-002
  -1.3189346108515750E-002   3.6307618649306442E-003   4.3275718987263651E-002
  -1.1030559745537780E-002   3.2464574779019761E-003   4.3646317396803580E-002
  -2.2357617568979256E-002   6.1636022369611632E-003   3.7556869928663694E-002
  -2.0060082703484108E-002   5.5225879738491912E-003   3.7303943952472773E-002
  -1.7762547837989015E-002   4.9102590957344899E-003   3.7151240564170171E-002
  -1.5465012972493961E-002   4.3266156026175139E-003   3.7098759763755519E-002
  -1.3167478106998774E-002   3.7716574944977599E-003   3.7146501551228950E-002
  -2.5154121610475897E-002   7.0986443542390421E-003   3.1874633331862655E-002
  -2.2794890071721939E-002   6.4233627618771050E-003   3.1484544090766238E-002
  -2.0435658532967929E-002   5.7313044238991792E-003   3.1117625608299639E-002
  -1.8076426994213912E-002   5.0224693403046593E-003   3.0773877884462869E-002
  -1.5717195455459902E-002   4.2968575110933493E-003   3.0453300919255591E-002
  -2.8055217321939496E-002   8.0336864715168099E-003   2.6180860471118783E-002
  -2.5711340939184840E-002   7.3241375499056294E-003   2.5608145834502993E-002
  -2.3367464556430295E-002   6.5523497520632579E-003   2.4981550127258778E-002
  -2.1023588173675722E-002   5.7183230779917632E-003   2.4301073349385943E-002
  -1.8679711790921094E-002   4.8220575276892719E-003   2.3566715500884405E-002
  -9.3064403710768351E-003   2.7212574613061369E-003   4.9952748455980189E-002
  -7.8818167591166166E-003   2.8703927417926822E-003   5.0354307851155355E-002
  -6.4571931471563287E-003   3.6254902689012991E-003   5.1083910248398312E-002
  -5.0325695351960895E-003   4.9865500426309467E-003   5.2141555647708726E-002
  -3.6079459232358224E-003   6.9535720629830822E-003   5.3527244049086931E-002
  -1.1030559745537780E-002   3.2464574779019761E-003   4.3646317396803580E-002
  -9.2599410226994333E-003   3.1741300705920850E-003   4.4230914259012766E-002
  -7.4893222998610592E-003   3.6516091071064349E-003   4.5179458340910250E-002
  -5.7187035770227580E-003   4.6788945874457616E-003   4.6491949642496311E-002
  -3.9480848541843389E-003   6.2559865116100788E-003   4.8168388163771225E-002
  -1.3167478106998774E-002   3.7716574944977599E-003   3.7146501551228950E-002
  -1.1014960055661376E-002   3.4778673993907661E-003   3.7857980077674686E-002
  -8.8624420043240289E-003   3.6777279453116540E-003   3.8969310041429867E-002
  -6.7099239529866007E-003   4.3712391322602365E-003   4.0480491442494576E-002
  -4.5574059016492835E-003   5.5584009602367979E-003   4.2391524280869036E-002
  -1.5717195455459902E-002   4.2968575110933493E-003   3.0453300919255591E-002
  -1.3146873858002461E-002   3.7816047281896970E-003   3.1235505307141309E-002
  -1.0576552260545023E-002   3.7038467835169425E-003   3.2453465349957321E-002
  -8.0062306630876122E-003   4.0635836770748814E-003   3.4107181047703841E-002
  -5.4359090656302018E-003   4.8608154088635447E-003   3.6196652400381134E-002
  -1.8679711790921094E-002   4.8220575276892719E-003   2.3566715500884405E-002
  -1.5655682429722706E-002   4.0853420569889054E-003   2.4363489947412886E-002
  -1.2631653068524262E-002   3.7299656217220922E-003   2.5631924266492467E-002
  -9.6076237073258602E-003   3.7559282218894360E-003   2.7372018458123870E-002
  -6.5835943461274304E-003   4.1632298574905136E-003   2.9583772522306706E-002
  -3.6079459232358224E-003   6.9535720629830822E-003   5.3527244049086931E-002
  -4.1586812719413002E-003   9.5422884278110187E-003   5.1856268244491188E-002
  -4.7094166206467225E-003   1.2768431234968763E-002   5.0039530106737617E-002
  -5.2601519693522142E-003   1.6632000484456018E-002   4.8077029635826579E-002
  -5.8108873180576226E-003   2.1132996176273178E-002   4.5968766831757435E-002
  -3.9480848541843389E-003   6.2559865116100788E-003   4.8168388163771225E-002
  -4.5407548293939781E-003   8.6931799678047761E-003   4.7235969480596163E-002
  -5.1334248046035549E-003   1.2300770044236825E-002   4.6365443877570633E-002
  -5.7260947798131387E-003   1.7078756740905428E-002   4.5556811354694554E-002
  -6.3187647550227710E-003   2.3027140057811035E-002   4.4810071911967952E-002
  -4.5574059016492835E-003   5.5584009602367979E-003   4.2391524280869036E-002
  -4.9843550900556775E-003   7.8440715077991441E-003   4.2730632897021864E-002
  -5.4113042784620785E-003   1.1833108853505206E-002   4.3339290006631684E-002
  -5.8382534668685628E-003   1.7525512997355278E-002   4.4217495609697545E-002
  -6.2652026552749845E-003   2.4921283939348893E-002   4.5365249706221134E-002
  -5.4359090656302018E-003   4.8608154088635447E-003   3.6196652400381134E-002
  -5.4894820539261860E-003   6.9949630477933178E-003   3.8340258493768438E-002
  -5.5430550422221718E-003   1.1365447662773982E-002   4.0961068493919783E-002
  -5.5966280305181576E-003   1.7972269253805018E-002   4.4059082400835489E-002
  -5.6502010188141417E-003   2.6815427820886750E-002   4.7634300214515091E-002
  -6.5835943461274304E-003   4.1632298574905136E-003   2.9583772522306706E-002
  -6.0561357210056621E-003   6.1458545877871584E-003   3.4064846270835614E-002
  -5.5286770958838938E-003   1.0897786472041981E-002   3.9230779339436084E-002
  -5.0012184707621393E-003   1.8419025510254677E-002   4.5081571728108283E-002
  -4.4737598456403571E-003   2.8709571702424608E-002   5.1617223436851489E-002
  -7.5492657660546303E-002   2.2626116585271583E-002   2.4764115250157204E-002
  -7.2919924850579299E-002   2.1833035996337069E-002   2.5233867687579070E-002
  -7.0347192040612294E-002   2.1076056624305811E-002   2.5760364180661244E-002
  -6.7774459230645290E-002   2.0355178469177872E-002   2.6343604729403780E-002
  -6.5201726420678258E-002   1.9670401530953341E-002   2.6983589333806512E-002
  -8.1064335709569640E-002   2.4422703869197038E-002   2.0111028646666529E-002
  -7.8385011019895590E-002   2.3610309401025542E-002   2.0096470209282680E-002
  -7.5705686330221469E-002   2.2818221162232200E-002   2.0238351475652644E-002
  -7.3026361640547460E-002   2.2046439152816913E-002   2.0536672445776630E-002
  -7.0347036950873354E-002   2.1294963372779835E-002   2.0991433119654568E-002
  -8.7198376180586568E-002   2.6219291153122437E-002   1.5446525657701410E-002
  -8.4312763963111687E-002   2.5387582805714043E-002   1.4931861357986728E-002
  -8.1427151745636916E-002   2.4560385700158574E-002   1.4673332410119311E-002
  -7.8541539528162077E-002   2.3737699836456062E-002   1.4670938814099616E-002
  -7.5655927310687265E-002   2.2919525214606440E-002   1.4924680569927337E-002
  -9.3894779073596502E-002   2.8015878437047809E-002   1.0770606283262089E-002
  -9.0703183680227312E-002   2.7164856210402530E-002   9.7400411336912296E-003
  -8.7511588286858288E-002   2.6302550238084844E-002   9.0653069840612027E-003
  -8.4319992893489154E-002   2.5428960520095210E-002   8.7464038343726350E-003
  -8.1128397500120020E-002   2.4544087056433017E-002   8.7833316846250772E-003
 -0.10115354438859980        2.9812465720973291E-002   6.0832705233484496E-003
  -9.7556270171242798E-002   2.8942129615090906E-002   4.5210095363961145E-003
  -9.3958995953885793E-002   2.8044714776011448E-002   3.4142751974786667E-003
  -9.0361721736528677E-002   2.7120221203734141E-002   2.7630675065958982E-003
  -8.6764447519171672E-002   2.6168648898259539E-002   2.5673864637476562E-003
  -6.5201726420678258E-002   1.9670401530953341E-002   2.6983589333806512E-002
  -6.3081519458499491E-002   1.8994068036723433E-002   2.7063449127490452E-002
  -6.0961312496320738E-002   1.8298520213579667E-002   2.7249966580329132E-002
  -5.8841105534141978E-002   1.7583758061521952E-002   2.7543141692322318E-002
  -5.6720898571963219E-002   1.6849781580550505E-002   2.7942974463470271E-002
  -7.0347036950873354E-002   2.1294963372779835E-002   2.0991433119654568E-002
  -6.8104763556568665E-002   2.0548716978683684E-002   2.0908590963485879E-002
  -6.5862490162264017E-002   1.9792623127091326E-002   2.0963224012414405E-002
  -6.3620216767959342E-002   1.9026681818002884E-002   2.1155332266440154E-002
  -6.1377943373654695E-002   1.8250893051417860E-002   2.1484915725563131E-002
  -7.5655927310687265E-002   2.2919525214606440E-002   1.4924680569927337E-002
  -7.3260769938314069E-002   2.2103365920644158E-002   1.4688503335323753E-002
  -7.0865612565940955E-002   2.1286726040602985E-002   1.4620618851759845E-002
  -6.8470455193567772E-002   2.0469605574483598E-002   1.4721027119235772E-002
  -6.6075297821194631E-002   1.9652004522285382E-002   1.4989728137751568E-002
  -8.1128397500120020E-002   2.4544087056433017E-002   8.7833316846250772E-003
  -7.8549538603735786E-002   2.3658014862604215E-002   8.4031862430040249E-003
  -7.5970679707351552E-002   2.2780828954114700E-002   8.2221510983656702E-003
  -7.3391820810967276E-002   2.1912529330964450E-002   8.2402262507093506E-003
  -7.0812961914583097E-002   2.1053115993152877E-002   8.4574117000355484E-003
  -8.6764447519171672E-002   2.6168648898259539E-002   2.5673864637476562E-003
  -8.3971069552833733E-002   2.5212663804564939E-002   2.0526396865270247E-003
  -8.1177691586495848E-002   2.4274931867626470E-002   1.7678207522315303E-003
  -7.8384313620157936E-002   2.3355453087445285E-002   1.7129296608609929E-003
  -7.5590935653820024E-002   2.2454227464020371E-002   1.8879664124151763E-003
  -5.6720898571963219E-002   1.6849781580550505E-002   2.7942974463470271E-002
  -5.4191284345031066E-002   1.6111569000661102E-002   2.7636418507007099E-002
  -5.1661670118098940E-002   1.5384098551850273E-002   2.7509535180743838E-002
  -4.9132055891166801E-002   1.4667370234117703E-002   2.7562324484680253E-002
  -4.6602441664234662E-002   1.3961384047463721E-002   2.7794786418816608E-002
  -6.1377943373654695E-002   1.8250893051417860E-002   2.1484915725563131E-002
  -5.8664267159573416E-002   1.7473251284359836E-002   2.1150881274014932E-002
  -5.5950590945492144E-002   1.6701750973851681E-002   2.1005298166565142E-002
  -5.3236914731410859E-002   1.5936392119893381E-002   2.1048166403213796E-002
  -5.0523238517329594E-002   1.5177174722484810E-002   2.1279485983960955E-002
  -6.6075297821194631E-002   1.9652004522285382E-002   1.4989728137751568E-002
  -6.3168780906065591E-002   1.8834933568058584E-002   1.4623614516589833E-002
  -6.0262263990936586E-002   1.8019403395853048E-002   1.4454730953425081E-002
  -5.7355747075807553E-002   1.7205414005668728E-002   1.4483077448257289E-002
  -5.4449230160678527E-002   1.6392965397505788E-002   1.4708654001086591E-002
  -7.0812961914583097E-002   2.1053115993152877E-002   8.4574117000355484E-003
  -6.7704825584507716E-002   2.0196615851757131E-002   8.0546182347315427E-003
  -6.4596689254432335E-002   1.9337055817854547E-002   7.8578335413233280E-003
  -6.1488552924356961E-002   1.8474435891444409E-002   7.8670576198104237E-003
  -5.8380416594281587E-002   1.7608756072526877E-002   8.0822904701935566E-003
  -7.5590935653820024E-002   2.2454227464020371E-002   1.8879664124151763E-003
  -7.2272401194899694E-002   2.1558298135456122E-002   1.4438924284402299E-003
  -6.8953866735979363E-002   2.0654708239856046E-002   1.2146059302597934E-003
  -6.5635332277059033E-002   1.9743457777219586E-002   1.2001069178734503E-003
  -6.2316797818138703E-002   1.8824546747547966E-002   1.4003953912816725E-003
  -4.6602441664234662E-002   1.3961384047463721E-002   2.7794786418816608E-002
  -4.4357255529383327E-002   1.3249295555028295E-002   2.7468668834704502E-002
  -4.2112069394531965E-002   1.2514260319950898E-002   2.7285982200222714E-002
  -3.9866883259680630E-002   1.1756278342232127E-002   2.7246726515371494E-002
  -3.7621697124829268E-002   1.0975349621871633E-002   2.7350901780150538E-002
  -5.0523238517329594E-002   1.5177174722484810E-002   2.1279485983960955E-002
  -4.8133315569242163E-002   1.4415968264338191E-002   2.0932946312866463E-002
  -4.5743392621154649E-002   1.3644642228164708E-002   2.0732449318613622E-002
  -4.3353469673067184E-002   1.2863196613965001E-002   2.0677995001202654E-002
  -4.0963546724979705E-002   1.2071631421738560E-002   2.0769583360633614E-002
  -5.4449230160678527E-002   1.6392965397505788E-002   1.4708654001086591E-002
  -5.1911958672143599E-002   1.5582640973648032E-002   1.4354519407624833E-002
  -4.9374687183608643E-002   1.4775024136378684E-002   1.4149039218216031E-002
  -4.6837415695073666E-002   1.3970114885697708E-002   1.4092213432860462E-002
  -4.4300144206538758E-002   1.3167913221605376E-002   1.4184042051558016E-002
  -5.8380416594281587E-002   1.7608756072526877E-002   8.0822904701935566E-003
  -5.5693184838087793E-002   1.6749313682957900E-002   7.7333881189794763E-003
  -5.3005953081893931E-002   1.5905406044592021E-002   7.5357518990298508E-003
  -5.0318721325700123E-002   1.5077033157430388E-002   7.4893818103447078E-003
  -4.7631489569506275E-002   1.4264195021472581E-002   7.5942778529245608E-003
  -6.2316797818138703E-002   1.8824546747547966E-002   1.4003953912816725E-003
  -5.9476994067074629E-002   1.7915986392267547E-002   1.0695524469303552E-003
  -5.6637190316010499E-002   1.7035787952806608E-002   8.9258736105518599E-004
  -5.3797386564946370E-002   1.6183951429163214E-002   8.6950013365587331E-004
  -5.0957582813882296E-002   1.5360476821338898E-002   1.0002907647324033E-003
  -3.7621697124829268E-002   1.0975349621871633E-002   2.7350901780150538E-002
  -3.5230077174106811E-002   1.0197194106213670E-002   2.6911734910517959E-002
  -3.2838457223384382E-002   9.4475317426019889E-003   2.6570339069135085E-002
  -3.0446837272661911E-002   8.7263625310358833E-003   2.6326714256001971E-002
  -2.8055217321939496E-002   8.0336864715168099E-003   2.6180860471118783E-002
  -4.0963546724979705E-002   1.2071631421738560E-002   2.0769583360633614E-002
  -3.8473532866231439E-002   1.1282789763775725E-002   2.0358321388668277E-002
  -3.5983519007483269E-002   1.0509514752366098E-002   2.0046076204504548E-002
  -3.3493505148735066E-002   9.7518063875091758E-003   1.9832847808142692E-002
  -3.1003491289986834E-002   9.0096646692059412E-003   1.9718636199582640E-002
  -4.4300144206538758E-002   1.3167913221605376E-002   1.4184042051558016E-002
  -4.1710490680212736E-002   1.2368385421337835E-002   1.3787758471766706E-002
  -3.9120837153886680E-002   1.1571497762130095E-002   1.3491737439329576E-002
  -3.6531183627560679E-002   1.0777250243982579E-002   1.3295978954245849E-002
  -3.3941530101234643E-002   9.9856428668949060E-003   1.3200483016516218E-002
  -4.7631489569506275E-002   1.4264195021472581E-002   7.5942778529245608E-003
  -4.4940950616050468E-002   1.3453981078899141E-002   7.2000461598145209E-003
  -4.2250411662594592E-002   1.2633480771894093E-002   6.9073227736099925E-003
  -3.9559872709138785E-002   1.1802694100455872E-002   6.7161076943117286E-003
  -3.6869333755682916E-002   1.0961621064584565E-002   6.6264009219189138E-003
  -5.0957582813882296E-002   1.5360476821338898E-002   1.0002907647324033E-003
  -4.8164912673744675E-002   1.4539576736461779E-002   5.9518445281048216E-004
  -4.5372242533606999E-002   1.3695463781658257E-002   2.9283220734635518E-004
  -4.2579572393469378E-002   1.2828137956928734E-002   9.3234028339890529E-005
  -3.9786902253331702E-002   1.1937599262273224E-002  -3.6100842085717844E-006
  -2.8055217321939496E-002   8.0336864715168099E-003   2.6180860471118783E-002
  -2.5711340939184840E-002   7.3241375499056294E-003   2.5608145834502993E-002
  -2.3367464556430295E-002   6.5523497520632579E-003   2.4981550127258778E-002
  -2.1023588173675722E-002   5.7183230779917632E-003   2.4301073349385943E-002
  -1.8679711790921094E-002   4.8220575276892719E-003   2.3566715500884405E-002
  -3.1003491289986834E-002   9.0096646692059412E-003   1.9718636199582640E-002
  -2.8696852121896377E-002   8.2717980097061217E-003   1.9138172873142456E-002
  -2.6390212953805905E-002   7.5269148212600001E-003   1.8537116188002384E-002
  -2.4083573785715441E-002   6.7750151038673823E-003   1.7915466144162590E-002
  -2.1776934617624921E-002   6.0160988575282959E-003   1.7273222741623073E-002
  -3.3941530101234643E-002   9.9856428668949060E-003   1.3200483016516218E-002
  -3.1638840435879577E-002   9.2194584695069193E-003   1.2667493347535502E-002
  -2.9336150770524434E-002   8.5014798904560485E-003   1.2147198031783782E-002
  -2.7033461105169354E-002   7.8317071297428834E-003   1.1639597069261057E-002
  -2.4730771439814281E-002   7.2101401873674864E-003   1.1144690459967382E-002
  -3.6869333755682916E-002   1.0961621064584565E-002   6.6264009219189138E-003
  -3.4537305881134427E-002   1.0167118929307009E-002   6.1961072576817294E-003
  -3.2205278006585930E-002   9.4760449596523327E-003   5.8117956586025560E-003
  -2.9873250132037392E-002   8.8883991556179993E-003   5.4734661246811055E-003
  -2.7541222257488954E-002   8.4041815172066492E-003   5.1811186559172703E-003
  -3.9786902253331702E-002   1.1937599262273224E-002  -3.6100842085717844E-006
  -3.7392248457660981E-002   1.1114779389107987E-002  -2.7598539641809916E-004
  -3.4997594661990317E-002   1.0450610028848284E-002  -4.6909093154132164E-004
  -3.2602940866319624E-002   9.9450911814941978E-003  -5.8292668957773269E-004
  -3.0208287070648931E-002   9.5982228470457009E-003  -6.1749267052779722E-004
  -1.8679711790921094E-002   4.8220575276892719E-003   2.3566715500884405E-002
  -1.5655682429722706E-002   4.0853420569889054E-003   2.4363489947412886E-002
  -1.2631653068524262E-002   3.7299656217220922E-003   2.5631924266492467E-002
  -9.6076237073258602E-003   3.7559282218894360E-003   2.7372018458123870E-002
  -6.5835943461274304E-003   4.1632298574905136E-003   2.9583772522306706E-002
  -2.1776934617624921E-002   6.0160988575282959E-003   1.7273222741623073E-002
  -1.8550170018424961E-002   5.3459859583471769E-003   1.8227439687464042E-002
  -1.5323405419225056E-002   4.8604962824274067E-003   1.9115467236756584E-002
  -1.2096640820025040E-002   4.5596298297698040E-003   1.9937305389500906E-002
  -8.8698762208250792E-003   4.4433866003737998E-003   2.0692954145696496E-002
  -2.4730771439814281E-002   7.2101401873674864E-003   1.1144690459967382E-002
  -2.1839120871712539E-002   6.6066298597054207E-003   1.2059634092948857E-002
  -1.8947470303610839E-002   5.9910269431329571E-003   1.2370539060281835E-002
  -1.6055819735509205E-002   5.3633314376501755E-003   1.2077405361966810E-002
  -1.3164169167407508E-002   4.7235433432568641E-003   1.1180232998003414E-002
  -2.7541222257488954E-002   8.4041815172066492E-003   5.1811186559172703E-003
  -2.5522534989585278E-002   7.8672737610636784E-003   5.8600731638665110E-003
  -2.3503847721681653E-002   7.1215576038386116E-003   5.3971397370676903E-003
  -2.1485160453778039E-002   6.1670330455307672E-003   3.7923183755209765E-003
  -1.9466473185874359E-002   5.0037000861397063E-003   1.0456090792263228E-003
  -3.0208287070648931E-002   9.5982228470457009E-003  -6.1749267052779722E-004
  -2.9600412372043139E-002   9.1279176624221581E-003  -3.7124309978242565E-004
  -2.8992537673437513E-002   8.2520882645439331E-003  -1.8047307328847850E-003
  -2.8384662974831859E-002   6.9707346534109427E-003  -4.9179555698355415E-003
  -2.7776788276226094E-002   5.2838568290232146E-003  -9.7109176106335848E-003
  -6.5835943461274304E-003   4.1632298574905136E-003   2.9583772522306706E-002
  -6.0561357210056621E-003   6.1458545877871584E-003   3.4064846270835614E-002
  -5.5286770958838938E-003   1.0897786472041981E-002   3.9230779339436084E-002
  -5.0012184707621393E-003   1.8419025510254677E-002   4.5081571728108283E-002
  -4.4737598456403571E-003   2.8709571702424608E-002   5.1617223436851489E-002
  -8.8698762208250792E-003   4.4433866003737998E-003   2.0692954145696496E-002
  -7.5851474319226508E-003   5.6609860177010418E-003   2.5864612278121479E-002
  -6.3004186430202225E-003   9.3616475052120396E-003   3.1865951418036220E-002
  -5.0156898541178635E-003   1.5545371062908146E-002   3.8696971565440913E-002
  -3.7309610652152547E-003   2.4212156690788911E-002   4.6357672720335419E-002
  -1.3164169167407508E-002   4.7235433432568641E-003   1.1180232998003414E-002
  -1.0977348527305780E-002   5.1761174476136484E-003   1.6756230430550689E-002
  -8.7905278872042608E-003   7.8255085383824308E-003   2.3306730558006583E-002
  -6.6037072471026199E-003   1.2671716615562392E-002   3.0831733380370555E-002
  -4.4168866070010138E-003   1.9714741679153436E-002   3.9331238897643450E-002
  -1.9466473185874359E-002   5.0037000861397063E-003   1.0456090792263228E-003
  -1.6232739007155123E-002   4.6912488775267824E-003   6.7397007281232504E-003
  -1.2999004828435830E-002   6.2893695715523223E-003   1.3553116759347020E-002
  -9.7652706497163462E-003   9.7980621682164717E-003   2.1485857172898623E-002
  -6.5315364709973012E-003   1.5217326667517628E-002   3.0537921968775972E-002
  -2.7776788276226094E-002   5.2838568290232146E-003  -9.7109176106335848E-003
  -2.3351318871470461E-002   4.2063803074403605E-003  -4.1849768291605249E-003
  -1.8925849466714939E-002   4.7532306047222139E-003   2.6051100220583767E-003
  -1.4500380061959417E-002   6.9244077208702737E-003   1.0659342943021857E-002
  -1.0074910657203784E-002   1.0719911655882264E-002   1.9977721933731818E-002
 </DataArray>
 </PointData>
 </Piece>
 </UnstructuredGrid>
 </VTKFile>
