 <VTKFile type="UnstructuredGrid"  version="0.1"   >
 <UnstructuredGrid>
 <Piece  NumberOfPoints="           400 "  NumberOfCells="          256 ">
 <Points>
 <DataArray  type="Float64" NumberOfComponents="3"  format="ascii" >
   0.0000000000000000        0.0000000000000000        0.0000000000000000     
   6.2500000000000000E-002   0.0000000000000000        0.0000000000000000     
  0.12500000000000000        0.0000000000000000        0.0000000000000000     
  0.18750000000000000        0.0000000000000000        0.0000000000000000     
  0.25000000000000000        0.0000000000000000        0.0000000000000000     
   0.0000000000000000        6.2500000000000000E-002   0.0000000000000000     
   6.2500000000000000E-002   6.2500000000000000E-002   0.0000000000000000     
  0.12500000000000000        6.2500000000000000E-002   0.0000000000000000     
  0.18750000000000000        6.2500000000000000E-002   0.0000000000000000     
  0.25000000000000000        6.2500000000000000E-002   0.0000000000000000     
   0.0000000000000000       0.12500000000000000        0.0000000000000000     
   6.2500000000000000E-002  0.12500000000000000        0.0000000000000000     
  0.12500000000000000       0.12500000000000000        0.0000000000000000     
  0.18750000000000000       0.12500000000000000        0.0000000000000000     
  0.25000000000000000       0.12500000000000000        0.0000000000000000     
   0.0000000000000000       0.18750000000000000        0.0000000000000000     
   6.2500000000000000E-002  0.18750000000000000        0.0000000000000000     
  0.12500000000000000       0.18750000000000000        0.0000000000000000     
  0.18750000000000000       0.18750000000000000        0.0000000000000000     
  0.25000000000000000       0.18750000000000000        0.0000000000000000     
   0.0000000000000000       0.25000000000000000        0.0000000000000000     
   6.2500000000000000E-002  0.25000000000000000        0.0000000000000000     
  0.12500000000000000       0.25000000000000000        0.0000000000000000     
  0.18750000000000000       0.25000000000000000        0.0000000000000000     
  0.25000000000000000       0.25000000000000000        0.0000000000000000     
  0.25000000000000000        0.0000000000000000        0.0000000000000000     
  0.31250000000000000        0.0000000000000000        0.0000000000000000     
  0.37500000000000000        0.0000000000000000        0.0000000000000000     
  0.43750000000000000        0.0000000000000000        0.0000000000000000     
  0.50000000000000000        0.0000000000000000        0.0000000000000000     
  0.25000000000000000        6.2500000000000000E-002   0.0000000000000000     
  0.31250000000000000        6.2500000000000000E-002   0.0000000000000000     
  0.37500000000000000        6.2500000000000000E-002   0.0000000000000000     
  0.43750000000000000        6.2500000000000000E-002   0.0000000000000000     
  0.50000000000000000        6.2500000000000000E-002   0.0000000000000000     
  0.25000000000000000       0.12500000000000000        0.0000000000000000     
  0.31250000000000000       0.12500000000000000        0.0000000000000000     
  0.37500000000000000       0.12500000000000000        0.0000000000000000     
  0.43750000000000000       0.12500000000000000        0.0000000000000000     
  0.50000000000000000       0.12500000000000000        0.0000000000000000     
  0.25000000000000000       0.18750000000000000        0.0000000000000000     
  0.31250000000000000       0.18750000000000000        0.0000000000000000     
  0.37500000000000000       0.18750000000000000        0.0000000000000000     
  0.43750000000000000       0.18750000000000000        0.0000000000000000     
  0.50000000000000000       0.18750000000000000        0.0000000000000000     
  0.25000000000000000       0.25000000000000000        0.0000000000000000     
  0.31250000000000000       0.25000000000000000        0.0000000000000000     
  0.37500000000000000       0.25000000000000000        0.0000000000000000     
  0.43750000000000000       0.25000000000000000        0.0000000000000000     
  0.50000000000000000       0.25000000000000000        0.0000000000000000     
  0.50000000000000000        0.0000000000000000        0.0000000000000000     
  0.56250000000000000        0.0000000000000000        0.0000000000000000     
  0.62500000000000000        0.0000000000000000        0.0000000000000000     
  0.68750000000000000        0.0000000000000000        0.0000000000000000     
  0.75000000000000000        0.0000000000000000        0.0000000000000000     
  0.50000000000000000        6.2500000000000000E-002   0.0000000000000000     
  0.56250000000000000        6.2500000000000000E-002   0.0000000000000000     
  0.62500000000000000        6.2500000000000000E-002   0.0000000000000000     
  0.68750000000000000        6.2500000000000000E-002   0.0000000000000000     
  0.75000000000000000        6.2500000000000000E-002   0.0000000000000000     
  0.50000000000000000       0.12500000000000000        0.0000000000000000     
  0.56250000000000000       0.12500000000000000        0.0000000000000000     
  0.62500000000000000       0.12500000000000000        0.0000000000000000     
  0.68750000000000000       0.12500000000000000        0.0000000000000000     
  0.75000000000000000       0.12500000000000000        0.0000000000000000     
  0.50000000000000000       0.18750000000000000        0.0000000000000000     
  0.56250000000000000       0.18750000000000000        0.0000000000000000     
  0.62500000000000000       0.18750000000000000        0.0000000000000000     
  0.68750000000000000       0.18750000000000000        0.0000000000000000     
  0.75000000000000000       0.18750000000000000        0.0000000000000000     
  0.50000000000000000       0.25000000000000000        0.0000000000000000     
  0.56250000000000000       0.25000000000000000        0.0000000000000000     
  0.62500000000000000       0.25000000000000000        0.0000000000000000     
  0.68750000000000000       0.25000000000000000        0.0000000000000000     
  0.75000000000000000       0.25000000000000000        0.0000000000000000     
  0.75000000000000000        0.0000000000000000        0.0000000000000000     
  0.81250000000000000        0.0000000000000000        0.0000000000000000     
  0.87500000000000000        0.0000000000000000        0.0000000000000000     
  0.93750000000000000        0.0000000000000000        0.0000000000000000     
   1.0000000000000000        0.0000000000000000        0.0000000000000000     
  0.75000000000000000        6.2500000000000000E-002   0.0000000000000000     
  0.81250000000000000        6.2500000000000000E-002   0.0000000000000000     
  0.87500000000000000        6.2500000000000000E-002   0.0000000000000000     
  0.93750000000000000        6.2500000000000000E-002   0.0000000000000000     
   1.0000000000000000        6.2500000000000000E-002   0.0000000000000000     
  0.75000000000000000       0.12500000000000000        0.0000000000000000     
  0.81250000000000000       0.12500000000000000        0.0000000000000000     
  0.87500000000000000       0.12500000000000000        0.0000000000000000     
  0.93750000000000000       0.12500000000000000        0.0000000000000000     
   1.0000000000000000       0.12500000000000000        0.0000000000000000     
  0.75000000000000000       0.18750000000000000        0.0000000000000000     
  0.81250000000000000       0.18750000000000000        0.0000000000000000     
  0.87500000000000000       0.18750000000000000        0.0000000000000000     
  0.93750000000000000       0.18750000000000000        0.0000000000000000     
   1.0000000000000000       0.18750000000000000        0.0000000000000000     
  0.75000000000000000       0.25000000000000000        0.0000000000000000     
  0.81250000000000000       0.25000000000000000        0.0000000000000000     
  0.87500000000000000       0.25000000000000000        0.0000000000000000     
  0.93750000000000000       0.25000000000000000        0.0000000000000000     
   1.0000000000000000       0.25000000000000000        0.0000000000000000     
   0.0000000000000000       0.25000000000000000        0.0000000000000000     
   6.2500000000000000E-002  0.25000000000000000        0.0000000000000000     
  0.12500000000000000       0.25000000000000000        0.0000000000000000     
  0.18750000000000000       0.25000000000000000        0.0000000000000000     
  0.25000000000000000       0.25000000000000000        0.0000000000000000     
   0.0000000000000000       0.31250000000000000        0.0000000000000000     
   6.2500000000000000E-002  0.31250000000000000        0.0000000000000000     
  0.12500000000000000       0.31250000000000000        0.0000000000000000     
  0.18750000000000000       0.31250000000000000        0.0000000000000000     
  0.25000000000000000       0.31250000000000000        0.0000000000000000     
   0.0000000000000000       0.37500000000000000        0.0000000000000000     
   6.2500000000000000E-002  0.37500000000000000        0.0000000000000000     
  0.12500000000000000       0.37500000000000000        0.0000000000000000     
  0.18750000000000000       0.37500000000000000        0.0000000000000000     
  0.25000000000000000       0.37500000000000000        0.0000000000000000     
   0.0000000000000000       0.43750000000000000        0.0000000000000000     
   6.2500000000000000E-002  0.43750000000000000        0.0000000000000000     
  0.12500000000000000       0.43750000000000000        0.0000000000000000     
  0.18750000000000000       0.43750000000000000        0.0000000000000000     
  0.25000000000000000       0.43750000000000000        0.0000000000000000     
   0.0000000000000000       0.50000000000000000        0.0000000000000000     
   6.2500000000000000E-002  0.50000000000000000        0.0000000000000000     
  0.12500000000000000       0.50000000000000000        0.0000000000000000     
  0.18750000000000000       0.50000000000000000        0.0000000000000000     
  0.25000000000000000       0.50000000000000000        0.0000000000000000     
  0.25000000000000000       0.25000000000000000        0.0000000000000000     
  0.31250000000000000       0.25000000000000000        0.0000000000000000     
  0.37500000000000000       0.25000000000000000        0.0000000000000000     
  0.43750000000000000       0.25000000000000000        0.0000000000000000     
  0.50000000000000000       0.25000000000000000        0.0000000000000000     
  0.25000000000000000       0.31250000000000000        0.0000000000000000     
  0.31250000000000000       0.31250000000000000        0.0000000000000000     
  0.37500000000000000       0.31250000000000000        0.0000000000000000     
  0.43750000000000000       0.31250000000000000        0.0000000000000000     
  0.50000000000000000       0.31250000000000000        0.0000000000000000     
  0.25000000000000000       0.37500000000000000        0.0000000000000000     
  0.31250000000000000       0.37500000000000000        0.0000000000000000     
  0.37500000000000000       0.37500000000000000        0.0000000000000000     
  0.43750000000000000       0.37500000000000000        0.0000000000000000     
  0.50000000000000000       0.37500000000000000        0.0000000000000000     
  0.25000000000000000       0.43750000000000000        0.0000000000000000     
  0.31250000000000000       0.43750000000000000        0.0000000000000000     
  0.37500000000000000       0.43750000000000000        0.0000000000000000     
  0.43750000000000000       0.43750000000000000        0.0000000000000000     
  0.50000000000000000       0.43750000000000000        0.0000000000000000     
  0.25000000000000000       0.50000000000000000        0.0000000000000000     
  0.31250000000000000       0.50000000000000000        0.0000000000000000     
  0.37500000000000000       0.50000000000000000        0.0000000000000000     
  0.43750000000000000       0.50000000000000000        0.0000000000000000     
  0.50000000000000000       0.50000000000000000        0.0000000000000000     
  0.50000000000000000       0.25000000000000000        0.0000000000000000     
  0.56250000000000000       0.25000000000000000        0.0000000000000000     
  0.62500000000000000       0.25000000000000000        0.0000000000000000     
  0.68750000000000000       0.25000000000000000        0.0000000000000000     
  0.75000000000000000       0.25000000000000000        0.0000000000000000     
  0.50000000000000000       0.31250000000000000        0.0000000000000000     
  0.56250000000000000       0.31250000000000000        0.0000000000000000     
  0.62500000000000000       0.31250000000000000        0.0000000000000000     
  0.68750000000000000       0.31250000000000000        0.0000000000000000     
  0.75000000000000000       0.31250000000000000        0.0000000000000000     
  0.50000000000000000       0.37500000000000000        0.0000000000000000     
  0.56250000000000000       0.37500000000000000        0.0000000000000000     
  0.62500000000000000       0.37500000000000000        0.0000000000000000     
  0.68750000000000000       0.37500000000000000        0.0000000000000000     
  0.75000000000000000       0.37500000000000000        0.0000000000000000     
  0.50000000000000000       0.43750000000000000        0.0000000000000000     
  0.56250000000000000       0.43750000000000000        0.0000000000000000     
  0.62500000000000000       0.43750000000000000        0.0000000000000000     
  0.68750000000000000       0.43750000000000000        0.0000000000000000     
  0.75000000000000000       0.43750000000000000        0.0000000000000000     
  0.50000000000000000       0.50000000000000000        0.0000000000000000     
  0.56250000000000000       0.50000000000000000        0.0000000000000000     
  0.62500000000000000       0.50000000000000000        0.0000000000000000     
  0.68750000000000000       0.50000000000000000        0.0000000000000000     
  0.75000000000000000       0.50000000000000000        0.0000000000000000     
  0.75000000000000000       0.25000000000000000        0.0000000000000000     
  0.81250000000000000       0.25000000000000000        0.0000000000000000     
  0.87500000000000000       0.25000000000000000        0.0000000000000000     
  0.93750000000000000       0.25000000000000000        0.0000000000000000     
   1.0000000000000000       0.25000000000000000        0.0000000000000000     
  0.75000000000000000       0.31250000000000000        0.0000000000000000     
  0.81250000000000000       0.31250000000000000        0.0000000000000000     
  0.87500000000000000       0.31250000000000000        0.0000000000000000     
  0.93750000000000000       0.31250000000000000        0.0000000000000000     
   1.0000000000000000       0.31250000000000000        0.0000000000000000     
  0.75000000000000000       0.37500000000000000        0.0000000000000000     
  0.81250000000000000       0.37500000000000000        0.0000000000000000     
  0.87500000000000000       0.37500000000000000        0.0000000000000000     
  0.93750000000000000       0.37500000000000000        0.0000000000000000     
   1.0000000000000000       0.37500000000000000        0.0000000000000000     
  0.75000000000000000       0.43750000000000000        0.0000000000000000     
  0.81250000000000000       0.43750000000000000        0.0000000000000000     
  0.87500000000000000       0.43750000000000000        0.0000000000000000     
  0.93750000000000000       0.43750000000000000        0.0000000000000000     
   1.0000000000000000       0.43750000000000000        0.0000000000000000     
  0.75000000000000000       0.50000000000000000        0.0000000000000000     
  0.81250000000000000       0.50000000000000000        0.0000000000000000     
  0.87500000000000000       0.50000000000000000        0.0000000000000000     
  0.93750000000000000       0.50000000000000000        0.0000000000000000     
   1.0000000000000000       0.50000000000000000        0.0000000000000000     
   0.0000000000000000       0.50000000000000000        0.0000000000000000     
   6.2500000000000000E-002  0.50000000000000000        0.0000000000000000     
  0.12500000000000000       0.50000000000000000        0.0000000000000000     
  0.18750000000000000       0.50000000000000000        0.0000000000000000     
  0.25000000000000000       0.50000000000000000        0.0000000000000000     
   0.0000000000000000       0.56250000000000000        0.0000000000000000     
   6.2500000000000000E-002  0.56250000000000000        0.0000000000000000     
  0.12500000000000000       0.56250000000000000        0.0000000000000000     
  0.18750000000000000       0.56250000000000000        0.0000000000000000     
  0.25000000000000000       0.56250000000000000        0.0000000000000000     
   0.0000000000000000       0.62500000000000000        0.0000000000000000     
   6.2500000000000000E-002  0.62500000000000000        0.0000000000000000     
  0.12500000000000000       0.62500000000000000        0.0000000000000000     
  0.18750000000000000       0.62500000000000000        0.0000000000000000     
  0.25000000000000000       0.62500000000000000        0.0000000000000000     
   0.0000000000000000       0.68750000000000000        0.0000000000000000     
   6.2500000000000000E-002  0.68750000000000000        0.0000000000000000     
  0.12500000000000000       0.68750000000000000        0.0000000000000000     
  0.18750000000000000       0.68750000000000000        0.0000000000000000     
  0.25000000000000000       0.68750000000000000        0.0000000000000000     
   0.0000000000000000       0.75000000000000000        0.0000000000000000     
   6.2500000000000000E-002  0.75000000000000000        0.0000000000000000     
  0.12500000000000000       0.75000000000000000        0.0000000000000000     
  0.18750000000000000       0.75000000000000000        0.0000000000000000     
  0.25000000000000000       0.75000000000000000        0.0000000000000000     
  0.25000000000000000       0.50000000000000000        0.0000000000000000     
  0.31250000000000000       0.50000000000000000        0.0000000000000000     
  0.37500000000000000       0.50000000000000000        0.0000000000000000     
  0.43750000000000000       0.50000000000000000        0.0000000000000000     
  0.50000000000000000       0.50000000000000000        0.0000000000000000     
  0.25000000000000000       0.56250000000000000        0.0000000000000000     
  0.31250000000000000       0.56250000000000000        0.0000000000000000     
  0.37500000000000000       0.56250000000000000        0.0000000000000000     
  0.43750000000000000       0.56250000000000000        0.0000000000000000     
  0.50000000000000000       0.56250000000000000        0.0000000000000000     
  0.25000000000000000       0.62500000000000000        0.0000000000000000     
  0.31250000000000000       0.62500000000000000        0.0000000000000000     
  0.37500000000000000       0.62500000000000000        0.0000000000000000     
  0.43750000000000000       0.62500000000000000        0.0000000000000000     
  0.50000000000000000       0.62500000000000000        0.0000000000000000     
  0.25000000000000000       0.68750000000000000        0.0000000000000000     
  0.31250000000000000       0.68750000000000000        0.0000000000000000     
  0.37500000000000000       0.68750000000000000        0.0000000000000000     
  0.43750000000000000       0.68750000000000000        0.0000000000000000     
  0.50000000000000000       0.68750000000000000        0.0000000000000000     
  0.25000000000000000       0.75000000000000000        0.0000000000000000     
  0.31250000000000000       0.75000000000000000        0.0000000000000000     
  0.37500000000000000       0.75000000000000000        0.0000000000000000     
  0.43750000000000000       0.75000000000000000        0.0000000000000000     
  0.50000000000000000       0.75000000000000000        0.0000000000000000     
  0.50000000000000000       0.50000000000000000        0.0000000000000000     
  0.56250000000000000       0.50000000000000000        0.0000000000000000     
  0.62500000000000000       0.50000000000000000        0.0000000000000000     
  0.68750000000000000       0.50000000000000000        0.0000000000000000     
  0.75000000000000000       0.50000000000000000        0.0000000000000000     
  0.50000000000000000       0.56250000000000000        0.0000000000000000     
  0.56250000000000000       0.56250000000000000        0.0000000000000000     
  0.62500000000000000       0.56250000000000000        0.0000000000000000     
  0.68750000000000000       0.56250000000000000        0.0000000000000000     
  0.75000000000000000       0.56250000000000000        0.0000000000000000     
  0.50000000000000000       0.62500000000000000        0.0000000000000000     
  0.56250000000000000       0.62500000000000000        0.0000000000000000     
  0.62500000000000000       0.62500000000000000        0.0000000000000000     
  0.68750000000000000       0.62500000000000000        0.0000000000000000     
  0.75000000000000000       0.62500000000000000        0.0000000000000000     
  0.50000000000000000       0.68750000000000000        0.0000000000000000     
  0.56250000000000000       0.68750000000000000        0.0000000000000000     
  0.62500000000000000       0.68750000000000000        0.0000000000000000     
  0.68750000000000000       0.68750000000000000        0.0000000000000000     
  0.75000000000000000       0.68750000000000000        0.0000000000000000     
  0.50000000000000000       0.75000000000000000        0.0000000000000000     
  0.56250000000000000       0.75000000000000000        0.0000000000000000     
  0.62500000000000000       0.75000000000000000        0.0000000000000000     
  0.68750000000000000       0.75000000000000000        0.0000000000000000     
  0.75000000000000000       0.75000000000000000        0.0000000000000000     
  0.75000000000000000       0.50000000000000000        0.0000000000000000     
  0.81250000000000000       0.50000000000000000        0.0000000000000000     
  0.87500000000000000       0.50000000000000000        0.0000000000000000     
  0.93750000000000000       0.50000000000000000        0.0000000000000000     
   1.0000000000000000       0.50000000000000000        0.0000000000000000     
  0.75000000000000000       0.56250000000000000        0.0000000000000000     
  0.81250000000000000       0.56250000000000000        0.0000000000000000     
  0.87500000000000000       0.56250000000000000        0.0000000000000000     
  0.93750000000000000       0.56250000000000000        0.0000000000000000     
   1.0000000000000000       0.56250000000000000        0.0000000000000000     
  0.75000000000000000       0.62500000000000000        0.0000000000000000     
  0.81250000000000000       0.62500000000000000        0.0000000000000000     
  0.87500000000000000       0.62500000000000000        0.0000000000000000     
  0.93750000000000000       0.62500000000000000        0.0000000000000000     
   1.0000000000000000       0.62500000000000000        0.0000000000000000     
  0.75000000000000000       0.68750000000000000        0.0000000000000000     
  0.81250000000000000       0.68750000000000000        0.0000000000000000     
  0.87500000000000000       0.68750000000000000        0.0000000000000000     
  0.93750000000000000       0.68750000000000000        0.0000000000000000     
   1.0000000000000000       0.68750000000000000        0.0000000000000000     
  0.75000000000000000       0.75000000000000000        0.0000000000000000     
  0.81250000000000000       0.75000000000000000        0.0000000000000000     
  0.87500000000000000       0.75000000000000000        0.0000000000000000     
  0.93750000000000000       0.75000000000000000        0.0000000000000000     
   1.0000000000000000       0.75000000000000000        0.0000000000000000     
   0.0000000000000000       0.75000000000000000        0.0000000000000000     
   6.2500000000000000E-002  0.75000000000000000        0.0000000000000000     
  0.12500000000000000       0.75000000000000000        0.0000000000000000     
  0.18750000000000000       0.75000000000000000        0.0000000000000000     
  0.25000000000000000       0.75000000000000000        0.0000000000000000     
   0.0000000000000000       0.81250000000000000        0.0000000000000000     
   6.2500000000000000E-002  0.81250000000000000        0.0000000000000000     
  0.12500000000000000       0.81250000000000000        0.0000000000000000     
  0.18750000000000000       0.81250000000000000        0.0000000000000000     
  0.25000000000000000       0.81250000000000000        0.0000000000000000     
   0.0000000000000000       0.87500000000000000        0.0000000000000000     
   6.2500000000000000E-002  0.87500000000000000        0.0000000000000000     
  0.12500000000000000       0.87500000000000000        0.0000000000000000     
  0.18750000000000000       0.87500000000000000        0.0000000000000000     
  0.25000000000000000       0.87500000000000000        0.0000000000000000     
   0.0000000000000000       0.93750000000000000        0.0000000000000000     
   6.2500000000000000E-002  0.93750000000000000        0.0000000000000000     
  0.12500000000000000       0.93750000000000000        0.0000000000000000     
  0.18750000000000000       0.93750000000000000        0.0000000000000000     
  0.25000000000000000       0.93750000000000000        0.0000000000000000     
   0.0000000000000000        1.0000000000000000        0.0000000000000000     
   6.2500000000000000E-002   1.0000000000000000        0.0000000000000000     
  0.12500000000000000        1.0000000000000000        0.0000000000000000     
  0.18750000000000000        1.0000000000000000        0.0000000000000000     
  0.25000000000000000        1.0000000000000000        0.0000000000000000     
  0.25000000000000000       0.75000000000000000        0.0000000000000000     
  0.31250000000000000       0.75000000000000000        0.0000000000000000     
  0.37500000000000000       0.75000000000000000        0.0000000000000000     
  0.43750000000000000       0.75000000000000000        0.0000000000000000     
  0.50000000000000000       0.75000000000000000        0.0000000000000000     
  0.25000000000000000       0.81250000000000000        0.0000000000000000     
  0.31250000000000000       0.81250000000000000        0.0000000000000000     
  0.37500000000000000       0.81250000000000000        0.0000000000000000     
  0.43750000000000000       0.81250000000000000        0.0000000000000000     
  0.50000000000000000       0.81250000000000000        0.0000000000000000     
  0.25000000000000000       0.87500000000000000        0.0000000000000000     
  0.31250000000000000       0.87500000000000000        0.0000000000000000     
  0.37500000000000000       0.87500000000000000        0.0000000000000000     
  0.43750000000000000       0.87500000000000000        0.0000000000000000     
  0.50000000000000000       0.87500000000000000        0.0000000000000000     
  0.25000000000000000       0.93750000000000000        0.0000000000000000     
  0.31250000000000000       0.93750000000000000        0.0000000000000000     
  0.37500000000000000       0.93750000000000000        0.0000000000000000     
  0.43750000000000000       0.93750000000000000        0.0000000000000000     
  0.50000000000000000       0.93750000000000000        0.0000000000000000     
  0.25000000000000000        1.0000000000000000        0.0000000000000000     
  0.31250000000000000        1.0000000000000000        0.0000000000000000     
  0.37500000000000000        1.0000000000000000        0.0000000000000000     
  0.43750000000000000        1.0000000000000000        0.0000000000000000     
  0.50000000000000000        1.0000000000000000        0.0000000000000000     
  0.50000000000000000       0.75000000000000000        0.0000000000000000     
  0.56250000000000000       0.75000000000000000        0.0000000000000000     
  0.62500000000000000       0.75000000000000000        0.0000000000000000     
  0.68750000000000000       0.75000000000000000        0.0000000000000000     
  0.75000000000000000       0.75000000000000000        0.0000000000000000     
  0.50000000000000000       0.81250000000000000        0.0000000000000000     
  0.56250000000000000       0.81250000000000000        0.0000000000000000     
  0.62500000000000000       0.81250000000000000        0.0000000000000000     
  0.68750000000000000       0.81250000000000000        0.0000000000000000     
  0.75000000000000000       0.81250000000000000        0.0000000000000000     
  0.50000000000000000       0.87500000000000000        0.0000000000000000     
  0.56250000000000000       0.87500000000000000        0.0000000000000000     
  0.62500000000000000       0.87500000000000000        0.0000000000000000     
  0.68750000000000000       0.87500000000000000        0.0000000000000000     
  0.75000000000000000       0.87500000000000000        0.0000000000000000     
  0.50000000000000000       0.93750000000000000        0.0000000000000000     
  0.56250000000000000       0.93750000000000000        0.0000000000000000     
  0.62500000000000000       0.93750000000000000        0.0000000000000000     
  0.68750000000000000       0.93750000000000000        0.0000000000000000     
  0.75000000000000000       0.93750000000000000        0.0000000000000000     
  0.50000000000000000        1.0000000000000000        0.0000000000000000     
  0.56250000000000000        1.0000000000000000        0.0000000000000000     
  0.62500000000000000        1.0000000000000000        0.0000000000000000     
  0.68750000000000000        1.0000000000000000        0.0000000000000000     
  0.75000000000000000        1.0000000000000000        0.0000000000000000     
  0.75000000000000000       0.75000000000000000        0.0000000000000000     
  0.81250000000000000       0.75000000000000000        0.0000000000000000     
  0.87500000000000000       0.75000000000000000        0.0000000000000000     
  0.93750000000000000       0.75000000000000000        0.0000000000000000     
   1.0000000000000000       0.75000000000000000        0.0000000000000000     
  0.75000000000000000       0.81250000000000000        0.0000000000000000     
  0.81250000000000000       0.81250000000000000        0.0000000000000000     
  0.87500000000000000       0.81250000000000000        0.0000000000000000     
  0.93750000000000000       0.81250000000000000        0.0000000000000000     
   1.0000000000000000       0.81250000000000000        0.0000000000000000     
  0.75000000000000000       0.87500000000000000        0.0000000000000000     
  0.81250000000000000       0.87500000000000000        0.0000000000000000     
  0.87500000000000000       0.87500000000000000        0.0000000000000000     
  0.93750000000000000       0.87500000000000000        0.0000000000000000     
   1.0000000000000000       0.87500000000000000        0.0000000000000000     
  0.75000000000000000       0.93750000000000000        0.0000000000000000     
  0.81250000000000000       0.93750000000000000        0.0000000000000000     
  0.87500000000000000       0.93750000000000000        0.0000000000000000     
  0.93750000000000000       0.93750000000000000        0.0000000000000000     
   1.0000000000000000       0.93750000000000000        0.0000000000000000     
  0.75000000000000000        1.0000000000000000        0.0000000000000000     
  0.81250000000000000        1.0000000000000000        0.0000000000000000     
  0.87500000000000000        1.0000000000000000        0.0000000000000000     
  0.93750000000000000        1.0000000000000000        0.0000000000000000     
   1.0000000000000000        1.0000000000000000        0.0000000000000000     
 </DataArray>
 </Points>
 <Cells>
 <DataArray  type="Int32"  Name="connectivity"  format="ascii">
           0           1           6           5
           1           2           7           6
           2           3           8           7
           3           4           9           8
           5           6          11          10
           6           7          12          11
           7           8          13          12
           8           9          14          13
          10          11          16          15
          11          12          17          16
          12          13          18          17
          13          14          19          18
          15          16          21          20
          16          17          22          21
          17          18          23          22
          18          19          24          23
          25          26          31          30
          26          27          32          31
          27          28          33          32
          28          29          34          33
          30          31          36          35
          31          32          37          36
          32          33          38          37
          33          34          39          38
          35          36          41          40
          36          37          42          41
          37          38          43          42
          38          39          44          43
          40          41          46          45
          41          42          47          46
          42          43          48          47
          43          44          49          48
          50          51          56          55
          51          52          57          56
          52          53          58          57
          53          54          59          58
          55          56          61          60
          56          57          62          61
          57          58          63          62
          58          59          64          63
          60          61          66          65
          61          62          67          66
          62          63          68          67
          63          64          69          68
          65          66          71          70
          66          67          72          71
          67          68          73          72
          68          69          74          73
          75          76          81          80
          76          77          82          81
          77          78          83          82
          78          79          84          83
          80          81          86          85
          81          82          87          86
          82          83          88          87
          83          84          89          88
          85          86          91          90
          86          87          92          91
          87          88          93          92
          88          89          94          93
          90          91          96          95
          91          92          97          96
          92          93          98          97
          93          94          99          98
         100         101         106         105
         101         102         107         106
         102         103         108         107
         103         104         109         108
         105         106         111         110
         106         107         112         111
         107         108         113         112
         108         109         114         113
         110         111         116         115
         111         112         117         116
         112         113         118         117
         113         114         119         118
         115         116         121         120
         116         117         122         121
         117         118         123         122
         118         119         124         123
         125         126         131         130
         126         127         132         131
         127         128         133         132
         128         129         134         133
         130         131         136         135
         131         132         137         136
         132         133         138         137
         133         134         139         138
         135         136         141         140
         136         137         142         141
         137         138         143         142
         138         139         144         143
         140         141         146         145
         141         142         147         146
         142         143         148         147
         143         144         149         148
         150         151         156         155
         151         152         157         156
         152         153         158         157
         153         154         159         158
         155         156         161         160
         156         157         162         161
         157         158         163         162
         158         159         164         163
         160         161         166         165
         161         162         167         166
         162         163         168         167
         163         164         169         168
         165         166         171         170
         166         167         172         171
         167         168         173         172
         168         169         174         173
         175         176         181         180
         176         177         182         181
         177         178         183         182
         178         179         184         183
         180         181         186         185
         181         182         187         186
         182         183         188         187
         183         184         189         188
         185         186         191         190
         186         187         192         191
         187         188         193         192
         188         189         194         193
         190         191         196         195
         191         192         197         196
         192         193         198         197
         193         194         199         198
         200         201         206         205
         201         202         207         206
         202         203         208         207
         203         204         209         208
         205         206         211         210
         206         207         212         211
         207         208         213         212
         208         209         214         213
         210         211         216         215
         211         212         217         216
         212         213         218         217
         213         214         219         218
         215         216         221         220
         216         217         222         221
         217         218         223         222
         218         219         224         223
         225         226         231         230
         226         227         232         231
         227         228         233         232
         228         229         234         233
         230         231         236         235
         231         232         237         236
         232         233         238         237
         233         234         239         238
         235         236         241         240
         236         237         242         241
         237         238         243         242
         238         239         244         243
         240         241         246         245
         241         242         247         246
         242         243         248         247
         243         244         249         248
         250         251         256         255
         251         252         257         256
         252         253         258         257
         253         254         259         258
         255         256         261         260
         256         257         262         261
         257         258         263         262
         258         259         264         263
         260         261         266         265
         261         262         267         266
         262         263         268         267
         263         264         269         268
         265         266         271         270
         266         267         272         271
         267         268         273         272
         268         269         274         273
         275         276         281         280
         276         277         282         281
         277         278         283         282
         278         279         284         283
         280         281         286         285
         281         282         287         286
         282         283         288         287
         283         284         289         288
         285         286         291         290
         286         287         292         291
         287         288         293         292
         288         289         294         293
         290         291         296         295
         291         292         297         296
         292         293         298         297
         293         294         299         298
         300         301         306         305
         301         302         307         306
         302         303         308         307
         303         304         309         308
         305         306         311         310
         306         307         312         311
         307         308         313         312
         308         309         314         313
         310         311         316         315
         311         312         317         316
         312         313         318         317
         313         314         319         318
         315         316         321         320
         316         317         322         321
         317         318         323         322
         318         319         324         323
         325         326         331         330
         326         327         332         331
         327         328         333         332
         328         329         334         333
         330         331         336         335
         331         332         337         336
         332         333         338         337
         333         334         339         338
         335         336         341         340
         336         337         342         341
         337         338         343         342
         338         339         344         343
         340         341         346         345
         341         342         347         346
         342         343         348         347
         343         344         349         348
         350         351         356         355
         351         352         357         356
         352         353         358         357
         353         354         359         358
         355         356         361         360
         356         357         362         361
         357         358         363         362
         358         359         364         363
         360         361         366         365
         361         362         367         366
         362         363         368         367
         363         364         369         368
         365         366         371         370
         366         367         372         371
         367         368         373         372
         368         369         374         373
         375         376         381         380
         376         377         382         381
         377         378         383         382
         378         379         384         383
         380         381         386         385
         381         382         387         386
         382         383         388         387
         383         384         389         388
         385         386         391         390
         386         387         392         391
         387         388         393         392
         388         389         394         393
         390         391         396         395
         391         392         397         396
         392         393         398         397
         393         394         399         398
 </DataArray>
 <DataArray  type="Int32"  Name="offsets"  format="ascii"> 
           4
           8
          12
          16
          20
          24
          28
          32
          36
          40
          44
          48
          52
          56
          60
          64
          68
          72
          76
          80
          84
          88
          92
          96
         100
         104
         108
         112
         116
         120
         124
         128
         132
         136
         140
         144
         148
         152
         156
         160
         164
         168
         172
         176
         180
         184
         188
         192
         196
         200
         204
         208
         212
         216
         220
         224
         228
         232
         236
         240
         244
         248
         252
         256
         260
         264
         268
         272
         276
         280
         284
         288
         292
         296
         300
         304
         308
         312
         316
         320
         324
         328
         332
         336
         340
         344
         348
         352
         356
         360
         364
         368
         372
         376
         380
         384
         388
         392
         396
         400
         404
         408
         412
         416
         420
         424
         428
         432
         436
         440
         444
         448
         452
         456
         460
         464
         468
         472
         476
         480
         484
         488
         492
         496
         500
         504
         508
         512
         516
         520
         524
         528
         532
         536
         540
         544
         548
         552
         556
         560
         564
         568
         572
         576
         580
         584
         588
         592
         596
         600
         604
         608
         612
         616
         620
         624
         628
         632
         636
         640
         644
         648
         652
         656
         660
         664
         668
         672
         676
         680
         684
         688
         692
         696
         700
         704
         708
         712
         716
         720
         724
         728
         732
         736
         740
         744
         748
         752
         756
         760
         764
         768
         772
         776
         780
         784
         788
         792
         796
         800
         804
         808
         812
         816
         820
         824
         828
         832
         836
         840
         844
         848
         852
         856
         860
         864
         868
         872
         876
         880
         884
         888
         892
         896
         900
         904
         908
         912
         916
         920
         924
         928
         932
         936
         940
         944
         948
         952
         956
         960
         964
         968
         972
         976
         980
         984
         988
         992
         996
        1000
        1004
        1008
        1012
        1016
        1020
        1024
 </DataArray>
 <DataArray  type="UInt8"  Name="types"  format="ascii">
 9
 9
 9
 9
 9
 9
 9
 9
 9
 9
 9
 9
 9
 9
 9
 9
 9
 9
 9
 9
 9
 9
 9
 9
 9
 9
 9
 9
 9
 9
 9
 9
 9
 9
 9
 9
 9
 9
 9
 9
 9
 9
 9
 9
 9
 9
 9
 9
 9
 9
 9
 9
 9
 9
 9
 9
 9
 9
 9
 9
 9
 9
 9
 9
 9
 9
 9
 9
 9
 9
 9
 9
 9
 9
 9
 9
 9
 9
 9
 9
 9
 9
 9
 9
 9
 9
 9
 9
 9
 9
 9
 9
 9
 9
 9
 9
 9
 9
 9
 9
 9
 9
 9
 9
 9
 9
 9
 9
 9
 9
 9
 9
 9
 9
 9
 9
 9
 9
 9
 9
 9
 9
 9
 9
 9
 9
 9
 9
 9
 9
 9
 9
 9
 9
 9
 9
 9
 9
 9
 9
 9
 9
 9
 9
 9
 9
 9
 9
 9
 9
 9
 9
 9
 9
 9
 9
 9
 9
 9
 9
 9
 9
 9
 9
 9
 9
 9
 9
 9
 9
 9
 9
 9
 9
 9
 9
 9
 9
 9
 9
 9
 9
 9
 9
 9
 9
 9
 9
 9
 9
 9
 9
 9
 9
 9
 9
 9
 9
 9
 9
 9
 9
 9
 9
 9
 9
 9
 9
 9
 9
 9
 9
 9
 9
 9
 9
 9
 9
 9
 9
 9
 9
 9
 9
 9
 9
 9
 9
 9
 9
 9
 9
 9
 9
 9
 9
 9
 9
 9
 9
 9
 9
 9
 9
 9
 9
 9
 9
 9
 9
 9
 9
 9
 9
 9
 9
 </DataArray>
 </Cells> 
 <PointData>
 <DataArray  type="Float64" Name="disp" NumberOfComponents="3" format="ascii">
   0.0000000000000000        0.0000000000000000        0.0000000000000000     
   1.0687784425588948E-002   6.3640144103108741E-003   0.0000000000000000     
   2.0498017464791362E-002   1.2952706867545009E-002   0.0000000000000000     
   2.9430699117607248E-002   1.9766077371702405E-002   0.0000000000000000     
   3.7485829384036592E-002   2.6804125922783060E-002   0.0000000000000000     
   0.0000000000000000        0.0000000000000000        0.0000000000000000     
   8.1738724698241626E-003   5.0272386291902466E-003   0.0000000000000000     
   1.5979655183396967E-002   1.0763023408566483E-002   0.0000000000000000     
   2.3417348140718407E-002   1.7207354338128714E-002   0.0000000000000000     
   3.0486951341788492E-002   2.4360231417876931E-002   0.0000000000000000     
   0.0000000000000000        0.0000000000000000        0.0000000000000000     
   6.1378926002314798E-003   4.0135921578319366E-003   0.0000000000000000     
   1.2244765982084165E-002   9.0825358512188602E-003   0.0000000000000000     
   1.8320620145558054E-002   1.5206831080160771E-002   0.0000000000000000     
   2.4365455090653142E-002   2.2386477844657665E-002   0.0000000000000000     
   0.0000000000000000        0.0000000000000000        0.0000000000000000     
   4.5798448168109024E-003   3.3230749962359449E-003   0.0000000000000000     
   9.2933498608529629E-003   7.9112441955021384E-003   0.0000000000000000     
   1.4140515132126184E-002   1.3764507597798575E-002   0.0000000000000000     
   1.9121340630630562E-002   2.0882865203125260E-002   0.0000000000000000     
   0.0000000000000000        0.0000000000000000        0.0000000000000000     
   3.4997291195624290E-003   2.9556871444022725E-003   0.0000000000000000     
   7.1254068197033624E-003   7.2491484414163162E-003   0.0000000000000000     
   1.0877033100422800E-002   1.2880383891042133E-002   0.0000000000000000     
   1.4754607961720742E-002   1.9849393493279719E-002   0.0000000000000000     
   3.7485829384036592E-002   2.6804125922783060E-002   0.0000000000000000     
   4.4926964319801699E-002   3.4394698356713826E-002   0.0000000000000000     
   5.2017659980624853E-002   4.2865640509421564E-002   0.0000000000000000     
   5.8757916366506041E-002   5.2216952380906269E-002   0.0000000000000000     
   6.5147733477445277E-002   6.2448633971167941E-002   0.0000000000000000     
   3.0486951341788492E-002   2.4360231417876931E-002   0.0000000000000000     
   3.7189091658721370E-002   3.2266168457831985E-002   0.0000000000000000     
   4.3524395963631210E-002   4.0969679268014703E-002   0.0000000000000000     
   4.9492864256518006E-002   5.0470763848425110E-002   0.0000000000000000     
   5.5094496537381771E-002   6.0769422199063172E-002   0.0000000000000000     
   2.4365455090653142E-002   2.2386477844657665E-002   0.0000000000000000     
   3.0221082667678447E-002   3.0473497484359902E-002   0.0000000000000000     
   3.5729314726942976E-002   3.9319911338917830E-002   0.0000000000000000     
   4.0890151268446723E-002   4.8925719408331451E-002   0.0000000000000000     
   4.5703592292189697E-002   5.9290921692600765E-002   0.0000000000000000     
   1.9121340630630562E-002   2.0882865203125260E-002   0.0000000000000000     
   2.4022937346672935E-002   2.9016685436297585E-002   0.0000000000000000     
   2.8632416270560145E-002   3.7916336722130926E-002   0.0000000000000000     
   3.2949777402292192E-002   4.7581819060625308E-002   0.0000000000000000     
   3.6975020741869064E-002   5.8013132451780705E-002   0.0000000000000000     
   1.4754607961720742E-002   1.9849393493279719E-002   0.0000000000000000     
   1.8594655695704832E-002   2.7895732313645030E-002   0.0000000000000000     
   2.2233700594482719E-002   3.6758955417654011E-002   0.0000000000000000     
   2.5671742658054390E-002   4.6439062805306665E-002   0.0000000000000000     
   2.8908781886419856E-002   5.6936054476602979E-002   0.0000000000000000     
   6.5147733477445277E-002   6.2448633971167941E-002   0.0000000000000000     
   7.1172718272560859E-002   7.3449137160841116E-002   0.0000000000000000     
   7.6818477710971111E-002   8.5106913830560321E-002   0.0000000000000000     
   8.2085011792675994E-002   9.7421963980325571E-002   0.0000000000000000     
   8.6972320517675533E-002  0.11039428761013687        0.0000000000000000     
   5.5094496537381771E-002   6.0769422199063172E-002   0.0000000000000000     
   6.0350032992404747E-002   7.1810369694214074E-002   0.0000000000000000     
   6.5280213807769175E-002   8.3538321708162944E-002   0.0000000000000000     
   6.9885038983475076E-002   9.5953278240909795E-002   0.0000000000000000     
   7.4164508519522457E-002  0.10905523929245463        0.0000000000000000     
   4.5703592292189697E-002   5.9290921692600765E-002   0.0000000000000000     
   5.0204563098970395E-002   7.0387807253972756E-002   0.0000000000000000     
   5.4427988989587332E-002   8.2188665154694418E-002   0.0000000000000000     
   5.8373869964040523E-002   9.4693495394765792E-002   0.0000000000000000     
   6.2042206022329946E-002  0.10790229797418681        0.0000000000000000     
   3.6975020741869064E-002   5.8013132451780705E-002   0.0000000000000000     
   4.0736308592257839E-002   6.9181449840117190E-002   0.0000000000000000     
   4.4261803256425591E-002   8.1057944170154800E-002   0.0000000000000000     
   4.7551504734372314E-002   9.3642615441893534E-002   0.0000000000000000     
   5.0605413026098015E-002  0.10693546365533339        0.0000000000000000     
   2.8908781886419856E-002   5.6936054476602979E-002   0.0000000000000000     
   3.1945269472267050E-002   6.8191297452647306E-002   0.0000000000000000     
   3.4781656608283924E-002   8.0146158754544006E-002   0.0000000000000000     
   3.7417943294470457E-002   9.2800638382293049E-002   0.0000000000000000     
   3.9854129530826669E-002  0.10615473633589442        0.0000000000000000     
   8.6972320517675533E-002  0.11039428761013687        0.0000000000000000     
   9.1473196002176349E-002  0.12394287682989884        0.0000000000000000     
   9.5580430362385019E-002  0.13798672374951618        0.0000000000000000     
   9.9294023598301542E-002  0.15252582836898884        0.0000000000000000     
  0.10261397570992595       0.16756019068831685        0.0000000000000000     
   7.4164508519522457E-002  0.10905523929245463        0.0000000000000000     
   7.8110254918835692E-002  0.12273963437829338        0.0000000000000000     
   8.1713910684339253E-002  0.13690189301392200        0.0000000000000000     
   8.4975475816033055E-002  0.15154201519934055        0.0000000000000000     
   8.7894950313917183E-002  0.16666000093454891        0.0000000000000000     
   6.2042206022329946E-002  0.10790229797418681        0.0000000000000000     
   6.5425890890679420E-002  0.12169761779504941        0.0000000000000000     
   6.8517818295312741E-002  0.13596199975944553        0.0000000000000000     
   7.1317988236229909E-002  0.15069544386737513        0.0000000000000000     
   7.3826400713430940E-002  0.16589795011883823        0.0000000000000000     
   5.0605413026098015E-002  0.10693546365533339        0.0000000000000000     
   5.3420103917707483E-002  0.12081682708016696        0.0000000000000000     
   5.5992153195305497E-002  0.13516704398608670        0.0000000000000000     
   5.8321560858892070E-002  0.14998611437309267        0.0000000000000000     
   6.0408326908467196E-002  0.16527403824118486        0.0000000000000000     
   3.9854129530826669E-002  0.10615473633589442        0.0000000000000000     
   4.2092893999919910E-002  0.12009726223364597        0.0000000000000000     
   4.4136915384317542E-002  0.13451702569384555        0.0000000000000000     
   4.5986193684019565E-002  0.14941402671649315        0.0000000000000000     
   4.7640728899025986E-002  0.16478826530158877        0.0000000000000000     
   0.0000000000000000        0.0000000000000000        0.0000000000000000     
   3.4997291195624290E-003   2.9556871444022725E-003   0.0000000000000000     
   7.1254068197033624E-003   7.2491484414163162E-003   0.0000000000000000     
   1.0877033100422800E-002   1.2880383891042133E-002   0.0000000000000000     
   1.4754607961720742E-002   1.9849393493279719E-002   0.0000000000000000     
   0.0000000000000000        0.0000000000000000        0.0000000000000000     
   2.6501338089458342E-003   2.7755918470295988E-003   0.0000000000000000     
   5.3479140175826355E-003   6.8925878635297177E-003   0.0000000000000000     
   8.0933406259104061E-003   1.2350988049500355E-002   0.0000000000000000     
   1.0886413633929143E-002   1.9150792404941514E-002   0.0000000000000000     
   0.0000000000000000        0.0000000000000000        0.0000000000000000     
   1.7836471854208930E-003   2.6469523488166055E-003   0.0000000000000000     
   3.5678486134380618E-003   6.6379017364106624E-003   0.0000000000000000     
   5.3526042840515058E-003   1.1972848162782169E-002   0.0000000000000000     
   7.1379141972612260E-003   1.8651791627931128E-002   0.0000000000000000     
   0.0000000000000000        0.0000000000000000        0.0000000000000000     
   9.0026924898760569E-004   2.5697686497632936E-003   0.0000000000000000     
   1.7852106072696388E-003   6.4850900600591510E-003   0.0000000000000000     
   2.6548240748460990E-003   1.1745964230887571E-002   0.0000000000000000     
   3.5091096517169884E-003   1.8352391162248551E-002   0.0000000000000000     
   0.0000000000000000        0.0000000000000000        0.0000000000000000     
  -3.5402811324886097E-013   2.5440407498696620E-003   0.0000000000000000     
  -9.2263241317780409E-013   6.4341528344751819E-003   0.0000000000000000     
  -1.7058130082070466E-012   1.1670336253816558E-002   0.0000000000000000     
  -2.7035696814961541E-012   1.8252591007893799E-002   0.0000000000000000     
   1.4754607961720742E-002   1.9849393493279719E-002   0.0000000000000000     
   1.8594655695704832E-002   2.7895732313645030E-002   0.0000000000000000     
   2.2233700594482719E-002   3.6758955417654011E-002   0.0000000000000000     
   2.5671742658054390E-002   4.6439062805306665E-002   0.0000000000000000     
   2.8908781886419856E-002   5.6936054476602979E-002   0.0000000000000000     
   1.0886413633929143E-002   1.9150792404941514E-002   0.0000000000000000     
   1.3649977352519334E-002   2.7061836611406577E-002   0.0000000000000000     
   1.6306876092561460E-002   3.5853956350448926E-002   0.0000000000000000     
   1.8857109854055514E-002   4.5527151622068551E-002   0.0000000000000000     
   2.1300678637001511E-002   5.6081422426265480E-002   0.0000000000000000     
   7.1379141972612260E-003   1.8651791627931128E-002   0.0000000000000000     
   8.9026419548616318E-003   2.6466196824586567E-002   0.0000000000000000     
   1.0625651158647133E-002   3.5207528445477532E-002   0.0000000000000000     
   1.2306941808617735E-002   4.4875786490604010E-002   0.0000000000000000     
   1.3946513904773430E-002   5.5470970959966018E-002   0.0000000000000000     
   3.5091096517169884E-003   1.8352391162248551E-002   0.0000000000000000     
   4.3526495027317296E-003   2.6108812953185005E-002   0.0000000000000000     
   5.1900257927397480E-003   3.4819671702739842E-002   0.0000000000000000     
   6.0212385217410453E-003   4.4484967410913047E-002   0.0000000000000000     
   6.8462876897356188E-003   5.5104700077704634E-002   0.0000000000000000     
  -2.7035696814961541E-012   1.8252591007893799E-002   0.0000000000000000     
  -3.8703754827798531E-012   2.5989684997201886E-002   0.0000000000000000     
  -5.1607033804777075E-012   3.4690386122235843E-002   0.0000000000000000     
  -6.5745515382222876E-012   4.4354694382995635E-002   0.0000000000000000     
  -8.1119208572566492E-012   5.4982609779481301E-002   0.0000000000000000     
   2.8908781886419856E-002   5.6936054476602979E-002   0.0000000000000000     
   3.1945269472267050E-002   6.8191297452647306E-002   0.0000000000000000     
   3.4781656608283924E-002   8.0146158754544006E-002   0.0000000000000000     
   3.7417943294470457E-002   9.2800638382293049E-002   0.0000000000000000     
   3.9854129530826669E-002  0.10615473633589442        0.0000000000000000     
   2.1300678637001511E-002   5.6081422426265480E-002   0.0000000000000000     
   2.3609366559743983E-002   6.7419503811410805E-002   0.0000000000000000     
   2.5754957740627509E-002   7.9444130825875647E-002   0.0000000000000000     
   2.7737452179652063E-002   9.2155303469660013E-002   0.0000000000000000     
   2.9556849876817653E-002  0.10555302174276390        0.0000000000000000     
   1.3946513904773430E-002   5.5470970959966018E-002   0.0000000000000000     
   1.5506520675434569E-002   6.6868222636255220E-002   0.0000000000000000     
   1.6949115348921504E-002   7.8942682302163281E-002   0.0000000000000000     
   1.8274297925234228E-002   9.1694349957690172E-002   0.0000000000000000     
   1.9482068404372745E-002  0.10512322560283596        0.0000000000000000     
   6.8462876897356188E-003   5.5104700077704634E-002   0.0000000000000000     
   7.6367318193387981E-003   6.6537453927180579E-002   0.0000000000000000     
   8.3641294331659108E-003   7.8641813183406892E-002   0.0000000000000000     
   9.0284805312169508E-003   9.1417777846383524E-002   0.0000000000000000     
   9.6297851134919260E-003  0.10486534791611055        0.0000000000000000     
  -8.1119208572566492E-012   5.4982609779481301E-002   0.0000000000000000     
  -8.5433231669651555E-012   6.6427197684186895E-002   0.0000000000000000     
  -6.6392696462108658E-012   7.8541523469606495E-002   0.0000000000000000     
  -2.3997578555388921E-012   9.1325587135740072E-002   0.0000000000000000     
   4.1752096571756603E-012  0.10477938868258768        0.0000000000000000     
   3.9854129530826669E-002  0.10615473633589442        0.0000000000000000     
   4.2092893999919910E-002  0.12009726223364597        0.0000000000000000     
   4.4136915384317542E-002  0.13451702569384555        0.0000000000000000     
   4.5986193684019565E-002  0.14941402671649315        0.0000000000000000     
   4.7640728899025986E-002  0.16478826530158877        0.0000000000000000     
   2.9556849876817653E-002  0.10555302174276390        0.0000000000000000     
   3.1221147083035413E-002  0.11953817930994609        0.0000000000000000     
   3.2738340049216448E-002  0.13401166983596532        0.0000000000000000     
   3.4108428775360765E-002  0.14897349332082163        0.0000000000000000     
   3.5331413261468367E-002  0.16442364976451498        0.0000000000000000     
   1.9482068404372745E-002  0.10512322560283596        0.0000000000000000     
   2.0581749112772718E-002  0.11913883436352687        0.0000000000000000     
   2.1582662376869826E-002  0.13365070136568930        0.0000000000000000     
   2.2484808196664069E-002  0.14865882660932314        0.0000000000000000     
   2.3288186572155443E-002  0.16416321009442847        0.0000000000000000     
   9.6297851134919260E-003  0.10486534791611055        0.0000000000000000     
   1.0174700089131837E-002  0.11889922739438834        0.0000000000000000     
   1.0669882367277686E-002  0.13343412028301743        0.0000000000000000     
   1.1115331947929472E-002  0.14847002658199768        0.0000000000000000     
   1.1511048831087198E-002  0.16400694629132925        0.0000000000000000     
   4.1752096571756603E-012  0.10477938868258768        0.0000000000000000     
   1.2112756544307990E-011  0.11881935840253047        0.0000000000000000     
   2.0440013613967634E-011  0.13336192658794968        0.0000000000000000     
   2.9156975499353838E-011  0.14840709323884532        0.0000000000000000     
   3.8263645724123663E-011  0.16395485835521734        0.0000000000000000     
   0.0000000000000000        0.0000000000000000        0.0000000000000000     
  -3.5402811324886097E-013   2.5440407498696620E-003   0.0000000000000000     
  -9.2263241317780409E-013   6.4341528344751819E-003   0.0000000000000000     
  -1.7058130082070466E-012   1.1670336253816558E-002   0.0000000000000000     
  -2.7035696814961541E-012   1.8252591007893799E-002   0.0000000000000000     
   0.0000000000000000        0.0000000000000000        0.0000000000000000     
  -9.0026924970536965E-004   2.5697686493259277E-003   0.0000000000000000     
  -1.7852106090638824E-003   6.4850900597962667E-003   0.0000000000000000     
  -2.6548240780755379E-003   1.1745964231411018E-002   0.0000000000000000     
  -3.5091096567403360E-003   1.8352391164170180E-002   0.0000000000000000     
   0.0000000000000000        0.0000000000000000        0.0000000000000000     
  -1.7836471861677806E-003   2.6469523483223091E-003   0.0000000000000000     
  -3.5678486150792412E-003   6.6379017361599185E-003   0.0000000000000000     
  -5.3526042867343806E-003   1.1972848163512829E-002   0.0000000000000000     
  -7.1379142011331982E-003   1.8651791630381040E-002   0.0000000000000000     
   0.0000000000000000        0.0000000000000000        0.0000000000000000     
  -2.6501338097412622E-003   2.7755918468588053E-003   0.0000000000000000     
  -5.3479140189687073E-003   6.8925878635661348E-003   0.0000000000000000     
  -8.0933406276823393E-003   1.2350988050121990E-002   0.0000000000000000     
  -1.0886413635882155E-002   1.9150792406526368E-002   0.0000000000000000     
   0.0000000000000000        0.0000000000000000        0.0000000000000000     
  -3.4997291204258126E-003   2.9556871449354163E-003   0.0000000000000000     
  -7.1254068207322850E-003   7.2491484420149164E-003   0.0000000000000000     
  -1.0877033100919418E-002   1.2880383891238502E-002   0.0000000000000000     
  -1.4754607960987211E-002   1.9849393492606168E-002   0.0000000000000000     
  -2.7035696814961541E-012   1.8252591007893799E-002   0.0000000000000000     
  -3.8703754827798531E-012   2.5989684997201886E-002   0.0000000000000000     
  -5.1607033804777075E-012   3.4690386122235843E-002   0.0000000000000000     
  -6.5745515382222876E-012   4.4354694382995635E-002   0.0000000000000000     
  -8.1119208572566492E-012   5.4982609779481301E-002   0.0000000000000000     
  -3.5091096567403360E-003   1.8352391164170180E-002   0.0000000000000000     
  -4.3526495098465861E-003   2.6108812955654266E-002   0.0000000000000000     
  -5.1900258021825973E-003   3.4819671703443786E-002   0.0000000000000000     
  -6.0212385337483701E-003   4.4484967407538739E-002   0.0000000000000000     
  -6.8462877045439036E-003   5.5104700067939140E-002   0.0000000000000000     
  -7.1379142011331982E-003   1.8651791630381040E-002   0.0000000000000000     
  -8.9026419600988071E-003   2.6466196827559199E-002   0.0000000000000000     
  -1.0625651165454315E-002   3.5207528445841942E-002   0.0000000000000000     
  -1.2306941817199728E-002   4.4875786485229295E-002   0.0000000000000000     
  -1.3946513915335043E-002   5.5470970945721225E-002   0.0000000000000000     
  -1.0886413635882155E-002   1.9150792406526368E-002   0.0000000000000000     
  -1.3649977354627038E-002   2.7061836612916678E-002   0.0000000000000000     
  -1.6306876094975862E-002   3.5853956349430317E-002   0.0000000000000000     
  -1.8857109856928629E-002   4.5527151616067275E-002   0.0000000000000000     
  -2.1300678640485328E-002   5.6081422412827577E-002   0.0000000000000000     
  -1.4754607960987211E-002   1.9849393492606168E-002   0.0000000000000000     
  -1.8594655693431276E-002   2.7895732311726699E-002   0.0000000000000000     
  -2.2233700590747224E-002   3.6758955414208885E-002   0.0000000000000000     
  -2.5671742652935054E-002   4.6439062800052708E-002   0.0000000000000000     
  -2.8908781879994780E-002   5.6936054469258174E-002   0.0000000000000000     
  -8.1119208572566492E-012   5.4982609779481301E-002   0.0000000000000000     
  -8.5433231669651555E-012   6.6427197684186895E-002   0.0000000000000000     
  -6.6392696462108658E-012   7.8541523469606495E-002   0.0000000000000000     
  -2.3997578555388921E-012   9.1325587135740072E-002   0.0000000000000000     
   4.1752096571756603E-012  0.10477938868258768        0.0000000000000000     
  -6.8462877045439036E-003   5.5104700067939140E-002   0.0000000000000000     
  -7.6367318349261411E-003   6.6537453911839031E-002   0.0000000000000000     
  -8.3641294452520259E-003   7.8641813166432484E-002   0.0000000000000000     
  -9.0284805355215630E-003   9.1417777831719518E-002   0.0000000000000000     
  -9.6297851057347422E-003  0.10486534790770011        0.0000000000000000     
  -1.3946513915335043E-002   5.5470970945721225E-002   0.0000000000000000     
  -1.5506520686524004E-002   6.6868222614701850E-002   0.0000000000000000     
  -1.6949115357430353E-002   7.8942682279555296E-002   0.0000000000000000     
  -1.8274297928054111E-002   9.1694349940281569E-002   0.0000000000000000     
  -1.9482068398395253E-002  0.10512322559688062        0.0000000000000000     
  -2.1300678640485328E-002   5.6081422412827577E-002   0.0000000000000000     
  -2.3609366563336908E-002   6.7419503792775379E-002   0.0000000000000000     
  -2.5754957743174267E-002   7.9444130808974944E-002   0.0000000000000000     
  -2.7737452179997398E-002   9.2155303461426197E-002   0.0000000000000000     
  -2.9556849873806326E-002  0.10555302175012919        0.0000000000000000     
  -2.8908781879994780E-002   5.6936054469258174E-002   0.0000000000000000     
  -3.1945269465364849E-002   6.8191297446059632E-002   0.0000000000000000     
  -3.4781656602483738E-002   8.0146158754691388E-002   0.0000000000000000     
  -3.7417943291351445E-002   9.2800638395153456E-002   0.0000000000000000     
  -3.9854129531967965E-002  0.10615473636744582        0.0000000000000000     
   4.1752096571756603E-012  0.10477938868258768        0.0000000000000000     
   1.2112756544307990E-011  0.11881935840253047        0.0000000000000000     
   2.0440013613967634E-011  0.13336192658794968        0.0000000000000000     
   2.9156975499353838E-011  0.14840709323884532        0.0000000000000000     
   3.8263645724123663E-011  0.16395485835521734        0.0000000000000000     
  -9.6297851057347422E-003  0.10486534790770011        0.0000000000000000     
  -1.0174700066700274E-002  0.11889922739158329        0.0000000000000000     
  -1.0669882329226861E-002  0.13343412028057797        0.0000000000000000     
  -1.1115331893314508E-002  0.14847002657468419        0.0000000000000000     
  -1.1511048758963208E-002  0.16400694627390194        0.0000000000000000     
  -1.9482068398395253E-002  0.10512322559688062        0.0000000000000000     
  -2.0581749095723013E-002  0.11913883436517672        0.0000000000000000     
  -2.1582662347306616E-002  0.13365070136099402        0.0000000000000000     
  -2.2484808153146060E-002  0.14865882658433258        0.0000000000000000     
  -2.3288186513241341E-002  0.16416321003519230        0.0000000000000000     
  -2.9556849873806326E-002  0.10555302175012919        0.0000000000000000     
  -3.1221147074955460E-002  0.11953817932331079        0.0000000000000000     
  -3.2738340033799253E-002  0.13401166982919788        0.0000000000000000     
  -3.4108428750337684E-002  0.14897349326779039        0.0000000000000000     
  -3.5331413224570764E-002  0.16442364963908848        0.0000000000000000     
  -3.9854129531967965E-002  0.10615473636744582        0.0000000000000000     
  -4.2092894004397627E-002  0.12009726226598549        0.0000000000000000     
  -4.4136915388704762E-002  0.13451702568518950        0.0000000000000000     
  -4.5986193684889376E-002  0.14941402662505779        0.0000000000000000     
  -4.7640728892951456E-002  0.16478826508559041        0.0000000000000000     
   0.0000000000000000        0.0000000000000000        0.0000000000000000     
  -3.4997291204258126E-003   2.9556871449354163E-003   0.0000000000000000     
  -7.1254068207322850E-003   7.2491484420149164E-003   0.0000000000000000     
  -1.0877033100919418E-002   1.2880383891238502E-002   0.0000000000000000     
  -1.4754607960987211E-002   1.9849393492606168E-002   0.0000000000000000     
   0.0000000000000000        0.0000000000000000        0.0000000000000000     
  -4.5798448174955769E-003   3.3230749974760970E-003   0.0000000000000000     
  -9.2933498612013526E-003   7.9112441965924745E-003   0.0000000000000000     
  -1.4140515131117326E-002   1.3764507597349136E-002   0.0000000000000000     
  -1.9121340627243504E-002   2.0882865199746074E-002   0.0000000000000000     
   0.0000000000000000        0.0000000000000000        0.0000000000000000     
  -6.1378926002247014E-003   4.0135921594048008E-003   0.0000000000000000     
  -1.2244765981207297E-002   9.0825358523850229E-003   0.0000000000000000     
  -1.8320620142947785E-002   1.5206831078940665E-002   0.0000000000000000     
  -2.4365455085446176E-002   2.2386477839071727E-002   0.0000000000000000     
   0.0000000000000000        0.0000000000000000        0.0000000000000000     
  -8.1738724686131817E-003   5.0272386307215278E-003   0.0000000000000000     
  -1.5979655180750115E-002   1.0763023409392556E-002   0.0000000000000000     
  -2.3417348136410793E-002   1.7207354336013087E-002   0.0000000000000000     
  -3.0486951335595217E-002   2.4360231410583119E-002   0.0000000000000000     
   0.0000000000000000        0.0000000000000000        0.0000000000000000     
  -1.0687784422661026E-002   6.3640144114262770E-003   0.0000000000000000     
  -2.0498017459829810E-002   1.2952706867615078E-002   0.0000000000000000     
  -2.9430699111506350E-002   1.9766077368566407E-002   0.0000000000000000     
  -3.7485829377690655E-002   2.6804125914280254E-002   0.0000000000000000     
  -1.4754607960987211E-002   1.9849393492606168E-002   0.0000000000000000     
  -1.8594655693431276E-002   2.7895732311726699E-002   0.0000000000000000     
  -2.2233700590747224E-002   3.6758955414208885E-002   0.0000000000000000     
  -2.5671742652935054E-002   4.6439062800052708E-002   0.0000000000000000     
  -2.8908781879994780E-002   5.6936054469258174E-002   0.0000000000000000     
  -1.9121340627243504E-002   2.0882865199746074E-002   0.0000000000000000     
  -2.4022937340458687E-002   2.9016685430441978E-002   0.0000000000000000     
  -2.8632416261641695E-002   3.7916336716095504E-002   0.0000000000000000     
  -3.2949777390792530E-002   4.7581819056706672E-002   0.0000000000000000     
  -3.6975020727911187E-002   5.8013132452275462E-002   0.0000000000000000     
  -2.4365455085446176E-002   2.2386477839071727E-002   0.0000000000000000     
  -3.0221082659656433E-002   3.0473497475515188E-002   0.0000000000000000     
  -3.5729314716532561E-002   3.9319911331008019E-002   0.0000000000000000     
  -4.0890151256074543E-002   4.8925719405550239E-002   0.0000000000000000     
  -4.5703592278282378E-002   5.9290921699141824E-002   0.0000000000000000     
  -3.0486951335595217E-002   2.4360231410583119E-002   0.0000000000000000     
  -3.7189091651024520E-002   3.2266168446946346E-002   0.0000000000000000     
  -4.3524395955419806E-002   4.0969679258946443E-002   0.0000000000000000     
  -4.9492864248781084E-002   5.0470763846583409E-002   0.0000000000000000     
  -5.5094496531108345E-002   6.0769422209857274E-002   0.0000000000000000     
  -3.7485829377690655E-002   2.6804125914280254E-002   0.0000000000000000     
  -4.4926964314562938E-002   3.4394698344735436E-002   0.0000000000000000     
  -5.2017659978303439E-002   4.2865640499910748E-002   0.0000000000000000     
  -5.8757916368912158E-002   5.2216952379806204E-002   0.0000000000000000     
  -6.5147733486389081E-002   6.2448633984421797E-002   0.0000000000000000     
  -2.8908781879994780E-002   5.6936054469258174E-002   0.0000000000000000     
  -3.1945269465364849E-002   6.8191297446059632E-002   0.0000000000000000     
  -3.4781656602483738E-002   8.0146158754691388E-002   0.0000000000000000     
  -3.7417943291351445E-002   9.2800638395153456E-002   0.0000000000000000     
  -3.9854129531967965E-002  0.10615473636744582        0.0000000000000000     
  -3.6975020727911187E-002   5.8013132452275462E-002   0.0000000000000000     
  -4.0736308577436195E-002   6.9181449848243870E-002   0.0000000000000000     
  -4.4261803243806061E-002   8.1057944190053854E-002   0.0000000000000000     
  -4.7551504727020792E-002   9.3642615477705429E-002   0.0000000000000000     
  -5.0605413027080375E-002  0.10693546371119857        0.0000000000000000     
  -4.5703592278282378E-002   5.9290921699141824E-002   0.0000000000000000     
  -5.0204563084379310E-002   7.0387807273017397E-002   0.0000000000000000     
  -5.4427988975588509E-002   8.2188665188411503E-002   0.0000000000000000     
  -5.8373869951910011E-002   9.4693495445324252E-002   0.0000000000000000     
  -6.2042206013343815E-002  0.10790229804375549        0.0000000000000000     
  -5.5094496531108345E-002   6.0769422209857274E-002   0.0000000000000000     
  -6.0350032986194159E-002   7.1810369720380213E-002   0.0000000000000000     
  -6.5280213797831096E-002   8.3538321749764388E-002   0.0000000000000000     
  -6.9885038966019122E-002   9.5953278298009884E-002   0.0000000000000000     
  -7.4164508490758230E-002  0.10905523936511663        0.0000000000000000     
  -6.5147733486389081E-002   6.2448633984421797E-002   0.0000000000000000     
  -7.1172718282880784E-002   7.3449137190332289E-002   0.0000000000000000     
  -7.6818477710533767E-002   8.5106913874112483E-002   0.0000000000000000     
  -8.2085011769348085E-002   9.7421964035762365E-002   0.0000000000000000     
  -8.6972320459323682E-002  0.11039428767528194        0.0000000000000000     
  -3.9854129531967965E-002  0.10615473636744582        0.0000000000000000     
  -4.2092894004397627E-002  0.12009726226598549        0.0000000000000000     
  -4.4136915388704762E-002  0.13451702568518950        0.0000000000000000     
  -4.5986193684889376E-002  0.14941402662505779        0.0000000000000000     
  -4.7640728892951456E-002  0.16478826508559041        0.0000000000000000     
  -5.0605413027080375E-002  0.10693546371119857        0.0000000000000000     
  -5.3420103926230318E-002  0.12081682713009760        0.0000000000000000     
  -5.5992153206716057E-002  0.13516704397396681        0.0000000000000000     
  -5.8321560868537611E-002  0.14998611424280625        0.0000000000000000     
  -6.0408326911694975E-002  0.16527403793661585        0.0000000000000000     
  -6.2042206013343815E-002  0.10790229804375549        0.0000000000000000     
  -6.5425890882634327E-002  0.12169761785254386        0.0000000000000000     
  -6.8517818282525997E-002  0.13596199974052783        0.0000000000000000     
  -7.1317988213018838E-002  0.15069544370770743        0.0000000000000000     
  -7.3826400674112835E-002  0.16589794975408256        0.0000000000000000     
  -7.4164508490758230E-002  0.10905523936511663        0.0000000000000000     
  -7.8110254873609689E-002  0.12273963443332429        0.0000000000000000     
  -8.1713910616134644E-002  0.13690189298487254        0.0000000000000000     
  -8.4975475718333096E-002  0.15154201501976125        0.0000000000000000     
  -8.7894950180205073E-002  0.16666000053799057        0.0000000000000000     
  -8.6972320459323682E-002  0.11039428767528194        0.0000000000000000     
  -9.1473195899156368E-002  0.12394287687243888        0.0000000000000000     
  -9.5580430207541936E-002  0.13798672370700082        0.0000000000000000     
  -9.9294023384480345E-002  0.15252582817896781        0.0000000000000000     
 -0.10261397542997164       0.16756019028833982        0.0000000000000000     
 </DataArray>
 <DataArray  type="Float64" Name="stress" NumberOfComponents="3" format="ascii">
   11737909575.858160        3521372872.7574477        2308310912.0674133     
   10337941030.254219        1662975490.5145493        1374821699.0480001     
   9112797808.9539757        387329189.28397608        661267443.41928601     
   8062479911.9574299       -305566030.93427467        167648145.18127126     
   7186987339.2645798       -415710170.14020109       -106036195.66604447     
   8817143575.8591747        2645143072.7577519        1725402666.1282158     
   8056894157.8830509        1288865566.1750255        1147039676.9001262     
   7428091973.2728271        370745504.14529657        724959549.45808029     
   6930737022.0285015       -109217113.33143425        459162283.80207735     
   6564829304.1500759       -151022286.25516605        349647879.93211871     
   6491501231.9165316        1947450369.5749595        1287107590.1739483     
   6189107811.2692089        1038733799.5626982        1013263051.9764186     
   5974783533.0499868        423581037.64411020        832049279.96027708     
   5848528397.2588682        101992083.81919527        743466274.12552369     
   5810342403.8958511        73966938.087953806        747514034.47215843     
   4760982544.0302324        1428294763.2090695        993425684.20461106     
   4734581990.4126930        912580190.67756915        973491824.27687716     
   4752872488.2854605        545835789.78041732        982536634.92587566     
   4815854037.6485319        328061560.51761341        1020560116.1516069     
   4923526638.5019054        259257502.88915730        1087562267.9540706     
   3625587512.2002745        1087676253.6600823        844356948.22020423     
   3693316695.3135052        910404739.51963854        1027725993.8015027     
   3762358838.9792433        737509760.55421758        1176421614.3548779     
   3832713943.1974883        568991316.76381922        1290443809.8803303     
   3904382007.9682393        404849408.14844394        1369792580.3778591     
   7186987339.2645798       -415710170.14020109       -106036195.66604447     
   6938349879.3685541       -123096023.31268930       -33986659.487920366     
   6656448690.0222769        58639025.347309828        25392592.596879061     
   6341283771.2257471        129494975.83980227        72101560.588348806     
   5992855122.9789648        89471828.164789200        106140244.48649587     
   6564829304.1500759       -151022286.25516605        349647879.93211871     
   6256396146.0060911       -5257574.9280567169        351427605.78729695     
   5928819611.4174166        76695881.583433390        353769256.04515272     
   5582099700.3840580        94838083.279304266        356672830.70568722     
   5216236412.9060173        49169030.159560442        360138329.76890302     
   5810342403.8958511        73966938.087953806        747514034.47215843     
   5479919857.4924898        84224106.911235809        695497695.17754877     
   5144474287.6500092        77737864.270789385        657275488.78162622     
   4804005694.3684120        54508210.166619539        632847415.28438783     
   4458514077.6476955        14535144.598718643        622213474.68583488     
   4923526638.5019054        259257502.88915730        1087562267.9540706     
   4608921013.8277559        145349022.20518756        998223608.68284023     
   4303412718.7200537        61764973.409381151        935911290.80629992     
   4007001753.1788015        8505356.5017416477        900625314.32444870     
   3719688117.2040005       -14429828.517733097        892365679.23728919     
   3904382007.9682393        404849408.14844394        1369792580.3778591     
   3643399615.0118866        178117170.95379913        1259605346.3031681     
   3405634904.6275501        28777208.999209404        1189676662.1191714     
   3191087876.8152313       -43170477.715321898        1160006527.8258715     
   2999758531.5749288       -37725889.189799666        1170594943.4232650     
   5992855122.9789648        89471828.164789200        106140244.48649587     
   5603141404.2903986        3947240.6600170135        61974260.743081935     
   5224856743.3835850       -43480487.572257996        38817217.488097899     
   4858001140.2585201       -52811356.532033443        36669114.721543446     
   4502574594.9152060       -24045366.219303131        55529952.443418890     
   5216236412.9060173        49169030.159560442        360138329.76890302     
   4888255805.7108955       -2961613.5835406780        332445108.09402508     
   4567664908.1198635       -30459891.979669333        323523660.05759186     
   4254463720.1329260       -33325805.028816462        333373985.65960789     
   3948652241.7500801       -11559352.730999947        361996084.90006894     
   4458514077.6476955        14535144.598718643        622213474.68583488     
   4185874676.6603475       -6119126.9684073925        606280442.20555639     
   3916585637.0994344       -15605527.114086390        606882016.51374245     
   3650646958.9649563       -13924055.838318586        624018197.61039019     
   3388058642.2569075       -1074713.1411123276        657688985.49549866     
   3719688117.2040005       -14429828.517733097        892365679.23728919     
   3495998017.1387610       -5525299.4945821762        883480263.07767415     
   3271618930.3222952        1082607.0244827271        888892286.85654080     
   3046550856.7546043        5393891.0394647121        908601750.57388878     
   2820793796.4356880        7408552.5503587723        942608654.22971249     
   2999758531.5749288       -37725889.189799666        1170594943.4232650     
   2818625827.1461296       -1180131.1620738506        1164044570.7103808     
   2632764787.7884459        19604510.436037540        1169554471.0859952     
   2442175413.5018773        24628035.604535937        1187124644.5501020     
   2246857704.2864270        13890444.343420506        1216755091.1027055     
   4502574594.9152060       -24045366.219303131        55529952.443418890     
   4134222389.4001317        7765546.4652855396        34703430.925602920     
   3759005491.2176275        16694150.258432865        33135672.734617747     
   3376923900.3676863        2740445.1601121426        50826677.870470092     
   2987977616.8503094       -34095568.829630494        87776446.333167955     
   3948652241.7500801       -11559352.730999947        361996084.90006894     
   3626808503.3997121        10318214.292189837        332187435.68685395     
   3300819534.1588607        18378345.013756394        321188077.65689546     
   2970685334.0275092        12621039.433668733        328998010.81020236     
   2636405903.0056825       -6953702.4480226040        355617235.14675969     
   3388058642.2569075       -1074713.1411123276        657688985.49549866     
   3111439164.9467387        10484246.383334279        622070913.99332380     
   2833393918.5230246        17290642.195958614        604812661.53082800     
   2553922902.9857664        19344474.296765804        605914228.10800815     
   2273026118.3349557        16645742.685748696        625375613.72487247     
   2820793796.4356880        7408552.5503587723        942608654.22971249     
   2588114374.0412054        8263642.7387111187        904353865.84500778     
   2356728644.3101187        13431041.805053592        884009424.35640538     
   2126636607.2424266        22910749.749378324        881575329.76390493     
   1897838262.8381329        36702766.571694613        897051582.06750035     
   2246857704.2864270        13890444.343420506        1216755091.1027055     
   2056834130.6831143        3656403.3583210707        1179036291.2419086     
   1870823711.5201392        6799543.8410123587        1158778366.1336348     
   1688826446.7975073        23319865.791512966        1155981315.7778816     
   1510842336.5152154        53217369.209812164        1170645140.1746454     
   3625587512.2002745        1087676253.6600823        844356948.22020423     
   3693316695.3135052        910404739.51963854        1027725993.8015027     
   3762358838.9792433        737509760.55421758        1176421614.3548779     
   3832713943.1974883        568991316.76381922        1290443809.8803303     
   3904382007.9682393        404849408.14844394        1369792580.3778591     
   2770613389.8201489        831184016.94604480        777190066.07790971     
   2772022986.6761856        683414194.12173593        955662633.11781812     
   2774417303.9804177        538926772.79141164        1110985476.2225459     
   2777796341.7328453        397721752.95507115        1243158595.3920927     
   2782160099.9334674        259799134.61271548        1352181990.6264596     
   1881357430.2833459        564407229.08500385        729213721.63490975     
   1849372301.1471667        456016555.65632355        902406863.34506464     
   1818043652.3548710        349814150.04058897        1063973982.2127812     
   1787371483.9064589        245800012.23780036        1213915078.2380600     
   1757355795.8019309        143974142.24795759        1352230151.4208999     
   957819633.58986378        287345890.07695913        700427914.89120448     
   925364638.72644699        228211824.12340087        867958684.48324251     
   893237884.10260224        170171892.30175003        1035387132.3255844     
   861439369.71832955        113226094.61200646        1202713258.4182308     
   829969095.57362938        57374431.054170310        1369937062.7611814     
 -0.26029704948248189       -7.8089114844744567E-002   690832645.84679365     
 -0.58597307981131108      -0.47703173828655054        852318096.53235114     
 -0.77638840297243406      -0.42510559804452364        1025224926.5609552     
 -0.83154308473283978        7.7689650443169223E-002   1209553135.9326060     
 -0.75143719657838548        1.0313534653137282        1405302724.6473036     
   3904382007.9682393        404849408.14844394        1369792580.3778591     
   3643399615.0118866        178117170.95379913        1259605346.3031681     
   3405634904.6275501        28777208.999209404        1189676662.1191714     
   3191087876.8152313       -43170477.715321898        1160006527.8258715     
   2999758531.5749288       -37725889.189799666        1170594943.4232650     
   2782160099.9334674        259799134.61271548        1352181990.6264596     
   2632932823.8671341        103702812.41207862        1294366191.6303151     
   2501118809.6087422        5650696.2379140854        1265956721.5064118     
   2386718057.1582904       -34357213.909782052        1266953580.2547493     
   2289730566.5157795       -16320918.031007171        1297356767.8753283     
   1757355795.8019309        143974142.24795759        1352230151.4208999     
   1688877290.8586042        49211831.311227441        1340013963.2785482     
   1632007626.9591436       -6854342.8126175404        1346351882.9899831     
   1586746804.1035473       -24224380.123580158        1371243910.5552042     
   1553094822.2918169       -2898280.6216586232        1414690045.9742115     
   829969095.57362938        57374431.054170310        1369937062.7611814     
   811233015.98629797        14644227.651244104        1396548661.2478662     
   798301356.67875528       -8737908.1523873210        1430862146.5698838     
   791174117.65100312       -12771976.356718302        1472877518.7272327     
   789851298.90303802        2542023.0382447243        1522594777.7199144     
 -0.75143719657838548        1.0313534653137282        1405302724.6473036     
 -0.74978671394320762        1.4321237876909545        1463970285.5382705     
  -1.2324220155734062       0.21860755536370874        1519487512.2461145     
  -2.1993447967560931       -2.6091999718952223        1571854404.7708373     
  -3.6505541263879735       -7.0512959939847990        1621070963.1124377     
   2999758531.5749288       -37725889.189799666        1170594943.4232650     
   2818625827.1461296       -1180131.1620738506        1164044570.7103808     
   2632764787.7884459        19604510.436037540        1169554471.0859952     
   2442175413.5018773        24628035.604535937        1187124644.5501020     
   2246857704.2864270        13890444.343420506        1216755091.1027055     
   2289730566.5157795       -16320918.031007171        1297356767.8753283     
   2140144171.6263926        6967339.6197129488        1278269465.1281881     
   1987011525.7286277        18434760.575840235        1274447704.4098706     
   1830332628.8224847        18081344.837376237        1285891485.7203732     
   1670107480.9079683        5907092.4043302536        1312600809.0597017     
   1553094822.2918169       -2898280.6216586232        1414690045.9742115     
   1444212648.1999168        9879850.0294736028        1384444911.1000731     
   1332966307.0201476        14777423.721041799        1372670587.1950839     
   1219355798.7525082        11794440.453043103        1379367074.2592428     
   1103381123.3970010        930900.22548419237        1404534372.2925525     
   789851298.90303802        2542023.0382447243        1522594777.7199144     
   730831256.86670363        7557400.0672153533        1482570908.6260364     
   670629131.66300607        8632499.8716421425        1464223119.4416342     
   609244923.29194856        5767322.4515342414        1467551410.1667092     
   546678631.75352955       -1038132.1931099296        1492555780.8012600     
  -3.6505541263879735       -7.0512959939847990        1621070963.1124377     
  -2.3732464253873804       -10.267064396465273        1572647457.7060778     
 -0.34279344472866269       -10.972348533418666        1549105301.1495218     
   2.4408044324239819       -9.1671500290036647        1550444493.4427691     
   5.9775495908387617       -4.8514598931588200        1576665034.5858207     
   2246857704.2864270        13890444.343420506        1216755091.1027055     
   2056834130.6831143        3656403.3583210707        1179036291.2419086     
   1870823711.5201392        6799543.8410123587        1158778366.1336348     
   1688826446.7975073        23319865.791512966        1155981315.7778816     
   1510842336.5152154        53217369.209812164        1170645140.1746454     
   1670107480.9079683        5907092.4043302536        1312600809.0597017     
   1526485351.0486467       -2099772.3425754905        1282615976.5023220     
   1385873086.8809507       -73751.450733006001        1270349723.7097502     
   1248270688.4048772        11985155.079852641        1275802050.6819952     
   1113678155.6204271        34076947.249179780        1298972957.4190538     
   1103381123.3970010        930900.22548419237        1404534372.2925525     
   1006896737.3167973       -4627898.2726820111        1381113003.4984157     
   912418928.17950022       -3498106.9611586928        1375667919.4813828     
   819947695.98510897        4320274.1600490510        1388199120.2414539     
   729483040.73362005        18827245.090938449        1418706605.7786357     
   546678631.75352955       -1038132.1931099296        1492555780.8012600     
   498068289.48756337       -3927974.4320011735        1474527372.2301948     
   450461235.41578639       -3473522.6902642250        1474732953.4485295     
   403857469.53819752        325223.03210002184        1493172524.4562647     
   358256991.85479695        7468262.7350922674        1529846085.2533946     
   5.9775495908387617       -4.8514598931588200        1576665034.5858207     
   7.5609433091772740      -0.82054370166638391        1562859082.6976593     
   8.5898101360775083        1.3619516000332941        1567544825.6111891     
   9.0641481271241382        1.6960171019429318        1590722263.3264122     
   8.9839553379018415       0.18164389406524739        1632391395.8433254     
 -0.26029704948248189       -7.8089114844744567E-002   690832645.84679365     
 -0.58597307981131108      -0.47703173828655054        852318096.53235114     
 -0.77638840297243406      -0.42510559804452364        1025224926.5609552     
 -0.83154308473283978        7.7689650443169223E-002   1209553135.9326060     
 -0.75143719657838548        1.0313534653137282        1405302724.6473036     
  -957819634.15785301       -287345890.24735594        700427914.61675882     
  -925364639.75107944       -228211824.66805321        867958684.42754126     
  -893237885.46711922       -170171892.83146203        1035387132.5406429     
  -861439371.30597234       -113226094.73758247        1202713258.9560640     
  -829969097.26763928       -57374430.386414617        1369937063.6738048     
  -1881357430.9935207       -564407229.29805624        729213721.31618178     
  -1849372301.9706609       -456016555.77541709        902406863.28443563     
  -1818043653.3286886       -349814150.18907022        1063973982.5142816     
  -1787371485.0676038       -245800012.53901511        1213915079.0057204     
  -1757355797.1874068       -143974142.82525223        1352230152.7587509     
  -2770613390.7673001       -831184017.23019004        777190065.94506192     
  -2772022987.2447166       -683414193.79912317        955662633.10303438     
  -2774417304.3610959       -538926772.49792933        1110985476.4818716     
  -2777796342.1164374       -397721753.32660866        1243158596.0815744     
  -2782160100.5107393       -259799136.28515923        1352181991.9021423     
  -3625587513.4791899       -1087676254.0437570        844356948.50339985     
  -3693316695.5732484       -910404738.73917234        1027725993.8833377     
  -3762358838.5643425       -737509759.75804090        1176421614.4434135     
  -3832713942.4524727       -568991317.10036230        1290443810.1836269     
  -3904382007.2376390       -404849410.76613653        1369792581.1039779     
 -0.75143719657838548        1.0313534653137282        1405302724.6473036     
 -0.74978671394320762        1.4321237876909545        1463970285.5382705     
  -1.2324220155734062       0.21860755536370874        1519487512.2461145     
  -2.1993447967560931       -2.6091999718952223        1571854404.7708373     
  -3.6505541263879735       -7.0512959939847990        1621070963.1124377     
  -829969097.26763928       -57374430.386414617        1369937063.6738048     
  -811233017.84706938       -14644226.782613218        1396548661.4852636     
  -798301359.20173240        8737907.5704132020        1430862146.1398520     
  -791174121.33162916        12771972.672659814        1472877517.6375699     
  -789851304.23675847       -2542031.4758680165        1522594775.9784174     
  -1757355797.1874068       -143974142.82525223        1352230152.7587509     
  -1688877292.5586267       -49211832.281632543        1340013963.8179307     
  -1632007628.9960258        6854341.3747222424        1346351882.7464917     
  -1586746806.4996035        24224378.143815100        1371243909.5444341     
  -1553094825.0693614        2898278.0256415009        1414690044.2117596     
  -2782160100.5107393       -259799136.28515923        1352181991.9021423     
  -2632932824.8844571       -103702815.06493330        1294366192.5362716     
  -2501118810.6153007       -5650698.3684614897        1265956722.0660360     
  -2386718057.7032700        34357213.804260850        1266953580.4914329     
  -2289730566.1483641        16320921.453231096        1297356767.8124650     
  -3904382007.2376390       -404849410.76613653        1369792581.1039779     
  -3643399614.8245625       -178117175.13251793        1259605347.6402874     
  -3405634904.0595589       -28777211.659141302        1189676664.0984826     
  -3191087874.9426260        43170479.654001117        1160006530.4785643     
  -2999758527.4737668        37725898.806898832        1170594946.7805309     
  -3.6505541263879735       -7.0512959939847990        1621070963.1124377     
  -2.3732464253873804       -10.267064396465273        1572647457.7060778     
 -0.34279344472866269       -10.972348533418666        1549105301.1495218     
   2.4408044324239819       -9.1671500290036647        1550444493.4427691     
   5.9775495908387617       -4.8514598931588200        1576665034.5858207     
  -789851304.23675847       -2542031.4758680165        1522594775.9784174     
  -730831258.84147668       -7557411.0052579939        1482570908.4023399     
  -670629129.28919923       -8632510.0113270581        1464223120.4472749     
  -609244915.57992291       -5767328.4940676987        1467551412.1132216     
  -546678617.71364820        1038133.5465184450        1492555783.4001811     
  -1553094825.0693614        2898278.0256415009        1414690044.2117596     
  -1444212647.6383681       -9879851.4420539737        1384444911.7704587     
  -1332966302.6465256       -14777422.373583376        1372670589.7213783     
  -1219355790.0938311       -11794434.768940330        1379367078.0645194     
  -1103381109.9802866       -930888.62813204527        1404534376.7998815     
  -2289730566.1483641        16320921.453231096        1297356767.8124650     
  -2140144168.7639194       -6967331.5774465799        1278269467.8104336     
  -1987011520.4147720       -18434748.059112430        1274447708.9718339     
  -1830332621.1009216       -18081327.991769075        1285891491.2966623     
  -1670107470.8223693       -5907071.3754191399        1312600814.7849216     
  -2999758527.4737668        37725898.806898832        1170594946.7805309     
  -2818625822.2181287        1180148.5885666609        1164044576.5222657     
  -2632764782.5939398       -19604487.067919612        1169554478.1986396     
  -2442175408.6011925       -24628008.162551284        1187124651.8096516     
  -2246857700.2398911       -13890414.695334792        1216755097.3553019     
   5.9775495908387617       -4.8514598931588200        1576665034.5858207     
   7.5609433091772740      -0.82054370166638391        1562859082.6976593     
   8.5898101360775083        1.3619516000332941        1567544825.6111891     
   9.0641481271241382        1.6960171019429318        1590722263.3264122     
   8.9839553379018415       0.18164389406524739        1632391395.8433254     
  -546678617.71364820        1038133.5465184450        1492555783.4001811     
  -498068273.24743026        3927980.0959586501        1474527372.0077667     
  -450461219.18291169        3473525.3064016700        1474732950.5269427     
  -403857455.52008885       -325230.82214374840        1493172518.9577112     
  -358256982.25896806       -7468288.2896926254        1529846077.3000710     
  -1103381109.9802866       -930888.62813204527        1404534376.7998815     
  -1006896722.3172452        4627910.5340306759        1381113001.0815144     
  -912418914.90307307        3498108.8666298985        1375667910.3846371     
  -819947687.73776841       -4320293.6303315163        1388199104.7092521     
  -729483040.82133543       -18827296.956862330        1418706584.0553586     
  -1670107470.8223693       -5907071.3754191399        1312600814.7849216     
  -1526485339.6485033        2099790.4936687946        1282615969.9189026     
  -1385873078.5706775        73752.042621850967        1270349705.1842763     
  -1248270687.5888906       -11985186.728553355        1275802020.5810382     
  -1113678166.7031446       -34077025.819864511        1298972916.1091921     
  -2246857700.2398911       -13890414.695334792        1216755097.3553019     
  -2056834125.2412031       -3656380.0251274109        1179036278.5199330     
  -1870823710.1857269       -6799545.1656246185        1158778334.9258549     
  -1688826455.0734563       -23319910.116808653        1155981266.5730677     
  -1510842359.9043980       -53217474.878700018        1170645073.4615719     
  -3625587513.4791899       -1087676254.0437570        844356948.50339985     
  -3693316695.5732484       -910404738.73917234        1027725993.8833377     
  -3762358838.5643425       -737509759.75804090        1176421614.4434135     
  -3832713942.4524727       -568991317.10036230        1290443810.1836269     
  -3904382007.2376390       -404849410.76613653        1369792581.1039779     
  -4760982545.2910538       -1428294763.5873163        993425684.91912234     
  -4734581990.4319315       -912580190.18427515        973491824.63881576     
  -4752872487.3023577       -545835789.21305704        982536634.96578920     
  -4815854035.9023285       -328061560.67366004        1020560115.9000427     
  -4923526636.2318487       -259257504.56608748        1087562267.4415755     
  -6491501232.3647518       -1947450369.7094254        1287107591.1201563     
  -6189107810.7606163       -1038733799.2703784        1013263052.5416764     
  -5974783531.7185392       -423581037.37152290        832049279.99761868     
  -5848528395.2385178       -101992084.01285815        743466273.48798251     
  -5810342401.3205566       -73966939.194386244        747514033.01276791     
  -8817143574.7002831       -2645143072.4100847        1725402667.1065021     
  -8056894156.5592995       -1288865565.9974816        1147039677.5919197     
  -7428091971.8128834       -370745504.23343897        724959549.53890061     
  -6930737020.4610386        109217112.88204288        459162282.94744617     
  -6564829302.5037575        151022285.34896708        349647877.81755495     
  -11737909572.297649       -3521372871.6892948        2308310912.8781590     
  -10337941027.827984       -1662975490.3655846        1374821699.7895448     
  -9112797807.5853977       -387329189.79880428        661267443.58963633     
  -8062479911.5698900        305566030.01104879        167648144.27843347     
  -7186987339.7814617        415710169.06396675       -106036198.14406323     
  -3904382007.2376390       -404849410.76613653        1369792581.1039779     
  -3643399614.8245625       -178117175.13251793        1259605347.6402874     
  -3405634904.0595589       -28777211.659141302        1189676664.0984826     
  -3191087874.9426260        43170479.654001117        1160006530.4785643     
  -2999758527.4737668        37725898.806898832        1170594946.7805309     
  -4923526636.2318487       -259257504.56608748        1087562267.4415755     
  -4608921012.0061455       -145349024.98337102        998223609.25371063     
  -4303412716.6386471       -61764974.928006649        935911292.39618921     
  -4007001750.1293550       -8505354.3999929428        900625316.86901081     
  -3719688112.4782691        14429836.600667238        892365682.67217517     
  -5810342401.3205566       -73966939.194386244        747514033.01276791     
  -5479919855.5437765       -84224108.741036177        695497695.02223980     
  -5144474285.8353367       -77737865.182152510        657275489.77051210     
  -4804005692.1952343       -54508208.517730236        632847417.25758421     
  -4458514074.6234713       -14535138.747772217        622213477.48345709     
  -6564829302.5037575        151022285.34896708        349647877.81755495     
  -6256396145.4374523        5257573.5944840908        351427604.94587380     
  -5928819611.6496229       -76695882.421576500        353769256.22145081     
  -5582099701.1402626       -94838082.699208498        356672831.64428532     
  -5216236413.9093781       -49169027.238424540        360138331.21437728     
  -7186987339.7814617        415710169.06396675       -106036198.14406323     
  -6938349881.6871834        123096022.02318764       -33986660.975386851     
  -6656448694.0815096       -58639026.646283388        25392591.749005407     
  -6341283776.9644413       -129494976.94444036        72101560.029111519     
  -5992855130.3359833       -89471828.871287107        106140243.86493346     
  -2999758527.4737668        37725898.806898832        1170594946.7805309     
  -2818625822.2181287        1180148.5885666609        1164044576.5222657     
  -2632764782.5939398       -19604487.067919612        1169554478.1986396     
  -2442175408.6011925       -24628008.162551284        1187124651.8096516     
  -2246857700.2398911       -13890414.695334792        1216755097.3553019     
  -3719688112.4782691        14429836.600667238        892365682.67217517     
  -3495998013.7885952        5525312.8031401634        883480268.07949686     
  -3271618928.9504452       -1082590.4994673729        888892293.48125327     
  -3046550857.9638252       -5393873.3071750402        908601758.87744379     
  -2820793800.8287325       -7408535.6199700832        942608664.26807082     
  -4458514074.6234713       -14535138.747772217        622213477.48345709     
  -4185874673.7574840        6119136.4981935024        606280445.63293481     
  -3916585634.9631042        15605538.172130823        606882021.83664477     
  -3650646958.2403321        13924066.274037838        624018206.09458590     
  -3388058643.5891695        1074720.8039159775        657688998.40675783     
  -5216236413.9093781       -49169027.238424540        360138331.21437728     
  -4888255802.1247969        2961619.6737196445        332445109.18258095     
  -4567664900.6319075        30459898.946893692        323523663.26481414     
  -4254463709.4307084        33325810.581092834        333373993.46107584     
  -3948652228.5211997        11559354.576328754        361996099.77136737     
  -5992855130.3359833       -89471828.871287107        106140243.86493346     
  -5603141398.8905354       -3947237.6702837944        61974258.728435792     
  -5224856725.9568605        43480491.824806929        38817217.765764572     
  -4858001111.5349598        52811359.613987446        36669120.976918668     
  -4502574555.6248312        24045365.697255135        55529968.361896329     
  -2246857700.2398911       -13890414.695334792        1216755097.3553019     
  -2056834125.2412031       -3656380.0251274109        1179036278.5199330     
  -1870823710.1857269       -6799545.1656246185        1158778334.9258549     
  -1688826455.0734563       -23319910.116808653        1155981266.5730677     
  -1510842359.9043980       -53217474.878700018        1170645073.4615719     
  -2820793800.8287325       -7408535.6199700832        942608664.26807082     
  -2588114375.5612259       -8263631.1203439236        904353855.60582817     
  -2356728646.5261335       -13431047.395434737        884009394.25613463     
  -2126636613.7234497       -22910784.445216417        881575280.21899199     
  -1897838277.1531792       -36702842.269715071        897051513.49440122     
  -3388058643.5891695        1074720.8039159775        657688998.40675783     
  -3111439162.1349607       -10484243.091680169        622070907.58023942     
  -2833393913.2023640       -17290648.725988984        604812636.13752997     
  -2553922896.7913852       -19344496.099011183        605914184.07862747     
  -2273026112.9020157       -16645785.210743189        625375551.40353847     
  -3948652228.5211997        11559354.576328754        361996099.77136737     
  -3626808484.9624052       -10318215.939121008        332187434.44316989     
  -3300819510.2144260       -18378349.157299280        321188060.57003999     
  -2970685304.2772608       -12621045.078182340        328997978.15197766     
  -2636405867.1509142        6953696.2982118130        355617187.18899083     
  -4502574555.6248312        24045365.697255135        55529968.361896329     
  -4134222344.0435629       -7765549.6626811028        34703436.194617957     
  -3759005437.5623136       -16694148.689347982        33135667.553664483     
  -3376923836.1810822       -2740431.3827373981        50826662.439043239     
  -2987977539.8998680        34095602.257143259        87776420.850749210     
 </DataArray>
 <DataArray  type="Float64" Name="VM" NumberOfComponents="1" format="ascii">
   11172731517.270805     
   9905411338.4497051     
   8998626512.7226887     
   8224651397.9566536     
   7405878524.1375980     
   8387326125.9072123     
   7754841360.7074480     
   7357769358.5642443     
   7031108671.1673870     
   6669181956.8657770     
   6185484019.7667236     
   6002940443.7047644     
   5951770506.8723822     
   5939478891.4920187     
   5917103042.6028643     
   4568104426.3364935     
   4665987836.3075161     
   4815556085.0073709     
   4984456516.0754528     
   5155603054.0731258     
   3538823952.5066862     
   3778316309.2397022     
   4009537599.0090632     
   4222369241.9054809     
   4410942110.4892740     
   7405878524.1375980     
   7000957094.3593721     
   6627469682.0137968     
   6278780162.7663631     
   5951463961.3938417     
   6669181956.8657770     
   6288554518.7824688     
   5922628323.2785292     
   5569657279.8782063     
   5229164510.0392561     
   5917103042.6028643     
   5570118950.3254690     
   5231421568.9786396     
   4901129630.7653217     
   4579869291.6325703     
   5155603054.0731258     
   4856205123.9598236     
   4570029059.0122719     
   4295978617.6212931     
   4034713358.7570114     
   4410942110.4892740     
   4173362113.9896116     
   3968269678.9813638     
   3789394641.5717773     
   3636484650.4741964     
   5951463961.3938417     
   5602197306.1104631     
   5247162870.4947319     
   4885033840.2416868     
   4515669711.6077948     
   5229164510.0392561     
   4923524141.0703230     
   4617101230.5819006     
   4310077751.8034582     
   4003842592.4899778     
   4579869291.6325703     
   4318556017.3331594     
   4062748369.5729728     
   3813980210.1322508     
   3574947288.3459473     
   4034713358.7570114     
   3818764358.6104131     
   3615292272.0777254     
   3426622225.5922875     
   3256004876.3281331     
   3636484650.4741964     
   3465974405.8689394     
   3314180695.4965611     
   3183155050.0264945     
   3075521336.4630418     
   4515669711.6077948     
   4130782438.8389850     
   3751125363.6191893     
   3376702284.4345336     
   3009013734.8808537     
   4003842592.4899778     
   3667079175.0149665     
   3338348259.8599625     
   3018668014.3811688     
   2710794731.3219662     
   3574947288.3459473     
   3287774196.6084132     
   3012776780.6509385     
   2752251489.7079268     
   2510452664.8044829     
   3256004876.3281331     
   3021685753.4102459     
   2804837778.1796422     
   2608814004.2452765     
   2438767285.5121121     
   3075521336.4630418     
   2897143269.3952098     
   2741461061.3676710     
   2611929130.8803611     
   2513225762.3213577     
   3538823952.5066862     
   3778316309.2397022     
   4009537599.0090632     
   4222369241.9054809     
   4410942110.4892740     
   2806483396.6287074     
   2999433237.9426341     
   3193038030.4936595     
   3377258497.4241438     
   3545461328.6586814     
   2095582859.7416441     
   2286438072.9476399     
   2487528325.6534834     
   2690083267.5591145     
   2888181659.9003916     
   1482079069.3359771     
   1719668000.8076112     
   1972538453.5842369     
   2235378730.0027165     
   2504935964.8652129     
   1196557242.1338830     
   1476258247.4044271     
   1775741661.9896452     
   2095007485.8895380     
   2434055719.1041059     
   4410942110.4892740     
   4173362113.9896116     
   3968269678.9813638     
   3789394641.5717773     
   3636484650.4741964     
   3545461328.6586814     
   3419970541.3466258     
   3324068806.3998289     
   3255014379.2165027     
   3214017220.5430074     
   2888181659.9003916     
   2856313678.3134050     
   2848275336.8851495     
   2863166042.2287526     
   2901836833.8386650     
   2504935964.8652129     
   2549015117.3276787     
   2605078950.5322738     
   2672887768.0257835     
   2752589378.6544356     
   2434055719.1041059     
   2535670915.3234015     
   2631829572.6767068     
   2722531691.1640258     
   2807777270.7853556     
   3636484650.4741964     
   3465974405.8689394     
   3314180695.4965611     
   3183155050.0264945     
   3075521336.4630418     
   3214017220.5430074     
   3076893398.2714181     
   2963878441.4790735     
   2877134048.1247935     
   2819253636.0077815     
   2901836833.8386650     
   2796719920.8885765     
   2722130298.6502209     
   2679654199.7185044     
   2671062343.1813035     
   2752589378.6544356     
   2668838277.8714914     
   2622189309.8932199     
   2613201169.2725797     
   2642459915.5391264     
   2807777270.7853556     
   2723905299.1409540     
   2683129087.8652582     
   2685448636.9582672     
   2730863946.4199824     
   3075521336.4630418     
   2897143269.3952098     
   2741461061.3676710     
   2611929130.8803611     
   2513225762.3213577     
   2819253636.0077815     
   2696048671.1609073     
   2600406062.5446973     
   2535029635.9735246     
   2503094435.5330081     
   2671062343.1813035     
   2596332347.3758664     
   2552077379.3769279     
   2539700943.4959049     
   2560654431.1401958     
   2642459915.5391264     
   2602448225.0087037     
   2594032368.5828528     
   2617567989.7749209     
   2673390249.0124187     
   2730863946.4199824     
   2706951336.3028355     
   2715067281.1002750     
   2755211780.8123045     
   2827384835.4389186     
   1196557242.1338830     
   1476258247.4044271     
   1775741661.9896452     
   2095007485.8895380     
   2434055719.1041059     
   1482079069.2368569     
   1719668001.1323819     
   1972538454.4076967     
   2235378731.4246168     
   2504935966.9997530     
   2095582859.9125993     
   2286438073.4353995     
   2487528326.6502357     
   2690083269.2442532     
   2888181662.4411407     
   2806483397.2570262     
   2999433238.4647298     
   3193038031.1409616     
   3377258498.3694091     
   3545461330.0164557     
   3538823953.7445107     
   3778316309.7224846     
   4009537598.9629283     
   4222369241.4501052     
   4410942109.6343050     
   2434055719.1041059     
   2535670915.3234015     
   2631829572.6767068     
   2722531691.1640258     
   2807777270.7853556     
   2504935966.9997530     
   2549015118.4379573     
   2605078950.5099287     
   2672887766.7598429     
   2752589376.0897589     
   2888181662.4411407     
   2856313679.7929158     
   2848275337.2940035     
   2863166041.5491791     
   2901836832.0516558     
   3545461330.0164557     
   3419970542.2023134     
   3324068806.9978070     
   3255014379.8555560     
   3214017221.4406033     
   4410942109.6343050     
   4173362113.3950896     
   3968269679.1540313     
   3789394643.2586684     
   3636484654.3783627     
   2807777270.7853556     
   2723905299.1409540     
   2683129087.8652582     
   2685448636.9582672     
   2730863946.4199824     
   2752589376.0897589     
   2668838276.5700107     
   2622189309.7114239     
   2613201170.0714869     
   2642459917.1761837     
   2901836832.0516558     
   2796719921.2354245     
   2722130300.6647763     
   2679654202.9420938     
   2671062347.1430025     
   3214017221.4406033     
   3076893402.4053073     
   2963878447.9357948     
   2877134055.9660091     
   2819253644.2250595     
   3636484654.3783627     
   3465974414.8080497     
   3314180708.0589843     
   3183155064.7223587     
   3075521351.6329703     
   2730863946.4199824     
   2706951336.3028355     
   2715067281.1002750     
   2755211780.8123045     
   2827384835.4389186     
   2642459917.1761837     
   2602448222.0608053     
   2594032361.0008993     
   2617567977.6031623     
   2673390232.4451661     
   2671062347.1430025     
   2596332340.0878739     
   2552077360.2539854     
   2539700912.2606807     
   2560654388.0516520     
   2819253644.2250595     
   2696048660.4584613     
   2600406031.1232214     
   2535029582.4845924     
   2503094359.6664305     
   3075521351.6329703     
   2897143258.2562256     
   2741461020.4366994     
   2611929056.9294281     
   2513225653.3864231     
   3538823953.7445107     
   3778316309.7224846     
   4009537598.9629283     
   4222369241.4501052     
   4410942109.6343050     
   4568104427.8407526     
   4665987836.7054892     
   4815556084.3328905     
   4984456514.2261438     
   5155603050.9216080     
   6185484020.7290115     
   6002940443.6107492     
   5951770505.7162476     
   5939478889.1885195     
   5917103039.0076284     
   8387326125.5485172     
   7754841359.8118372     
   7357769357.1109667     
   7031108669.2142248     
   6669181954.4274645     
   11172731514.818220     
   9905411336.4826851     
   8998626511.1652336     
   8224651397.0275345     
   7405878524.1775255     
   4410942109.6343050     
   4173362113.3950896     
   3968269679.1540313     
   3789394643.2586684     
   3636484654.3783627     
   5155603050.9216080     
   4856205121.3750668     
   4570029057.3486662     
   4295978617.3563709     
   4034713360.4257326     
   5917103039.0076284     
   5570118947.4924507     
   5231421567.1457748     
   4901129630.2014160     
   4579869292.6629057     
   6669181954.4274645     
   6288554517.4109430     
   5922628323.1324100     
   5569657281.0908003     
   5229164512.7635641     
   7405878524.1775255     
   7000957096.0376558     
   6627469685.4222422     
   6278780167.9487066     
   5951463968.3683853     
   3636484654.3783627     
   3465974414.8080497     
   3314180708.0589843     
   3183155064.7223587     
   3075521351.6329703     
   4034713360.4257326     
   3818764365.1236420     
   3615292283.1950636     
   3426622241.1265593     
   3256004896.1424365     
   4579869292.6629057     
   4318556020.5929327     
   4062748375.2673411     
   3813980218.6342239     
   3574947300.3680902     
   5229164512.7635641     
   4923524140.7562771     
   4617101227.3158932     
   4310077745.7914801     
   4003842584.3732657     
   5951463968.3683853     
   5602197302.1377420     
   5247162855.2285233     
   4885033813.2284470     
   4515669672.6509609     
   3075521351.6329703     
   2897143258.2562256     
   2741461020.4366994     
   2611929056.9294281     
   2513225653.3864231     
   3256004896.1424365     
   3021685750.4605684     
   2804837749.2540746     
   2608813945.4361815     
   2438767192.5598865     
   3574947300.3680902     
   3287774191.8587751     
   3012776757.3361487     
   2752251444.9398470     
   2510452594.3593903     
   4003842584.3732657     
   3667079155.6582999     
   3338348229.2930789     
   3018667971.7341614     
   2710794674.5247221     
   4515669672.6509609     
   4130782392.0260577     
   3751125310.6124640     
   3376702226.4508920     
   3009013672.7780337     
 </DataArray>
 <DataArray  type="Float64" Name="strain" NumberOfComponents="3" format="ascii">
  0.17802496190051542        0.0000000000000000       0.10002680618958791     
  0.16398413971833090       -2.3973446976028601E-002   5.9575606958746669E-002
  0.14994331753614637       -3.9108502556703610E-002   2.8654922548169062E-002
  0.13590249535396187       -4.5405166742025063E-002   7.2647529578550880E-003
  0.12186167317177735       -4.2863439531992918E-002  -4.5949018121952609E-003
  0.13372667756719747        0.0000000000000000        7.4767448865556016E-002
  0.12783724146717573       -1.8803378019831504E-002   4.9705052665672135E-002
  0.12194780536715397       -3.0961368130609193E-002   3.1414913809850148E-002
  0.11605836926713220       -3.6473970332333079E-002   1.9897032298090020E-002
  0.11016893316711043       -3.5341184625003151E-002   1.5151408130391810E-002
   9.8454435350734060E-002   0.0000000000000000        5.5774662240871090E-002
   9.7958127856673322E-002  -1.3633309063634406E-002   4.3908065585644807E-002
   9.7461820362612570E-002  -2.2814233704514769E-002   3.6055468798278673E-002
   9.6965512868551831E-002  -2.7542773922641088E-002   3.2216871878772695E-002
   9.6469205374491079E-002  -2.7818929718013360E-002   3.2392274827126866E-002
   7.2208235251125186E-002   0.0000000000000000        4.3048446315533145E-002
   7.4346798886823703E-002  -8.4632401074373129E-003   4.2184645718664676E-002
   7.6485362522522249E-002  -1.4667099278420347E-002   4.2576587513454611E-002
   7.8623926158220794E-002  -1.8611577512949101E-002   4.4224271699902964E-002
   8.0762489793919312E-002  -2.0296674811023575E-002   4.7127698278009729E-002
   5.4988077268370829E-002   0.0000000000000000        3.6588801089542183E-002
   5.7003254557626899E-002  -3.2931711512402175E-003   4.4534793064731786E-002
   5.9018431846882970E-002  -6.5199648523259265E-003   5.0978269955378040E-002
   6.1033609136139040E-002  -9.6803811032571199E-003   5.5919231761480982E-002
   6.3048786425395104E-002  -1.2774419904033800E-002   5.9357678483040563E-002
  0.12186167317177735       -4.2863439531992918E-002  -4.5949018121952609E-003
  0.11625464477270603       -3.6743349785387597E-002  -1.4727552444765493E-003
  0.11064761637363474       -3.2304926360989555E-002   1.1003456791980927E-003
  0.10504058797456345       -2.9548169258798697E-002   3.1244009588284483E-003
   9.9433559575492131E-002  -2.8473078478815000E-002   4.5994105944148211E-003
  0.11016893316711043       -3.5341184625003151E-002   1.5151408130391810E-002
  0.10429955697474180       -3.1369606978831399E-002   1.5228529584116201E-002
   9.8430180782373117E-002  -2.8365833364029862E-002   1.5330001095289951E-002
   9.2560804590004458E-002  -2.6329863780598557E-002   1.5455822663913113E-002
   8.6691428397635814E-002  -2.5261698228537410E-002   1.5605994289985797E-002
   9.6469205374491079E-002  -2.7818929718013360E-002   3.2392274827126866E-002
   9.0910877090318656E-002  -2.5995864172275188E-002   3.0138233457693779E-002
   8.5352548806146206E-002  -2.4426740367070224E-002   2.8481937847203806E-002
   7.9794220521973783E-002  -2.3111558302398406E-002   2.7423387995656807E-002
   7.4235892237801332E-002  -2.2050317978259834E-002   2.6962583903052846E-002
   8.0762489793919312E-002  -2.0296674811023575E-002   4.7127698278009729E-002
   7.6088605119436672E-002  -2.0622121365718990E-002   4.3256356376256411E-002
   7.1414720444953991E-002  -2.0487647370110586E-002   4.0556155934939664E-002
   6.6740835770471324E-002  -1.9893252824198314E-002   3.9027096954059447E-002
   6.2066951095988677E-002  -1.8838937727982223E-002   3.8669179433615863E-002
   6.3048786425395104E-002  -1.2774419904033800E-002   5.9357678483040563E-002
   5.9832741062095789E-002  -1.5248378559162785E-002   5.4582898339803947E-002
   5.6616695698796460E-002  -1.6548554373150927E-002   5.1552655358497422E-002
   5.3400650335497138E-002  -1.6674947345998191E-002   5.0266949539121100E-002
   5.0184604972197816E-002  -1.5627557477704640E-002   5.0725780881674815E-002
   9.9433559575492131E-002  -2.8473078478815000E-002   4.5994105944148211E-003
   9.3365953868206564E-002  -2.7949919677118379E-002   2.6855512988668839E-003
   8.7298348160921038E-002  -2.6848958509788891E-002   1.6820794244842424E-003
   8.1230742453635513E-002  -2.5170194976826495E-002   1.5889949712668827E-003
   7.5163136746349946E-002  -2.2913629078231079E-002   2.4062979392148187E-003
   8.6691428397635814E-002  -2.5261698228537410E-002   1.5605994289985797E-002
   8.1485738163099300E-002  -2.4490639254946822E-002   1.4405954684074421E-002
   7.6280047928562744E-002  -2.3345989406927142E-002   1.4019358602495646E-002
   7.1074357694026188E-002  -2.1827748684478239E-002   1.4446206045249675E-002
   6.5868667459489660E-002  -1.9935917087600397E-002   1.5686497012336320E-002
   7.4235892237801332E-002  -2.2050317978259834E-002   2.6962583903052846E-002
   6.9795173579181163E-002  -2.1031358832775196E-002   2.6272152495574110E-002
   6.5354454920561009E-002  -1.9843020304065279E-002   2.6298220715595507E-002
   6.0913736261940861E-002  -1.8485302392130091E-002   2.7040788563116910E-002
   5.6473017603320685E-002  -1.6958205096969742E-002   2.8499856038138274E-002
   6.2066951095988677E-002  -1.8838937727982223E-002   3.8669179433615863E-002
   5.8294260116452265E-002  -1.7572078410603507E-002   3.8284144733365881E-002
   5.4521569136915839E-002  -1.6340051201203430E-002   3.8518665763783433E-002
   5.0748878157379419E-002  -1.5142856099781945E-002   3.9372742524868512E-002
   4.6976187177843007E-002  -1.3980493106339129E-002   4.0846375016620876E-002
   5.0184604972197816E-002  -1.5627557477704640E-002   5.0725780881674815E-002
   4.6982997774912535E-002  -1.4112797988431881E-002   5.0441931397449839E-002
   4.3781390577627248E-002  -1.2837082098341605E-002   5.0680693747059788E-002
   4.0579783380341947E-002  -1.1800409807433790E-002   5.1442067930504425E-002
   3.7378176183056680E-002  -1.1002781115708460E-002   5.2726053947783902E-002
   7.5163136746349946E-002  -2.2913629078231079E-002   2.4062979392148187E-003
   6.8864878757675774E-002  -2.0541686172579232E-002   1.5038153401094601E-003
   6.2566620769001630E-002  -1.8516791618447589E-002   1.4358791518334357E-003
   5.6268362780327541E-002  -1.6838945415836564E-002   2.2024893743870372E-003
   4.9970104791653314E-002  -1.5508147564745389E-002   3.8036460077706113E-003
   6.5868667459489660E-002  -1.9935917087600397E-002   1.5686497012336320E-002
   6.0395217318534256E-002  -1.7962072278795399E-002   1.4394788879763670E-002
   5.4921767177578892E-002  -1.6197791920565030E-002   1.3918150031798804E-002
   4.9448317036623481E-002  -1.4643076012909734E-002   1.4256580468442102E-002
   4.3974866895668152E-002  -1.3297924555828788E-002   1.5410080189692921E-002
   5.6473017603320685E-002  -1.6958205096969742E-002   2.8499856038138274E-002
   5.1804898183862302E-002  -1.5382458385011455E-002   2.6956406273044034E-002
   4.7136778764403947E-002  -1.3878792222682478E-002   2.6208548666335880E-002
   4.2468659344945620E-002  -1.2447206609982739E-002   2.6256283218013685E-002
   3.7800539925487181E-002  -1.1087701546912299E-002   2.7099609928077806E-002
   4.6976187177843007E-002  -1.3980493106339129E-002   4.0846375016620876E-002
   4.3093921353659873E-002  -1.2802844491227511E-002   3.9188667519950336E-002
   3.9211655529476711E-002  -1.1559792524799700E-002   3.8307075055444235E-002
   3.5329389705293548E-002  -1.0251337207055827E-002   3.8201597623102546E-002
   3.1447123881110407E-002  -8.8774785379957533E-003   3.8872235222925017E-002
   3.7378176183056680E-002  -1.1002781115708460E-002   5.2726053947783902E-002
   3.4262286827926966E-002  -1.0223230597443553E-002   5.1091572620482709E-002
   3.1146397472797259E-002  -9.2407928269171574E-003   5.0213729199124174E-002
   2.8030508117667555E-002  -8.0554678041289858E-003   5.0092523683708201E-002
   2.4914618762537866E-002  -6.6672555290792079E-003   5.0727956074234637E-002
   5.4988077268370829E-002   0.0000000000000000        3.6588801089542183E-002
   5.7003254557626899E-002  -3.2931711512402175E-003   4.4534793064731786E-002
   5.9018431846882970E-002  -6.5199648523259265E-003   5.0978269955378040E-002
   6.1033609136139040E-002  -9.6803811032571199E-003   5.5919231761480982E-002
   6.3048786425395104E-002  -1.2774419904033800E-002   5.9357678483040563E-002
   4.2020969745605596E-002   0.0000000000000000        3.3678236196709420E-002
   4.2783312140661084E-002  -2.4698783646853305E-003   4.1412047435105452E-002
   4.3545654535716571E-002  -4.8899736400452292E-003   4.8142703969643659E-002
   4.4307996930772066E-002  -7.2602858260797064E-003   5.3870205800324020E-002
   4.5070339325827546E-002  -9.5808149227887465E-003   5.8594552927146583E-002
   2.8533921025964082E-002   0.0000000000000000        3.1599261270846092E-002
   2.8542788907504495E-002  -1.6465855781304410E-003   3.9104297411619471E-002
   2.8551656789044904E-002  -3.2599824277645380E-003   4.6105539229220519E-002
   2.8560524670585313E-002  -4.8401905489022894E-003   5.2602986723649263E-002
   2.8569392552125726E-002  -6.3872099415436942E-003   5.8596639894905662E-002
   1.4526931109446268E-002   0.0000000000000000        3.0351876311952197E-002
   1.4281684858157111E-002  -8.2329279157555358E-004   3.7611542994273842E-002
   1.4036438606867953E-002  -1.6299912154838438E-003   4.4866775734108660E-002
   1.3791192355578795E-002  -2.4200952717248741E-003   5.2117574531456663E-002
   1.3545946104289637E-002  -3.1936049602986414E-003   5.9363939386317857E-002
  -3.9478385838176422E-012   0.0000000000000000        2.9936081320027723E-002
  -7.3810593054224327E-012  -5.0206635723859527E-012   3.6933784183068551E-002
  -1.0814278725984616E-011  -3.2031512858798905E-012   4.4426413484308057E-002
  -1.4247499664429841E-011   5.4525429310503526E-012   5.2413969223746262E-002
  -1.7680720602875066E-011   2.0946410404787397E-011   6.0896451401383153E-002
   6.3048786425395104E-002  -1.2774419904033800E-002   5.9357678483040563E-002
   5.9832741062095789E-002  -1.5248378559162785E-002   5.4582898339803947E-002
   5.6616695698796460E-002  -1.6548554373150927E-002   5.1552655358497422E-002
   5.3400650335497138E-002  -1.6674947345998191E-002   5.0266949539121100E-002
   5.0184604972197816E-002  -1.5627557477704640E-002   5.0725780881674815E-002
   4.5070339325827546E-002  -9.5808149227887465E-003   5.8594552927146583E-002
   4.3363699669058509E-002  -1.1436283912467694E-002   5.6089201637313651E-002
   4.1657060012289464E-002  -1.2411415777411809E-002   5.4858124598611183E-002
   3.9950420355520412E-002  -1.2506210517621151E-002   5.4901321811039135E-002
   3.8243780698751360E-002  -1.1720668133095684E-002   5.6218793274597563E-002
   2.8569392552125726E-002  -6.3872099415436942E-003   5.8596639894905662E-002
   2.7901895691087267E-002  -7.6241892657725636E-003   5.8067271742070430E-002
   2.7234398830048818E-002  -8.2742771816726769E-003   5.8341914929565933E-002
   2.6566901969010355E-002  -8.3374736892440730E-003   5.9420569457392179E-002
   2.5899405107971906E-002  -7.8137787884867277E-003   6.1303235325549162E-002
   1.3545946104289637E-002  -3.1936049602986414E-003   5.9363939386317857E-002
   1.3447329128182080E-002  -3.8120946190774215E-003   6.0517108654074198E-002
   1.3348712152074525E-002  -4.1371385859335658E-003   6.2004026351361638E-002
   1.3250095175966975E-002  -4.1687368608669863E-003   6.3824692478180081E-002
   1.3151478199859411E-002  -3.9068894438777785E-003   6.5979107034529624E-002
  -1.7680720602875066E-011   2.0946410404787397E-011   6.0896451401383153E-002
  -1.9657064170841565E-011   2.7617663364565281E-011   6.3438712373325060E-002
  -2.1633404703041981E-011   9.8055693339288430E-012   6.5844458863998298E-002
  -2.3609746753125438E-011  -3.2489942214473239E-011   6.8113690873402952E-002
  -2.5586088803208895E-011  -9.9268829267806780E-011   7.0246408401538965E-002
   5.0184604972197816E-002  -1.5627557477704640E-002   5.0725780881674815E-002
   4.6982997774912535E-002  -1.4112797988431881E-002   5.0441931397449839E-002
   4.3781390577627248E-002  -1.2837082098341605E-002   5.0680693747059788E-002
   4.0579783380341947E-002  -1.1800409807433790E-002   5.1442067930504425E-002
   3.7378176183056680E-002  -1.1002781115708460E-002   5.2726053947783902E-002
   3.8243780698751360E-002  -1.1720668133095684E-002   5.6218793274597563E-002
   3.5634232829007975E-002  -1.0584598531136746E-002   5.5391676822221486E-002
   3.3024684959264597E-002  -9.6278116190458025E-003   5.5226067191094394E-002
   3.0415137089521198E-002  -8.8503073968228194E-003   5.5721964381216176E-002
   2.7805589219777820E-002  -8.2520858644676703E-003   5.6879368392587074E-002
   2.5899405107971906E-002  -7.8137787884867277E-003   6.1303235325549162E-002
   2.4020811553184581E-002  -7.0563990738416911E-003   5.9992612814336502E-002
   2.2142217998397253E-002  -6.4185411397500412E-003   5.9482392111786964E-002
   2.0263624443609921E-002  -5.9002049862118223E-003   5.9772573217900520E-002
   1.8385030888822599E-002  -5.5013906132269363E-003   6.0863156132677274E-002
   1.3151478199859411E-002  -3.9068894438777785E-003   6.5979107034529624E-002
   1.2142733947442318E-002  -3.5281996165465960E-003   6.4244739373794907E-002
   1.1133989695025225E-002  -3.2092706604543286E-003   6.3449668509137483E-002
   1.0125245442608137E-002  -2.9501025756008387E-003   6.3593894440557394E-002
   9.1165011901910425E-003  -2.7506953619861468E-003   6.4677417168054599E-002
  -2.5586088803208895E-011  -9.9268829267806780E-011   7.0246408401538965E-002
   1.1781214892536696E-011  -1.5925150781415098E-010   6.8148056500596702E-002
   4.9148518588282286E-011  -1.8115850833333447E-010   6.7127896383145952E-002
   8.6515824018751353E-011  -1.6498985597884763E-010   6.7185928049186661E-002
   1.2388312597977347E-010  -1.1074541284017414E-010   6.8322151498718897E-002
   3.7378176183056680E-002  -1.1002781115708460E-002   5.2726053947783902E-002
   3.4262286827926966E-002  -1.0223230597443553E-002   5.1091572620482709E-002
   3.1146397472797259E-002  -9.2407928269171574E-003   5.0213729199124174E-002
   2.8030508117667555E-002  -8.0554678041289858E-003   5.0092523683708201E-002
   2.4914618762537866E-002  -6.6672555290792079E-003   5.0727956074234637E-002
   2.7805589219777820E-002  -8.2520858644676703E-003   5.6879368392587074E-002
   2.5451921379190320E-002  -7.6674229609528244E-003   5.5580025648433951E-002
   2.3098253538602845E-002  -6.9305946252503046E-003   5.5048488027422508E-002
   2.0744585698015357E-002  -6.0416008573601762E-003   5.5284755529553128E-002
   1.8390917857427885E-002  -5.0004416572824728E-003   5.6288828154825665E-002
   1.8385030888822599E-002  -5.5013906132269363E-003   6.0863156132677274E-002
   1.6804751779976698E-002  -5.1116153244620197E-003   5.9848230151598014E-002
   1.5224472671130798E-002  -4.6203964235834796E-003   5.9612276510859923E-002
   1.3644193562284905E-002  -4.0277339105913943E-003   6.0155295210463006E-002
   1.2063914453438976E-002  -3.3336277854857932E-003   6.1477286250407548E-002
   9.1165011901910425E-003  -2.7506953619861468E-003   6.4677417168054599E-002
   8.3207780302860627E-003  -2.5558076879711698E-003   6.3896186129975108E-002
   7.5250548703810934E-003  -2.3101982219166685E-003   6.3905094649436278E-002
   6.7293317104761257E-003  -2.0138669638226541E-003   6.4704142726438138E-002
   5.9336085505711546E-003  -1.6668139136891136E-003   6.6293330360980438E-002
   1.2388312597977347E-010  -1.1074541284017414E-010   6.8322151498718897E-002
   1.3011844032795317E-010  -5.1480444906992773E-011   6.7723893583565231E-002
   1.3635374426779201E-010  -2.0249857346499311E-011   6.7926942443151533E-002
   1.4258904994235433E-010  -1.7053788936571834E-011   6.8931298077477859E-002
   1.4882436949470446E-010  -4.1892378455088419E-011   7.0736960486544098E-002
  -3.9478385838176422E-012   0.0000000000000000        2.9936081320027723E-002
  -7.3810593054224327E-012  -5.0206635723859527E-012   3.6933784183068551E-002
  -1.0814278725984616E-011  -3.2031512858798905E-012   4.4426413484308057E-002
  -1.4247499664429841E-011   5.4525429310503526E-012   5.2413969223746262E-002
  -1.7680720602875066E-011   2.0946410404787397E-011   6.0896451401383153E-002
  -1.4526931118060771E-002   0.0000000000000000        3.0351876300059550E-002
  -1.4281684872511059E-002   8.2329278762117725E-004   3.7611542991860120E-002
  -1.4036438626961344E-002   1.6299912134778959E-003   4.4866775743427859E-002
  -1.3791192381411627E-002   2.4200952775701541E-003   5.2117574554762777E-002
  -1.3545946135861915E-002   3.1936049798979528E-003   5.9363939425864869E-002
  -2.8533921036735063E-002   0.0000000000000000        3.1599261257034543E-002
  -2.8542788920633930E-002   1.6465855802630198E-003   3.9104297408992211E-002
  -2.8551656804532793E-002   3.2599824301589404E-003   4.6105539242285540E-002
  -2.8560524688431652E-002   4.8401905496877661E-003   5.2602986756914549E-002
  -2.8569392572330519E-002   6.3872099388494960E-003   5.8596639952879212E-002
  -4.2020969759970717E-002   0.0000000000000000        3.3678236190952685E-002
  -4.2783312151749658E-002   2.4698783729048628E-003   4.1412047434464826E-002
  -4.3545654543528621E-002   4.8899736468399919E-003   4.8142703980881107E-002
  -4.4307996935307577E-002   7.2602858218053755E-003   5.3870205830201558E-002
  -4.5070339327086525E-002   9.5808148978010418E-003   5.8594552982426162E-002
  -5.4988077287767716E-002   0.0000000000000000        3.6588801101813992E-002
  -5.7003254565858280E-002   3.2931711655467041E-003   4.4534793068277970E-002
  -5.9018431843948845E-002   6.5199648635210321E-003   5.0978269959214582E-002
  -6.1033609122039402E-002   9.6803810939229927E-003   5.5919231774623837E-002
  -6.3048786400129966E-002   1.2774419856752584E-002   5.9357678514505713E-002
  -1.7680720602875066E-011   2.0946410404787397E-011   6.0896451401383153E-002
  -1.9657064170841565E-011   2.7617663364565281E-011   6.3438712373325060E-002
  -2.1633404703041981E-011   9.8055693339288430E-012   6.5844458863998298E-002
  -2.3609746753125438E-011  -3.2489942214473239E-011   6.8113690873402952E-002
  -2.5586088803208895E-011  -9.9268829267806780E-011   7.0246408401538965E-002
  -1.3545946135861915E-002   3.1936049798979528E-003   5.9363939425864869E-002
  -1.3447329163538090E-002   3.8120946428584603E-003   6.0517108664361427E-002
  -1.3348712191214272E-002   4.1371385888488823E-003   6.2004026332726919E-002
  -1.3250095218890451E-002   4.1687368178691423E-003   6.3824692430961366E-002
  -1.3151478246566633E-002   3.9068893299193247E-003   6.5979106959064754E-002
  -2.8569392572330519E-002   6.3872099388494960E-003   5.8596639952879212E-002
  -2.7901895714568949E-002   7.6241892580992563E-003   5.8067271765443663E-002
  -2.7234398856807375E-002   8.2742771678921672E-003   5.8341914919014644E-002
  -2.6566901999045801E-002   8.3374736682282694E-003   5.9420569413592146E-002
  -2.5899405141284235E-002   7.8137787591074995E-003   6.1303235249176247E-002
  -4.5070339327086525E-002   9.5808148978010418E-003   5.8594552982426162E-002
  -4.3363699672749619E-002   1.1436283873340064E-002   5.6089201676571769E-002
  -4.1657060018412705E-002   1.2411415746935479E-002   5.4858124622861562E-002
  -3.9950420364075805E-002   1.2506210518587364E-002   5.4901321821295423E-002
  -3.8243780709738891E-002   1.1720668188295671E-002   5.6218793271873485E-002
  -6.3048786400129966E-002   1.2774419856752584E-002   5.9357678514505713E-002
  -5.9832741038080117E-002   1.5248378488580846E-002   5.4582898397745792E-002
  -5.6616695676030275E-002   1.6548554325978775E-002   5.1552655444267584E-002
  -5.3400650313980440E-002   1.6674947368946483E-002   5.0266949654071115E-002
  -5.0184604951930604E-002   1.5627557617483814E-002   5.0725781027156344E-002
  -2.5586088803208895E-011  -9.9268829267806780E-011   7.0246408401538965E-002
   1.1781214892536696E-011  -1.5925150781415098E-010   6.8148056500596702E-002
   4.9148518588282286E-011  -1.8115850833333447E-010   6.7127896383145952E-002
   8.6515824018751353E-011  -1.6498985597884763E-010   6.7185928049186661E-002
   1.2388312597977347E-010  -1.1074541284017414E-010   6.8322151498718897E-002
  -1.3151478246566633E-002   3.9068893299193247E-003   6.5979106959064754E-002
  -1.2142733925664988E-002   3.5281994441197506E-003   6.4244739364101397E-002
  -1.1133989604763351E-002   3.2092704795905445E-003   6.3449668552715249E-002
  -1.0125245283861712E-002   2.9501024363318201E-003   6.3593894524906269E-002
  -9.1165009629600620E-003   2.7506953143435486E-003   6.4677417280674512E-002
  -2.5899405141284235E-002   7.8137787591074995E-003   6.1303235249176247E-002
  -2.4020811536762537E-002   7.0563990474909431E-003   5.9992612843386542E-002
  -2.2142217932240842E-002   6.4185411403395714E-003   5.9482392221259728E-002
  -2.0263624327719148E-002   5.9002050376534831E-003   5.9772573382795846E-002
  -1.8385030723197450E-002   5.5013907394325656E-003   6.0863156327994869E-002
  -3.8243780709738891E-002   1.1720668188295671E-002   5.6218793271873485E-002
  -3.5634232821511423E-002   1.0584598650862155E-002   5.5391676938452129E-002
  -3.3024684933283976E-002   9.6278118010886538E-003   5.5226067388779471E-002
  -3.0415137045056516E-002   8.8503076389751245E-003   5.5721964622855363E-002
  -2.7805589156829062E-002   8.2520861645215271E-003   5.6879368640679939E-002
  -5.0184604951930604E-002   1.5627557617483814E-002   5.0725781027156344E-002
  -4.6982997779911648E-002   1.4112798254233422E-002   5.0441931649298180E-002
  -4.3781390607892726E-002   1.2837082461837703E-002   5.0680694055274388E-002
  -4.0579783435873783E-002   1.1800410240296773E-002   5.1442068245084904E-002
  -3.7378176263854847E-002   1.1002781589610544E-002   5.2726054218729751E-002
   1.2388312597977347E-010  -1.1074541284017414E-010   6.8322151498718897E-002
   1.3011844032795317E-010  -5.1480444906992773E-011   6.7723893583565231E-002
   1.3635374426779201E-010  -2.0249857346499311E-011   6.7926942443151533E-002
   1.4258904994235433E-010  -1.7053788936571834E-011   6.8931298077477859E-002
   1.4882436949470446E-010  -4.1892378455088419E-011   7.0736960486544098E-002
  -9.1165009629600620E-003   2.7506953143435486E-003   6.4677417280674512E-002
  -8.3207777879369654E-003   2.5558077011697961E-003   6.3896186120336554E-002
  -7.5250546129138705E-003   2.3101981843545866E-003   6.3905094522834188E-002
  -6.7293314378907626E-003   2.0138667638980486E-003   6.4704142488167485E-002
  -5.9336082628676720E-003   1.6668134397999634E-003   6.6293330016336416E-002
  -1.8385030723197450E-002   5.5013907394325656E-003   6.0863156327994869E-002
  -1.6804751591290908E-002   5.1116154538200717E-003   5.9848230046865625E-002
  -1.5224472459384367E-002   4.6203963889591970E-003   5.9612276116667612E-002
  -1.3644193327477816E-002   4.0277335448499832E-003   6.0155294537400927E-002
  -1.2063914195571280E-002   3.3336269214923053E-003   6.1477285309065544E-002
  -2.7805589156829062E-002   8.2520861645215271E-003   5.6879368640679939E-002
  -2.5451921279943397E-002   7.6674232064703300E-003   5.5580025363152444E-002
  -2.3098253403057736E-002   6.9305945935637520E-003   5.5048487224651971E-002
  -2.0744585526172078E-002   6.0416003258018970E-003   5.5284754225178326E-002
  -1.8390917649286419E-002   5.0004404031846472E-003   5.6288826364731662E-002
  -3.7378176263854847E-002   1.1002781589610544E-002   5.2726054218729751E-002
  -3.4262286853894416E-002   1.0223230959120561E-002   5.1091572069197094E-002
  -3.1146397443933990E-002   9.2407927981682236E-003   5.0213727846787043E-002
  -2.8030508033973563E-002   8.0554671067538039E-003   5.0092521551499597E-002
  -2.4914618624013132E-002   6.6672538848769891E-003   5.0727953183334784E-002
  -5.4988077287767716E-002   0.0000000000000000        3.6588801101813992E-002
  -5.7003254565858280E-002   3.2931711655467041E-003   4.4534793068277970E-002
  -5.9018431843948845E-002   6.5199648635210321E-003   5.0978269959214582E-002
  -6.1033609122039402E-002   9.6803810939229927E-003   5.5919231774623837E-002
  -6.3048786400129966E-002   1.2774419856752584E-002   5.9357678514505713E-002
  -7.2208235270247653E-002   0.0000000000000000        4.3048446346495302E-002
  -7.4346798889610821E-002   8.4632401157550725E-003   4.2184645734348686E-002
  -7.6485362508974017E-002   1.4667099282960842E-002   4.2576587515184200E-002
  -7.8623926128337185E-002   1.8611577501617311E-002   4.4224271689001851E-002
  -8.0762489747700381E-002   2.0296674771724456E-002   4.7127698255801612E-002
  -9.8454435357532066E-002   0.0000000000000000        5.5774662281873444E-002
  -9.7958127849658377E-002   1.3633309065963439E-002   4.3908065610139310E-002
  -9.7461820341784702E-002   2.2814233702400648E-002   3.6055468799896809E-002
  -9.6965512833911000E-002   2.7542773909311619E-002   3.2216871851145912E-002
  -9.6469205326037338E-002   2.7818929686696345E-002   3.2392274763886612E-002
 -0.13372667754962095        0.0000000000000000        7.4767448907948425E-002
 -0.12783724144600092        1.8803378016171803E-002   4.9705052695649857E-002
 -0.12194780534238087        3.0961368121840437E-002   3.1414913813352360E-002
 -0.11605836923876085        3.6473970317005909E-002   1.9897032261056002E-002
 -0.11016893313514078        3.5341184601668241E-002   1.5151408038760715E-002
 -0.17802496184651434        0.0000000000000000       0.10002680622472022     
 -0.16398413967863848        2.3973446966380180E-002   5.9575606990880277E-002
 -0.14994331751076262        3.9108502541280260E-002   2.8654922555550910E-002
 -0.13590249534288673        4.5405166724700255E-002   7.2647529187321175E-003
 -0.12186167317501087        4.2863439516640095E-002  -4.5949019195760735E-003
  -6.3048786400129966E-002   1.2774419856752584E-002   5.9357678514505713E-002
  -5.9832741038080117E-002   1.5248378488580846E-002   5.4582898397745792E-002
  -5.6616695676030275E-002   1.6548554325978775E-002   5.1552655444267584E-002
  -5.3400650313980440E-002   1.6674947368946483E-002   5.0266949654071115E-002
  -5.0184604951930604E-002   1.5627557617483814E-002   5.0725781027156344E-002
  -8.0762489747700381E-002   2.0296674771724456E-002   4.7127698255801612E-002
  -7.6088605075185570E-002   2.0622121310307877E-002   4.3256356400994130E-002
  -7.1414720402670759E-002   2.0487647334393129E-002   4.0556156003834866E-002
  -6.6740835730155948E-002   1.9893252843980223E-002   3.9027097064323800E-002
  -6.2066951057641158E-002   1.8838937839069134E-002   3.8669179582460925E-002
  -9.6469205326037338E-002   2.7818929686696345E-002   3.2392274763886612E-002
  -9.0910877048691094E-002   2.5995864132034946E-002   3.0138233450963725E-002
  -8.5352548771344836E-002   2.4426740342807472E-002   2.8481937890055525E-002
  -7.9794220493998591E-002   2.3111558319014000E-002   2.7423388081161983E-002
  -7.4235892216652333E-002   2.2050318060654488E-002   2.6962584024283139E-002
 -0.11016893313514078        3.5341184601668241E-002   1.5151408038760715E-002
 -0.10429955695859663        3.1369606953762001E-002   1.5228529547654530E-002
  -9.8430180782052498E-002   2.8365833351221840E-002   1.5330001102929536E-002
  -9.2560804605508334E-002   2.6329863794047836E-002   1.5455822704585696E-002
  -8.6691428428964171E-002   2.5261698282239810E-002   1.5605994352623016E-002
 -0.12186167317501087        4.2863439516640095E-002  -4.5949019195760735E-003
 -0.11625464480490233        3.6743349775489043E-002  -1.4727553089334301E-003
 -0.11064761643479375        3.2304926359636159E-002   1.1003456424569010E-003
 -0.10504058806468516        2.9548169269081534E-002   3.1244009345948328E-003
  -9.9433559694576623E-002   2.8473078503825133E-002   4.5994105674804497E-003
  -5.0184604951930604E-002   1.5627557617483814E-002   5.0725781027156344E-002
  -4.6982997779911648E-002   1.4112798254233422E-002   5.0441931649298180E-002
  -4.3781390607892726E-002   1.2837082461837703E-002   5.0680694055274388E-002
  -4.0579783435873783E-002   1.1800410240296773E-002   5.1442068245084904E-002
  -3.7378176263854847E-002   1.1002781589610544E-002   5.2726054218729751E-002
  -6.2066951057641158E-002   1.8838937839069134E-002   3.8669179582460925E-002
  -5.8294260127158951E-002   1.7572078615661978E-002   3.8284144950111530E-002
  -5.4521569196676750E-002   1.6340051469761103E-002   3.8518666050854307E-002
  -5.0748878266194550E-002   1.5142856401366211E-002   3.9372742884689234E-002
  -4.6976187335712363E-002   1.3980493410477496E-002   4.0846375451616401E-002
  -7.4235892216652333E-002   2.2050318060654488E-002   2.6962584024283139E-002
  -6.9795173578449027E-002   2.1031358977090645E-002   2.6272152644093844E-002
  -6.5354454940245721E-002   1.9843020477684367E-002   2.6298220946254607E-002
  -6.0913736302042387E-002   1.8485302562435624E-002   2.7040788930765388E-002
  -5.6473017663839074E-002   1.6958205231344448E-002   2.8499856597626175E-002
  -8.6691428428964171E-002   2.5261698282239810E-002   1.5605994352623016E-002
  -8.1485738133781876E-002   2.4490639338519311E-002   1.4405954731245174E-002
  -7.6280047838599596E-002   2.3345989485607767E-002   1.4019358741475280E-002
  -7.1074357543417274E-002   2.1827748723505090E-002   1.4446206383313287E-002
  -6.5868667248234980E-002   1.9935917052211483E-002   1.5686497656759252E-002
  -9.9433559694576623E-002   2.8473078503825133E-002   4.5994105674804497E-003
  -9.3365953793157513E-002   2.7949919699947950E-002   2.6855512115655511E-003
  -8.7298347891738376E-002   2.6848958493531083E-002   1.6820794365164649E-003
  -8.1230741990319266E-002   2.5170194884574587E-002   1.5889952423331424E-003
  -7.5163136088900129E-002   2.2913628873078407E-002   2.4062986290155075E-003
  -3.7378176263854847E-002   1.1002781589610544E-002   5.2726054218729751E-002
  -3.4262286853894416E-002   1.0223230959120561E-002   5.1091572069197094E-002
  -3.1146397443933990E-002   9.2407927981682236E-003   5.0213727846787043E-002
  -2.8030508033973563E-002   8.0554671067538039E-003   5.0092521551499597E-002
  -2.4914618624013132E-002   6.6672538848769891E-003   5.0727953183334784E-002
  -4.6976187335712363E-002   1.3980493410477496E-002   4.0846375451616401E-002
  -4.3093921437085375E-002   1.2802844692467064E-002   3.9188667076252556E-002
  -3.9211655538458380E-002   1.1559792442706752E-002   3.8307073751099166E-002
  -3.5329389639831413E-002   1.0251336661196974E-002   3.8201595476156321E-002
  -3.1447123741204411E-002   8.8774773479373126E-003   3.8872232251424055E-002
  -5.6473017663839074E-002   1.6958205231344448E-002   2.8499856597626175E-002
  -5.1804898153457617E-002   1.5382458425813469E-002   2.6956405995143706E-002
  -4.7136778643076124E-002   1.3878792087245337E-002   2.6208547565959632E-002
  -4.2468659132694701E-002   1.2447206215640074E-002   2.6256281310073855E-002
  -3.7800539622313209E-002   1.1087700810997692E-002   2.7099607227486666E-002
  -6.5868667248234980E-002   1.9935917052211483E-002   1.5686497656759252E-002
  -6.0395217003011148E-002   1.7962072159160007E-002   1.4394788825870695E-002
  -5.4921766757787274E-002   1.6197791731783810E-002   1.3918149291368399E-002
  -4.9448316512563435E-002   1.4643075770083265E-002   1.4256579053252364E-002
  -4.3974866267339624E-002   1.3297924274058098E-002   1.5410078111522937E-002
  -7.5163136088900129E-002   2.2913628873078407E-002   2.4062986290155075E-003
  -6.8864877985745976E-002   2.0541685892506462E-002   1.5038155684334448E-003
  -6.2566619882591823E-002   1.8516791376322436E-002   1.4358789273254610E-003
  -5.6268361779437684E-002   1.6838945324526452E-002   2.2024887056918737E-003
  -4.9970103676283517E-002   1.5508147737118394E-002   3.8036449035324660E-003
 </DataArray>
 </PointData>
 </Piece>
 <Piece  NumberOfPoints="           400 "  NumberOfCells="          256 ">
 <Points>
 <DataArray  type="Float64" NumberOfComponents="3"  format="ascii" >
  0.50000000000000000        0.0000000000000000        0.0000000000000000     
  0.56250000000000000        0.0000000000000000        0.0000000000000000     
  0.62500000000000000        0.0000000000000000        0.0000000000000000     
  0.68750000000000000        0.0000000000000000        0.0000000000000000     
  0.75000000000000000        0.0000000000000000        0.0000000000000000     
  0.50000000000000000        6.2500000000000000E-002   0.0000000000000000     
  0.56250000000000000        6.2500000000000000E-002   0.0000000000000000     
  0.62500000000000000        6.2500000000000000E-002   0.0000000000000000     
  0.68750000000000000        6.2500000000000000E-002   0.0000000000000000     
  0.75000000000000000        6.2500000000000000E-002   0.0000000000000000     
  0.50000000000000000       0.12500000000000000        0.0000000000000000     
  0.56250000000000000       0.12500000000000000        0.0000000000000000     
  0.62500000000000000       0.12500000000000000        0.0000000000000000     
  0.68750000000000000       0.12500000000000000        0.0000000000000000     
  0.75000000000000000       0.12500000000000000        0.0000000000000000     
  0.50000000000000000       0.18750000000000000        0.0000000000000000     
  0.56250000000000000       0.18750000000000000        0.0000000000000000     
  0.62500000000000000       0.18750000000000000        0.0000000000000000     
  0.68750000000000000       0.18750000000000000        0.0000000000000000     
  0.75000000000000000       0.18750000000000000        0.0000000000000000     
  0.50000000000000000       0.25000000000000000        0.0000000000000000     
  0.56250000000000000       0.25000000000000000        0.0000000000000000     
  0.62500000000000000       0.25000000000000000        0.0000000000000000     
  0.68750000000000000       0.25000000000000000        0.0000000000000000     
  0.75000000000000000       0.25000000000000000        0.0000000000000000     
  0.75000000000000000        0.0000000000000000        0.0000000000000000     
  0.81250000000000000        0.0000000000000000        0.0000000000000000     
  0.87500000000000000        0.0000000000000000        0.0000000000000000     
  0.93750000000000000        0.0000000000000000        0.0000000000000000     
   1.0000000000000000        0.0000000000000000        0.0000000000000000     
  0.75000000000000000        6.2500000000000000E-002   0.0000000000000000     
  0.81250000000000000        6.2500000000000000E-002   0.0000000000000000     
  0.87500000000000000        6.2500000000000000E-002   0.0000000000000000     
  0.93750000000000000        6.2500000000000000E-002   0.0000000000000000     
   1.0000000000000000        6.2500000000000000E-002   0.0000000000000000     
  0.75000000000000000       0.12500000000000000        0.0000000000000000     
  0.81250000000000000       0.12500000000000000        0.0000000000000000     
  0.87500000000000000       0.12500000000000000        0.0000000000000000     
  0.93750000000000000       0.12500000000000000        0.0000000000000000     
   1.0000000000000000       0.12500000000000000        0.0000000000000000     
  0.75000000000000000       0.18750000000000000        0.0000000000000000     
  0.81250000000000000       0.18750000000000000        0.0000000000000000     
  0.87500000000000000       0.18750000000000000        0.0000000000000000     
  0.93750000000000000       0.18750000000000000        0.0000000000000000     
   1.0000000000000000       0.18750000000000000        0.0000000000000000     
  0.75000000000000000       0.25000000000000000        0.0000000000000000     
  0.81250000000000000       0.25000000000000000        0.0000000000000000     
  0.87500000000000000       0.25000000000000000        0.0000000000000000     
  0.93750000000000000       0.25000000000000000        0.0000000000000000     
   1.0000000000000000       0.25000000000000000        0.0000000000000000     
   1.0000000000000000        0.0000000000000000        0.0000000000000000     
   1.0625000000000000        0.0000000000000000        0.0000000000000000     
   1.1250000000000000        0.0000000000000000        0.0000000000000000     
   1.1875000000000000        0.0000000000000000        0.0000000000000000     
   1.2500000000000000        0.0000000000000000        0.0000000000000000     
   1.0000000000000000        6.2500000000000000E-002   0.0000000000000000     
   1.0625000000000000        6.2500000000000000E-002   0.0000000000000000     
   1.1250000000000000        6.2500000000000000E-002   0.0000000000000000     
   1.1875000000000000        6.2500000000000000E-002   0.0000000000000000     
   1.2500000000000000        6.2500000000000000E-002   0.0000000000000000     
   1.0000000000000000       0.12500000000000000        0.0000000000000000     
   1.0625000000000000       0.12500000000000000        0.0000000000000000     
   1.1250000000000000       0.12500000000000000        0.0000000000000000     
   1.1875000000000000       0.12500000000000000        0.0000000000000000     
   1.2500000000000000       0.12500000000000000        0.0000000000000000     
   1.0000000000000000       0.18750000000000000        0.0000000000000000     
   1.0625000000000000       0.18750000000000000        0.0000000000000000     
   1.1250000000000000       0.18750000000000000        0.0000000000000000     
   1.1875000000000000       0.18750000000000000        0.0000000000000000     
   1.2500000000000000       0.18750000000000000        0.0000000000000000     
   1.0000000000000000       0.25000000000000000        0.0000000000000000     
   1.0625000000000000       0.25000000000000000        0.0000000000000000     
   1.1250000000000000       0.25000000000000000        0.0000000000000000     
   1.1875000000000000       0.25000000000000000        0.0000000000000000     
   1.2500000000000000       0.25000000000000000        0.0000000000000000     
   1.2500000000000000        0.0000000000000000        0.0000000000000000     
   1.3125000000000000        0.0000000000000000        0.0000000000000000     
   1.3750000000000000        0.0000000000000000        0.0000000000000000     
   1.4375000000000000        0.0000000000000000        0.0000000000000000     
   1.5000000000000000        0.0000000000000000        0.0000000000000000     
   1.2500000000000000        6.2500000000000000E-002   0.0000000000000000     
   1.3125000000000000        6.2500000000000000E-002   0.0000000000000000     
   1.3750000000000000        6.2500000000000000E-002   0.0000000000000000     
   1.4375000000000000        6.2500000000000000E-002   0.0000000000000000     
   1.5000000000000000        6.2500000000000000E-002   0.0000000000000000     
   1.2500000000000000       0.12500000000000000        0.0000000000000000     
   1.3125000000000000       0.12500000000000000        0.0000000000000000     
   1.3750000000000000       0.12500000000000000        0.0000000000000000     
   1.4375000000000000       0.12500000000000000        0.0000000000000000     
   1.5000000000000000       0.12500000000000000        0.0000000000000000     
   1.2500000000000000       0.18750000000000000        0.0000000000000000     
   1.3125000000000000       0.18750000000000000        0.0000000000000000     
   1.3750000000000000       0.18750000000000000        0.0000000000000000     
   1.4375000000000000       0.18750000000000000        0.0000000000000000     
   1.5000000000000000       0.18750000000000000        0.0000000000000000     
   1.2500000000000000       0.25000000000000000        0.0000000000000000     
   1.3125000000000000       0.25000000000000000        0.0000000000000000     
   1.3750000000000000       0.25000000000000000        0.0000000000000000     
   1.4375000000000000       0.25000000000000000        0.0000000000000000     
   1.5000000000000000       0.25000000000000000        0.0000000000000000     
  0.50000000000000000       0.25000000000000000        0.0000000000000000     
  0.56250000000000000       0.25000000000000000        0.0000000000000000     
  0.62500000000000000       0.25000000000000000        0.0000000000000000     
  0.68750000000000000       0.25000000000000000        0.0000000000000000     
  0.75000000000000000       0.25000000000000000        0.0000000000000000     
  0.50000000000000000       0.31250000000000000        0.0000000000000000     
  0.56250000000000000       0.31250000000000000        0.0000000000000000     
  0.62500000000000000       0.31250000000000000        0.0000000000000000     
  0.68750000000000000       0.31250000000000000        0.0000000000000000     
  0.75000000000000000       0.31250000000000000        0.0000000000000000     
  0.50000000000000000       0.37500000000000000        0.0000000000000000     
  0.56250000000000000       0.37500000000000000        0.0000000000000000     
  0.62500000000000000       0.37500000000000000        0.0000000000000000     
  0.68750000000000000       0.37500000000000000        0.0000000000000000     
  0.75000000000000000       0.37500000000000000        0.0000000000000000     
  0.50000000000000000       0.43750000000000000        0.0000000000000000     
  0.56250000000000000       0.43750000000000000        0.0000000000000000     
  0.62500000000000000       0.43750000000000000        0.0000000000000000     
  0.68750000000000000       0.43750000000000000        0.0000000000000000     
  0.75000000000000000       0.43750000000000000        0.0000000000000000     
  0.50000000000000000       0.50000000000000000        0.0000000000000000     
  0.56250000000000000       0.50000000000000000        0.0000000000000000     
  0.62500000000000000       0.50000000000000000        0.0000000000000000     
  0.68750000000000000       0.50000000000000000        0.0000000000000000     
  0.75000000000000000       0.50000000000000000        0.0000000000000000     
  0.75000000000000000       0.25000000000000000        0.0000000000000000     
  0.81250000000000000       0.25000000000000000        0.0000000000000000     
  0.87500000000000000       0.25000000000000000        0.0000000000000000     
  0.93750000000000000       0.25000000000000000        0.0000000000000000     
   1.0000000000000000       0.25000000000000000        0.0000000000000000     
  0.75000000000000000       0.31250000000000000        0.0000000000000000     
  0.81250000000000000       0.31250000000000000        0.0000000000000000     
  0.87500000000000000       0.31250000000000000        0.0000000000000000     
  0.93750000000000000       0.31250000000000000        0.0000000000000000     
   1.0000000000000000       0.31250000000000000        0.0000000000000000     
  0.75000000000000000       0.37500000000000000        0.0000000000000000     
  0.81250000000000000       0.37500000000000000        0.0000000000000000     
  0.87500000000000000       0.37500000000000000        0.0000000000000000     
  0.93750000000000000       0.37500000000000000        0.0000000000000000     
   1.0000000000000000       0.37500000000000000        0.0000000000000000     
  0.75000000000000000       0.43750000000000000        0.0000000000000000     
  0.81250000000000000       0.43750000000000000        0.0000000000000000     
  0.87500000000000000       0.43750000000000000        0.0000000000000000     
  0.93750000000000000       0.43750000000000000        0.0000000000000000     
   1.0000000000000000       0.43750000000000000        0.0000000000000000     
  0.75000000000000000       0.50000000000000000        0.0000000000000000     
  0.81250000000000000       0.50000000000000000        0.0000000000000000     
  0.87500000000000000       0.50000000000000000        0.0000000000000000     
  0.93750000000000000       0.50000000000000000        0.0000000000000000     
   1.0000000000000000       0.50000000000000000        0.0000000000000000     
   1.0000000000000000       0.25000000000000000        0.0000000000000000     
   1.0625000000000000       0.25000000000000000        0.0000000000000000     
   1.1250000000000000       0.25000000000000000        0.0000000000000000     
   1.1875000000000000       0.25000000000000000        0.0000000000000000     
   1.2500000000000000       0.25000000000000000        0.0000000000000000     
   1.0000000000000000       0.31250000000000000        0.0000000000000000     
   1.0625000000000000       0.31250000000000000        0.0000000000000000     
   1.1250000000000000       0.31250000000000000        0.0000000000000000     
   1.1875000000000000       0.31250000000000000        0.0000000000000000     
   1.2500000000000000       0.31250000000000000        0.0000000000000000     
   1.0000000000000000       0.37500000000000000        0.0000000000000000     
   1.0625000000000000       0.37500000000000000        0.0000000000000000     
   1.1250000000000000       0.37500000000000000        0.0000000000000000     
   1.1875000000000000       0.37500000000000000        0.0000000000000000     
   1.2500000000000000       0.37500000000000000        0.0000000000000000     
   1.0000000000000000       0.43750000000000000        0.0000000000000000     
   1.0625000000000000       0.43750000000000000        0.0000000000000000     
   1.1250000000000000       0.43750000000000000        0.0000000000000000     
   1.1875000000000000       0.43750000000000000        0.0000000000000000     
   1.2500000000000000       0.43750000000000000        0.0000000000000000     
   1.0000000000000000       0.50000000000000000        0.0000000000000000     
   1.0625000000000000       0.50000000000000000        0.0000000000000000     
   1.1250000000000000       0.50000000000000000        0.0000000000000000     
   1.1875000000000000       0.50000000000000000        0.0000000000000000     
   1.2500000000000000       0.50000000000000000        0.0000000000000000     
   1.2500000000000000       0.25000000000000000        0.0000000000000000     
   1.3125000000000000       0.25000000000000000        0.0000000000000000     
   1.3750000000000000       0.25000000000000000        0.0000000000000000     
   1.4375000000000000       0.25000000000000000        0.0000000000000000     
   1.5000000000000000       0.25000000000000000        0.0000000000000000     
   1.2500000000000000       0.31250000000000000        0.0000000000000000     
   1.3125000000000000       0.31250000000000000        0.0000000000000000     
   1.3750000000000000       0.31250000000000000        0.0000000000000000     
   1.4375000000000000       0.31250000000000000        0.0000000000000000     
   1.5000000000000000       0.31250000000000000        0.0000000000000000     
   1.2500000000000000       0.37500000000000000        0.0000000000000000     
   1.3125000000000000       0.37500000000000000        0.0000000000000000     
   1.3750000000000000       0.37500000000000000        0.0000000000000000     
   1.4375000000000000       0.37500000000000000        0.0000000000000000     
   1.5000000000000000       0.37500000000000000        0.0000000000000000     
   1.2500000000000000       0.43750000000000000        0.0000000000000000     
   1.3125000000000000       0.43750000000000000        0.0000000000000000     
   1.3750000000000000       0.43750000000000000        0.0000000000000000     
   1.4375000000000000       0.43750000000000000        0.0000000000000000     
   1.5000000000000000       0.43750000000000000        0.0000000000000000     
   1.2500000000000000       0.50000000000000000        0.0000000000000000     
   1.3125000000000000       0.50000000000000000        0.0000000000000000     
   1.3750000000000000       0.50000000000000000        0.0000000000000000     
   1.4375000000000000       0.50000000000000000        0.0000000000000000     
   1.5000000000000000       0.50000000000000000        0.0000000000000000     
  0.50000000000000000       0.50000000000000000        0.0000000000000000     
  0.56250000000000000       0.50000000000000000        0.0000000000000000     
  0.62500000000000000       0.50000000000000000        0.0000000000000000     
  0.68750000000000000       0.50000000000000000        0.0000000000000000     
  0.75000000000000000       0.50000000000000000        0.0000000000000000     
  0.50000000000000000       0.56250000000000000        0.0000000000000000     
  0.56250000000000000       0.56250000000000000        0.0000000000000000     
  0.62500000000000000       0.56250000000000000        0.0000000000000000     
  0.68750000000000000       0.56250000000000000        0.0000000000000000     
  0.75000000000000000       0.56250000000000000        0.0000000000000000     
  0.50000000000000000       0.62500000000000000        0.0000000000000000     
  0.56250000000000000       0.62500000000000000        0.0000000000000000     
  0.62500000000000000       0.62500000000000000        0.0000000000000000     
  0.68750000000000000       0.62500000000000000        0.0000000000000000     
  0.75000000000000000       0.62500000000000000        0.0000000000000000     
  0.50000000000000000       0.68750000000000000        0.0000000000000000     
  0.56250000000000000       0.68750000000000000        0.0000000000000000     
  0.62500000000000000       0.68750000000000000        0.0000000000000000     
  0.68750000000000000       0.68750000000000000        0.0000000000000000     
  0.75000000000000000       0.68750000000000000        0.0000000000000000     
  0.50000000000000000       0.75000000000000000        0.0000000000000000     
  0.56250000000000000       0.75000000000000000        0.0000000000000000     
  0.62500000000000000       0.75000000000000000        0.0000000000000000     
  0.68750000000000000       0.75000000000000000        0.0000000000000000     
  0.75000000000000000       0.75000000000000000        0.0000000000000000     
  0.75000000000000000       0.50000000000000000        0.0000000000000000     
  0.81250000000000000       0.50000000000000000        0.0000000000000000     
  0.87500000000000000       0.50000000000000000        0.0000000000000000     
  0.93750000000000000       0.50000000000000000        0.0000000000000000     
   1.0000000000000000       0.50000000000000000        0.0000000000000000     
  0.75000000000000000       0.56250000000000000        0.0000000000000000     
  0.81250000000000000       0.56250000000000000        0.0000000000000000     
  0.87500000000000000       0.56250000000000000        0.0000000000000000     
  0.93750000000000000       0.56250000000000000        0.0000000000000000     
   1.0000000000000000       0.56250000000000000        0.0000000000000000     
  0.75000000000000000       0.62500000000000000        0.0000000000000000     
  0.81250000000000000       0.62500000000000000        0.0000000000000000     
  0.87500000000000000       0.62500000000000000        0.0000000000000000     
  0.93750000000000000       0.62500000000000000        0.0000000000000000     
   1.0000000000000000       0.62500000000000000        0.0000000000000000     
  0.75000000000000000       0.68750000000000000        0.0000000000000000     
  0.81250000000000000       0.68750000000000000        0.0000000000000000     
  0.87500000000000000       0.68750000000000000        0.0000000000000000     
  0.93750000000000000       0.68750000000000000        0.0000000000000000     
   1.0000000000000000       0.68750000000000000        0.0000000000000000     
  0.75000000000000000       0.75000000000000000        0.0000000000000000     
  0.81250000000000000       0.75000000000000000        0.0000000000000000     
  0.87500000000000000       0.75000000000000000        0.0000000000000000     
  0.93750000000000000       0.75000000000000000        0.0000000000000000     
   1.0000000000000000       0.75000000000000000        0.0000000000000000     
   1.0000000000000000       0.50000000000000000        0.0000000000000000     
   1.0625000000000000       0.50000000000000000        0.0000000000000000     
   1.1250000000000000       0.50000000000000000        0.0000000000000000     
   1.1875000000000000       0.50000000000000000        0.0000000000000000     
   1.2500000000000000       0.50000000000000000        0.0000000000000000     
   1.0000000000000000       0.56250000000000000        0.0000000000000000     
   1.0625000000000000       0.56250000000000000        0.0000000000000000     
   1.1250000000000000       0.56250000000000000        0.0000000000000000     
   1.1875000000000000       0.56250000000000000        0.0000000000000000     
   1.2500000000000000       0.56250000000000000        0.0000000000000000     
   1.0000000000000000       0.62500000000000000        0.0000000000000000     
   1.0625000000000000       0.62500000000000000        0.0000000000000000     
   1.1250000000000000       0.62500000000000000        0.0000000000000000     
   1.1875000000000000       0.62500000000000000        0.0000000000000000     
   1.2500000000000000       0.62500000000000000        0.0000000000000000     
   1.0000000000000000       0.68750000000000000        0.0000000000000000     
   1.0625000000000000       0.68750000000000000        0.0000000000000000     
   1.1250000000000000       0.68750000000000000        0.0000000000000000     
   1.1875000000000000       0.68750000000000000        0.0000000000000000     
   1.2500000000000000       0.68750000000000000        0.0000000000000000     
   1.0000000000000000       0.75000000000000000        0.0000000000000000     
   1.0625000000000000       0.75000000000000000        0.0000000000000000     
   1.1250000000000000       0.75000000000000000        0.0000000000000000     
   1.1875000000000000       0.75000000000000000        0.0000000000000000     
   1.2500000000000000       0.75000000000000000        0.0000000000000000     
   1.2500000000000000       0.50000000000000000        0.0000000000000000     
   1.3125000000000000       0.50000000000000000        0.0000000000000000     
   1.3750000000000000       0.50000000000000000        0.0000000000000000     
   1.4375000000000000       0.50000000000000000        0.0000000000000000     
   1.5000000000000000       0.50000000000000000        0.0000000000000000     
   1.2500000000000000       0.56250000000000000        0.0000000000000000     
   1.3125000000000000       0.56250000000000000        0.0000000000000000     
   1.3750000000000000       0.56250000000000000        0.0000000000000000     
   1.4375000000000000       0.56250000000000000        0.0000000000000000     
   1.5000000000000000       0.56250000000000000        0.0000000000000000     
   1.2500000000000000       0.62500000000000000        0.0000000000000000     
   1.3125000000000000       0.62500000000000000        0.0000000000000000     
   1.3750000000000000       0.62500000000000000        0.0000000000000000     
   1.4375000000000000       0.62500000000000000        0.0000000000000000     
   1.5000000000000000       0.62500000000000000        0.0000000000000000     
   1.2500000000000000       0.68750000000000000        0.0000000000000000     
   1.3125000000000000       0.68750000000000000        0.0000000000000000     
   1.3750000000000000       0.68750000000000000        0.0000000000000000     
   1.4375000000000000       0.68750000000000000        0.0000000000000000     
   1.5000000000000000       0.68750000000000000        0.0000000000000000     
   1.2500000000000000       0.75000000000000000        0.0000000000000000     
   1.3125000000000000       0.75000000000000000        0.0000000000000000     
   1.3750000000000000       0.75000000000000000        0.0000000000000000     
   1.4375000000000000       0.75000000000000000        0.0000000000000000     
   1.5000000000000000       0.75000000000000000        0.0000000000000000     
  0.50000000000000000       0.75000000000000000        0.0000000000000000     
  0.56250000000000000       0.75000000000000000        0.0000000000000000     
  0.62500000000000000       0.75000000000000000        0.0000000000000000     
  0.68750000000000000       0.75000000000000000        0.0000000000000000     
  0.75000000000000000       0.75000000000000000        0.0000000000000000     
  0.50000000000000000       0.81250000000000000        0.0000000000000000     
  0.56250000000000000       0.81250000000000000        0.0000000000000000     
  0.62500000000000000       0.81250000000000000        0.0000000000000000     
  0.68750000000000000       0.81250000000000000        0.0000000000000000     
  0.75000000000000000       0.81250000000000000        0.0000000000000000     
  0.50000000000000000       0.87500000000000000        0.0000000000000000     
  0.56250000000000000       0.87500000000000000        0.0000000000000000     
  0.62500000000000000       0.87500000000000000        0.0000000000000000     
  0.68750000000000000       0.87500000000000000        0.0000000000000000     
  0.75000000000000000       0.87500000000000000        0.0000000000000000     
  0.50000000000000000       0.93750000000000000        0.0000000000000000     
  0.56250000000000000       0.93750000000000000        0.0000000000000000     
  0.62500000000000000       0.93750000000000000        0.0000000000000000     
  0.68750000000000000       0.93750000000000000        0.0000000000000000     
  0.75000000000000000       0.93750000000000000        0.0000000000000000     
  0.50000000000000000        1.0000000000000000        0.0000000000000000     
  0.56250000000000000        1.0000000000000000        0.0000000000000000     
  0.62500000000000000        1.0000000000000000        0.0000000000000000     
  0.68750000000000000        1.0000000000000000        0.0000000000000000     
  0.75000000000000000        1.0000000000000000        0.0000000000000000     
  0.75000000000000000       0.75000000000000000        0.0000000000000000     
  0.81250000000000000       0.75000000000000000        0.0000000000000000     
  0.87500000000000000       0.75000000000000000        0.0000000000000000     
  0.93750000000000000       0.75000000000000000        0.0000000000000000     
   1.0000000000000000       0.75000000000000000        0.0000000000000000     
  0.75000000000000000       0.81250000000000000        0.0000000000000000     
  0.81250000000000000       0.81250000000000000        0.0000000000000000     
  0.87500000000000000       0.81250000000000000        0.0000000000000000     
  0.93750000000000000       0.81250000000000000        0.0000000000000000     
   1.0000000000000000       0.81250000000000000        0.0000000000000000     
  0.75000000000000000       0.87500000000000000        0.0000000000000000     
  0.81250000000000000       0.87500000000000000        0.0000000000000000     
  0.87500000000000000       0.87500000000000000        0.0000000000000000     
  0.93750000000000000       0.87500000000000000        0.0000000000000000     
   1.0000000000000000       0.87500000000000000        0.0000000000000000     
  0.75000000000000000       0.93750000000000000        0.0000000000000000     
  0.81250000000000000       0.93750000000000000        0.0000000000000000     
  0.87500000000000000       0.93750000000000000        0.0000000000000000     
  0.93750000000000000       0.93750000000000000        0.0000000000000000     
   1.0000000000000000       0.93750000000000000        0.0000000000000000     
  0.75000000000000000        1.0000000000000000        0.0000000000000000     
  0.81250000000000000        1.0000000000000000        0.0000000000000000     
  0.87500000000000000        1.0000000000000000        0.0000000000000000     
  0.93750000000000000        1.0000000000000000        0.0000000000000000     
   1.0000000000000000        1.0000000000000000        0.0000000000000000     
   1.0000000000000000       0.75000000000000000        0.0000000000000000     
   1.0625000000000000       0.75000000000000000        0.0000000000000000     
   1.1250000000000000       0.75000000000000000        0.0000000000000000     
   1.1875000000000000       0.75000000000000000        0.0000000000000000     
   1.2500000000000000       0.75000000000000000        0.0000000000000000     
   1.0000000000000000       0.81250000000000000        0.0000000000000000     
   1.0625000000000000       0.81250000000000000        0.0000000000000000     
   1.1250000000000000       0.81250000000000000        0.0000000000000000     
   1.1875000000000000       0.81250000000000000        0.0000000000000000     
   1.2500000000000000       0.81250000000000000        0.0000000000000000     
   1.0000000000000000       0.87500000000000000        0.0000000000000000     
   1.0625000000000000       0.87500000000000000        0.0000000000000000     
   1.1250000000000000       0.87500000000000000        0.0000000000000000     
   1.1875000000000000       0.87500000000000000        0.0000000000000000     
   1.2500000000000000       0.87500000000000000        0.0000000000000000     
   1.0000000000000000       0.93750000000000000        0.0000000000000000     
   1.0625000000000000       0.93750000000000000        0.0000000000000000     
   1.1250000000000000       0.93750000000000000        0.0000000000000000     
   1.1875000000000000       0.93750000000000000        0.0000000000000000     
   1.2500000000000000       0.93750000000000000        0.0000000000000000     
   1.0000000000000000        1.0000000000000000        0.0000000000000000     
   1.0625000000000000        1.0000000000000000        0.0000000000000000     
   1.1250000000000000        1.0000000000000000        0.0000000000000000     
   1.1875000000000000        1.0000000000000000        0.0000000000000000     
   1.2500000000000000        1.0000000000000000        0.0000000000000000     
   1.2500000000000000       0.75000000000000000        0.0000000000000000     
   1.3125000000000000       0.75000000000000000        0.0000000000000000     
   1.3750000000000000       0.75000000000000000        0.0000000000000000     
   1.4375000000000000       0.75000000000000000        0.0000000000000000     
   1.5000000000000000       0.75000000000000000        0.0000000000000000     
   1.2500000000000000       0.81250000000000000        0.0000000000000000     
   1.3125000000000000       0.81250000000000000        0.0000000000000000     
   1.3750000000000000       0.81250000000000000        0.0000000000000000     
   1.4375000000000000       0.81250000000000000        0.0000000000000000     
   1.5000000000000000       0.81250000000000000        0.0000000000000000     
   1.2500000000000000       0.87500000000000000        0.0000000000000000     
   1.3125000000000000       0.87500000000000000        0.0000000000000000     
   1.3750000000000000       0.87500000000000000        0.0000000000000000     
   1.4375000000000000       0.87500000000000000        0.0000000000000000     
   1.5000000000000000       0.87500000000000000        0.0000000000000000     
   1.2500000000000000       0.93750000000000000        0.0000000000000000     
   1.3125000000000000       0.93750000000000000        0.0000000000000000     
   1.3750000000000000       0.93750000000000000        0.0000000000000000     
   1.4375000000000000       0.93750000000000000        0.0000000000000000     
   1.5000000000000000       0.93750000000000000        0.0000000000000000     
   1.2500000000000000        1.0000000000000000        0.0000000000000000     
   1.3125000000000000        1.0000000000000000        0.0000000000000000     
   1.3750000000000000        1.0000000000000000        0.0000000000000000     
   1.4375000000000000        1.0000000000000000        0.0000000000000000     
   1.5000000000000000        1.0000000000000000        0.0000000000000000     
 </DataArray>
 </Points>
 <Cells>
 <DataArray  type="Int32"  Name="connectivity"  format="ascii">
           0           1           6           5
           1           2           7           6
           2           3           8           7
           3           4           9           8
           5           6          11          10
           6           7          12          11
           7           8          13          12
           8           9          14          13
          10          11          16          15
          11          12          17          16
          12          13          18          17
          13          14          19          18
          15          16          21          20
          16          17          22          21
          17          18          23          22
          18          19          24          23
          25          26          31          30
          26          27          32          31
          27          28          33          32
          28          29          34          33
          30          31          36          35
          31          32          37          36
          32          33          38          37
          33          34          39          38
          35          36          41          40
          36          37          42          41
          37          38          43          42
          38          39          44          43
          40          41          46          45
          41          42          47          46
          42          43          48          47
          43          44          49          48
          50          51          56          55
          51          52          57          56
          52          53          58          57
          53          54          59          58
          55          56          61          60
          56          57          62          61
          57          58          63          62
          58          59          64          63
          60          61          66          65
          61          62          67          66
          62          63          68          67
          63          64          69          68
          65          66          71          70
          66          67          72          71
          67          68          73          72
          68          69          74          73
          75          76          81          80
          76          77          82          81
          77          78          83          82
          78          79          84          83
          80          81          86          85
          81          82          87          86
          82          83          88          87
          83          84          89          88
          85          86          91          90
          86          87          92          91
          87          88          93          92
          88          89          94          93
          90          91          96          95
          91          92          97          96
          92          93          98          97
          93          94          99          98
         100         101         106         105
         101         102         107         106
         102         103         108         107
         103         104         109         108
         105         106         111         110
         106         107         112         111
         107         108         113         112
         108         109         114         113
         110         111         116         115
         111         112         117         116
         112         113         118         117
         113         114         119         118
         115         116         121         120
         116         117         122         121
         117         118         123         122
         118         119         124         123
         125         126         131         130
         126         127         132         131
         127         128         133         132
         128         129         134         133
         130         131         136         135
         131         132         137         136
         132         133         138         137
         133         134         139         138
         135         136         141         140
         136         137         142         141
         137         138         143         142
         138         139         144         143
         140         141         146         145
         141         142         147         146
         142         143         148         147
         143         144         149         148
         150         151         156         155
         151         152         157         156
         152         153         158         157
         153         154         159         158
         155         156         161         160
         156         157         162         161
         157         158         163         162
         158         159         164         163
         160         161         166         165
         161         162         167         166
         162         163         168         167
         163         164         169         168
         165         166         171         170
         166         167         172         171
         167         168         173         172
         168         169         174         173
         175         176         181         180
         176         177         182         181
         177         178         183         182
         178         179         184         183
         180         181         186         185
         181         182         187         186
         182         183         188         187
         183         184         189         188
         185         186         191         190
         186         187         192         191
         187         188         193         192
         188         189         194         193
         190         191         196         195
         191         192         197         196
         192         193         198         197
         193         194         199         198
         200         201         206         205
         201         202         207         206
         202         203         208         207
         203         204         209         208
         205         206         211         210
         206         207         212         211
         207         208         213         212
         208         209         214         213
         210         211         216         215
         211         212         217         216
         212         213         218         217
         213         214         219         218
         215         216         221         220
         216         217         222         221
         217         218         223         222
         218         219         224         223
         225         226         231         230
         226         227         232         231
         227         228         233         232
         228         229         234         233
         230         231         236         235
         231         232         237         236
         232         233         238         237
         233         234         239         238
         235         236         241         240
         236         237         242         241
         237         238         243         242
         238         239         244         243
         240         241         246         245
         241         242         247         246
         242         243         248         247
         243         244         249         248
         250         251         256         255
         251         252         257         256
         252         253         258         257
         253         254         259         258
         255         256         261         260
         256         257         262         261
         257         258         263         262
         258         259         264         263
         260         261         266         265
         261         262         267         266
         262         263         268         267
         263         264         269         268
         265         266         271         270
         266         267         272         271
         267         268         273         272
         268         269         274         273
         275         276         281         280
         276         277         282         281
         277         278         283         282
         278         279         284         283
         280         281         286         285
         281         282         287         286
         282         283         288         287
         283         284         289         288
         285         286         291         290
         286         287         292         291
         287         288         293         292
         288         289         294         293
         290         291         296         295
         291         292         297         296
         292         293         298         297
         293         294         299         298
         300         301         306         305
         301         302         307         306
         302         303         308         307
         303         304         309         308
         305         306         311         310
         306         307         312         311
         307         308         313         312
         308         309         314         313
         310         311         316         315
         311         312         317         316
         312         313         318         317
         313         314         319         318
         315         316         321         320
         316         317         322         321
         317         318         323         322
         318         319         324         323
         325         326         331         330
         326         327         332         331
         327         328         333         332
         328         329         334         333
         330         331         336         335
         331         332         337         336
         332         333         338         337
         333         334         339         338
         335         336         341         340
         336         337         342         341
         337         338         343         342
         338         339         344         343
         340         341         346         345
         341         342         347         346
         342         343         348         347
         343         344         349         348
         350         351         356         355
         351         352         357         356
         352         353         358         357
         353         354         359         358
         355         356         361         360
         356         357         362         361
         357         358         363         362
         358         359         364         363
         360         361         366         365
         361         362         367         366
         362         363         368         367
         363         364         369         368
         365         366         371         370
         366         367         372         371
         367         368         373         372
         368         369         374         373
         375         376         381         380
         376         377         382         381
         377         378         383         382
         378         379         384         383
         380         381         386         385
         381         382         387         386
         382         383         388         387
         383         384         389         388
         385         386         391         390
         386         387         392         391
         387         388         393         392
         388         389         394         393
         390         391         396         395
         391         392         397         396
         392         393         398         397
         393         394         399         398
 </DataArray>
 <DataArray  type="Int32"  Name="offsets"  format="ascii"> 
           4
           8
          12
          16
          20
          24
          28
          32
          36
          40
          44
          48
          52
          56
          60
          64
          68
          72
          76
          80
          84
          88
          92
          96
         100
         104
         108
         112
         116
         120
         124
         128
         132
         136
         140
         144
         148
         152
         156
         160
         164
         168
         172
         176
         180
         184
         188
         192
         196
         200
         204
         208
         212
         216
         220
         224
         228
         232
         236
         240
         244
         248
         252
         256
         260
         264
         268
         272
         276
         280
         284
         288
         292
         296
         300
         304
         308
         312
         316
         320
         324
         328
         332
         336
         340
         344
         348
         352
         356
         360
         364
         368
         372
         376
         380
         384
         388
         392
         396
         400
         404
         408
         412
         416
         420
         424
         428
         432
         436
         440
         444
         448
         452
         456
         460
         464
         468
         472
         476
         480
         484
         488
         492
         496
         500
         504
         508
         512
         516
         520
         524
         528
         532
         536
         540
         544
         548
         552
         556
         560
         564
         568
         572
         576
         580
         584
         588
         592
         596
         600
         604
         608
         612
         616
         620
         624
         628
         632
         636
         640
         644
         648
         652
         656
         660
         664
         668
         672
         676
         680
         684
         688
         692
         696
         700
         704
         708
         712
         716
         720
         724
         728
         732
         736
         740
         744
         748
         752
         756
         760
         764
         768
         772
         776
         780
         784
         788
         792
         796
         800
         804
         808
         812
         816
         820
         824
         828
         832
         836
         840
         844
         848
         852
         856
         860
         864
         868
         872
         876
         880
         884
         888
         892
         896
         900
         904
         908
         912
         916
         920
         924
         928
         932
         936
         940
         944
         948
         952
         956
         960
         964
         968
         972
         976
         980
         984
         988
         992
         996
        1000
        1004
        1008
        1012
        1016
        1020
        1024
 </DataArray>
 <DataArray  type="UInt8"  Name="types"  format="ascii">
 9
 9
 9
 9
 9
 9
 9
 9
 9
 9
 9
 9
 9
 9
 9
 9
 9
 9
 9
 9
 9
 9
 9
 9
 9
 9
 9
 9
 9
 9
 9
 9
 9
 9
 9
 9
 9
 9
 9
 9
 9
 9
 9
 9
 9
 9
 9
 9
 9
 9
 9
 9
 9
 9
 9
 9
 9
 9
 9
 9
 9
 9
 9
 9
 9
 9
 9
 9
 9
 9
 9
 9
 9
 9
 9
 9
 9
 9
 9
 9
 9
 9
 9
 9
 9
 9
 9
 9
 9
 9
 9
 9
 9
 9
 9
 9
 9
 9
 9
 9
 9
 9
 9
 9
 9
 9
 9
 9
 9
 9
 9
 9
 9
 9
 9
 9
 9
 9
 9
 9
 9
 9
 9
 9
 9
 9
 9
 9
 9
 9
 9
 9
 9
 9
 9
 9
 9
 9
 9
 9
 9
 9
 9
 9
 9
 9
 9
 9
 9
 9
 9
 9
 9
 9
 9
 9
 9
 9
 9
 9
 9
 9
 9
 9
 9
 9
 9
 9
 9
 9
 9
 9
 9
 9
 9
 9
 9
 9
 9
 9
 9
 9
 9
 9
 9
 9
 9
 9
 9
 9
 9
 9
 9
 9
 9
 9
 9
 9
 9
 9
 9
 9
 9
 9
 9
 9
 9
 9
 9
 9
 9
 9
 9
 9
 9
 9
 9
 9
 9
 9
 9
 9
 9
 9
 9
 9
 9
 9
 9
 9
 9
 9
 9
 9
 9
 9
 9
 9
 9
 9
 9
 9
 9
 9
 9
 9
 9
 9
 9
 9
 9
 9
 9
 9
 9
 9
 </DataArray>
 </Cells> 
 <PointData>
 <DataArray  type="Float64" Name="disp" NumberOfComponents="3" format="ascii">
   6.5147733549950848E-002   6.2448633907831320E-002   0.0000000000000000     
   7.1172718319196443E-002   7.3449137166713141E-002   0.0000000000000000     
   7.6818477730958956E-002   8.5106913882103521E-002   0.0000000000000000     
   8.2085011785238318E-002   9.7421964054002441E-002   0.0000000000000000     
   8.6972320482034599E-002  0.11039428768240993        0.0000000000000000     
   5.5094496545018447E-002   6.0769422122240305E-002   0.0000000000000000     
   6.0350032999371438E-002   7.1810369692403953E-002   0.0000000000000000     
   6.5280213811172924E-002   8.3538321756966780E-002   0.0000000000000000     
   6.9885038980422892E-002   9.5953278315928772E-002   0.0000000000000000     
   7.4164508507121377E-002  0.10905523936928993        0.0000000000000000     
   4.5703592264762435E-002   5.9290921595345596E-002   0.0000000000000000     
   5.0204563084642953E-002   7.0387807234686156E-002   0.0000000000000000     
   5.4427988984624087E-002   8.2188665189440013E-002   0.0000000000000000     
   5.8373869964705866E-002   9.4693495459607119E-002   0.0000000000000000     
   6.2042206024888288E-002  0.10790229804518754        0.0000000000000000     
   3.6975020709182814E-002   5.8013132327147228E-002   0.0000000000000000     
   4.0736308575010989E-002   6.9181449793559752E-002   0.0000000000000000     
   4.4261803251312459E-002   8.1057944179523153E-002   0.0000000000000000     
   4.7551504738087245E-002   9.3642615485037536E-002   0.0000000000000000     
   5.0605413035335334E-002  0.10693546371010275        0.0000000000000000     
   2.8908781878279582E-002   5.6936054317645188E-002   0.0000000000000000     
   3.1945269470475567E-002   6.8191297369024739E-002   0.0000000000000000     
   3.4781656611238047E-002   8.0146158727216310E-002   0.0000000000000000     
   3.7417943300567025E-002   9.2800638392219914E-002   0.0000000000000000     
   3.9854129538462513E-002  0.10615473636403557        0.0000000000000000     
   8.6972320482034599E-002  0.11039428768240993        0.0000000000000000     
   9.1473195937848792E-002  0.12394287687517073        0.0000000000000000     
   9.5580430269181949E-002  0.13798672374012963        0.0000000000000000     
   9.9294023476034082E-002  0.15252582827728664        0.0000000000000000     
  0.10261397555840519       0.16756019048664172        0.0000000000000000     
   7.4164508507121377E-002  0.10905523936928993        0.0000000000000000     
   7.8110254894655340E-002  0.12273963443002060        0.0000000000000000     
   8.1713910646411814E-002  0.13690189301109110        0.0000000000000000     
   8.4975475762390770E-002  0.15154201511250145        0.0000000000000000     
   8.7894950242592196E-002  0.16666000073425163        0.0000000000000000     
   6.2042206024888288E-002  0.10790229804518754        0.0000000000000000     
   6.5425890891854757E-002  0.12169761784575252        0.0000000000000000     
   6.8517818292288701E-002  0.13596199976087334        0.0000000000000000     
   7.1317988226190135E-002  0.15069544379055000        0.0000000000000000     
   7.3826400693559030E-002  0.16589794993478260        0.0000000000000000     
   5.0605413035335334E-002  0.10693546371010275        0.0000000000000000     
   5.3420103929447030E-002  0.12081682712236651        0.0000000000000000     
   5.5992153206812660E-002  0.13516704398947638        0.0000000000000000     
   5.8321560867432211E-002  0.14998611431143247        0.0000000000000000     
   6.0408326911305689E-002  0.16527403808823463        0.0000000000000000     
   3.9854129538462513E-002  0.10615473636403557        0.0000000000000000     
   4.2092894007432158E-002  0.12009726225986256        0.0000000000000000     
   4.4136915389983662E-002  0.13451702569690024        0.0000000000000000     
   4.5986193686116998E-002  0.14941402667514861        0.0000000000000000     
   4.7640728895832180E-002  0.16478826519460771        0.0000000000000000     
  0.10261397555840519       0.16756019048664172        0.0000000000000000     
  0.10559732307272165       0.18299127392608613        0.0000000000000000     
  0.10830110257540987       0.19872054215351101        0.0000000000000000     
  0.11072531406646982       0.21474799516891638        0.0000000000000000     
  0.11286995754590153       0.23107363297230227        0.0000000000000000     
   8.7894950242592196E-002  0.16666000073425163        0.0000000000000000     
   9.0487216430189296E-002  0.18217738479591084        0.0000000000000000     
   9.2767156668355250E-002  0.19801570221704831        0.0000000000000000     
   9.4734770957090042E-002  0.21417495299766401        0.0000000000000000     
   9.6390059296393674E-002  0.23065513713775793        0.0000000000000000     
   7.3826400693559030E-002  0.16589794993478260        0.0000000000000000     
   7.6029180982117181E-002  0.18150181888301967        0.0000000000000000     
   7.7912454379586354E-002  0.19743935132470997        0.0000000000000000     
   7.9476220885966606E-002  0.21371054725985347        0.0000000000000000     
   8.0720480501257866E-002  0.23031540668845019        0.0000000000000000     
   6.0408326911305689E-002  0.16527403808823463        0.0000000000000000     
   6.2223216728505303E-002  0.18096457618741257        0.0000000000000000     
   6.3736995709103239E-002  0.19699148947649595        0.0000000000000000     
   6.4949663853099512E-002  0.21335477795548474        0.0000000000000000     
   6.5861221160494116E-002  0.23005444162437902        0.0000000000000000     
   4.7640728895832180E-002  0.16478826519460771        0.0000000000000000     
   4.9069323669353640E-002  0.18056565670908956        0.0000000000000000     
   5.0240780656905841E-002  0.19667211667240625        0.0000000000000000     
   5.1155099858488762E-002  0.21310764508455790        0.0000000000000000     
   5.1812281274102423E-002  0.22987224194554440        0.0000000000000000     
  0.11286995754590153       0.23107363297230227        0.0000000000000000     
  0.11469052109610207       0.24793190774939841        0.0000000000000000     
  0.11614249279946853       0.26555727168593463        0.0000000000000000     
  0.11722587265600097       0.28394972478191099        0.0000000000000000     
  0.11794066066569932       0.30310926703732738        0.0000000000000000     
   9.6390059296393674E-002  0.23065513713775793        0.0000000000000000     
   9.7743712972442748E-002  0.24760963413923087        0.0000000000000000     
   9.8806423271413882E-002  0.26519182350398346        0.0000000000000000     
   9.9578190193307090E-002  0.28340170523201591        0.0000000000000000     
  0.10005901373812234       0.30223927932332811        0.0000000000000000     
   8.0720480501257866E-002  0.23031540668845019        0.0000000000000000     
   8.1695535029390212E-002  0.24732365881655557        0.0000000000000000     
   8.2451686274293709E-002  0.26480503285022533        0.0000000000000000     
   8.2988934235968329E-002  0.28275952878945931        0.0000000000000000     
   8.3307278914414112E-002  0.30118714663425750        0.0000000000000000     
   6.5861221160494116E-002  0.23005444162437902        0.0000000000000000     
   6.6545987266944467E-002  0.24707398178137274        0.0000000000000000     
   6.7078281808108015E-002  0.26439689972466013        0.0000000000000000     
   6.7458104783984701E-002  0.28202319545424098        0.0000000000000000     
   6.7685456194574597E-002  0.29995286897011553        0.0000000000000000     
   5.1812281274102423E-002  0.22987224194554440        0.0000000000000000     
   5.2295069685105527E-002  0.24686060303368218        0.0000000000000000     
   5.2686209872856792E-002  0.26396742412728774        0.0000000000000000     
   5.2985701837356215E-002  0.28119270522636108        0.0000000000000000     
   5.3193545578603799E-002  0.29853644633090226        0.0000000000000000     
   2.8908781878279582E-002   5.6936054317645188E-002   0.0000000000000000     
   3.1945269470475567E-002   6.8191297369024739E-002   0.0000000000000000     
   3.4781656611238047E-002   8.0146158727216310E-002   0.0000000000000000     
   3.7417943300567025E-002   9.2800638392219914E-002   0.0000000000000000     
   3.9854129538462513E-002  0.10615473636403557        0.0000000000000000     
   2.1300678663361591E-002   5.6081422248893939E-002   0.0000000000000000     
   2.3609366579509333E-002   6.7419503701542885E-002   0.0000000000000000     
   2.5754957754236731E-002   7.9444130768489746E-002   0.0000000000000000     
   2.7737452187543789E-002   9.2155303449734521E-002   0.0000000000000000     
   2.9556849879430504E-002  0.10555302174527720        0.0000000000000000     
   1.3946513955737672E-002   5.5470970802947980E-002   0.0000000000000000     
   1.5506520710584946E-002   6.6868222531575996E-002   0.0000000000000000     
   1.6949115370144423E-002   7.8942682239313819E-002   0.0000000000000000     
   1.8274297934416109E-002   9.1694349926161461E-002   0.0000000000000000     
   1.9482068403399992E-002  0.10512322559211890        0.0000000000000000     
   6.8462877554078348E-003   5.5104699979807284E-002   0.0000000000000000     
   7.6367318637024055E-003   6.6537453859124074E-002   0.0000000000000000     
   8.3641294589611222E-003   7.8641813139688516E-002   0.0000000000000000     
   9.0284805411839832E-003   9.1417777821500748E-002   0.0000000000000000     
   9.6297851103709885E-003  0.10486534790456065        0.0000000000000000     
   6.2372077121175540E-011   5.4982609779471864E-002   0.0000000000000000     
   3.8861713326510117E-011   6.6427197684187048E-002   0.0000000000000000     
   2.0686827684884834E-011   7.8541523469613891E-002   0.0000000000000000     
   7.8474168352729579E-012   9.1325587135752340E-002   0.0000000000000000     
   3.4348478922252568E-013  0.10477938868260245        0.0000000000000000     
   3.9854129538462513E-002  0.10615473636403557        0.0000000000000000     
   4.2092894007432158E-002  0.12009726225986256        0.0000000000000000     
   4.4136915389983662E-002  0.13451702569690024        0.0000000000000000     
   4.5986193686116998E-002  0.14941402667514861        0.0000000000000000     
   4.7640728895832180E-002  0.16478826519460771        0.0000000000000000     
   2.9556849879430504E-002  0.10555302174527720        0.0000000000000000     
   3.1221147080375752E-002  0.11953817931973314        0.0000000000000000     
   3.2738340040858432E-002  0.13401166983771767        0.0000000000000000     
   3.4108428760878530E-002  0.14897349329923085        0.0000000000000000     
   3.5331413240436052E-002  0.16442364970427256        0.0000000000000000     
   1.9482068403399992E-002  0.10512322559211890        0.0000000000000000     
   2.0581749102843421E-002  0.11913883436347072        0.0000000000000000     
   2.1582662358493713E-002  0.13365070136650148        0.0000000000000000     
   2.2484808170350871E-002  0.14865882660121121        0.0000000000000000     
   2.3288186538414902E-002  0.16416321006759996        0.0000000000000000     
   9.6297851103709885E-003  0.10486534790456065        0.0000000000000000     
   1.0174700074835155E-002  0.11889922739107531        0.0000000000000000     
   1.0669882342889497E-002  0.13343412028325172        0.0000000000000000     
   1.1115331914534015E-002  0.14847002658108996        0.0000000000000000     
   1.1511048789768705E-002  0.16400694628458989        0.0000000000000000     
   3.4348478922252568E-013  0.10477938868260245        0.0000000000000000     
  -3.6490355008467201E-012  0.11881935840254687        0.0000000000000000     
  -5.9542128172385134E-012  0.13336192658796833        0.0000000000000000     
  -6.5720436905059021E-012  0.14840709323886683        0.0000000000000000     
  -5.5025315900958383E-012  0.16395485835524237        0.0000000000000000     
   4.7640728895832180E-002  0.16478826519460771        0.0000000000000000     
   4.9069323669353640E-002  0.18056565670908956        0.0000000000000000     
   5.0240780656905841E-002  0.19667211667240625        0.0000000000000000     
   5.1155099858488762E-002  0.21310764508455790        0.0000000000000000     
   5.1812281274102423E-002  0.22987224194554440        0.0000000000000000     
   3.5331413240436052E-002  0.16442364970427256        0.0000000000000000     
   3.6381597843331268E-002  0.18027711857302939        0.0000000000000000     
   3.7233286933364432E-002  0.19644887942568784        0.0000000000000000     
   3.7886480510535531E-002  0.21293893226224792        0.0000000000000000     
   3.8341178574844585E-002  0.22974727708270948        0.0000000000000000     
   2.3288186538414902E-002  0.16416321006759996        0.0000000000000000     
   2.3974135289107218E-002  0.18007101990421093        0.0000000000000000     
   2.4523992248849238E-002  0.19628942424958754        0.0000000000000000     
   2.4937757417640961E-002  0.21281842310372973        0.0000000000000000     
   2.5215430795482389E-002  0.22965801646663747        0.0000000000000000     
   1.1511048789768705E-002  0.16400694628458989        0.0000000000000000     
   1.1846936006681486E-002  0.17994736070263420        0.0000000000000000     
   1.2112896603360266E-002  0.19619375114410534        0.0000000000000000     
   1.2308930579805052E-002  0.21274611760900344        0.0000000000000000     
   1.2435037936015841E-002  0.22960446009732835        0.0000000000000000     
  -5.5025315900958383E-012  0.16395485835524237        0.0000000000000000     
  -3.9459225817384258E-012  0.17990614096829916        0.0000000000000000     
  -3.1024763921111420E-012  0.19616186010924136        0.0000000000000000     
  -2.9721879796738848E-012  0.21272201577806898        0.0000000000000000     
  -3.5550572902165456E-012  0.22958660797478209        0.0000000000000000     
   5.1812281274102423E-002  0.22987224194554440        0.0000000000000000     
   5.2295069685105527E-002  0.24686060303368218        0.0000000000000000     
   5.2686209872856792E-002  0.26396742412728774        0.0000000000000000     
   5.2985701837356215E-002  0.28119270522636108        0.0000000000000000     
   5.3193545578603799E-002  0.29853644633090226        0.0000000000000000     
   3.8341178574844585E-002  0.22974727708270948        0.0000000000000000     
   3.8675425960864741E-002  0.24668977713028581        0.0000000000000000     
   3.8967267503169152E-002  0.26358229564818975        0.0000000000000000     
   3.9216703201757824E-002  0.28042483263642143        0.0000000000000000     
   3.9423733056630758E-002  0.29721738809498077        0.0000000000000000     
   2.5215430795482389E-002  0.22965801646663747        0.0000000000000000     
   2.5419699771213479E-002  0.24656775862798522        0.0000000000000000     
   2.5613251733674194E-002  0.26330720387744733        0.0000000000000000     
   2.5796086682864528E-002  0.27987635221502372        0.0000000000000000     
   2.5968204618784484E-002  0.29627520364071452        0.0000000000000000     
   1.2435037936015841E-002  0.22960446009732835        0.0000000000000000     
   1.2527891116151752E-002  0.24649454752678060        0.0000000000000000     
   1.2624162564371915E-002  0.26314214881506043        0.0000000000000000     
   1.2723852280676325E-002  0.27954726396216806        0.0000000000000000     
   1.2826960265064986E-002  0.29570989296810335        0.0000000000000000     
  -3.5550572902165456E-012  0.22958660797478209        0.0000000000000000     
  -4.3204389718609626E-012  0.24647014382667182        0.0000000000000000     
  -4.7376789991115942E-012  0.26308713046102922        0.0000000000000000     
  -4.8067791066919163E-012  0.27943756787785440        0.0000000000000000     
  -4.5277427640488810E-012  0.29552145607714730        0.0000000000000000     
   6.2372077121175540E-011   5.4982609779471864E-002   0.0000000000000000     
   3.8861713326510117E-011   6.6427197684187048E-002   0.0000000000000000     
   2.0686827684884834E-011   7.8541523469613891E-002   0.0000000000000000     
   7.8474168352729579E-012   9.1325587135752340E-002   0.0000000000000000     
   3.4348478922252568E-013  0.10477938868260245        0.0000000000000000     
  -6.8462876390731238E-003   5.5104700165820343E-002   0.0000000000000000     
  -7.6367317906270958E-003   6.6537453979895675E-002   0.0000000000000000     
  -8.3641294194403363E-003   7.8641813210163197E-002   0.0000000000000000     
  -9.0284805255128418E-003   9.1417777856622875E-002   0.0000000000000000     
  -9.6297851088446192E-003  0.10486534791927472        0.0000000000000000     
  -1.3946513864631293E-002   5.5470971102731359E-002   0.0000000000000000     
  -1.5506520651453993E-002   6.6868222719380602E-002   0.0000000000000000     
  -1.6949115336182239E-002   7.8942682342409767E-002   0.0000000000000000     
  -1.8274297918816060E-002   9.1694349971818898E-002   0.0000000000000000     
  -1.9482068399355422E-002  0.10512322560760792        0.0000000000000000     
  -2.1300678614302428E-002   5.6081422590204905E-002   0.0000000000000000     
  -2.3609366543618969E-002   6.7419503902641814E-002   0.0000000000000000     
  -2.5754957729538897E-002   7.9444130866353643E-002   0.0000000000000000     
  -2.7737452172062218E-002   9.2155303481340406E-002   0.0000000000000000     
  -2.9556849871188926E-002  0.10555302174760207        0.0000000000000000     
  -2.8908781888086529E-002   5.6936054628240987E-002   0.0000000000000000     
  -3.1945269467122027E-002   6.8191297529679326E-002   0.0000000000000000     
  -3.4781656599510290E-002   8.0146158781994797E-002   0.0000000000000000     
  -3.7417943285251339E-002   9.2800638385187387E-002   0.0000000000000000     
  -3.9854129524345132E-002  0.10615473633925712        0.0000000000000000     
   3.4348478922252568E-013  0.10477938868260245        0.0000000000000000     
  -3.6490355008467201E-012  0.11881935840254687        0.0000000000000000     
  -5.9542128172385134E-012  0.13336192658796833        0.0000000000000000     
  -6.5720436905059021E-012  0.14840709323886683        0.0000000000000000     
  -5.5025315900958383E-012  0.16395485835524237        0.0000000000000000     
  -9.6297851088446192E-003  0.10486534791927472        0.0000000000000000     
  -1.0174700081019571E-002  0.11889922739492366        0.0000000000000000     
  -1.0669882353621610E-002  0.13343412028037466        0.0000000000000000     
  -1.1115331926650734E-002  0.14847002657562766        0.0000000000000000     
  -1.1511048800106935E-002  0.16400694628068271        0.0000000000000000     
  -1.9482068399355422E-002  0.10512322560760792        0.0000000000000000     
  -2.0581749105686862E-002  0.11913883436524396        0.0000000000000000     
  -2.1582662365696878E-002  0.13365070136019408        0.0000000000000000     
  -2.2484808179385474E-002  0.14865882659245816        0.0000000000000000     
  -2.3288186546752646E-002  0.16416321006203632        0.0000000000000000     
  -2.9556849871188926E-002  0.10555302174760207        0.0000000000000000     
  -3.1221147077650904E-002  0.11953817931350771        0.0000000000000000     
  -3.2738340042180028E-002  0.13401166982742646        0.0000000000000000     
  -3.4108428764776273E-002  0.14897349328935833        0.0000000000000000     
  -3.5331413245439668E-002  0.16442364969930323        0.0000000000000000     
  -3.9854129524345132E-002  0.10615473633925712        0.0000000000000000     
  -4.2092893996911712E-002  0.12009726223971497        0.0000000000000000     
  -4.4136915383071032E-002  0.13451702568207194        0.0000000000000000     
  -4.5986193682823133E-002  0.14941402666632808        0.0000000000000000     
  -4.7640728896167994E-002  0.16478826519248335        0.0000000000000000     
  -5.5025315900958383E-012  0.16395485835524237        0.0000000000000000     
  -3.9459225817384258E-012  0.17990614096829916        0.0000000000000000     
  -3.1024763921111420E-012  0.19616186010924136        0.0000000000000000     
  -2.9721879796738848E-012  0.21272201577806898        0.0000000000000000     
  -3.5550572902165456E-012  0.22958660797478209        0.0000000000000000     
  -1.1511048800106935E-002  0.16400694628068271        0.0000000000000000     
  -1.1846936014299737E-002  0.17994736070178954        0.0000000000000000     
  -1.2112896609538642E-002  0.19619375114519783        0.0000000000000000     
  -1.2308930585823644E-002  0.21274611761090759        0.0000000000000000     
  -1.2435037943154745E-002  0.22960446009891886        0.0000000000000000     
  -2.3288186546752646E-002  0.16416321006203632        0.0000000000000000     
  -2.3974135295904690E-002  0.18007101990368915        0.0000000000000000     
  -2.4523992254947870E-002  0.19628942425217710        0.0000000000000000     
  -2.4937757423882202E-002  0.21281842310750029        0.0000000000000000     
  -2.5215430802707668E-002  0.22965801646965867        0.0000000000000000     
  -3.5331413245439668E-002  0.16442364969930323        0.0000000000000000     
  -3.6381597848760772E-002  0.18027711857399797        0.0000000000000000     
  -3.7233286939330174E-002  0.19644887943017930        0.0000000000000000     
  -3.7886480517147846E-002  0.21293893226784713        0.0000000000000000     
  -3.8341178582213829E-002  0.22974727708700154        0.0000000000000000     
  -4.7640728896167994E-002  0.16478826519248335        0.0000000000000000     
  -4.9069323672867995E-002  0.18056565671271602        0.0000000000000000     
  -5.0240780662685530E-002  0.19667211667920426        0.0000000000000000     
  -5.1155099865620599E-002  0.21310764509194813        0.0000000000000000     
  -5.1812281281673207E-002  0.22987224195094755        0.0000000000000000     
  -3.5550572902165456E-012  0.22958660797478209        0.0000000000000000     
  -4.3204389718609626E-012  0.24647014382667182        0.0000000000000000     
  -4.7376789991115942E-012  0.26308713046102922        0.0000000000000000     
  -4.8067791066919163E-012  0.27943756787785440        0.0000000000000000     
  -4.5277427640488810E-012  0.29552145607714730        0.0000000000000000     
  -1.2435037943154745E-002  0.22960446009891886        0.0000000000000000     
  -1.2527891124723932E-002  0.24649454752760014        0.0000000000000000     
  -1.2624162573723180E-002  0.26314214881531994        0.0000000000000000     
  -1.2723852290152488E-002  0.27954726396207835        0.0000000000000000     
  -1.2826960274011855E-002  0.29570989296787531        0.0000000000000000     
  -2.5215430802707668E-002  0.22965801646965867        0.0000000000000000     
  -2.5419699779579571E-002  0.24656775862950675        0.0000000000000000     
  -2.5613251742653172E-002  0.26330720387789908        0.0000000000000000     
  -2.5796086691928486E-002  0.27987635221483553        0.0000000000000000     
  -2.5968204627405508E-002  0.29627520364031629        0.0000000000000000     
  -3.8341178582213829E-002  0.22974727708700154        0.0000000000000000     
  -3.8675425968887338E-002  0.24668977713239171        0.0000000000000000     
  -3.8967267511527660E-002  0.26358229564876645        0.0000000000000000     
  -3.9216703210134783E-002  0.28042483263612605        0.0000000000000000     
  -3.9423733064708706E-002  0.29721738809447035        0.0000000000000000     
  -5.1812281281673207E-002  0.22987224195094755        0.0000000000000000     
  -5.2295069692647252E-002  0.24686060303625484        0.0000000000000000     
  -5.2686209880346634E-002  0.26396742412792223        0.0000000000000000     
  -5.2985701844771367E-002  0.28119270522594975        0.0000000000000000     
  -5.3193545585921445E-002  0.29853644633033727        0.0000000000000000     
  -2.8908781888086529E-002   5.6936054628240987E-002   0.0000000000000000     
  -3.1945269467122027E-002   6.8191297529679326E-002   0.0000000000000000     
  -3.4781656599510290E-002   8.0146158781994797E-002   0.0000000000000000     
  -3.7417943285251339E-002   9.2800638385187387E-002   0.0000000000000000     
  -3.9854129524345132E-002  0.10615473633925712        0.0000000000000000     
  -3.6975020760356414E-002   5.8013132576945563E-002   0.0000000000000000     
  -4.0736308594590959E-002   6.9181449894801045E-002   0.0000000000000000     
  -4.4261803248920650E-002   8.1057944180657426E-002   0.0000000000000000     
  -4.7551504723345496E-002   9.3642615434514700E-002   0.0000000000000000     
  -5.0605413017865482E-002  0.10693546365637291        0.0000000000000000     
  -4.5703592305484909E-002   5.9290921796424575E-002   0.0000000000000000     
  -5.0204563098653558E-002   7.0387807292314863E-002   0.0000000000000000     
  -5.4427988980594172E-002   8.2188665153665741E-002   0.0000000000000000     
  -5.8373869951306799E-002   9.4693495380477194E-002   0.0000000000000000     
  -6.2042206010791398E-002  0.10790229797274928        0.0000000000000000     
  -5.5094496523472015E-002   6.0769422286678039E-002   0.0000000000000000     
  -6.0350032979309798E-002   7.1810369722220782E-002   0.0000000000000000     
  -6.5280213794530875E-002   8.3538321701019727E-002   0.0000000000000000     
  -6.9885038969135241E-002   9.5953278223074881E-002   0.0000000000000000     
  -7.4164508503122895E-002  0.10905523928838619        0.0000000000000000     
  -6.5147733414317718E-002   6.2448634047705953E-002   0.0000000000000000     
  -7.1172718236559712E-002   7.3449137184518842E-002   0.0000000000000000     
  -7.6818477690730760E-002   8.5106913822719427E-002   0.0000000000000000     
  -8.2085011776830835E-002   9.7421963962307706E-002   0.0000000000000000     
  -8.6972320494859950E-002  0.11039428760328368        0.0000000000000000     
  -3.9854129524345132E-002  0.10615473633925712        0.0000000000000000     
  -4.2092893996911712E-002  0.12009726223971497        0.0000000000000000     
  -4.4136915383071032E-002  0.13451702568207194        0.0000000000000000     
  -4.5986193682823133E-002  0.14941402666632808        0.0000000000000000     
  -4.7640728896167994E-002  0.16478826519248335        0.0000000000000000     
  -5.0605413017865482E-002  0.10693546365637291        0.0000000000000000     
  -5.3420103914489994E-002  0.12081682708783571        0.0000000000000000     
  -5.5992153195228392E-002  0.13516704397050691        0.0000000000000000     
  -5.8321560860080675E-002  0.14998611430438649        0.0000000000000000     
  -6.0408326909046857E-002  0.16527403808947438        0.0000000000000000     
  -6.2042206010791398E-002  0.10790229797274928        0.0000000000000000     
  -6.5425890881406490E-002  0.12169761780184006        0.0000000000000000     
  -6.8517818285510512E-002  0.13596199973910778        0.0000000000000000     
  -7.1317988223103548E-002  0.15069544378455241        0.0000000000000000     
  -7.3826400694185515E-002  0.16589794993817392        0.0000000000000000     
  -7.4164508503122895E-002  0.10905523928838619        0.0000000000000000     
  -7.8110254897661158E-002  0.12273963438172800        0.0000000000000000     
  -8.1713910653917449E-002  0.13690189298787456        0.0000000000000000     
  -8.4975475771891712E-002  0.15154201510682586        0.0000000000000000     
  -8.7894950251583948E-002  0.16666000073858189        0.0000000000000000     
  -8.6972320494859950E-002  0.11039428760328368        0.0000000000000000     
  -9.1473195963254067E-002  0.12394287682749948        0.0000000000000000     
  -9.5580430300449132E-002  0.13798672371680720        0.0000000000000000     
  -9.9294023506445173E-002  0.15252582827120684        0.0000000000000000     
 -0.10261397558124219       0.16756019049069842        0.0000000000000000     
  -4.7640728896167994E-002  0.16478826519248335        0.0000000000000000     
  -4.9069323672867995E-002  0.18056565671271602        0.0000000000000000     
  -5.0240780662685530E-002  0.19667211667920426        0.0000000000000000     
  -5.1155099865620599E-002  0.21310764509194813        0.0000000000000000     
  -5.1812281281673207E-002  0.22987224195094755        0.0000000000000000     
  -6.0408326909046857E-002  0.16527403808947438        0.0000000000000000     
  -6.2223216730993250E-002  0.18096457619381831        0.0000000000000000     
  -6.3736995714786124E-002  0.19699148948546588        0.0000000000000000     
  -6.4949663860425527E-002  0.21335477796441718        0.0000000000000000     
  -6.5861221167911418E-002  0.23005444163067204        0.0000000000000000     
  -7.3826400694185515E-002  0.16589794993817392        0.0000000000000000     
  -7.6029180985903416E-002  0.18150181889127992        0.0000000000000000     
  -7.7912454385404090E-002  0.19743935133517804        0.0000000000000000     
  -7.9476220892687660E-002  0.21371054726986821        0.0000000000000000     
  -8.0720480507754072E-002  0.23031540669535053        0.0000000000000000     
  -8.7894950251583948E-002  0.16666000073858189        0.0000000000000000     
  -9.0487216437598467E-002  0.18217738480510082        0.0000000000000000     
  -9.2767156674539497E-002  0.19801570222834058        0.0000000000000000     
  -9.4734770962407067E-002  0.21417495300830125        0.0000000000000000     
  -9.6390059301201120E-002  0.23065513714498287        0.0000000000000000     
 -0.10261397558124219       0.16756019049069842        0.0000000000000000     
 -0.10559732308607846       0.18299127393528097        0.0000000000000000     
 -0.10830110258219228       0.19872054216495363        0.0000000000000000     
 -0.11072531406958368       0.21474799517971638        0.0000000000000000     
 -0.11286995754825263       0.23107363297956918        0.0000000000000000     
  -5.1812281281673207E-002  0.22987224195094755        0.0000000000000000     
  -5.2295069692647252E-002  0.24686060303625484        0.0000000000000000     
  -5.2686209880346634E-002  0.26396742412792223        0.0000000000000000     
  -5.2985701844771367E-002  0.28119270522594975        0.0000000000000000     
  -5.3193545585921445E-002  0.29853644633033727        0.0000000000000000     
  -6.5861221167911418E-002  0.23005444163067204        0.0000000000000000     
  -6.6545987273788867E-002  0.24707398178428294        0.0000000000000000     
  -6.7078281814602903E-002  0.26439689972530211        0.0000000000000000     
  -6.7458104790353524E-002  0.28202319545372956        0.0000000000000000     
  -6.7685456201040731E-002  0.29995286896956530        0.0000000000000000     
  -8.0720480507754072E-002  0.23031540669535053        0.0000000000000000     
  -8.1695535035241768E-002  0.24732365881966253        0.0000000000000000     
  -8.2451686279789257E-002  0.26480503285084184        0.0000000000000000     
  -8.2988934241396514E-002  0.28275952878888849        0.0000000000000000     
  -8.3307278920063565E-002  0.30118714663380247        0.0000000000000000     
  -9.6390059301201120E-002  0.23065513714498287        0.0000000000000000     
  -9.7743712977005945E-002  0.24760963414239354        0.0000000000000000     
  -9.8806423275905678E-002  0.26519182350454135        0.0000000000000000     
  -9.9578190197900346E-002  0.28340170523142649        0.0000000000000000     
 -0.10005901374298998       0.30223927932304873        0.0000000000000000     
 -0.11286995754825263       0.23107363297956918        0.0000000000000000     
 -0.11469052109908139       0.24793190775247598        0.0000000000000000     
 -0.11614249280295219       0.26555727168640075        0.0000000000000000     
 -0.11722587265986505       0.28394972478134345        0.0000000000000000     
 -0.11794066066981992       0.30310926703730406        0.0000000000000000     
 </DataArray>
 <DataArray  type="Float64" Name="stress" NumberOfComponents="3" format="ascii">
   5992855092.9287815        89471809.537015438        106140244.93179223     
   5603141375.7073431        3947229.4115138054        61974263.912424929     
   5224856715.7855873       -43480493.048375130        38817222.365545385     
   4858001113.1635132       -52811357.842650175        36669120.291167378     
   4502574567.8411264       -24045364.971312284        55529957.689285457     
   5216236408.3578529        49169012.514207840        360138343.52118117     
   4888255799.4969912       -2961627.5238554478        332445120.03193182     
   4567664900.1770935       -30459902.425362825        323523669.63507038     
   4254463710.3981705       -33325812.190298557        333373992.33059043     
   3948652230.1602135       -11559356.818681002        361996088.11849511     
   4458514085.8720655        14535124.116947889        622213500.44902217     
   4185874681.4286056       -6119147.0166347027        606280462.10473013     
   3916585638.7673917       -15605545.542712212        606882030.47271037     
   3650646957.8884306       -13924071.461277485        624018205.55296361     
   3388058638.7917261       -1074724.7723290920        657688987.34548712     
   3719688125.4714308       -14429855.654768229        892365715.71531451     
   3495998021.5021868       -5525329.0668256283        883480290.13081360     
   3271618931.5564771        1082577.5995745659        888892304.87847197     
   3046550855.6343083        5393864.3444373608        908601759.95828807     
   2820793793.7356749        7408531.1677536964        942608655.37026346     
   2999758527.1559401       -37725926.800942659        1170594989.3200610     
   2818625819.7177324       -1180173.6744289398        1164044604.1101794     
   2632764778.5443501        19604467.001494765        1169554492.8523464     
   2442175403.6357903        24627995.226825237        1187124655.5465608     
   2246857694.9920526        13890411.001568437        1216755092.1928205     
   4502574567.8411264       -24045364.971312284        55529957.689285457     
   4134222362.2642546        7765548.1117453575        34703433.404304780     
   3759005463.0941210        16694149.217255831        33135671.617582437     
   3376923870.3307161        2740438.3452022076        50826672.329121299     
   2987977583.9740486       -34095584.504399657        87776435.538915277     
   3948652230.1602135       -11559356.818681002        361996088.11849511     
   3626808490.7947083        10318213.117666483        332187433.07208717     
   3300819520.3297715        18378346.055910707        321188068.72386682     
   2970685318.7654047        12621041.996053457        328997995.07383025     
   2636405886.1016059       -6953699.0619040728        355617212.12197888     
   3388058638.7917261       -1074724.7723290920        657688987.34548712     
   3111439160.4945202        10484240.474392772        622070907.78046250     
   2833393913.5917158        17290643.702459693        604812647.11354864     
   2553922898.0833120        19344484.911863923        605914205.34474373     
   2273026113.9693170        16645764.102627754        625375582.47405314     
   2820793793.7356749        7408531.1677536964        942608655.37026346     
   2588114371.3636951        8263630.1819261312        904353857.52942502     
   2356728642.8799539        13431042.156893969        884009406.78662372     
   2126636608.2844501        22910767.092653394        881575303.14185941     
   1897838267.5771825        36702804.989197612        897051546.59513080     
   2246857694.9920526        13890411.001568437        1216755092.1928205     
   2056834123.4022317        3656382.2402693033        1179036282.3189774     
   1870823708.1944854        6799541.4192178249        1158778347.7430975     
   1688826449.3688073        23319888.538394332        1155981288.4651773     
   1510842346.9252057        53217423.597824752        1170645104.4852235     
   2987977583.9740486       -34095584.504399657        87776435.538915277     
   2720332258.6624870       -31629031.665857315        53181634.586646914     
   2461471816.4219341        120464.74271440506        1769688.0803569774     
   2211396257.2523999        61152904.721352220       -66459403.979935952     
   1970105581.1538897        151468288.27006418       -151505641.59425429     
   2636405886.1016059       -6953699.0619040728        355617212.12197888     
   2334261052.9282389       -14660104.793422818        330010964.71240807     
   2037730432.4890163       -3652468.0777891874        297031385.71009094     
   1746814024.7839339        26069211.084975600        256678475.11503047     
   1461511829.8129997        74504932.694907486        208952232.92721540     
   2273026113.9693170        16645764.102627754        625375582.47405314     
   1963364098.5377724        6861097.4821529388        605058773.21416080     
   1656145625.5034928        5221572.1859054565        586812446.32278919     
   1351370694.8664875        11727188.213905096        570636601.79994214     
   1049039306.6267532        26377945.566140592        556531239.64561641     
   1897838267.5771825        36702804.989197612        897051546.59513080     
   1607641395.4910793        32934575.160857320        878325060.09190142     
   1316717395.4653735        26742585.533834815        871112869.91846132     
   1025066267.5000627        18126836.108134151        875414976.07480562     
   732688011.59514987        7087326.8837549090        891231378.56094134     
   1510842346.9252057        53217423.597824752        1170645104.4852235     
   1267092943.7881675        63560328.242697835        1149809825.3456323     
   1019445742.3746548        60910571.965985060        1149932656.4971011     
   767900742.68466306        45268154.767677814        1171013597.9396250     
   512457944.71819323        16633076.647776604        1213052649.6732049     
   1970105581.1538897        151468288.27006418       -151505641.59425429     
   1618434251.1923220        158724431.60050583       -56973731.869482443     
   1225047239.8788531        26928303.757942557        67263774.548078984     
   789944547.21348727       -243920095.25762302        221206877.65843573     
   313126173.19621563       -653820765.44618070        404855577.46158850     
   1461511829.8129997        74504932.694907486        208952232.92721540     
   1178315232.6157598        61535082.020183086        284621593.75638151     
   848600740.29971218       -106494419.05056995        387925766.32804722     
   472368352.86485714       -429583570.51735198        518864750.64221162     
   49618070.311182261       -907732372.38018882        677438546.69887614     
   1049039306.6267532        26377945.566140592        556531239.64561641     
   828400913.76443756       -8592857.6425625682        607735468.85111141     
   556442412.01639748       -214630690.47034043        684503724.84882081     
   233163801.38263774       -591735552.91718423        786836007.63873386     
  -141434918.13683933       -1139907444.9830801        914732317.22084379     
   732688011.59514987        7087326.8837549090        891231378.56094134     
   568691294.63834572       -51659387.387741715        912367893.41471660     
   348572255.02891064       -297480510.50134635        956997650.11040282     
   72330892.766843021       -730376042.45706248        1025120648.6480020     
  -260032792.14786059       -1350345983.2548847        1116736889.0275123     
   512457944.71819323        16633076.647776604        1213052649.6732049     
   399186375.23749024       -67664507.215349883        1198518867.4471920     
   224990269.33723921       -355043879.14363921        1205407542.1127920     
  -10130372.982547283       -845505039.13703561        1233718673.6700146     
  -306175551.72187620       -1539047987.1955874        1283452262.1188543     
   2999758527.1559401       -37725926.800942659        1170594989.3200610     
   2818625819.7177324       -1180173.6744289398        1164044604.1101794     
   2632764778.5443501        19604467.001494765        1169554492.8523464     
   2442175403.6357903        24627995.226825237        1187124655.5465608     
   2246857694.9920526        13890411.001568437        1216755092.1928205     
   2289730559.6342850       -16320919.164377451        1297356806.4845676     
   2140144161.5686271        6967326.4951933622        1278269494.0994174     
   1987011513.8445940        18434739.960183144        1274447724.3873234     
   1830332616.4621871        18081321.230592012        1285891497.3482816     
   1670107469.4214067        5907070.3064227104        1312600812.9822924     
   1553094817.1901581       -2898244.0045511127        1414690074.4970725     
   1444212639.1284928        9879867.3775044084        1384444933.0262628     
   1332966295.4852557        14777426.820993304        1372670602.9495115     
   1219355786.2604485        11794434.325914085        1379367084.2668188     
   1103381111.4540737        930889.89227390289        1404534376.9781866     
   789851299.82355809        2542098.6785323322        1522594793.3575792     
   730831252.39732945        7557448.9725062847        1482570920.8907120     
   670629123.46633518        8632527.5839272439        1464223128.5389075     
   609244913.03057587        5767334.5127996802        1467551416.3021700     
   546678621.09004998       -1038130.2408843935        1492555784.1804969     
   7.5344841171970067        108.88487277566998        1621070963.0660899     
   1.3751410266903683        71.280203214255735        1572647457.6927662     
  -2.2121641514941999        42.248993360581750        1549105301.1555152     
  -3.2274326297568354        21.791238479424795        1550444493.4543362     
  -1.6706607708971091        9.9069527764544993        1576665034.5892282     
   2246857694.9920526        13890411.001568437        1216755092.1928205     
   2056834123.4022317        3656382.2402693033        1179036282.3189774     
   1870823708.1944854        6799541.4192178249        1158778347.7430975     
   1688826449.3688073        23319888.538394332        1155981288.4651773     
   1510842346.9252057        53217423.597824752        1170645104.4852235     
   1670107469.4214067        5907070.3064227104        1312600812.9822924     
   1526485341.1043773       -2099787.9367644787        1282615973.1418600     
   1385873080.2900178       -73754.504385828972        1270349713.4783516     
   1248270686.9783304        11985170.603565812        1275802033.9917705     
   1113678161.1693146        34076987.387090623        1298972934.6821184     
   1103381111.4540737        930889.89227390289        1404534376.9781866     
   1006896726.0640168       -4627907.9365591407        1381113003.4785264     
   912418919.29723084       -3498110.3544887304        1375667915.0347557     
   819947691.15371609        4320282.6384845972        1388199111.6468804     
   729483041.63347435        18827271.042366654        1418706593.3148956     
   546678621.09004998       -1038130.2408843935        1492555784.1804969     
   498068278.28115231       -3927977.7591046393        1474527373.3289788     
   450461225.21612680       -3473526.1310834289        1474732952.4123137     
   403857461.89497072        325224.64316816628        1493172521.4305081     
   358256988.31768638        7468274.5636592358        1529846080.3835623     
  -1.6706607708971091        9.9069527764544993        1576665034.5892282     
  -2.2442125996385904        2.5956088926544756        1562859082.6932156     
  -1.9532977341812248       -1.8341800377054485        1567544825.6110239     
 -0.79790892299962479       -3.3823891489845908        1590722263.3426552     
   1.2219503797095741       -2.0490292612823460        1632391395.8881087     
   1510842346.9252057        53217423.597824752        1170645104.4852235     
   1267092943.7881675        63560328.242697835        1149809825.3456323     
   1019445742.3746548        60910571.965985060        1149932656.4971011     
   767900742.68466306        45268154.767677814        1171013597.9396250     
   512457944.71819323        16633076.647776604        1213052649.6732049     
   1113678161.1693146        34076987.387090623        1298972934.6821184     
   924913926.04736352        40048511.472488940        1279392247.6004026     
   733226342.16719472        36275539.697162986        1282158513.4452670     
   538615409.52881122        22758072.061119616        1307271732.2167091     
   341081128.13220888       -503891.43564870954        1354731903.9147303     
   729483041.63347435        18827271.042366654        1418706593.3148956     
   599672096.34238553        21617851.113016993        1401517356.0623615     
   467912251.81134337        17912100.383823097        1408063914.3719261     
   334203508.04034430        7710018.8547701985        1438346268.2435951     
   198545865.02938914       -8988393.4741312936        1492364417.6773658     
   358256988.31768638        7468274.5636592358        1529846080.3835623     
   291367454.67324102        8268347.1643022150        1516185150.7315078     
   223503471.30710089        5820254.0259611011        1527648859.2770798     
   154665038.21926582        123995.14863569289        1564237206.0202744     
   84852155.409740180       -8820429.4676543102        1625950190.9610975     
   1.2219503797095741       -2.0490292612823460        1632391395.8881087     
   1.0399257462482723      -0.37366881566991172        1623395631.6078439     
  0.65447102865362061       0.62359204338741514        1640913348.1607256     
   6.5578861022860035E-002  0.94272841593574075        1684944545.5467582     
 -0.72674476326971438       0.58375854516590586        1755489223.7659369     
   512457944.71819323        16633076.647776604        1213052649.6732049     
   399186375.23749024       -67664507.215349883        1198518867.4471920     
   224990269.33723921       -355043879.14363921        1205407542.1127920     
  -10130372.982547283       -845505039.13703561        1233718673.6700146     
  -306175551.72187620       -1539047987.1955874        1283452262.1188543     
   341081128.13220888       -503891.43564870954        1354731903.9147303     
   283904495.79717457       -55393965.995394662        1284858212.6008983     
   181034461.15566176       -262595381.57673246        1229925667.7451797     
   32471024.207680076       -622108138.17963958        1189934269.3475792     
  -161785815.04678223       -1133932235.8041418        1164884017.4080923     
   198545865.02938914       -8988393.4741312936        1492364417.6773658     
   178946140.03002012       -40026367.673484407        1384920473.7409565     
   128884146.83723959       -172605235.85087657        1285936365.8291616     
   48359885.451049954       -406724998.00629771        1195412093.9419775     
  -62626644.128546655       -742385654.13974690        1113347658.0794079     
   84852155.409740180       -8820429.4676543102        1625950190.9610975     
   84311307.936024189       -21561712.249636587        1498705650.8673608     
   68539326.381968781       -85073441.966086537        1373439636.3647296     
   37536210.747569442       -199355618.61701244        1250152147.4532139     
  -8698038.9671730399       -364408242.20241737        1128843184.1328068     
 -0.72674476326971438       0.58375854516590586        1755489223.7659369     
 -0.48480615126806953       0.27617423000517932        1626213743.9801106     
 -0.21014508814406263        7.7664751918992761E-002   1492435479.3518951     
   9.7234926154721665E-002  -1.1781555584602213E-002   1354154429.8812842     
  0.43734210392359613        7.8612940333224468E-003   1211370595.5682857     
   7.5344841171970067        108.88487277566998        1621070963.0660899     
   1.3751410266903683        71.280203214255735        1572647457.6927662     
  -2.2121641514941999        42.248993360581750        1549105301.1555152     
  -3.2274326297568354        21.791238479424795        1550444493.4543362     
  -1.6706607708971091        9.9069527764544993        1576665034.5892282     
  -789851303.14065623       -2541955.7776391804        1522594760.2994096     
  -730831263.19603360       -7557362.0659066439        1482570896.1280887     
  -670629137.43137336       -8632482.2873815894        1464223111.3584216     
  -609244925.84667420       -5767316.4420603216        1467551405.9904103     
  -546678628.44193542        1038135.4700565636        1492555780.0240548     
  -1553094829.9381804        2898314.7231361866        1414690015.6964767     
  -1444212656.5593543       -9879834.0496615767        1384444889.8498242     
  -1332966314.1124897       -14777419.262326598        1372670573.9704113     
  -1219355802.5975854       -11794440.914864063        1379367068.0582361     
  -1103381122.0146425       -930899.00727099180        1404534372.1133013     
  -2289730572.8580918        16320920.387193799        1297356729.2572925     
  -2140144178.7148216       -6967344.6710597277        1278269438.8579772     
  -1987011532.2555137       -18434768.675846577        1274447688.9914820     
  -1830332633.4801664       -18081351.627168775        1285891479.6578095     
  -1670107482.3887784       -5907093.5250264406        1312600810.8569615     
  -2999758531.9003868        37725861.214537024        1170594900.9818556     
  -2818625829.6624365        1180106.0698984861        1164044543.1525424     
  -2632764791.8604445       -19604530.527930737        1169554456.4216356     
  -2442175418.4944162       -24628048.578973055        1187124640.7891340     
  -2246857709.5643468       -13890448.083211422        1216755096.2550378     
  -1.6706607708971091        9.9069527764544993        1576665034.5892282     
  -2.2442125996385904        2.5956088926544756        1562859082.6932156     
  -1.9532977341812248       -1.8341800377054485        1567544825.6110239     
 -0.79790892299962479       -3.3823891489845908        1590722263.3426552     
   1.2219503797095741       -2.0490292612823460        1632391395.8881087     
  -546678628.44193542        1038135.4700565636        1492555780.0240548     
  -498068284.46656346        3927976.7546375096        1474527370.9037759     
  -450461229.34335548        3473521.8653368056        1474732951.5620930     
  -403857463.07231295       -325229.19784913957        1493172521.9990082     
  -358256985.65343481       -7468276.4349167198        1529846082.2145221     
  -1103381122.0146425       -930899.00727099180        1404534372.1133013     
  -1006896733.5909834        4627900.8430483937        1381113001.0993443     
  -912418923.73612523        3498105.4640300870        1375667914.8287625     
  -819947692.45006657       -4320285.1443190277        1388199113.3015540     
  -729483039.73280752       -18827270.982000500        1418706596.5177236     
  -1670107482.3887784       -5907093.5250264406        1312600810.8569615     
  -1526485349.6174715        2099774.8608414531        1282615973.2799203     
  -1385873085.1316018        73748.961917996407        1270349715.4110305     
  -1248270688.9311657       -11985171.221785009        1275802037.2502918     
  -1113678161.0161674       -34076985.690280378        1298972938.7977054     
  -2246857709.5643468       -13890448.083211422        1216755096.2550378     
  -2056834132.5460320       -3656401.1919947863        1179036287.4455056     
  -1870823713.5297883       -6799547.6410112381        1158778353.3089011     
  -1688826452.5156157       -23319887.430267274        1155981293.8452229     
  -1510842349.5035126       -53217420.559752464        1170645109.0544748     
   1.2219503797095741       -2.0490292612823460        1632391395.8881087     
   1.0399257462482723      -0.37366881566991172        1623395631.6078439     
  0.65447102865362061       0.62359204338741514        1640913348.1607256     
   6.5578861022860035E-002  0.94272841593574075        1684944545.5467582     
 -0.72674476326971438       0.58375854516590586        1755489223.7659369     
  -358256985.65343481       -7468276.4349167198        1529846082.2145221     
  -291367452.56160164       -8268346.7812812775        1516185151.8565514     
  -223503470.05354139       -5820252.4068898410        1527648859.8041844     
  -154665038.12925735       -123993.31175272912        1564237206.0574191     
  -84852156.788751543        8820430.5041225590        1625950190.6162560     
  -729483039.73280752       -18827270.982000500        1418706596.5177236     
  -599672094.87438560       -21617849.802266598        1401517357.9716444     
  -467912250.98008227       -17912098.502926499        1408063915.2036235     
  -334203508.04989880       -7710017.0839853436        1438346268.2136619     
  -198545866.08383355        8988394.4545589983        1492364417.0017548     
  -1113678161.0161674       -34076985.690280378        1298972938.7977054     
  -924913925.89842832       -40048509.436629891        1279392249.9531207     
  -733226342.12515414       -36275537.664522678        1282158514.3590488     
  -538615409.69634140       -22758070.373956680        1307271732.0154889     
  -341081128.61198807        503892.43507786095        1354731902.9224408     
  -1510842349.5035126       -53217420.559752464        1170645109.0544748     
  -1267092945.6337290       -63560325.684367359        1149809827.8009818     
  -1019445743.4887555       -60910569.891679287        1149932657.2704573     
  -767900743.06858099       -45268153.181656688        1171013597.4629006     
  -512457944.37321639       -16633075.554332107        1213052648.3783112     
 -0.72674476326971438       0.58375854516590586        1755489223.7659369     
 -0.48480615126806953       0.27617423000517932        1626213743.9801106     
 -0.21014508814406263        7.7664751918992761E-002   1492435479.3518951     
   9.7234926154721665E-002  -1.1781555584602213E-002   1354154429.8812842     
  0.43734210392359613        7.8612940333224468E-003   1211370595.5682857     
  -84852156.788751543        8820430.5041225590        1625950190.6162560     
  -84311308.862213925        21561712.702110458        1498705650.6723673     
  -68539326.787308365        85073442.061322451        1373439636.2885087     
  -37536210.564037472        199355618.58175254        1250152147.4646802     
   8698039.8075995892        364408242.26340491        1128843184.2008715     
  -198545866.08383355        8988394.4545589983        1492364417.0017548     
  -178946140.75149477        40026368.074488103        1384920473.3680570     
  -128884147.15514639        172605235.90778396        1285936365.6968024     
  -48359885.294786513        406724997.95444852        1195412093.9879978     
   62626644.829579651        742385654.21447206        1113347658.2416410     
  -341081128.61198807        503892.43507786095        1354731902.9224408     
  -283904496.15264940        55393966.393310279        1284858212.0671813     
  -181034461.31365770        262595381.61704707        1229925667.5767858     
  -32471024.095013320        622108138.10629869        1189934269.4512572     
   161785815.50328270        1133932235.8610525        1164884017.6905961     
  -512457944.37321639       -16633075.554332107        1213052648.3783112     
  -399186375.06568068        67664507.658556104        1198518866.7697351     
  -224990269.26284802        355043879.18909895        1205407541.9284458     
   10130373.035284340        845505039.03730762        1233718673.8544445     
   306175551.82870615        1539047987.2031493        1283452262.5477316     
  -2999758531.9003868        37725861.214537024        1170594900.9818556     
  -2818625829.6624365        1180106.0698984861        1164044543.1525424     
  -2632764791.8604445       -19604530.527930737        1169554456.4216356     
  -2442175418.4944162       -24628048.578973055        1187124640.7891340     
  -2246857709.5643468       -13890448.083211422        1216755096.2550378     
  -3719688104.3967571        14429809.409095526        892365646.21138692     
  -3495998009.5508952        5525283.1997895241        883480241.01791000     
  -3271618927.7819309       -1082619.9325239658        888892275.43934584     
  -3046550859.0898728       -5393899.9878478050        908601749.47569513     
  -2820793803.4747162       -7408556.9661806822        942608663.12695885     
  -4458514066.6262207       -14535159.316275120        622213451.66850388     
  -4185874669.1252804        6119116.4238984585        606280425.69642818     
  -3916585633.3421783        15605519.771257877        606882007.85577416     
  -3650646959.2769256        13924050.725797653        624018198.14654326     
  -3388058646.9295177        1074709.2875204086        657688996.56873262     
  -5216236418.5887775       -49169044.961570740        360138317.35320324     
  -4888255808.3855829        2961605.7422351837        332445097.18809837     
  -4567664908.5411882        30459888.583406448        323523653.67092353     
  -4254463719.0555720        33325803.561969280        333373986.80167747     
  -3948652239.9287434        11559350.677902699        361996096.58036125     
  -5992855160.2844200       -89471847.526795149        106140243.26548667     
  -5603141427.3318253       -3947248.8452148438        61974255.492918812     
  -5224856753.3789539        43480486.503938675        38817212.884789139     
  -4858001138.4258127        52811358.520656586        36669115.441097431     
  -4502574582.4724045        24045367.204941034        55529963.161841199     
  -2246857709.5643468       -13890448.083211422        1216755096.2550378     
  -2056834132.5460320       -3656401.1919947863        1179036287.4455056     
  -1870823713.5297883       -6799547.6410112381        1158778353.3089011     
  -1688826452.5156157       -23319887.430267274        1155981293.8452229     
  -1510842349.5035126       -53217420.559752464        1170645109.0544748     
  -2820793803.4747162       -7408556.9661806822        942608663.12695885     
  -2588114378.2287693       -8263643.6485788822        904353863.93339980     
  -2356728647.9894228       -13431047.019638658        884009411.83592463     
  -2126636612.7566679       -22910767.079341412        881575306.83453393     
  -1897838272.5305109       -36702803.827700615        897051548.92922938     
  -3388058646.9295177        1074709.2875204086        657688996.56873262     
  -3111439166.5326309       -10484248.891504169        622070913.81919992     
  -2833393918.1468692       -17290647.107601166        604812650.58890975     
  -2553922901.7722249       -19344485.360766649        605914206.87786472     
  -2273026117.4087048       -16645763.650999069        625375582.68606055     
  -3948652239.9287434        11559350.677902699        361996096.58036125     
  -3626808497.4576168       -10318216.920768976        332187437.10291111     
  -3300819524.0021315       -18378347.904916286        321188069.56786048     
  -2970685319.5622921       -12621042.274546742        328997993.97520840     
  -2636405884.1380992        6953699.9703346491        355617210.32496125     
  -4502574582.4724045        24045367.204941034        55529963.161841199     
  -4134222371.0037241       -7765547.7363667488        34703433.784528203     
  -3759005465.5552096       -16694149.411575079        33135668.772771511     
  -3376923866.1268673       -2740437.8206858635        50826668.126578338     
  -2987977572.7186913        34095587.036322594        87776431.845936030     
  -1510842349.5035126       -53217420.559752464        1170645109.0544748     
  -1267092945.6337290       -63560325.684367359        1149809827.8009818     
  -1019445743.4887555       -60910569.891679287        1149932657.2704573     
  -767900743.06858099       -45268153.181656688        1171013597.4629006     
  -512457944.37321639       -16633075.554332107        1213052648.3783112     
  -1897838272.5305109       -36702803.827700615        897051548.92922938     
  -1607641398.9468651       -32934573.973393977        878325061.46881986     
  -1316717397.4365649       -26742584.363566756        871112870.37789381     
  -1025066267.9996128       -18126834.998237491        875414975.65644908     
  -732688010.63600731       -7087325.8773953021        891231377.30448592     
  -2273026117.4087048       -16645763.650999069        625375582.68606055     
  -1963364100.8354416       -6861096.8350460529        605058773.61210322     
  -1656145626.6840618       -5221571.4253671169        586812446.55413938     
  -1351370694.9545717       -11727187.421989739        570636601.51217651     
  -1049039305.6469691       -26377944.824901462        556531238.48620832     
  -2636405884.1380992        6953699.9703346491        355617210.32496125     
  -2334261051.2994576        14660105.730679989        330010964.23082250     
  -2037730431.2312458        3652468.9229233265        297031385.79919571     
  -1746814023.9334610       -26069210.452924371        256678475.03008166     
  -1461511829.4061055       -74504932.396867454        208952231.92347991     
  -2987977572.7186913        34095587.036322594        87776431.845936030     
  -2720332250.3389196        31629033.723762155        53181633.324984342     
  -2461471811.0781107       -120463.31867754459        1769688.1130628667     
  -2211396254.9362788       -61152904.091034174       -66459403.789834492     
  -1970105581.9134126       -151468288.59328473       -151505642.38370228     
  -512457944.37321639       -16633075.554332107        1213052648.3783112     
  -399186375.06568068        67664507.658556104        1198518866.7697351     
  -224990269.26284802        355043879.18909895        1205407541.9284458     
   10130373.035284340        845505039.03730762        1233718673.8544445     
   306175551.82870615        1539047987.2031493        1283452262.5477316     
  -732688010.63600731       -7087325.8773953021        891231377.30448592     
  -568691294.06726635        51659387.815484583        912367892.68348575     
  -348572254.78089631        297480510.56713128        956997649.84689534     
  -72330892.776897043        730376042.37753749        1025120648.7947125     
   260032791.94472772        1350345983.2467024        1116736889.5269532     
  -1049039305.6469691       -26377944.824901462        556531238.48620832     
  -828400913.19667351        8592857.9340648651        607735468.11216915     
  -556442411.80640709        214630690.49292529        684503724.53966916     
  -233163801.47618747        591735552.85163307        786836007.76870060     
   141434917.79399770        1139907445.0102236        914732317.79926693     
  -1461511829.4061055       -74504932.396867454        208952231.92347991     
  -1178315232.4538960       -61535081.985708475        284621593.05579257     
  -848600740.33939004        106494418.96644080        387925766.00676256     
  -472368353.06258237        429583570.45959818        518864750.77639580     
  -49618070.623480260        907732372.49372363        677438547.36468554     
  -1970105581.9134126       -151468288.59328473       -151505642.38370228     
  -1618434251.8389294       -158724431.94380194       -56973732.485653020     
  -1225047240.3798172       -26928304.012221932        67263774.248188093     
  -789944547.53608322        243920095.20144337        221206877.81780699     
  -313126173.30771482        653820765.69719672        404855578.22321516     
 </DataArray>
 <DataArray  type="Float64" Name="VM" NumberOfComponents="1" format="ascii">
   5951463940.4829922     
   5602197283.2551165     
   5247162845.7797537     
   4885033813.9414330     
   4515669684.1048412     
   5229164517.0000706     
   4923524144.2458801     
   4617101229.9471140     
   4310077747.2945414     
   4003842583.9435635     
   4579869320.0309200     
   4318556040.0837545     
   4062748386.3931842     
   3813980220.5323858     
   3574947291.5975127     
   4034713403.2036290     
   3818764394.9637890     
   3615292299.7926240     
   3426622243.8872480     
   3256004884.1962562     
   3636484707.0319786     
   3465974450.7791643     
   3314180728.2192311     
   3183155069.9751239     
   3075521343.0163012     
   4515669684.1048412     
   4130782410.9476686     
   3751125335.9866300     
   3376702257.5597005     
   3009013709.0637326     
   4003842583.9435635     
   3667079162.4330416     
   3338348243.1365352     
   3018667992.9982333     
   2710794704.1432419     
   3574947291.5975127     
   3287774191.6526942     
   3012776766.6448650     
   2752251465.2913513     
   2510452627.9579649     
   3256004884.1962562     
   3021685748.9975119     
   2804837760.2226911     
   2608813971.1850352     
   2438767235.6509681     
   3075521343.0163012     
   2897143260.8065124     
   2741461036.6023483     
   2611929089.1166930     
   2513225703.4012413     
   3009013709.0637326     
   2737833874.9980211     
   2461413494.7972255     
   2184497731.0258245     
   1916953833.9410129     
   2710794704.1432419     
   2410380012.3699541     
   2103445823.7999163     
   1790014607.8097472     
   1470938843.0869567     
   2510452627.9579649     
   2222535305.1735640     
   1940939065.3069248     
   1669542122.0631840     
   1415163885.6463752     
   2438767235.6509681     
   2201593352.5341029     
   1993930874.9910977     
   1825256795.0102277     
   1707210960.4529068     
   2513225703.4012413     
   2344187599.8919034     
   2224392060.6768370     
   2161198243.2123575     
   2160753628.8776321     
   1916953833.9410129     
   1548346160.3870988     
   1217395036.7009690     
   1011429779.0343853     
   1105432993.7697661     
   1470938843.0869567     
   1250093590.1548288     
   1128403616.2268567     
   1190906157.8675265     
   1499416184.7550280     
   1415163885.6463752     
   1342187558.6333706     
   1371408093.2662578     
   1549135353.2030120     
   1915300430.6207724     
   1707210960.4529068     
   1688994447.4741461     
   1749635456.4386225     
   1934974600.7386308     
   2298090713.8400645     
   2160753628.8776321     
   2121386674.7861335     
   2148390146.8672023     
   2296214583.0788774     
   2633048126.4441304     
   3636484707.0319786     
   3465974450.7791643     
   3314180728.2192311     
   3183155069.9751239     
   3075521343.0163012     
   3214017262.7870264     
   3076893431.9293356     
   2963878466.1016130     
   2877134063.2517447     
   2819253641.1931705     
   2901836862.9861431     
   2796719944.3642292     
   2722130316.1241341     
   2679654210.8830323     
   2671062347.7721648     
   2752589394.0854974     
   2668838290.5358496     
   2622189319.5975771     
   2613201175.8490515     
   2642459918.8543782     
   2807777270.7050805     
   2723905299.1178985     
   2683129087.8756394     
   2685448636.9783020     
   2730863946.4258842     
   3075521343.0163012     
   2897143260.8065124     
   2741461036.6023483     
   2611929089.1166930     
   2513225703.4012413     
   2819253641.1931705     
   2696048665.1573534     
   2600406044.8510799     
   2535029606.3268175     
   2503094394.1836123     
   2671062347.7721648     
   2596332344.8612232     
   2552077369.6157842     
   2539700926.4926043     
   2560654407.1712518     
   2642459918.8543782     
   2602448225.0466008     
   2594032365.3408885     
   2617567983.2939973     
   2673390239.4235597     
   2730863946.4258842     
   2706951336.2951388     
   2715067281.0999889     
   2755211780.8404384     
   2827384835.5164857     
   2513225703.4012413     
   2344187599.8919034     
   2224392060.6768370     
   2161198243.2123575     
   2160753628.8776321     
   2503094394.1836123     
   2393859184.9875312     
   2333265943.5106068     
   2324918232.2140212     
   2371160908.1180334     
   2560654407.1712518     
   2497971783.3784976     
   2481695667.9615712     
   2513104589.1366558     
   2592824815.8222280     
   2673390239.4235597     
   2641780926.9195943     
   2655149702.3362446     
   2713745791.6691651     
   2817652957.9004102     
   2827384835.5164857     
   2811803714.7301536     
   2842145289.8323350     
   2918409560.8230376     
   3040596527.7022524     
   2160753628.8776321     
   2121386674.7861335     
   2148390146.8672023     
   2296214583.0788774     
   2633048126.4441304     
   2371160908.1180334     
   2247660723.8755145     
   2165045049.9914174     
   2157800752.5071287     
   2280216467.0064087     
   2592824815.8222280     
   2407239196.8593388     
   2242665106.5634198     
   2115292722.0283141     
   2056014216.1746018     
   2817652957.9004102     
   2597642601.2959142     
   2382598436.6668348     
   2176528396.2427931     
   1988104672.5123847     
   3040596527.7022524     
   2816684828.5403581     
   2584974077.2558942     
   2345464273.8488512     
   2098155418.3192410     
   2807777270.7050805     
   2723905299.1178985     
   2683129087.8756394     
   2685448636.9783020     
   2730863946.4258842     
   2752589360.5480504     
   2668838263.8629827     
   2622189300.0087771     
   2613201163.5165167     
   2642459913.8766441     
   2901836802.8121204     
   2796719897.7019000     
   2722130283.1652398     
   2679654191.7806644     
   2671062342.5789309     
   3214017179.1635795     
   3076893368.7072577     
   2963878423.2802725     
   2877134040.8274555     
   2819253639.0641832     
   3636484597.9296131     
   3465974369.9385004     
   3314180675.3328071     
   3183155044.7529764     
   3075521345.0729694     
   2730863946.4258842     
   2706951336.2951388     
   2715067281.0999889     
   2755211780.8404384     
   2827384835.5164857     
   2642459913.8766441     
   2602448222.0151205     
   2594032364.2341890     
   2617567984.0976644     
   2673390242.0933909     
   2671062342.5789309     
   2596332342.6020722     
   2552077369.9917831     
   2539700929.2231178     
   2560654411.9684196     
   2819253639.0641832     
   2696048666.4658341     
   2600406048.7868295     
   2535029612.0542479     
   2503094400.8782020     
   3075521345.0729694     
   2897143266.8478670     
   2741461045.1869082     
   2611929098.6289320     
   2513225712.1577449     
   2827384835.5164857     
   2811803714.7301536     
   2842145289.8323350     
   2918409560.8230376     
   3040596527.7022524     
   2673390242.0933909     
   2641780928.6469984     
   2655149703.2065067     
   2713745791.7805305     
   2817652957.3659668     
   2560654411.9684196     
   2497971786.3921037     
   2481695669.3872471     
   2513104589.1988268     
   2592824814.7791429     
   2503094400.8782020     
   2393859189.0626841     
   2333265945.2919021     
   2324918232.0914998     
   2371160906.5583973     
   2513225712.1577449     
   2344187605.0995126     
   2224392062.7901030     
   2161198242.8183756     
   2160753626.7375197     
   3040596527.7022524     
   2816684828.5403581     
   2584974077.2558942     
   2345464273.8488512     
   2098155418.3192410     
   2817652957.3659668     
   2597642601.0034146     
   2382598436.5586901     
   2176528396.2474470     
   1988104672.5660253     
   2592824814.7791429     
   2407239196.2969379     
   2242665106.3722553     
   2115292722.0771782     
   2056014216.3587859     
   2371160906.5583973     
   2247660723.0444465     
   2165045049.7337999     
   2157800752.6390176     
   2280216467.3845382     
   2160753626.7375197     
   2121386673.6586723     
   2148390146.5528622     
   2296214583.3301730     
   2633048127.0564666     
   3636484597.9296131     
   3465974369.9385004     
   3314180675.3328071     
   3183155044.7529764     
   3075521345.0729694     
   4034713316.1369529     
   3818764328.8653097     
   3615292255.5211611     
   3426622222.8292661     
   3256004888.2427621     
   4579869264.4222574     
   4318555997.9459152     
   4062748358.4962282     
   3813980208.2291412     
   3574947297.0592456     
   5229164505.8724756     
   4923524137.6202068     
   4617101227.9551926     
   4310077750.2655478     
   4003842592.8409142     
   5951463989.1557522     
   5602197324.8858938     
   5247162879.8461199     
   4885033839.4357262     
   4515669700.0600052     
   3075521345.0729694     
   2897143266.8478670     
   2741461045.1869082     
   2611929098.6289320     
   2513225712.1577449     
   3256004888.2427621     
   3021685754.8876929     
   2804837767.2581906     
   2608813978.5598469     
   2438767242.4784636     
   3574947297.0592456     
   3287774196.8290572     
   3012776771.4271026     
   2752251469.5089126     
   2510452631.4205713     
   4003842592.8409142     
   3667079168.2388520     
   3338348246.0971785     
   3018667993.2857103     
   2710794701.9679513     
   4515669700.0600052     
   4130782419.8829241     
   3751125338.2755241     
   3376702253.4293594     
   3009013698.7859087     
   2513225712.1577449     
   2344187605.0995126     
   2224392062.7901030     
   2161198242.8183756     
   2160753626.7375197     
   2438767242.4784636     
   2201593357.0954819     
   1993930877.2524385     
   1825256794.9869857     
   1707210958.2872753     
   2510452631.4205713     
   2222535307.8085856     
   1940939066.8449428     
   1669542122.1540401     
   1415163883.8222697     
   2710794701.9679513     
   2410380011.0493808     
   2103445823.0289295     
   1790014607.2486427     
   1470938842.3981910     
   3009013698.7859087     
   2737833867.6522093     
   2461413490.1654425     
   2184497728.9976468     
   1916953834.7382176     
   2160753626.7375197     
   2121386673.6586723     
   2148390146.5528622     
   2296214583.3301730     
   2633048127.0564666     
   1707210958.2872753     
   1688994446.1732244     
   1749635455.9534736     
   1934974600.9425755     
   2298090714.6005111     
   1415163883.8222697     
   1342187557.3691847     
   1371408092.7098238     
   1549135353.4030249     
   1915300431.5413811     
   1470938842.3981910     
   1250093589.5422626     
   1128403615.8876379     
   1190906158.1247160     
   1499416185.8329461     
   1916953834.7382176     
   1548346160.9536259     
   1217395037.0275183     
   1011429779.3943174     
   1105432994.8551590     
 </DataArray>
 <DataArray  type="Float64" Name="strain" NumberOfComponents="3" format="ascii">
   9.9433559167794616E-002  -2.8473078639026983E-002   4.5994106137109969E-003
   9.3365953448064809E-002  -2.7949919721678151E-002   2.6855514362050803E-003
   8.7298347728335002E-002  -2.6848958463067521E-002   1.6820796358403001E-003
   8.1230742008605139E-002  -2.5170194863195067E-002   1.5889952126172530E-003
   7.5163136288875332E-002  -2.2913628922060836E-002   2.4062981665357031E-003
   8.6691428410059834E-002  -2.5261698499885799E-002   1.5605994885917851E-002
   8.1485738129235791E-002  -2.4490639456215879E-002   1.4405955201383713E-002
   7.6280047848411692E-002  -2.3345989541308176E-002   1.4019359017519717E-002
   7.1074357567587676E-002  -2.1827748755162496E-002   1.4446206334325584E-002
   6.5868667286763632E-002  -1.9935917097779088E-002   1.5686497151801454E-002
   7.4235892477283016E-002  -2.2050318360744531E-002   2.6962585019457627E-002
   6.9795173758893270E-002  -2.1031359190753607E-002   2.6272153357871642E-002
   6.5354455040503412E-002  -1.9843020619548825E-002   2.6298221320484115E-002
   6.0913736322113568E-002  -1.8485302647130115E-002   2.7040788907295093E-002
   5.6473017603723752E-002  -1.6958205273497451E-002   2.8499856118304440E-002
   6.2066951369464357E-002  -1.8838938221603291E-002   3.8669181014330298E-002
   5.8294260337037246E-002  -1.7572078925291362E-002   3.8284145905668587E-002
   5.4521569304610079E-002  -1.6340051697789477E-002   3.8518666544733786E-002
   5.0748878272182954E-002  -1.5142856539097586E-002   3.9372742931525817E-002
   4.6976187239755815E-002  -1.3980493449215814E-002   4.0846375066044750E-002
   5.0184605086603717E-002  -1.5627558082462079E-002   5.0725782870535974E-002
   4.6982997863667691E-002  -1.4112798659829145E-002   5.0441932844774440E-002
   4.3781390640731693E-002  -1.2837082776030170E-002   5.0680694690268341E-002
   4.0579783417795709E-002  -1.1800410431065198E-002   5.1442068407017635E-002
   3.7378176194859697E-002  -1.1002781624934121E-002   5.2726053995022226E-002
   7.5163136288875332E-002  -2.2913628922060836E-002   2.4062981665357031E-003
   6.8864878297178855E-002  -2.0541686009458854E-002   1.5038154475198739E-003
   6.2566620305482407E-002  -1.8516791495183010E-002   1.4358791034285723E-003
   5.6268362313785930E-002  -1.6838945379233548E-002   2.2024891342619229E-003
   4.9970104322089481E-002  -1.5508147661610239E-002   3.8036455400196623E-003
   6.5868667286763632E-002  -1.9935917097779088E-002   1.5686497151801454E-002
   6.0395217114323468E-002  -1.7962072235345766E-002   1.4394788766457112E-002
   5.4921766941883304E-002  -1.6197791834050346E-002   1.3918149644700895E-002
   4.9448316769443140E-002  -1.4643075893892799E-002   1.4256579786532643E-002
   4.3974866597002948E-002  -1.3297924414873097E-002   1.5410079191952419E-002
   5.6473017603723752E-002  -1.6958205273497451E-002   2.8499856118304440E-002
   5.1804898139203373E-002  -1.5382458461232720E-002   2.6956406003820044E-002
   4.7136778674682966E-002  -1.3878792172917584E-002   2.6208548041587107E-002
   4.2468659210162553E-002  -1.2447206408552163E-002   2.6256282231605560E-002
   3.7800539745642139E-002  -1.1087701168136121E-002   2.7099608573875639E-002
   4.6976187239755815E-002  -1.3980493449215814E-002   4.0846375066044750E-002
   4.3093921371818625E-002  -1.2802844687119709E-002   3.9188667159608420E-002
   3.9211655503881435E-002  -1.1559792511784871E-002   3.8307074294087029E-002
   3.5329389635944231E-002  -1.0251336923211360E-002   3.8201596469480577E-002
   3.1447123768007054E-002  -8.8774779213992849E-003   3.8872233685789001E-002
   3.7378176194859697E-002  -1.1002781624934121E-002   5.2726053995022226E-002
   3.4262286812169182E-002  -1.0223230913006670E-002   5.1091572233822352E-002
   3.1146397429478667E-002  -9.2407928506521297E-003   5.0213728402200897E-002
   2.8030508046788152E-002  -8.0554674378707988E-003   5.0092522500157680E-002
   2.4914618664097637E-002  -6.6672546746622818E-003   5.0727954527693020E-002
   4.9970104322089481E-002  -1.5508147661610239E-002   3.8036455400196623E-003
   4.5497016136037405E-002  -1.4128811821076726E-002   2.3045374987546996E-003
   4.1023927949985328E-002  -1.2305351336397763E-002   7.6686483482135692E-005
   3.6550839763933238E-002  -1.0037766207572796E-002  -2.8799075057972245E-003
   3.2077751577881175E-002  -7.3260564346017132E-003  -6.5652444690843526E-003
   4.3974866597002948E-002  -1.3297924414873097E-002   1.5410079191952419E-002
   3.8977651406104430E-002  -1.1915640344531575E-002   1.4300475137537683E-002
   3.3980436215205884E-002  -1.0249526630408234E-002   1.2871360047437275E-002
   2.8983221024307351E-002  -8.2995832725034080E-003   1.1122733921651320E-002
   2.3986005833408791E-002  -6.0658102708165407E-003   9.0545967601793342E-003
   3.7800539745642139E-002  -1.1087701168136121E-002   2.7099608573875639E-002
   3.2688429488218776E-002  -9.7024688679863136E-003   2.6219213505946970E-002
   2.7576319230795350E-002  -8.1937019244190390E-003   2.5428539340654199E-002
   2.2464208973371935E-002  -6.5614003374340202E-003   2.4727586077997493E-002
   1.7352098715948519E-002  -4.8055641070314237E-003   2.4116353717976713E-002
   3.1447123768007054E-002  -8.8774779213992849E-003   3.8872233685789001E-002
   2.6629350382380370E-002  -7.4892973914411076E-003   3.8060752603982395E-002
   2.1811576996753720E-002  -6.1378772184296215E-003   3.7748224363133326E-002
   1.6993803611127040E-002  -4.8232174023647434E-003   3.7934648963241578E-002
   1.2176030225500390E-002  -3.5453179432465010E-003   3.8620026404307457E-002
   2.4914618664097637E-002  -6.6672546746622818E-003   5.0727954527693020E-002
   2.0800414088589306E-002  -5.2761259148958739E-003   4.9825092431644069E-002
   1.6686209513080988E-002  -4.0820525124401902E-003   4.9830415114874377E-002
   1.2572004937572663E-002  -3.0850344672953521E-003   5.0743922577383749E-002
   8.4578003620643383E-003  -2.2850717794613562E-003   5.2565614819172213E-002
   3.2077751577881175E-002  -7.3260564346017132E-003  -6.5652444690843526E-003
   2.6180282028536173E-002  -5.4467640626198466E-003  -2.4688617143442393E-003
   2.0282812479191170E-002  -5.6764311367618892E-003   2.9147635637500890E-003
   1.4385342929846237E-002  -8.0150576570278201E-003   9.5856313651988823E-003
   8.4878733805011652E-003  -1.2462643623417424E-002   1.7543741690002168E-002
   2.3986005833408791E-002  -6.0658102708165407E-003   9.0545967601793342E-003
   1.9330911800161749E-002  -4.8659914627424139E-003   1.2333602396109866E-002
   1.4675817766914720E-002  -6.0179106856747266E-003   1.6810116540882047E-002
   1.0020723733667712E-002  -9.5215679396134859E-003   2.2484139194495836E-002
   5.3656297004206488E-003  -1.5376963224559059E-002   2.9355670356951302E-002
   1.7352098715948519E-002  -4.8055641070314237E-003   2.4116353717976713E-002
   1.3849646184286774E-002  -4.2852188628648979E-003   2.6335203650214828E-002
   1.0347193652624993E-002  -6.3593902345876613E-003   2.9661828076782235E-002
   6.8447411209632165E-003  -1.1028078222199592E-002   3.4096226997678468E-002
   3.3422885893014120E-003  -1.8291282825700472E-002   3.9638400412903230E-002
   1.2176030225500390E-002  -3.5453179432465010E-003   3.8620026404307457E-002
   9.7364851809111364E-003  -3.7044462629874236E-003   3.9535942047971055E-002
   7.2969401363219086E-003  -6.7008697835003253E-003   4.1469898171450789E-002
   4.8573950917326957E-003  -1.2534588504785256E-002   4.4421894774746756E-002
   2.4178500471434133E-003  -2.1205602426842107E-002   4.8391931857858866E-002
   8.4578003620643383E-003  -2.2850717794613562E-003   5.2565614819172213E-002
   6.9914287900349203E-003  -3.1236736631099493E-003   5.1935817589378319E-002
   5.5250572180055163E-003  -7.0423493324135167E-003   5.2234326824887656E-002
   4.0586856459760567E-003  -1.4041098787371191E-002   5.3461142525700639E-002
   2.5923140739466666E-003  -2.4119922027983742E-002   5.5616264691817019E-002
   5.0184605086603717E-002  -1.5627558082462079E-002   5.0725782870535974E-002
   4.6982997863667691E-002  -1.4112798659829145E-002   5.0441932844774440E-002
   4.3781390640731693E-002  -1.2837082776030170E-002   5.0680694690268341E-002
   4.0579783417795709E-002  -1.1800410431065198E-002   5.1442068407017635E-002
   3.7378176194859697E-002  -1.1002781624934121E-002   5.2726053995022226E-002
   3.8243780589726634E-002  -1.1720668117577715E-002   5.6218794947664602E-002
   3.5634232727001156E-002  -1.0584598699589914E-002   5.5391678077641421E-002
   3.3024684864275650E-002  -9.6278119032199155E-003   5.5226068056784011E-002
   3.0415137001550158E-002  -8.8503077284677358E-003   5.5721964885092200E-002
   2.7805589138824666E-002  -8.2520861753333230E-003   5.6879368562566007E-002
   2.5899404839858725E-002  -7.8137781526933098E-003   6.1303236561539812E-002
   2.4020811315254027E-002  -7.0563987393507249E-003   5.9992613764471389E-002
   2.2142217790649295E-002  -6.4185410304097232E-003   5.9482392794478832E-002
   2.0263624266044573E-002  -5.9002050258703410E-003   5.9772573651562147E-002
   1.8385030741439858E-002  -5.5013907257324690E-003   6.0863156335721424E-002
   1.3151477836999974E-002  -3.9068881878089184E-003   6.5979107712161769E-002
   1.2142733628426293E-002  -3.5281987791115424E-003   6.4244739905264192E-002
   1.1133989419852617E-002  -3.2092701575995551E-003   6.3449668903352657E-002
   1.0125245211278933E-002  -2.9501023232728846E-003   6.3593894706427373E-002
   9.1165010027052552E-003  -2.7506952761316567E-003   6.4677417314488200E-002
  -4.1884962859173314E-010   1.7770754590085147E-009   7.0246408399530558E-002
  -3.3348199895977260E-010   1.1811276817708105E-009   6.8148056500019871E-002
  -2.4811436932781206E-010   7.1521071010050008E-010   6.7127896383405661E-002
  -1.6274673622640456E-010   3.7932447113919743E-010   6.7185928049687899E-002
  -7.7379110063890977E-011   1.7346918346206053E-010   6.8322151498866557E-002
   3.7378176194859697E-002  -1.1002781624934121E-002   5.2726053995022226E-002
   3.4262286812169182E-002  -1.0223230913006670E-002   5.1091572233822352E-002
   3.1146397429478667E-002  -9.2407928506521297E-003   5.0213728402200897E-002
   2.8030508046788152E-002  -8.0554674378707988E-003   5.0092522500157680E-002
   2.4914618664097637E-002  -6.6672546746622818E-003   5.0727954527693020E-002
   2.7805589138824666E-002  -8.2520861753333230E-003   5.6879368562566007E-002
   2.5451921291423443E-002  -7.6674231711346269E-003   5.5580025502813935E-002
   2.3098253444022228E-002  -6.9305946431898538E-003   5.5048487584061903E-002
   2.0744585596621009E-002  -6.0416005914988875E-003   5.5284754806310059E-002
   1.8390917749219790E-002  -5.0004410160617296E-003   5.6288827169558464E-002
   1.8385030741439858E-002  -5.5013907257324690E-003   6.0863156335721424E-002
   1.6804751640749741E-002  -5.1116154292627364E-003   5.9848230150736141E-002
   1.5224472540059625E-002  -4.6203964357276334E-003   5.9612276318172744E-002
   1.3644193439369512E-002  -4.0277337451271704E-003   6.0155294838031483E-002
   1.2063914338679406E-002  -3.3336273574612607E-003   6.1477285710312149E-002
   9.1165010027052552E-003  -2.7506952761316567E-003   6.4677417314488200E-002
   8.3207778601480618E-003  -2.5558076873908389E-003   6.3896186177589076E-002
   7.5250547175908632E-003  -2.3101982282653574E-003   6.3905094604533599E-002
   6.7293315750336707E-003  -2.0138668987553839E-003   6.4704142595322020E-002
   5.9336084324764764E-003  -1.6668136988607779E-003   6.6293330149954366E-002
  -7.7379110063890977E-011   1.7346918346206053E-010   6.8322151498866557E-002
  -5.0381587790582216E-011   5.4481211209100877E-011   6.7723893583372677E-002
  -2.3384062047826504E-011  -2.0803178624184682E-011   6.7926942443144372E-002
   3.6134636949292087E-012  -5.2383607868078386E-011   6.8931298078181727E-002
   3.0610985968237969E-011  -4.0260239586586977E-011   7.0736960488484713E-002
   2.4914618664097637E-002  -6.6672546746622818E-003   5.0727954527693020E-002
   2.0800414088589306E-002  -5.2761259148958739E-003   4.9825092431644069E-002
   1.6686209513080988E-002  -4.0820525124401902E-003   4.9830415114874377E-002
   1.2572004937572663E-002  -3.0850344672953521E-003   5.0743922577383749E-002
   8.4578003620643383E-003  -2.2850717794613562E-003   5.2565614819172213E-002
   1.8390917749219790E-002  -5.0004410160617296E-003   5.6288827169558464E-002
   1.5214989543426947E-002  -3.9570944390286689E-003   5.5440330729350784E-002
   1.2039061337634098E-002  -3.0615393825499243E-003   5.5560202249294907E-002
   8.8631331318412554E-003  -2.3137758466253953E-003   5.6648441729390729E-002
   5.6872049260483920E-003  -1.7138038312551895E-003   5.8705049169638313E-002
   1.2063914338679406E-002  -3.3336273574612607E-003   6.1477285710312149E-002
   9.8864456834746733E-003  -2.6380629631616442E-003   6.0732418762702328E-002
   7.7089770282699407E-003  -2.0410262526596654E-003   6.1016102956116793E-002
   5.5315083730652203E-003  -1.5425172259555513E-003   6.2328338290555785E-002
   3.3540397178604756E-003  -1.1425358830491339E-003   6.4669124766019187E-002
   5.9336084324764764E-003  -1.6668136988607779E-003   6.6293330149954366E-002
   4.8147825087325059E-003  -1.3190314872945016E-003   6.5701356531698674E-002
   3.6959565849885431E-003  -1.0205131227694862E-003   6.6198117235340123E-002
   2.5771306612445851E-003  -7.7125860528573422E-004   6.7783612260878562E-002
   1.4583047375006080E-003  -5.7126793484293947E-004   7.0457841608314226E-002
   3.0610985968237969E-011  -4.0260239586586977E-011   7.0736960488484713E-002
   1.9200439849154094E-011  -1.1427442325739889E-011   7.0347144036339904E-002
   7.7898902606232667E-012   7.1208455798554837E-012   7.1106245086964781E-002
  -3.6206610626310365E-012   1.5384245960481380E-011   7.3014263640359525E-002
  -1.5031205446991436E-011   1.3363032902447003E-011   7.6071199696523928E-002
   8.4578003620643383E-003  -2.2850717794613562E-003   5.2565614819172213E-002
   6.9914287900349203E-003  -3.1236736631099493E-003   5.1935817589378319E-002
   5.5250572180055163E-003  -7.0423493324135167E-003   5.2234326824887656E-002
   4.0586856459760567E-003  -1.4041098787371191E-002   5.3461142525700639E-002
   2.5923140739466666E-003  -2.4119922027983742E-002   5.5616264691817019E-002
   5.6872049260483920E-003  -1.7138038312551895E-003   5.8705049169638313E-002
   5.0087114265965488E-003  -2.3427552455757839E-003   5.5677189212705591E-002
   4.3302179271446917E-003  -5.2817619987238495E-003   5.3296778935624456E-002
   3.6517244276928658E-003  -1.0530824090699061E-002   5.1563818338395101E-002
   2.9732309282410052E-003  -1.8089941521501784E-002   5.0478307421017332E-002
   3.3540397178604756E-003  -1.1425358830491339E-003   6.4669124766019187E-002
   3.1825675055344241E-003  -1.5618368280415074E-003   6.0013220528774780E-002
   3.0110952932083761E-003  -3.5211746650341408E-003   5.5723909185930343E-002
   2.8396230808823211E-003  -7.0205493940268780E-003   5.1801190737485688E-002
   2.6681508685562905E-003  -1.2059961015019716E-002   4.8245065183441016E-002
   1.4583047375006080E-003  -5.7126793484293947E-004   7.0457841608314226E-002
   1.5129970268485862E-003  -7.8091841050739741E-004   6.4943911537585636E-002
   1.5676893161965791E-003  -1.7605873313446194E-003   5.9515717575804955E-002
   1.6223816055445529E-003  -3.5102746973547216E-003   5.4173259722972600E-002
   1.6770738948925362E-003  -6.0299805085377578E-003   4.8916537979088293E-002
  -1.5031205446991436E-011   1.3363032902447003E-011   7.6071199696523928E-002
  -9.4609736711603887E-012   7.0269345897600033E-012   7.0469262239138131E-002
  -3.8907418953293416E-012   2.3451379727035260E-012   6.4672204105248793E-002
   1.6794898805017056E-012  -6.8253389051697866E-013   5.8680025294855651E-002
   7.2497285952266566E-012  -2.0556889523959399E-012   5.2492725807959051E-002
  -4.1884962859173314E-010   1.7770754590085147E-009   7.0246408399530558E-002
  -3.3348199895977260E-010   1.1811276817708105E-009   6.8148056500019871E-002
  -2.4811436932781206E-010   7.1521071010050008E-010   6.7127896383405661E-002
  -1.6274673622640456E-010   3.7932447113919743E-010   6.7185928049687899E-002
  -7.7379110063890977E-011   1.7346918346206053E-010   6.8322151498866557E-002
  -1.3151478606789408E-002   3.9068905860759617E-003   6.5979106279641084E-002
  -1.2142734242937695E-002   3.5282002815483909E-003   6.4244738832217180E-002
  -1.1133989879085981E-002   3.2092709823671739E-003   6.3449668158864936E-002
  -1.0125245515234270E-002   2.9501026885323661E-003   6.3593894259584449E-002
  -9.1165011513825410E-003   2.7506954000439537E-003   6.4677417134375706E-002
  -2.5899405405918691E-002   7.8137793950765061E-003   6.1303234013513994E-002
  -2.4020811772407599E-002   7.0563993819690793E-003   5.9992611893492379E-002
  -2.2142218138896531E-002   6.4185412495236724E-003   5.9482391538717823E-002
  -2.0263624505385439E-002   5.9002049977401935E-003   5.9772572949190236E-002
  -1.8385030871874354E-002   5.5013906266186963E-003   6.0863156124909723E-002
  -3.8243780816237499E-002   1.1720668204077023E-002   5.6218791601149343E-002
  -3.5634232921891724E-002   1.0584598482389778E-002   5.5391675683845676E-002
  -3.3024685027545998E-002   9.6278115166801258E-003   5.5226066522964218E-002
  -3.0415137133200265E-002   8.8503073069480208E-003   5.5721964118505080E-002
  -2.7805589238854511E-002   8.2520858531934527E-003   5.6879368470468331E-002
  -5.0184604837745804E-002   1.5627557013077553E-002   5.0725779042547076E-002
  -4.6982997691390097E-002   1.4112797582810491E-002   5.0441930203276836E-002
  -4.3781390545034424E-002   1.2837081783836711E-002   5.0680693111604211E-002
  -4.0579783398678744E-002   1.1800409616155865E-002   5.1442067767529139E-002
  -3.7378176252323050E-002   1.1002781079768209E-002   5.2726054171051639E-002
  -7.7379110063890977E-011   1.7346918346206053E-010   6.8322151498866557E-002
  -5.0381587790582216E-011   5.4481211209100877E-011   6.7723893583372677E-002
  -2.3384062047826504E-011  -2.0803178624184682E-011   6.7926942443144372E-002
   3.6134636949292087E-012  -5.2383607868078386E-011   6.8931298078181727E-002
   3.0610985968237969E-011  -4.0260239586586977E-011   7.0736960488484713E-002
  -9.1165011513825410E-003   2.7506954000439537E-003   6.4677417134375706E-002
  -8.3207779582159126E-003   2.5558077015767761E-003   6.3896186072496960E-002
  -7.5250547650492754E-003   2.3101981778057244E-003   6.3905094567690696E-002
  -6.7293315718826375E-003   2.0138668287307459E-003   6.4704142619957022E-002
  -5.9336083787159960E-003   1.6668136543518952E-003   6.6293330229295955E-002
  -1.8385030871874354E-002   5.5013906266186963E-003   6.0863156124909723E-002
  -1.6804751730731631E-002   5.1116153486723895E-003   5.9848230047638257E-002
  -1.5224472589588905E-002   4.6203963764144609E-003   5.9612276309246377E-002
  -1.3644193448446182E-002   4.0277337098450165E-003   6.0155294909734008E-002
  -1.2063914307303457E-002   3.3336273489640300E-003   6.1477285849101351E-002
  -2.7805589238854511E-002   8.2520858531934527E-003   5.6879368470468331E-002
  -2.5451921367928731E-002   7.6674229957680480E-003   5.5580025508796545E-002
  -2.3098253497002952E-002   6.9305945750233085E-003   5.5048487667811320E-002
  -2.0744585626077169E-002   6.0416005909594119E-003   5.5284754947512650E-002
  -1.8390917755151389E-002   5.0004410435761648E-003   5.6288827347900569E-002
  -3.7378176252323050E-002   1.1002781079768209E-002   5.2726054171051639E-002
  -3.4262286869807229E-002   1.0223230642863582E-002   5.1091572455971915E-002
  -3.1146397487291415E-002   9.2407927736320866E-003   5.0213728643385719E-002
  -2.8030508104775590E-002   8.0554674720736234E-003   5.0092522733292996E-002
  -2.4914618722259779E-002   6.6672547381883551E-003   5.0727954725693913E-002
   3.0610985968237969E-011  -4.0260239586586977E-011   7.0736960488484713E-002
   1.9200439849154094E-011  -1.1427442325739889E-011   7.0347144036339904E-002
   7.7898902606232667E-012   7.1208455798554837E-012   7.1106245086964781E-002
  -3.6206610626310365E-012   1.5384245960481380E-011   7.3014263640359525E-002
  -1.5031205446991436E-011   1.3363032902447003E-011   7.6071199696523928E-002
  -5.9336083787159960E-003   1.6668136543518952E-003   6.6293330229295955E-002
  -4.8147824754536210E-003   1.3190314831199867E-003   6.5701356580450565E-002
  -3.6959565721912408E-003   1.0205131434862097E-003   6.6198117258181324E-002
  -2.5771306689288589E-003   7.7125863545040793E-004   6.7783612262488163E-002
  -1.4583047656664717E-003   5.7126795901246696E-004   7.0457841593371096E-002
  -1.2063914307303457E-002   3.3336273489640300E-003   6.1477285849101351E-002
  -9.8864456655617609E-003   2.6380629776674852E-003   6.0732418845437924E-002
  -7.7089770238200723E-003   2.0410262798516363E-003   6.1016102992157019E-002
  -5.5315083820783872E-003   1.5425172555164051E-003   6.2328338289258683E-002
  -3.3540397403366874E-003   1.1425359046618178E-003   6.4669124736742703E-002
  -1.8390917755151389E-002   5.0004410435761648E-003   5.6288827347900569E-002
  -1.5214989551123990E-002   3.9570944722149767E-003   5.5440330831301898E-002
  -1.2039061347096622E-002   3.0615394162170594E-003   5.5560202288892122E-002
  -8.8631331430692410E-003   2.3137758755824292E-003   5.6648441720671183E-002
  -5.6872049390418568E-003   1.7138038503112379E-003   5.8705049126639097E-002
  -2.4914618722259779E-002   6.6672547381883551E-003   5.0727954725693913E-002
  -2.0800414132140316E-002   5.2761259667625238E-003   4.9825092538042542E-002
  -1.6686209542020859E-002   4.0820525525824547E-003   4.9830415148386487E-002
  -1.2572004951901399E-002   3.0850344956486267E-003   5.0743922556725690E-002
  -8.4578003617819461E-003   2.2850717959605471E-003   5.2565614763060153E-002
  -1.5031205446991436E-011   1.3363032902447003E-011   7.6071199696523928E-002
  -9.4609736711603887E-012   7.0269345897600033E-012   7.0469262239138131E-002
  -3.8907418953293416E-012   2.3451379727035260E-012   6.4672204105248793E-002
   1.6794898805017056E-012  -6.8253389051697866E-013   5.8680025294855651E-002
   7.2497285952266566E-012  -2.0556889523959399E-012   5.2492725807959051E-002
  -1.4583047656664717E-003   5.7126795901246696E-004   7.0457841593371096E-002
  -1.5129970445474511E-003   7.8091842267957734E-004   6.4943911529135923E-002
  -1.5676893234284183E-003   1.7605873349585827E-003   5.9515717572502042E-002
  -1.6223816023093873E-003   3.5102746958493962E-003   5.4173259723469480E-002
  -1.6770738811903649E-003   6.0299805053520839E-003   4.8916537982037767E-002
  -3.3540397403366874E-003   1.1425359046618178E-003   6.4669124736742703E-002
  -3.1825675195640201E-003   1.5618368383322756E-003   6.0013220512615803E-002
  -3.0110952987913598E-003   3.5211746675721314E-003   5.5723909180194771E-002
  -2.8396230780186847E-003   7.0205493923814078E-003   5.1801190739479905E-002
  -2.6681508572460322E-003   1.2059961012759968E-002   4.8245065190471115E-002
  -5.6872049390418568E-003   1.7138038503112379E-003   5.8705049126639097E-002
  -5.0087114345107077E-003   2.3427552539850849E-003   5.5677189189577855E-002
  -4.3302179299795299E-003   5.2817620001857392E-003   5.3296778928327390E-002
  -3.6517244254483817E-003   1.0530824088913378E-002   5.1563818342887813E-002
  -2.9732309209172178E-003   1.8089941520167796E-002   5.0478307433259165E-002
  -8.4578003617819461E-003   2.2850717959605471E-003   5.2565614763060153E-002
  -6.9914287893874591E-003   3.1236736696376721E-003   5.1935817560021857E-002
  -5.5250572169929617E-003   7.0423493327992220E-003   5.2234326816899324E-002
  -4.0586856445984660E-003   1.4041098785445374E-002   5.3461142533692593E-002
  -2.5923140722039772E-003   2.4119922027575624E-002   5.5616264710401708E-002
  -5.0184604837745804E-002   1.5627557013077553E-002   5.0725779042547076E-002
  -4.6982997691390097E-002   1.4112797582810491E-002   5.0441930203276836E-002
  -4.3781390545034424E-002   1.2837081783836711E-002   5.0680693111604211E-002
  -4.0579783398678744E-002   1.1800409616155865E-002   5.1442067767529139E-002
  -3.7378176252323050E-002   1.1002781079768209E-002   5.2726054171051639E-002
  -6.2066950786991426E-002   1.8838937345468709E-002   3.8669178002493435E-002
  -5.8294259908513862E-002   1.7572078101084299E-002   3.8284143777442770E-002
  -5.4521569030036229E-002   1.6340050973367590E-002   3.8518665269038320E-002
  -5.0748878151558638E-002   1.5142855962318565E-002   3.9372742477280120E-002
  -4.6976187273081033E-002   1.3980493067937236E-002   4.0846375402168220E-002
  -7.4235891980522301E-002   2.2050317677859851E-002   2.6962582905635170E-002
  -6.9795173400874169E-002   2.1031358619358044E-002   2.6272151780178554E-002
  -6.5354454821225941E-002   1.9843020162898527E-002   2.6298220340416883E-002
  -6.0913736241577747E-002   1.8485302308481253E-002   2.7040788586350208E-002
  -5.6473017661929567E-002   1.6958205056106262E-002   2.8499856517978414E-002
  -8.6691428418338448E-002   2.5261698010251042E-002   1.5605993751972141E-002
  -8.1485738168470892E-002   2.4490639137631835E-002   1.4405954211484263E-002
  -7.6280047918603502E-002   2.3345989352429382E-002   1.4019358325740021E-002
  -7.1074357668736043E-002   2.1827748654644014E-002   1.4446206094739357E-002
  -6.5868667418868571E-002   1.9935917044275428E-002   1.5686497518482320E-002
  -9.9433560100439689E-002   2.8473078342642177E-002   4.5994105415044229E-003
  -9.3365954211304336E-002   2.7949919655905542E-002   2.6855510713598152E-003
  -8.7298348322168928E-002   2.6848958541960413E-002   1.6820792250075295E-003
  -8.1230742433033493E-002   2.5170195000806670E-002   1.5889950024475553E-003
  -7.5163136543898112E-002   2.2913629032444371E-002   2.4062984036797852E-003
  -3.7378176252323050E-002   1.1002781079768209E-002   5.2726054171051639E-002
  -3.4262286869807229E-002   1.0223230642863582E-002   5.1091572455971915E-002
  -3.1146397487291415E-002   9.2407927736320866E-003   5.0213728643385719E-002
  -2.8030508104775590E-002   8.0554674720736234E-003   5.0092522733292996E-002
  -2.4914618722259779E-002   6.6672547381883551E-003   5.0727954725693913E-002
  -4.6976187273081033E-002   1.3980493067937236E-002   4.0846375402168220E-002
  -4.3093921418903260E-002   1.2802844497000865E-002   3.9188667437113994E-002
  -3.9211655564725521E-002   1.1559792456286470E-002   3.8307074512890067E-002
  -3.5329389710547762E-002   1.0251336945794318E-002   3.8201596629496473E-002
  -3.1447123856370010E-002   8.8774779655242109E-003   3.8872233786933275E-002
  -5.6473017661929567E-002   1.6958205056106262E-002   2.8499856517978414E-002
  -5.1804898197752997E-002   1.5382458351138086E-002   2.6956406265498663E-002
  -4.7136778733576475E-002   1.3878792138940992E-002   2.6208548192186092E-002
  -4.2468659269399918E-002   1.2447206419515014E-002   2.6256282298040803E-002
  -3.7800539805223417E-002   1.1087701192860205E-002   2.7099608583062623E-002
  -6.5868667418868571E-002   1.9935917044275428E-002   1.5686497518482320E-002
  -6.0395217206356433E-002   1.7962072205275268E-002   1.4394788941126148E-002
  -5.4921766993844282E-002   1.6197791821595389E-002   1.3918149681273953E-002
  -4.9448316781332137E-002   1.4643075893235682E-002   1.4256579738925697E-002
  -4.3974866568819999E-002   1.3297924420196075E-002   1.5410079114081654E-002
  -7.5163136543898112E-002   2.2913629032444371E-002   2.4062984036797852E-003
  -6.8864878444713562E-002   2.0541686059412506E-002   1.5038154639962220E-003
  -6.2566620345528956E-002   1.8516791504249799E-002   1.4358789801534322E-003
  -5.6268362246344364E-002   1.6838945366956241E-002   2.2024889521517280E-003
  -4.9970104147159800E-002   1.5508147647532167E-002   3.8036453799905612E-003
  -2.4914618722259779E-002   6.6672547381883551E-003   5.0727954725693913E-002
  -2.0800414132140316E-002   5.2761259667625238E-003   4.9825092538042542E-002
  -1.6686209542020859E-002   4.0820525525824547E-003   4.9830415148386487E-002
  -1.2572004951901399E-002   3.0850344956486267E-003   5.0743922556725690E-002
  -8.4578003617819461E-003   2.2850717959605471E-003   5.2565614763060153E-002
  -3.1447123856370010E-002   8.8774779655242109E-003   3.8872233786933275E-002
  -2.6629350445914118E-002   7.4892974285110936E-003   3.8060752663648861E-002
  -2.1811577035458246E-002   6.1378772477900453E-003   3.7748224383042067E-002
  -1.6993803625002361E-002   4.8232174233607730E-003   3.7934648945112795E-002
  -1.2176030214546479E-002   3.5453179552234482E-003   3.8620026349861059E-002
  -3.7800539805223417E-002   1.1087701192860205E-002   2.7099608583062623E-002
  -3.2688429529748798E-002   9.7024688902597744E-003   2.6219213523191141E-002
  -2.7576319254274197E-002   8.1937019429975250E-003   2.5428539350679374E-002
  -2.2464208978799582E-002   6.5614003510730302E-003   2.4727586065527649E-002
  -1.7352098703324978E-002   4.8055641144864880E-003   2.4116353667735693E-002
  -4.3974866568819999E-002   1.3297924420196075E-002   1.5410079114081654E-002
  -3.8977651383644361E-002   1.1915640352008622E-002   1.4300475116668975E-002
  -3.3980436198468709E-002   1.0249526638204949E-002   1.2871360051298481E-002
  -2.8983221013293061E-002   8.2995832787852320E-003   1.1122733917970206E-002
  -2.3986005828117423E-002   6.0658102737494030E-003   9.0545967166841303E-003
  -4.9970104147159800E-002   1.5508147647532167E-002   3.8036453799905612E-003
  -4.5497016007600810E-002   1.4128811813757303E-002   2.3045374440826549E-003
  -4.1023927868041793E-002   1.2305351333412595E-002   7.6686484899390894E-005
  -3.6550839728482803E-002   1.0037766206497489E-002  -2.8799074975594946E-003
  -3.2077751588923786E-002   7.3260564330123179E-003  -6.5652445032937656E-003
  -8.4578003617819461E-003   2.2850717959605471E-003   5.2565614763060153E-002
  -6.9914287893874591E-003   3.1236736696376721E-003   5.1935817560021857E-002
  -5.5250572169929617E-003   7.0423493327992220E-003   5.2234326816899324E-002
  -4.0586856445984660E-003   1.4041098785445374E-002   5.3461142533692593E-002
  -2.5923140722039772E-003   2.4119922027575624E-002   5.5616264710401708E-002
  -1.2176030214546479E-002   3.5453179552234482E-003   3.8620026349861059E-002
  -9.7364851735318621E-003   3.7044462672610745E-003   3.9535942016284381E-002
  -7.2969401325172611E-003   6.7008697833566694E-003   4.1469898160032131E-002
  -4.8573950915026384E-003   1.2534588503510111E-002   4.4421894781104213E-002
  -2.4178500504880504E-003   2.1205602427721404E-002   4.8391931879501304E-002
  -1.7352098703324978E-002   4.8055641144864880E-003   2.4116353667735693E-002
  -1.3849646176281550E-002   4.2852188648844491E-003   2.6335203618193997E-002
  -1.0347193649238078E-002   6.3593902339141237E-003   2.9661828063385666E-002
  -6.8447411221946239E-003   1.1028078221574823E-002   3.4096227003310359E-002
  -3.3422885951511563E-003   1.8291282827867072E-002   3.9638400437968235E-002
  -2.3986005828117423E-002   6.0658102737494030E-003   9.0545967166841303E-003
  -1.9330911797636390E-002   4.8659914625076711E-003   1.2333602365751012E-002
  -1.4675817767155371E-002   6.0179106844709639E-003   1.6810116526959712E-002
  -1.0020723736674364E-002   9.5215679396395483E-003   2.2484139200310484E-002
  -5.3656297061932898E-003   1.5376963228012797E-002   2.9355670385803043E-002
  -3.2077751588923786E-002   7.3260564330123179E-003  -6.5652445032937656E-003
  -2.6180282037596481E-002   5.4467640601312817E-003  -2.4688617410449643E-003
  -2.0282812486269175E-002   5.6764311350287200E-003   2.9147635507548175E-003
  -1.4385342934941939E-002   8.0150576577044733E-003   9.5856313721049691E-003
  -8.4878733836145637E-003   1.2462643628158521E-002   1.7543741723005990E-002
 </DataArray>
 </PointData>
 </Piece>
 </UnstructuredGrid>
 </VTKFile>
