 <VTKFile type="UnstructuredGrid"  version="0.1"   >
 <UnstructuredGrid>
 <Piece  NumberOfPoints="           400 "  NumberOfCells="          256 ">
 <Points>
 <DataArray  type="Float64" NumberOfComponents="3"  format="ascii" >
   0.0000000000000000        0.0000000000000000        0.0000000000000000     
   6.2500000000000000E-002   0.0000000000000000        0.0000000000000000     
  0.12500000000000000        0.0000000000000000        0.0000000000000000     
  0.18750000000000000        0.0000000000000000        0.0000000000000000     
  0.25000000000000000        0.0000000000000000        0.0000000000000000     
   0.0000000000000000        6.2500000000000000E-002   0.0000000000000000     
   6.2500000000000000E-002   6.2500000000000000E-002   0.0000000000000000     
  0.12500000000000000        6.2500000000000000E-002   0.0000000000000000     
  0.18750000000000000        6.2500000000000000E-002   0.0000000000000000     
  0.25000000000000000        6.2500000000000000E-002   0.0000000000000000     
   0.0000000000000000       0.12500000000000000        0.0000000000000000     
   6.2500000000000000E-002  0.12500000000000000        0.0000000000000000     
  0.12500000000000000       0.12500000000000000        0.0000000000000000     
  0.18750000000000000       0.12500000000000000        0.0000000000000000     
  0.25000000000000000       0.12500000000000000        0.0000000000000000     
   0.0000000000000000       0.18750000000000000        0.0000000000000000     
   6.2500000000000000E-002  0.18750000000000000        0.0000000000000000     
  0.12500000000000000       0.18750000000000000        0.0000000000000000     
  0.18750000000000000       0.18750000000000000        0.0000000000000000     
  0.25000000000000000       0.18750000000000000        0.0000000000000000     
   0.0000000000000000       0.25000000000000000        0.0000000000000000     
   6.2500000000000000E-002  0.25000000000000000        0.0000000000000000     
  0.12500000000000000       0.25000000000000000        0.0000000000000000     
  0.18750000000000000       0.25000000000000000        0.0000000000000000     
  0.25000000000000000       0.25000000000000000        0.0000000000000000     
  0.25000000000000000        0.0000000000000000        0.0000000000000000     
  0.31250000000000000        0.0000000000000000        0.0000000000000000     
  0.37500000000000000        0.0000000000000000        0.0000000000000000     
  0.43750000000000000        0.0000000000000000        0.0000000000000000     
  0.50000000000000000        0.0000000000000000        0.0000000000000000     
  0.25000000000000000        6.2500000000000000E-002   0.0000000000000000     
  0.31250000000000000        6.2500000000000000E-002   0.0000000000000000     
  0.37500000000000000        6.2500000000000000E-002   0.0000000000000000     
  0.43750000000000000        6.2500000000000000E-002   0.0000000000000000     
  0.50000000000000000        6.2500000000000000E-002   0.0000000000000000     
  0.25000000000000000       0.12500000000000000        0.0000000000000000     
  0.31250000000000000       0.12500000000000000        0.0000000000000000     
  0.37500000000000000       0.12500000000000000        0.0000000000000000     
  0.43750000000000000       0.12500000000000000        0.0000000000000000     
  0.50000000000000000       0.12500000000000000        0.0000000000000000     
  0.25000000000000000       0.18750000000000000        0.0000000000000000     
  0.31250000000000000       0.18750000000000000        0.0000000000000000     
  0.37500000000000000       0.18750000000000000        0.0000000000000000     
  0.43750000000000000       0.18750000000000000        0.0000000000000000     
  0.50000000000000000       0.18750000000000000        0.0000000000000000     
  0.25000000000000000       0.25000000000000000        0.0000000000000000     
  0.31250000000000000       0.25000000000000000        0.0000000000000000     
  0.37500000000000000       0.25000000000000000        0.0000000000000000     
  0.43750000000000000       0.25000000000000000        0.0000000000000000     
  0.50000000000000000       0.25000000000000000        0.0000000000000000     
  0.50000000000000000        0.0000000000000000        0.0000000000000000     
  0.56250000000000000        0.0000000000000000        0.0000000000000000     
  0.62500000000000000        0.0000000000000000        0.0000000000000000     
  0.68750000000000000        0.0000000000000000        0.0000000000000000     
  0.75000000000000000        0.0000000000000000        0.0000000000000000     
  0.50000000000000000        6.2500000000000000E-002   0.0000000000000000     
  0.56250000000000000        6.2500000000000000E-002   0.0000000000000000     
  0.62500000000000000        6.2500000000000000E-002   0.0000000000000000     
  0.68750000000000000        6.2500000000000000E-002   0.0000000000000000     
  0.75000000000000000        6.2500000000000000E-002   0.0000000000000000     
  0.50000000000000000       0.12500000000000000        0.0000000000000000     
  0.56250000000000000       0.12500000000000000        0.0000000000000000     
  0.62500000000000000       0.12500000000000000        0.0000000000000000     
  0.68750000000000000       0.12500000000000000        0.0000000000000000     
  0.75000000000000000       0.12500000000000000        0.0000000000000000     
  0.50000000000000000       0.18750000000000000        0.0000000000000000     
  0.56250000000000000       0.18750000000000000        0.0000000000000000     
  0.62500000000000000       0.18750000000000000        0.0000000000000000     
  0.68750000000000000       0.18750000000000000        0.0000000000000000     
  0.75000000000000000       0.18750000000000000        0.0000000000000000     
  0.50000000000000000       0.25000000000000000        0.0000000000000000     
  0.56250000000000000       0.25000000000000000        0.0000000000000000     
  0.62500000000000000       0.25000000000000000        0.0000000000000000     
  0.68750000000000000       0.25000000000000000        0.0000000000000000     
  0.75000000000000000       0.25000000000000000        0.0000000000000000     
  0.75000000000000000        0.0000000000000000        0.0000000000000000     
  0.81250000000000000        0.0000000000000000        0.0000000000000000     
  0.87500000000000000        0.0000000000000000        0.0000000000000000     
  0.93750000000000000        0.0000000000000000        0.0000000000000000     
   1.0000000000000000        0.0000000000000000        0.0000000000000000     
  0.75000000000000000        6.2500000000000000E-002   0.0000000000000000     
  0.81250000000000000        6.2500000000000000E-002   0.0000000000000000     
  0.87500000000000000        6.2500000000000000E-002   0.0000000000000000     
  0.93750000000000000        6.2500000000000000E-002   0.0000000000000000     
   1.0000000000000000        6.2500000000000000E-002   0.0000000000000000     
  0.75000000000000000       0.12500000000000000        0.0000000000000000     
  0.81250000000000000       0.12500000000000000        0.0000000000000000     
  0.87500000000000000       0.12500000000000000        0.0000000000000000     
  0.93750000000000000       0.12500000000000000        0.0000000000000000     
   1.0000000000000000       0.12500000000000000        0.0000000000000000     
  0.75000000000000000       0.18750000000000000        0.0000000000000000     
  0.81250000000000000       0.18750000000000000        0.0000000000000000     
  0.87500000000000000       0.18750000000000000        0.0000000000000000     
  0.93750000000000000       0.18750000000000000        0.0000000000000000     
   1.0000000000000000       0.18750000000000000        0.0000000000000000     
  0.75000000000000000       0.25000000000000000        0.0000000000000000     
  0.81250000000000000       0.25000000000000000        0.0000000000000000     
  0.87500000000000000       0.25000000000000000        0.0000000000000000     
  0.93750000000000000       0.25000000000000000        0.0000000000000000     
   1.0000000000000000       0.25000000000000000        0.0000000000000000     
   0.0000000000000000       0.25000000000000000        0.0000000000000000     
   6.2500000000000000E-002  0.25000000000000000        0.0000000000000000     
  0.12500000000000000       0.25000000000000000        0.0000000000000000     
  0.18750000000000000       0.25000000000000000        0.0000000000000000     
  0.25000000000000000       0.25000000000000000        0.0000000000000000     
   0.0000000000000000       0.31250000000000000        0.0000000000000000     
   6.2500000000000000E-002  0.31250000000000000        0.0000000000000000     
  0.12500000000000000       0.31250000000000000        0.0000000000000000     
  0.18750000000000000       0.31250000000000000        0.0000000000000000     
  0.25000000000000000       0.31250000000000000        0.0000000000000000     
   0.0000000000000000       0.37500000000000000        0.0000000000000000     
   6.2500000000000000E-002  0.37500000000000000        0.0000000000000000     
  0.12500000000000000       0.37500000000000000        0.0000000000000000     
  0.18750000000000000       0.37500000000000000        0.0000000000000000     
  0.25000000000000000       0.37500000000000000        0.0000000000000000     
   0.0000000000000000       0.43750000000000000        0.0000000000000000     
   6.2500000000000000E-002  0.43750000000000000        0.0000000000000000     
  0.12500000000000000       0.43750000000000000        0.0000000000000000     
  0.18750000000000000       0.43750000000000000        0.0000000000000000     
  0.25000000000000000       0.43750000000000000        0.0000000000000000     
   0.0000000000000000       0.50000000000000000        0.0000000000000000     
   6.2500000000000000E-002  0.50000000000000000        0.0000000000000000     
  0.12500000000000000       0.50000000000000000        0.0000000000000000     
  0.18750000000000000       0.50000000000000000        0.0000000000000000     
  0.25000000000000000       0.50000000000000000        0.0000000000000000     
  0.25000000000000000       0.25000000000000000        0.0000000000000000     
  0.31250000000000000       0.25000000000000000        0.0000000000000000     
  0.37500000000000000       0.25000000000000000        0.0000000000000000     
  0.43750000000000000       0.25000000000000000        0.0000000000000000     
  0.50000000000000000       0.25000000000000000        0.0000000000000000     
  0.25000000000000000       0.31250000000000000        0.0000000000000000     
  0.31250000000000000       0.31250000000000000        0.0000000000000000     
  0.37500000000000000       0.31250000000000000        0.0000000000000000     
  0.43750000000000000       0.31250000000000000        0.0000000000000000     
  0.50000000000000000       0.31250000000000000        0.0000000000000000     
  0.25000000000000000       0.37500000000000000        0.0000000000000000     
  0.31250000000000000       0.37500000000000000        0.0000000000000000     
  0.37500000000000000       0.37500000000000000        0.0000000000000000     
  0.43750000000000000       0.37500000000000000        0.0000000000000000     
  0.50000000000000000       0.37500000000000000        0.0000000000000000     
  0.25000000000000000       0.43750000000000000        0.0000000000000000     
  0.31250000000000000       0.43750000000000000        0.0000000000000000     
  0.37500000000000000       0.43750000000000000        0.0000000000000000     
  0.43750000000000000       0.43750000000000000        0.0000000000000000     
  0.50000000000000000       0.43750000000000000        0.0000000000000000     
  0.25000000000000000       0.50000000000000000        0.0000000000000000     
  0.31250000000000000       0.50000000000000000        0.0000000000000000     
  0.37500000000000000       0.50000000000000000        0.0000000000000000     
  0.43750000000000000       0.50000000000000000        0.0000000000000000     
  0.50000000000000000       0.50000000000000000        0.0000000000000000     
  0.50000000000000000       0.25000000000000000        0.0000000000000000     
  0.56250000000000000       0.25000000000000000        0.0000000000000000     
  0.62500000000000000       0.25000000000000000        0.0000000000000000     
  0.68750000000000000       0.25000000000000000        0.0000000000000000     
  0.75000000000000000       0.25000000000000000        0.0000000000000000     
  0.50000000000000000       0.31250000000000000        0.0000000000000000     
  0.56250000000000000       0.31250000000000000        0.0000000000000000     
  0.62500000000000000       0.31250000000000000        0.0000000000000000     
  0.68750000000000000       0.31250000000000000        0.0000000000000000     
  0.75000000000000000       0.31250000000000000        0.0000000000000000     
  0.50000000000000000       0.37500000000000000        0.0000000000000000     
  0.56250000000000000       0.37500000000000000        0.0000000000000000     
  0.62500000000000000       0.37500000000000000        0.0000000000000000     
  0.68750000000000000       0.37500000000000000        0.0000000000000000     
  0.75000000000000000       0.37500000000000000        0.0000000000000000     
  0.50000000000000000       0.43750000000000000        0.0000000000000000     
  0.56250000000000000       0.43750000000000000        0.0000000000000000     
  0.62500000000000000       0.43750000000000000        0.0000000000000000     
  0.68750000000000000       0.43750000000000000        0.0000000000000000     
  0.75000000000000000       0.43750000000000000        0.0000000000000000     
  0.50000000000000000       0.50000000000000000        0.0000000000000000     
  0.56250000000000000       0.50000000000000000        0.0000000000000000     
  0.62500000000000000       0.50000000000000000        0.0000000000000000     
  0.68750000000000000       0.50000000000000000        0.0000000000000000     
  0.75000000000000000       0.50000000000000000        0.0000000000000000     
  0.75000000000000000       0.25000000000000000        0.0000000000000000     
  0.81250000000000000       0.25000000000000000        0.0000000000000000     
  0.87500000000000000       0.25000000000000000        0.0000000000000000     
  0.93750000000000000       0.25000000000000000        0.0000000000000000     
   1.0000000000000000       0.25000000000000000        0.0000000000000000     
  0.75000000000000000       0.31250000000000000        0.0000000000000000     
  0.81250000000000000       0.31250000000000000        0.0000000000000000     
  0.87500000000000000       0.31250000000000000        0.0000000000000000     
  0.93750000000000000       0.31250000000000000        0.0000000000000000     
   1.0000000000000000       0.31250000000000000        0.0000000000000000     
  0.75000000000000000       0.37500000000000000        0.0000000000000000     
  0.81250000000000000       0.37500000000000000        0.0000000000000000     
  0.87500000000000000       0.37500000000000000        0.0000000000000000     
  0.93750000000000000       0.37500000000000000        0.0000000000000000     
   1.0000000000000000       0.37500000000000000        0.0000000000000000     
  0.75000000000000000       0.43750000000000000        0.0000000000000000     
  0.81250000000000000       0.43750000000000000        0.0000000000000000     
  0.87500000000000000       0.43750000000000000        0.0000000000000000     
  0.93750000000000000       0.43750000000000000        0.0000000000000000     
   1.0000000000000000       0.43750000000000000        0.0000000000000000     
  0.75000000000000000       0.50000000000000000        0.0000000000000000     
  0.81250000000000000       0.50000000000000000        0.0000000000000000     
  0.87500000000000000       0.50000000000000000        0.0000000000000000     
  0.93750000000000000       0.50000000000000000        0.0000000000000000     
   1.0000000000000000       0.50000000000000000        0.0000000000000000     
   0.0000000000000000       0.50000000000000000        0.0000000000000000     
   6.2500000000000000E-002  0.50000000000000000        0.0000000000000000     
  0.12500000000000000       0.50000000000000000        0.0000000000000000     
  0.18750000000000000       0.50000000000000000        0.0000000000000000     
  0.25000000000000000       0.50000000000000000        0.0000000000000000     
   0.0000000000000000       0.56250000000000000        0.0000000000000000     
   6.2500000000000000E-002  0.56250000000000000        0.0000000000000000     
  0.12500000000000000       0.56250000000000000        0.0000000000000000     
  0.18750000000000000       0.56250000000000000        0.0000000000000000     
  0.25000000000000000       0.56250000000000000        0.0000000000000000     
   0.0000000000000000       0.62500000000000000        0.0000000000000000     
   6.2500000000000000E-002  0.62500000000000000        0.0000000000000000     
  0.12500000000000000       0.62500000000000000        0.0000000000000000     
  0.18750000000000000       0.62500000000000000        0.0000000000000000     
  0.25000000000000000       0.62500000000000000        0.0000000000000000     
   0.0000000000000000       0.68750000000000000        0.0000000000000000     
   6.2500000000000000E-002  0.68750000000000000        0.0000000000000000     
  0.12500000000000000       0.68750000000000000        0.0000000000000000     
  0.18750000000000000       0.68750000000000000        0.0000000000000000     
  0.25000000000000000       0.68750000000000000        0.0000000000000000     
   0.0000000000000000       0.75000000000000000        0.0000000000000000     
   6.2500000000000000E-002  0.75000000000000000        0.0000000000000000     
  0.12500000000000000       0.75000000000000000        0.0000000000000000     
  0.18750000000000000       0.75000000000000000        0.0000000000000000     
  0.25000000000000000       0.75000000000000000        0.0000000000000000     
  0.25000000000000000       0.50000000000000000        0.0000000000000000     
  0.31250000000000000       0.50000000000000000        0.0000000000000000     
  0.37500000000000000       0.50000000000000000        0.0000000000000000     
  0.43750000000000000       0.50000000000000000        0.0000000000000000     
  0.50000000000000000       0.50000000000000000        0.0000000000000000     
  0.25000000000000000       0.56250000000000000        0.0000000000000000     
  0.31250000000000000       0.56250000000000000        0.0000000000000000     
  0.37500000000000000       0.56250000000000000        0.0000000000000000     
  0.43750000000000000       0.56250000000000000        0.0000000000000000     
  0.50000000000000000       0.56250000000000000        0.0000000000000000     
  0.25000000000000000       0.62500000000000000        0.0000000000000000     
  0.31250000000000000       0.62500000000000000        0.0000000000000000     
  0.37500000000000000       0.62500000000000000        0.0000000000000000     
  0.43750000000000000       0.62500000000000000        0.0000000000000000     
  0.50000000000000000       0.62500000000000000        0.0000000000000000     
  0.25000000000000000       0.68750000000000000        0.0000000000000000     
  0.31250000000000000       0.68750000000000000        0.0000000000000000     
  0.37500000000000000       0.68750000000000000        0.0000000000000000     
  0.43750000000000000       0.68750000000000000        0.0000000000000000     
  0.50000000000000000       0.68750000000000000        0.0000000000000000     
  0.25000000000000000       0.75000000000000000        0.0000000000000000     
  0.31250000000000000       0.75000000000000000        0.0000000000000000     
  0.37500000000000000       0.75000000000000000        0.0000000000000000     
  0.43750000000000000       0.75000000000000000        0.0000000000000000     
  0.50000000000000000       0.75000000000000000        0.0000000000000000     
  0.50000000000000000       0.50000000000000000        0.0000000000000000     
  0.56250000000000000       0.50000000000000000        0.0000000000000000     
  0.62500000000000000       0.50000000000000000        0.0000000000000000     
  0.68750000000000000       0.50000000000000000        0.0000000000000000     
  0.75000000000000000       0.50000000000000000        0.0000000000000000     
  0.50000000000000000       0.56250000000000000        0.0000000000000000     
  0.56250000000000000       0.56250000000000000        0.0000000000000000     
  0.62500000000000000       0.56250000000000000        0.0000000000000000     
  0.68750000000000000       0.56250000000000000        0.0000000000000000     
  0.75000000000000000       0.56250000000000000        0.0000000000000000     
  0.50000000000000000       0.62500000000000000        0.0000000000000000     
  0.56250000000000000       0.62500000000000000        0.0000000000000000     
  0.62500000000000000       0.62500000000000000        0.0000000000000000     
  0.68750000000000000       0.62500000000000000        0.0000000000000000     
  0.75000000000000000       0.62500000000000000        0.0000000000000000     
  0.50000000000000000       0.68750000000000000        0.0000000000000000     
  0.56250000000000000       0.68750000000000000        0.0000000000000000     
  0.62500000000000000       0.68750000000000000        0.0000000000000000     
  0.68750000000000000       0.68750000000000000        0.0000000000000000     
  0.75000000000000000       0.68750000000000000        0.0000000000000000     
  0.50000000000000000       0.75000000000000000        0.0000000000000000     
  0.56250000000000000       0.75000000000000000        0.0000000000000000     
  0.62500000000000000       0.75000000000000000        0.0000000000000000     
  0.68750000000000000       0.75000000000000000        0.0000000000000000     
  0.75000000000000000       0.75000000000000000        0.0000000000000000     
  0.75000000000000000       0.50000000000000000        0.0000000000000000     
  0.81250000000000000       0.50000000000000000        0.0000000000000000     
  0.87500000000000000       0.50000000000000000        0.0000000000000000     
  0.93750000000000000       0.50000000000000000        0.0000000000000000     
   1.0000000000000000       0.50000000000000000        0.0000000000000000     
  0.75000000000000000       0.56250000000000000        0.0000000000000000     
  0.81250000000000000       0.56250000000000000        0.0000000000000000     
  0.87500000000000000       0.56250000000000000        0.0000000000000000     
  0.93750000000000000       0.56250000000000000        0.0000000000000000     
   1.0000000000000000       0.56250000000000000        0.0000000000000000     
  0.75000000000000000       0.62500000000000000        0.0000000000000000     
  0.81250000000000000       0.62500000000000000        0.0000000000000000     
  0.87500000000000000       0.62500000000000000        0.0000000000000000     
  0.93750000000000000       0.62500000000000000        0.0000000000000000     
   1.0000000000000000       0.62500000000000000        0.0000000000000000     
  0.75000000000000000       0.68750000000000000        0.0000000000000000     
  0.81250000000000000       0.68750000000000000        0.0000000000000000     
  0.87500000000000000       0.68750000000000000        0.0000000000000000     
  0.93750000000000000       0.68750000000000000        0.0000000000000000     
   1.0000000000000000       0.68750000000000000        0.0000000000000000     
  0.75000000000000000       0.75000000000000000        0.0000000000000000     
  0.81250000000000000       0.75000000000000000        0.0000000000000000     
  0.87500000000000000       0.75000000000000000        0.0000000000000000     
  0.93750000000000000       0.75000000000000000        0.0000000000000000     
   1.0000000000000000       0.75000000000000000        0.0000000000000000     
   0.0000000000000000       0.75000000000000000        0.0000000000000000     
   6.2500000000000000E-002  0.75000000000000000        0.0000000000000000     
  0.12500000000000000       0.75000000000000000        0.0000000000000000     
  0.18750000000000000       0.75000000000000000        0.0000000000000000     
  0.25000000000000000       0.75000000000000000        0.0000000000000000     
   0.0000000000000000       0.81250000000000000        0.0000000000000000     
   6.2500000000000000E-002  0.81250000000000000        0.0000000000000000     
  0.12500000000000000       0.81250000000000000        0.0000000000000000     
  0.18750000000000000       0.81250000000000000        0.0000000000000000     
  0.25000000000000000       0.81250000000000000        0.0000000000000000     
   0.0000000000000000       0.87500000000000000        0.0000000000000000     
   6.2500000000000000E-002  0.87500000000000000        0.0000000000000000     
  0.12500000000000000       0.87500000000000000        0.0000000000000000     
  0.18750000000000000       0.87500000000000000        0.0000000000000000     
  0.25000000000000000       0.87500000000000000        0.0000000000000000     
   0.0000000000000000       0.93750000000000000        0.0000000000000000     
   6.2500000000000000E-002  0.93750000000000000        0.0000000000000000     
  0.12500000000000000       0.93750000000000000        0.0000000000000000     
  0.18750000000000000       0.93750000000000000        0.0000000000000000     
  0.25000000000000000       0.93750000000000000        0.0000000000000000     
   0.0000000000000000        1.0000000000000000        0.0000000000000000     
   6.2500000000000000E-002   1.0000000000000000        0.0000000000000000     
  0.12500000000000000        1.0000000000000000        0.0000000000000000     
  0.18750000000000000        1.0000000000000000        0.0000000000000000     
  0.25000000000000000        1.0000000000000000        0.0000000000000000     
  0.25000000000000000       0.75000000000000000        0.0000000000000000     
  0.31250000000000000       0.75000000000000000        0.0000000000000000     
  0.37500000000000000       0.75000000000000000        0.0000000000000000     
  0.43750000000000000       0.75000000000000000        0.0000000000000000     
  0.50000000000000000       0.75000000000000000        0.0000000000000000     
  0.25000000000000000       0.81250000000000000        0.0000000000000000     
  0.31250000000000000       0.81250000000000000        0.0000000000000000     
  0.37500000000000000       0.81250000000000000        0.0000000000000000     
  0.43750000000000000       0.81250000000000000        0.0000000000000000     
  0.50000000000000000       0.81250000000000000        0.0000000000000000     
  0.25000000000000000       0.87500000000000000        0.0000000000000000     
  0.31250000000000000       0.87500000000000000        0.0000000000000000     
  0.37500000000000000       0.87500000000000000        0.0000000000000000     
  0.43750000000000000       0.87500000000000000        0.0000000000000000     
  0.50000000000000000       0.87500000000000000        0.0000000000000000     
  0.25000000000000000       0.93750000000000000        0.0000000000000000     
  0.31250000000000000       0.93750000000000000        0.0000000000000000     
  0.37500000000000000       0.93750000000000000        0.0000000000000000     
  0.43750000000000000       0.93750000000000000        0.0000000000000000     
  0.50000000000000000       0.93750000000000000        0.0000000000000000     
  0.25000000000000000        1.0000000000000000        0.0000000000000000     
  0.31250000000000000        1.0000000000000000        0.0000000000000000     
  0.37500000000000000        1.0000000000000000        0.0000000000000000     
  0.43750000000000000        1.0000000000000000        0.0000000000000000     
  0.50000000000000000        1.0000000000000000        0.0000000000000000     
  0.50000000000000000       0.75000000000000000        0.0000000000000000     
  0.56250000000000000       0.75000000000000000        0.0000000000000000     
  0.62500000000000000       0.75000000000000000        0.0000000000000000     
  0.68750000000000000       0.75000000000000000        0.0000000000000000     
  0.75000000000000000       0.75000000000000000        0.0000000000000000     
  0.50000000000000000       0.81250000000000000        0.0000000000000000     
  0.56250000000000000       0.81250000000000000        0.0000000000000000     
  0.62500000000000000       0.81250000000000000        0.0000000000000000     
  0.68750000000000000       0.81250000000000000        0.0000000000000000     
  0.75000000000000000       0.81250000000000000        0.0000000000000000     
  0.50000000000000000       0.87500000000000000        0.0000000000000000     
  0.56250000000000000       0.87500000000000000        0.0000000000000000     
  0.62500000000000000       0.87500000000000000        0.0000000000000000     
  0.68750000000000000       0.87500000000000000        0.0000000000000000     
  0.75000000000000000       0.87500000000000000        0.0000000000000000     
  0.50000000000000000       0.93750000000000000        0.0000000000000000     
  0.56250000000000000       0.93750000000000000        0.0000000000000000     
  0.62500000000000000       0.93750000000000000        0.0000000000000000     
  0.68750000000000000       0.93750000000000000        0.0000000000000000     
  0.75000000000000000       0.93750000000000000        0.0000000000000000     
  0.50000000000000000        1.0000000000000000        0.0000000000000000     
  0.56250000000000000        1.0000000000000000        0.0000000000000000     
  0.62500000000000000        1.0000000000000000        0.0000000000000000     
  0.68750000000000000        1.0000000000000000        0.0000000000000000     
  0.75000000000000000        1.0000000000000000        0.0000000000000000     
  0.75000000000000000       0.75000000000000000        0.0000000000000000     
  0.81250000000000000       0.75000000000000000        0.0000000000000000     
  0.87500000000000000       0.75000000000000000        0.0000000000000000     
  0.93750000000000000       0.75000000000000000        0.0000000000000000     
   1.0000000000000000       0.75000000000000000        0.0000000000000000     
  0.75000000000000000       0.81250000000000000        0.0000000000000000     
  0.81250000000000000       0.81250000000000000        0.0000000000000000     
  0.87500000000000000       0.81250000000000000        0.0000000000000000     
  0.93750000000000000       0.81250000000000000        0.0000000000000000     
   1.0000000000000000       0.81250000000000000        0.0000000000000000     
  0.75000000000000000       0.87500000000000000        0.0000000000000000     
  0.81250000000000000       0.87500000000000000        0.0000000000000000     
  0.87500000000000000       0.87500000000000000        0.0000000000000000     
  0.93750000000000000       0.87500000000000000        0.0000000000000000     
   1.0000000000000000       0.87500000000000000        0.0000000000000000     
  0.75000000000000000       0.93750000000000000        0.0000000000000000     
  0.81250000000000000       0.93750000000000000        0.0000000000000000     
  0.87500000000000000       0.93750000000000000        0.0000000000000000     
  0.93750000000000000       0.93750000000000000        0.0000000000000000     
   1.0000000000000000       0.93750000000000000        0.0000000000000000     
  0.75000000000000000        1.0000000000000000        0.0000000000000000     
  0.81250000000000000        1.0000000000000000        0.0000000000000000     
  0.87500000000000000        1.0000000000000000        0.0000000000000000     
  0.93750000000000000        1.0000000000000000        0.0000000000000000     
   1.0000000000000000        1.0000000000000000        0.0000000000000000     
 </DataArray>
 </Points>
 <Cells>
 <DataArray  type="Int32"  Name="connectivity"  format="ascii">
           0           1           6           5
           1           2           7           6
           2           3           8           7
           3           4           9           8
           5           6          11          10
           6           7          12          11
           7           8          13          12
           8           9          14          13
          10          11          16          15
          11          12          17          16
          12          13          18          17
          13          14          19          18
          15          16          21          20
          16          17          22          21
          17          18          23          22
          18          19          24          23
          25          26          31          30
          26          27          32          31
          27          28          33          32
          28          29          34          33
          30          31          36          35
          31          32          37          36
          32          33          38          37
          33          34          39          38
          35          36          41          40
          36          37          42          41
          37          38          43          42
          38          39          44          43
          40          41          46          45
          41          42          47          46
          42          43          48          47
          43          44          49          48
          50          51          56          55
          51          52          57          56
          52          53          58          57
          53          54          59          58
          55          56          61          60
          56          57          62          61
          57          58          63          62
          58          59          64          63
          60          61          66          65
          61          62          67          66
          62          63          68          67
          63          64          69          68
          65          66          71          70
          66          67          72          71
          67          68          73          72
          68          69          74          73
          75          76          81          80
          76          77          82          81
          77          78          83          82
          78          79          84          83
          80          81          86          85
          81          82          87          86
          82          83          88          87
          83          84          89          88
          85          86          91          90
          86          87          92          91
          87          88          93          92
          88          89          94          93
          90          91          96          95
          91          92          97          96
          92          93          98          97
          93          94          99          98
         100         101         106         105
         101         102         107         106
         102         103         108         107
         103         104         109         108
         105         106         111         110
         106         107         112         111
         107         108         113         112
         108         109         114         113
         110         111         116         115
         111         112         117         116
         112         113         118         117
         113         114         119         118
         115         116         121         120
         116         117         122         121
         117         118         123         122
         118         119         124         123
         125         126         131         130
         126         127         132         131
         127         128         133         132
         128         129         134         133
         130         131         136         135
         131         132         137         136
         132         133         138         137
         133         134         139         138
         135         136         141         140
         136         137         142         141
         137         138         143         142
         138         139         144         143
         140         141         146         145
         141         142         147         146
         142         143         148         147
         143         144         149         148
         150         151         156         155
         151         152         157         156
         152         153         158         157
         153         154         159         158
         155         156         161         160
         156         157         162         161
         157         158         163         162
         158         159         164         163
         160         161         166         165
         161         162         167         166
         162         163         168         167
         163         164         169         168
         165         166         171         170
         166         167         172         171
         167         168         173         172
         168         169         174         173
         175         176         181         180
         176         177         182         181
         177         178         183         182
         178         179         184         183
         180         181         186         185
         181         182         187         186
         182         183         188         187
         183         184         189         188
         185         186         191         190
         186         187         192         191
         187         188         193         192
         188         189         194         193
         190         191         196         195
         191         192         197         196
         192         193         198         197
         193         194         199         198
         200         201         206         205
         201         202         207         206
         202         203         208         207
         203         204         209         208
         205         206         211         210
         206         207         212         211
         207         208         213         212
         208         209         214         213
         210         211         216         215
         211         212         217         216
         212         213         218         217
         213         214         219         218
         215         216         221         220
         216         217         222         221
         217         218         223         222
         218         219         224         223
         225         226         231         230
         226         227         232         231
         227         228         233         232
         228         229         234         233
         230         231         236         235
         231         232         237         236
         232         233         238         237
         233         234         239         238
         235         236         241         240
         236         237         242         241
         237         238         243         242
         238         239         244         243
         240         241         246         245
         241         242         247         246
         242         243         248         247
         243         244         249         248
         250         251         256         255
         251         252         257         256
         252         253         258         257
         253         254         259         258
         255         256         261         260
         256         257         262         261
         257         258         263         262
         258         259         264         263
         260         261         266         265
         261         262         267         266
         262         263         268         267
         263         264         269         268
         265         266         271         270
         266         267         272         271
         267         268         273         272
         268         269         274         273
         275         276         281         280
         276         277         282         281
         277         278         283         282
         278         279         284         283
         280         281         286         285
         281         282         287         286
         282         283         288         287
         283         284         289         288
         285         286         291         290
         286         287         292         291
         287         288         293         292
         288         289         294         293
         290         291         296         295
         291         292         297         296
         292         293         298         297
         293         294         299         298
         300         301         306         305
         301         302         307         306
         302         303         308         307
         303         304         309         308
         305         306         311         310
         306         307         312         311
         307         308         313         312
         308         309         314         313
         310         311         316         315
         311         312         317         316
         312         313         318         317
         313         314         319         318
         315         316         321         320
         316         317         322         321
         317         318         323         322
         318         319         324         323
         325         326         331         330
         326         327         332         331
         327         328         333         332
         328         329         334         333
         330         331         336         335
         331         332         337         336
         332         333         338         337
         333         334         339         338
         335         336         341         340
         336         337         342         341
         337         338         343         342
         338         339         344         343
         340         341         346         345
         341         342         347         346
         342         343         348         347
         343         344         349         348
         350         351         356         355
         351         352         357         356
         352         353         358         357
         353         354         359         358
         355         356         361         360
         356         357         362         361
         357         358         363         362
         358         359         364         363
         360         361         366         365
         361         362         367         366
         362         363         368         367
         363         364         369         368
         365         366         371         370
         366         367         372         371
         367         368         373         372
         368         369         374         373
         375         376         381         380
         376         377         382         381
         377         378         383         382
         378         379         384         383
         380         381         386         385
         381         382         387         386
         382         383         388         387
         383         384         389         388
         385         386         391         390
         386         387         392         391
         387         388         393         392
         388         389         394         393
         390         391         396         395
         391         392         397         396
         392         393         398         397
         393         394         399         398
 </DataArray>
 <DataArray  type="Int32"  Name="offsets"  format="ascii"> 
           4
           8
          12
          16
          20
          24
          28
          32
          36
          40
          44
          48
          52
          56
          60
          64
          68
          72
          76
          80
          84
          88
          92
          96
         100
         104
         108
         112
         116
         120
         124
         128
         132
         136
         140
         144
         148
         152
         156
         160
         164
         168
         172
         176
         180
         184
         188
         192
         196
         200
         204
         208
         212
         216
         220
         224
         228
         232
         236
         240
         244
         248
         252
         256
         260
         264
         268
         272
         276
         280
         284
         288
         292
         296
         300
         304
         308
         312
         316
         320
         324
         328
         332
         336
         340
         344
         348
         352
         356
         360
         364
         368
         372
         376
         380
         384
         388
         392
         396
         400
         404
         408
         412
         416
         420
         424
         428
         432
         436
         440
         444
         448
         452
         456
         460
         464
         468
         472
         476
         480
         484
         488
         492
         496
         500
         504
         508
         512
         516
         520
         524
         528
         532
         536
         540
         544
         548
         552
         556
         560
         564
         568
         572
         576
         580
         584
         588
         592
         596
         600
         604
         608
         612
         616
         620
         624
         628
         632
         636
         640
         644
         648
         652
         656
         660
         664
         668
         672
         676
         680
         684
         688
         692
         696
         700
         704
         708
         712
         716
         720
         724
         728
         732
         736
         740
         744
         748
         752
         756
         760
         764
         768
         772
         776
         780
         784
         788
         792
         796
         800
         804
         808
         812
         816
         820
         824
         828
         832
         836
         840
         844
         848
         852
         856
         860
         864
         868
         872
         876
         880
         884
         888
         892
         896
         900
         904
         908
         912
         916
         920
         924
         928
         932
         936
         940
         944
         948
         952
         956
         960
         964
         968
         972
         976
         980
         984
         988
         992
         996
        1000
        1004
        1008
        1012
        1016
        1020
        1024
 </DataArray>
 <DataArray  type="UInt8"  Name="types"  format="ascii">
 9
 9
 9
 9
 9
 9
 9
 9
 9
 9
 9
 9
 9
 9
 9
 9
 9
 9
 9
 9
 9
 9
 9
 9
 9
 9
 9
 9
 9
 9
 9
 9
 9
 9
 9
 9
 9
 9
 9
 9
 9
 9
 9
 9
 9
 9
 9
 9
 9
 9
 9
 9
 9
 9
 9
 9
 9
 9
 9
 9
 9
 9
 9
 9
 9
 9
 9
 9
 9
 9
 9
 9
 9
 9
 9
 9
 9
 9
 9
 9
 9
 9
 9
 9
 9
 9
 9
 9
 9
 9
 9
 9
 9
 9
 9
 9
 9
 9
 9
 9
 9
 9
 9
 9
 9
 9
 9
 9
 9
 9
 9
 9
 9
 9
 9
 9
 9
 9
 9
 9
 9
 9
 9
 9
 9
 9
 9
 9
 9
 9
 9
 9
 9
 9
 9
 9
 9
 9
 9
 9
 9
 9
 9
 9
 9
 9
 9
 9
 9
 9
 9
 9
 9
 9
 9
 9
 9
 9
 9
 9
 9
 9
 9
 9
 9
 9
 9
 9
 9
 9
 9
 9
 9
 9
 9
 9
 9
 9
 9
 9
 9
 9
 9
 9
 9
 9
 9
 9
 9
 9
 9
 9
 9
 9
 9
 9
 9
 9
 9
 9
 9
 9
 9
 9
 9
 9
 9
 9
 9
 9
 9
 9
 9
 9
 9
 9
 9
 9
 9
 9
 9
 9
 9
 9
 9
 9
 9
 9
 9
 9
 9
 9
 9
 9
 9
 9
 9
 9
 9
 9
 9
 9
 9
 9
 9
 9
 9
 9
 9
 9
 9
 9
 9
 9
 9
 9
 </DataArray>
 </Cells> 
 <PointData>
 <DataArray  type="Float64" Name="disp" NumberOfComponents="3" format="ascii">
   0.0000000000000000        0.0000000000000000        0.0000000000000000     
   1.0690467122001892E-002   6.3689539636042607E-003   0.0000000000000000     
   2.0500743331214610E-002   1.2959893978322784E-002   0.0000000000000000     
   2.9430828627638156E-002   1.9772820044155565E-002   0.0000000000000000     
   3.7480723011272525E-002   2.6807732161102611E-002   0.0000000000000000     
   0.0000000000000000        0.0000000000000000        0.0000000000000000     
   8.1750512383583600E-003   5.0289112347308871E-003   0.0000000000000000     
   1.5981222550786697E-002   1.0766422748647388E-002   0.0000000000000000     
   2.3418513937285005E-002   1.7212534541749504E-002   0.0000000000000000     
   3.0486925397853290E-002   2.4367246614037240E-002   0.0000000000000000     
   0.0000000000000000        0.0000000000000000        0.0000000000000000     
   6.1379885347823881E-003   4.0131892119891020E-003   0.0000000000000000     
   1.2245418957678087E-002   9.0833182508712178E-003   0.0000000000000000     
   1.8322291268687094E-002   1.5210387116646346E-002   0.0000000000000000     
   2.4368605467809418E-002   2.2394395809314491E-002   0.0000000000000000     
   0.0000000000000000        0.0000000000000000        0.0000000000000000     
   4.5792790112739743E-003   3.3217878953789026E-003   0.0000000000000000     
   9.2933325518887843E-003   7.9105804849942656E-003   0.0000000000000000     
   1.4142160621844426E-002   1.3766377768846086E-002   0.0000000000000000     
   1.9125763221140898E-002   2.0889179746934369E-002   0.0000000000000000     
   0.0000000000000000        0.0000000000000000        0.0000000000000000     
   3.4989226678331202E-003   2.9547072849002913E-003   0.0000000000000000     
   7.1249633334187854E-003   7.2482094510165334E-003   0.0000000000000000     
   1.0878121996756992E-002   1.2880506498348727E-002   0.0000000000000000     
   1.4758398657847744E-002   1.9851598426896870E-002   0.0000000000000000     
   3.7480723011272525E-002   2.6807732161102611E-002   0.0000000000000000     
   4.4912810210928363E-002   3.4395203197487331E-002   0.0000000000000000     
   5.1989473955416310E-002   4.2865806021633139E-002   0.0000000000000000     
   5.8710714244736374E-002   5.2219540633540035E-002   0.0000000000000000     
   6.5076531078888541E-002   6.2456407033208025E-002   0.0000000000000000     
   3.0486925397853290E-002   2.4367246614037240E-002   0.0000000000000000     
   3.7186956433334646E-002   3.2273292176803782E-002   0.0000000000000000     
   4.3519106544572188E-002   4.0973404441342336E-002   0.0000000000000000     
   4.9483375731565887E-002   5.0467583407652894E-002   0.0000000000000000     
   5.5079763994315752E-002   6.0755829075735457E-002   0.0000000000000000     
   2.4368605467809418E-002   2.2394395809314491E-002   0.0000000000000000     
   3.0226560934212509E-002   3.0483164247998108E-002   0.0000000000000000     
   3.5738357047063830E-002   3.9324512351819635E-002   0.0000000000000000     
   4.0903993806363392E-002   4.8918440120779096E-002   0.0000000000000000     
   4.5723471212111184E-002   5.9264947554876470E-002   0.0000000000000000     
   1.9125763221140898E-002   2.0889179746934369E-002   0.0000000000000000     
   2.4031623713561937E-002   2.9024819411070296E-002   0.0000000000000000     
   2.8647225462891276E-002   3.7919129753065044E-002   0.0000000000000000     
   3.2972568469128910E-002   4.7572110772918626E-002   0.0000000000000000     
   3.7007652732274840E-002   5.7983762470631035E-002   0.0000000000000000     
   1.4758398657847744E-002   1.9851598426896870E-002   0.0000000000000000     
   1.8602144771382948E-002   2.7898257666020356E-002   0.0000000000000000     
   2.2245711792054507E-002   3.6757256645078569E-002   0.0000000000000000     
   2.5689099719862430E-002   4.6428595364071505E-002   0.0000000000000000     
   2.8932308554806708E-002   5.6912273822999175E-002   0.0000000000000000     
   6.5076531078888541E-002   6.2456407033208025E-002   0.0000000000000000     
   7.1076297611246161E-002   7.3462651126448508E-002   0.0000000000000000     
   7.6699386995182570E-002   8.5124518819072903E-002   0.0000000000000000     
   8.1945799230697794E-002   9.7442010111081223E-002   0.0000000000000000     
   8.6815534317791793E-002  0.11041512500247344        0.0000000000000000     
   5.5079763994315752E-002   6.0755829075735457E-002   0.0000000000000000     
   6.0333451482646405E-002   7.1788499036062103E-002   0.0000000000000000     
   6.5269618346382452E-002   8.3515950879104864E-002   0.0000000000000000     
   6.9888264585523885E-002   9.5938184604863780E-002   0.0000000000000000     
   7.4189390200070690E-002  0.10905520021333878        0.0000000000000000     
   4.5723471212111184E-002   5.9264947554876470E-002   0.0000000000000000     
   5.0235946772791459E-002   7.0346187553984710E-002   0.0000000000000000     
   5.4480577996888505E-002   8.2144313017976811E-002   0.0000000000000000     
   5.8457364884402292E-002   9.4659323946852683E-002   0.0000000000000000     
   6.2166307435332836E-002  0.10789122034061241        0.0000000000000000     
   3.7007652732274840E-002   5.7983762470631035E-002   0.0000000000000000     
   4.0783783481681345E-002   6.9135716680216369E-002   0.0000000000000000     
   4.4332265946700755E-002   8.1009605235688661E-002   0.0000000000000000     
   4.7653100127333044E-002   9.3605428137048002E-002   0.0000000000000000     
   5.0746286023578203E-002  0.10692318538429429        0.0000000000000000     
   2.8932308554806708E-002   5.6912273822999175E-002   0.0000000000000000     
   3.1976961609316054E-002   6.8157086414757040E-002   0.0000000000000000     
   3.4824682195819197E-002   8.0111827532240540E-002   0.0000000000000000     
   3.7475470314316119E-002   9.2776497175449668E-002   0.0000000000000000     
   3.9929325964806826E-002  0.10615109534438447        0.0000000000000000     
   8.6815534317791793E-002  0.11041512500247344        0.0000000000000000     
   9.1261757295776555E-002  0.12397054059658702        0.0000000000000000     
   9.5237633203964042E-002  0.13803493399675942        0.0000000000000000     
   9.8743162042354282E-002  0.15260830520299065        0.0000000000000000     
  0.10177834381094721       0.16769065421528065        0.0000000000000000     
   7.4189390200070690E-002  0.10905520021333878        0.0000000000000000     
   7.8132525383480658E-002  0.12275720095456387        0.0000000000000000     
   8.1677200329211483E-002  0.13693439007857292        0.0000000000000000     
   8.4823415037263192E-002  0.15158676758536593        0.0000000000000000     
   8.7571169507635799E-002  0.16671433347494291        0.0000000000000000     
   6.2166307435332836E-002  0.10789122034061241        0.0000000000000000     
   6.5576143966044748E-002  0.12170933725521947        0.0000000000000000     
   6.8655612792902665E-002  0.13598300974663738        0.0000000000000000     
   7.1404713915906554E-002  0.15071223781486615        0.0000000000000000     
   7.3823447335056469E-002  0.16589702145990573        0.0000000000000000     
   5.0746286023578203E-002  0.10692318538429429        0.0000000000000000     
   5.3592613043468858E-002  0.12082694949855384        0.0000000000000000     
   5.6172870595037581E-002  0.13518079300095281        0.0000000000000000     
   5.8487058678284375E-002  0.14998471589149126        0.0000000000000000     
   6.0535177293209237E-002  0.16523871817016908        0.0000000000000000     
   3.9929325964806826E-002  0.10615109534438447        0.0000000000000000     
   4.2181932615752982E-002  0.12011003768456693        0.0000000000000000     
   4.4228973735616246E-002  0.13452773984151917        0.0000000000000000     
   4.6070449324396620E-002  0.14940420181524119        0.0000000000000000     
   4.7706359382094096E-002  0.16473942360573299        0.0000000000000000     
   0.0000000000000000        0.0000000000000000        0.0000000000000000     
   3.4989226678331202E-003   2.9547072849002913E-003   0.0000000000000000     
   7.1249633334187854E-003   7.2482094510165334E-003   0.0000000000000000     
   1.0878121996756992E-002   1.2880506498348727E-002   0.0000000000000000     
   1.4758398657847744E-002   1.9851598426896870E-002   0.0000000000000000     
   0.0000000000000000        0.0000000000000000        0.0000000000000000     
   2.6493551860381891E-003   2.7754020596641115E-003   0.0000000000000000     
   5.3472701564722322E-003   6.8919202414919811E-003   0.0000000000000000     
   8.0937449113021292E-003   1.2349554545483608E-002   0.0000000000000000     
   1.0888779450527880E-002   1.9148304971638993E-002   0.0000000000000000     
   0.0000000000000000        0.0000000000000000        0.0000000000000000     
   1.7830122474675461E-003   2.6473268987812081E-003   0.0000000000000000     
   3.5672118752532694E-003   6.6374279489745643E-003   0.0000000000000000     
   5.3525988833571687E-003   1.1970303150580067E-002   0.0000000000000000     
   7.1391732717792462E-003   1.8645952503597723E-002   0.0000000000000000     
   0.0000000000000000        0.0000000000000000        0.0000000000000000     
   8.9989385212119058E-004   2.5704818022515810E-003   0.0000000000000000     
   1.7847884897618934E-003   6.4847325734642856E-003   0.0000000000000000     
   2.6546839129221096E-003   1.1742752313638111E-002   0.0000000000000000     
   3.5095801216018367E-003   1.8344541022773064E-002   0.0000000000000000     
   0.0000000000000000        0.0000000000000000        0.0000000000000000     
  -8.7722797775802164E-016   2.5448667700752304E-003   0.0000000000000000     
  -1.8936675144631820E-015   6.4338341149611416E-003   0.0000000000000000     
  -3.0487765090292385E-015   1.1666902034657735E-002   0.0000000000000000     
  -4.3430970625424337E-015   1.8244070529165012E-002   0.0000000000000000     
   1.4758398657847744E-002   1.9851598426896870E-002   0.0000000000000000     
   1.8602144771382948E-002   2.7898257666020356E-002   0.0000000000000000     
   2.2245711792054507E-002   3.6757256645078569E-002   0.0000000000000000     
   2.5689099719862430E-002   4.6428595364071505E-002   0.0000000000000000     
   2.8932308554806708E-002   5.6912273822999175E-002   0.0000000000000000     
   1.0888779450527880E-002   1.9148304971638993E-002   0.0000000000000000     
   1.3654448370963756E-002   2.7057671241798212E-002   0.0000000000000000     
   1.6312826269424027E-002   3.5847153077801362E-002   0.0000000000000000     
   1.8863913145908694E-002   4.5516750479648420E-002   0.0000000000000000     
   2.1307709000417757E-002   5.6066463447339399E-002   0.0000000000000000     
   7.1391732717792462E-003   1.8645952503597723E-002   0.0000000000000000     
   8.9048587755926004E-003   2.6457252367353801E-002   0.0000000000000000     
   1.0627579129870337E-002   3.5197079101174582E-002   0.0000000000000000     
   1.2307334334612450E-002   4.4865432705060063E-002   0.0000000000000000     
   1.3944124389818947E-002   5.5462313179010236E-002   0.0000000000000000     
   3.5095801216018367E-003   1.8344541022773064E-002   0.0000000000000000     
   4.3533759852694767E-003   2.6097001042687105E-002   0.0000000000000000     
   5.1899703733934302E-003   3.4807034715198221E-002   0.0000000000000000     
   6.0193632859736942E-003   4.4474642040306413E-002   0.0000000000000000     
   6.8415547230102703E-003   5.5099823018011675E-002   0.0000000000000000     
  -4.3430970625424337E-015   1.8244070529165012E-002   0.0000000000000000     
  -5.6110715032642311E-015   2.5976917267798137E-002   0.0000000000000000     
  -6.6881721515199555E-015   3.4677019919872300E-002   0.0000000000000000     
  -7.5731386222840924E-015   4.4344378485387491E-002   0.0000000000000000     
  -8.2681257673744568E-015   5.4978992964343720E-002   0.0000000000000000     
   2.8932308554806708E-002   5.6912273822999175E-002   0.0000000000000000     
   3.1976961609316054E-002   6.8157086414757040E-002   0.0000000000000000     
   3.4824682195819197E-002   8.0111827532240540E-002   0.0000000000000000     
   3.7475470314316119E-002   9.2776497175449668E-002   0.0000000000000000     
   3.9929325964806826E-002  0.10615109534438447        0.0000000000000000     
   2.1307709000417757E-002   5.6066463447339399E-002   0.0000000000000000     
   2.3615288136488607E-002   6.7402215198614834E-002   0.0000000000000000     
   2.5757724857658634E-002   7.9429928951215201E-002   0.0000000000000000     
   2.7735019163927843E-002   9.2149604705140525E-002   0.0000000000000000     
   2.9547171055296230E-002  0.10556124246039079        0.0000000000000000     
   1.3944124389818947E-002   5.5462313179010236E-002   0.0000000000000000     
   1.5498570043992025E-002   6.6863021472797823E-002   0.0000000000000000     
   1.6931292045633886E-002   7.8942858536195509E-002   0.0000000000000000     
   1.8242290394744537E-002   9.1701824369203294E-002   0.0000000000000000     
   1.9431565091323967E-002  0.10513991897182121        0.0000000000000000     
   6.8415547230102703E-003   5.5099823018011675E-002   0.0000000000000000     
   7.6268073318263071E-003   6.6539505237306035E-002   0.0000000000000000     
   8.3453837597449454E-003   7.8650616287181480E-002   0.0000000000000000     
   8.9972840067661878E-003   9.1433156167638072E-002   0.0000000000000000     
   9.5825080728900360E-003  0.10488712487867574        0.0000000000000000     
  -8.2681257673744568E-015   5.4978992964343720E-002   0.0000000000000000     
  -8.5478499278757170E-015   6.6431666492139441E-002   0.0000000000000000     
  -8.1895211098692577E-015   7.8553202204173112E-002   0.0000000000000000     
  -7.1932206285180156E-015   9.1343600100444747E-002   0.0000000000000000     
  -5.5623908257196319E-015  0.10480286018095435        0.0000000000000000     
   3.9929325964806826E-002  0.10615109534438447        0.0000000000000000     
   4.2181932615752982E-002  0.12011003768456693        0.0000000000000000     
   4.4228973735616246E-002  0.13452773984151917        0.0000000000000000     
   4.6070449324396620E-002  0.14940420181524119        0.0000000000000000     
   4.7706359382094096E-002  0.16473942360573299        0.0000000000000000     
   2.9547171055296230E-002  0.10556124246039079        0.0000000000000000     
   3.1202370442053835E-002  0.11955513557224894        0.0000000000000000     
   3.2708807234490683E-002  0.13402157739599785        0.0000000000000000     
   3.4066481432606793E-002  0.14896056793163759        0.0000000000000000     
   3.5275393036402154E-002  0.16437210717916809        0.0000000000000000     
   1.9431565091323967E-002  0.10513991897182121        0.0000000000000000     
   2.0512194281528114E-002  0.11915877692058992        0.0000000000000000     
   2.1497256111512927E-002  0.13366003279205013        0.0000000000000000     
   2.2386750581278387E-002  0.14864368658620186        0.0000000000000000     
   2.3180677690824505E-002  0.16410973830304504        0.0000000000000000     
   9.5825080728900360E-003  0.10488712487867574        0.0000000000000000     
   1.0111404134175843E-002  0.11892096172958992        0.0000000000000000     
   1.0594320366682964E-002  0.13344310602967602        0.0000000000000000     
   1.1031256770411399E-002  0.14845355777893396        0.0000000000000000     
   1.1422213345361148E-002  0.16395231697736387        0.0000000000000000     
  -5.5623908257196319E-015  0.10480286018095435        0.0000000000000000     
  -2.9958674430119459E-015  0.11884168999924892        0.0000000000000000     
   8.0165908633578198E-016  0.13337079710887545        0.0000000000000000     
   5.8308934937356671E-015  0.14839018150983399        0.0000000000000000     
   1.2087553180606392E-014  0.16389984320212447        0.0000000000000000     
   0.0000000000000000        0.0000000000000000        0.0000000000000000     
  -8.7722797775802164E-016   2.5448667700752304E-003   0.0000000000000000     
  -1.8936675144631820E-015   6.4338341149611416E-003   0.0000000000000000     
  -3.0487765090292385E-015   1.1666902034657735E-002   0.0000000000000000     
  -4.3430970625424337E-015   1.8244070529165012E-002   0.0000000000000000     
   0.0000000000000000        0.0000000000000000        0.0000000000000000     
  -8.9989385212283618E-004   2.5704818022521071E-003   0.0000000000000000     
  -1.7847884897654589E-003   6.4847325734650628E-003   0.0000000000000000     
  -2.6546839129278684E-003   1.1742752313638869E-002   0.0000000000000000     
  -3.5095801216100632E-003   1.8344541022773525E-002   0.0000000000000000     
   0.0000000000000000        0.0000000000000000        0.0000000000000000     
  -1.7830122474688660E-003   2.6473268987821604E-003   0.0000000000000000     
  -3.5672118752561694E-003   6.6374279489759738E-003   0.0000000000000000     
  -5.3525988833619106E-003   1.1970303150581443E-002   0.0000000000000000     
  -7.1391732717860923E-003   1.8645952503598563E-002   0.0000000000000000     
   0.0000000000000000        0.0000000000000000        0.0000000000000000     
  -2.6493551860389654E-003   2.7754020596653913E-003   0.0000000000000000     
  -5.3472701564740250E-003   6.8919202414938763E-003   0.0000000000000000     
  -8.0937449113051788E-003   1.2349554545485454E-002   0.0000000000000000     
  -1.0888779450532427E-002   1.9148304971640124E-002   0.0000000000000000     
   0.0000000000000000        0.0000000000000000        0.0000000000000000     
  -3.4989226678331354E-003   2.9547072849018001E-003   0.0000000000000000     
  -7.1249633334190265E-003   7.2482094510187686E-003   0.0000000000000000     
  -1.0878121996757670E-002   1.2880506498350907E-002   0.0000000000000000     
  -1.4758398657849069E-002   1.9851598426898213E-002   0.0000000000000000     
  -4.3430970625424337E-015   1.8244070529165012E-002   0.0000000000000000     
  -5.6110715032642311E-015   2.5976917267798137E-002   0.0000000000000000     
  -6.6881721515199555E-015   3.4677019919872300E-002   0.0000000000000000     
  -7.5731386222840924E-015   4.4344378485387491E-002   0.0000000000000000     
  -8.2681257673744568E-015   5.4978992964343720E-002   0.0000000000000000     
  -3.5095801216100632E-003   1.8344541022773525E-002   0.0000000000000000     
  -4.3533759852801210E-003   2.6097001042686897E-002   0.0000000000000000     
  -5.1899703734061171E-003   3.4807034715196861E-002   0.0000000000000000     
  -6.0193632859880490E-003   4.4474642040303408E-002   0.0000000000000000     
  -6.8415547230259201E-003   5.5099823018006554E-002   0.0000000000000000     
  -7.1391732717860923E-003   1.8645952503598563E-002   0.0000000000000000     
  -8.9048587756015065E-003   2.6457252367353388E-002   0.0000000000000000     
  -1.0627579129880951E-002   3.5197079101171959E-002   0.0000000000000000     
  -1.2307334334624430E-002   4.4865432705054296E-002   0.0000000000000000     
  -1.3944124389831938E-002   5.5462313179000369E-002   0.0000000000000000     
  -1.0888779450532427E-002   1.9148304971640124E-002   0.0000000000000000     
  -1.3654448370969768E-002   2.7057671241797601E-002   0.0000000000000000     
  -1.6312826269431202E-002   3.5847153077797608E-002   0.0000000000000000     
  -1.8863913145916719E-002   4.5516750479640128E-002   0.0000000000000000     
  -2.1307709000426327E-002   5.6066463447325167E-002   0.0000000000000000     
  -1.4758398657849069E-002   1.9851598426898213E-002   0.0000000000000000     
  -1.8602144771384898E-002   2.7898257666019555E-002   0.0000000000000000     
  -2.2245711792056849E-002   3.6757256645073788E-002   0.0000000000000000     
  -2.5689099719864904E-002   4.6428595364060916E-002   0.0000000000000000     
  -2.8932308554809074E-002   5.6912273822980933E-002   0.0000000000000000     
  -8.2681257673744568E-015   5.4978992964343720E-002   0.0000000000000000     
  -8.5478499278757170E-015   6.6431666492139441E-002   0.0000000000000000     
  -8.1895211098692577E-015   7.8553202204173112E-002   0.0000000000000000     
  -7.1932206285180156E-015   9.1343600100444747E-002   0.0000000000000000     
  -5.5623908257196319E-015  0.10480286018095435        0.0000000000000000     
  -6.8415547230259201E-003   5.5099823018006554E-002   0.0000000000000000     
  -7.6268073318424409E-003   6.6539505237298319E-002   0.0000000000000000     
  -8.3453837597603237E-003   7.8650616287170752E-002   0.0000000000000000     
  -8.9972840067795660E-003   9.1433156167623861E-002   0.0000000000000000     
  -9.5825080729001737E-003  0.10488712487865764        0.0000000000000000     
  -1.3944124389831938E-002   5.5462313179000369E-002   0.0000000000000000     
  -1.5498570044005280E-002   6.6863021472782933E-002   0.0000000000000000     
  -1.6931292045646269E-002   7.8942858536174790E-002   0.0000000000000000     
  -1.8242290394754886E-002   9.1701824369175858E-002   0.0000000000000000     
  -1.9431565091331145E-002  0.10513991897178618        0.0000000000000000     
  -2.1307709000426327E-002   5.6066463447325167E-002   0.0000000000000000     
  -2.3615288136497076E-002   6.7402215198593310E-002   0.0000000000000000     
  -2.5757724857666010E-002   7.9429928951185169E-002   0.0000000000000000     
  -2.7735019163933151E-002   9.2149604705100710E-002   0.0000000000000000     
  -2.9547171055298478E-002  0.10556124246034000        0.0000000000000000     
  -2.8932308554809074E-002   5.6912273822980933E-002   0.0000000000000000     
  -3.1976961609317810E-002   6.8157086414729423E-002   0.0000000000000000     
  -3.4824682195819578E-002   8.0111827532201932E-002   0.0000000000000000     
  -3.7475470314314356E-002   9.2776497175398473E-002   0.0000000000000000     
  -3.9929325964802170E-002  0.10615109534431905        0.0000000000000000     
  -5.5623908257196319E-015  0.10480286018095435        0.0000000000000000     
  -2.9958674430119459E-015  0.11884168999924892        0.0000000000000000     
   8.0165908633578198E-016  0.13337079710887545        0.0000000000000000     
   5.8308934937356671E-015  0.14839018150983399        0.0000000000000000     
   1.2087553180606392E-014  0.16389984320212447        0.0000000000000000     
  -9.5825080729001737E-003  0.10488712487865764        0.0000000000000000     
  -1.0111404134180917E-002  0.11892096172956752        0.0000000000000000     
  -1.0594320366680569E-002  0.13344310602964898        0.0000000000000000     
  -1.1031256770399135E-002  0.14845355777890201        0.0000000000000000     
  -1.1422213345336611E-002  0.16395231697732662        0.0000000000000000     
  -1.9431565091331145E-002  0.10513991897178618        0.0000000000000000     
  -2.0512194281530435E-002  0.11915877692054638        0.0000000000000000     
  -2.1497256111508156E-002  0.13366003279199706        0.0000000000000000     
  -2.2386750581264304E-002  0.14864368658613825        0.0000000000000000     
  -2.3180677690798877E-002  0.16410973830296993        0.0000000000000000     
  -2.9547171055298478E-002  0.10556124246034000        0.0000000000000000     
  -3.1202370442051566E-002  0.11955513557218544        0.0000000000000000     
  -3.2708807234481961E-002  0.13402157739591969        0.0000000000000000     
  -3.4066481432589675E-002  0.14896056793154264        0.0000000000000000     
  -3.5275393036374718E-002  0.16437210717905432        0.0000000000000000     
  -3.9929325964802170E-002  0.10615109534431905        0.0000000000000000     
  -4.2181932615744280E-002  0.12011003768448478        0.0000000000000000     
  -4.4228973735601973E-002  0.13452773984141683        0.0000000000000000     
  -4.6070449324375255E-002  0.14940420181511518        0.0000000000000000     
  -4.7706359382064120E-002  0.16473942360557986        0.0000000000000000     
   0.0000000000000000        0.0000000000000000        0.0000000000000000     
  -3.4989226678331354E-003   2.9547072849018001E-003   0.0000000000000000     
  -7.1249633334190265E-003   7.2482094510187686E-003   0.0000000000000000     
  -1.0878121996757670E-002   1.2880506498350907E-002   0.0000000000000000     
  -1.4758398657849069E-002   1.9851598426898213E-002   0.0000000000000000     
   0.0000000000000000        0.0000000000000000        0.0000000000000000     
  -4.5792790112732110E-003   3.3217878953804964E-003   0.0000000000000000     
  -9.2933325518873722E-003   7.9105804849966110E-003   0.0000000000000000     
  -1.4142160621842478E-002   1.3766377768848342E-002   0.0000000000000000     
  -1.9125763221138535E-002   2.0889179746935695E-002   0.0000000000000000     
   0.0000000000000000        0.0000000000000000        0.0000000000000000     
  -6.1379885347810290E-003   4.0131892119905904E-003   0.0000000000000000     
  -1.2245418957675260E-002   9.0833182508733585E-003   0.0000000000000000     
  -1.8322291268682695E-002   1.5210387116648301E-002   0.0000000000000000     
  -2.4368605467803329E-002   2.2394395809315421E-002   0.0000000000000000     
   0.0000000000000000        0.0000000000000000        0.0000000000000000     
  -8.1750512383565871E-003   5.0289112347320824E-003   0.0000000000000000     
  -1.5981222550782694E-002   1.0766422748649012E-002   0.0000000000000000     
  -2.3418513937278319E-002   1.7212534541750785E-002   0.0000000000000000     
  -3.0486925397843454E-002   2.4367246614037403E-002   0.0000000000000000     
   0.0000000000000000        0.0000000000000000        0.0000000000000000     
  -1.0690467121999888E-002   6.3689539636049711E-003   0.0000000000000000     
  -2.0500743331209669E-002   1.2959893978323568E-002   0.0000000000000000     
  -2.9430828627629343E-002   1.9772820044155794E-002   0.0000000000000000     
  -3.7480723011258918E-002   2.6807732161101640E-002   0.0000000000000000     
  -1.4758398657849069E-002   1.9851598426898213E-002   0.0000000000000000     
  -1.8602144771384898E-002   2.7898257666019555E-002   0.0000000000000000     
  -2.2245711792056849E-002   3.6757256645073788E-002   0.0000000000000000     
  -2.5689099719864904E-002   4.6428595364060916E-002   0.0000000000000000     
  -2.8932308554809074E-002   5.6912273822980933E-002   0.0000000000000000     
  -1.9125763221138535E-002   2.0889179746935695E-002   0.0000000000000000     
  -2.4031623713559106E-002   2.9024819411069158E-002   0.0000000000000000     
  -2.8647225462887786E-002   3.7919129753059236E-002   0.0000000000000000     
  -3.2972568469124566E-002   4.7572110772905928E-002   0.0000000000000000     
  -3.7007652732269435E-002   5.7983762470609240E-002   0.0000000000000000     
  -2.4368605467803329E-002   2.2394395809315421E-002   0.0000000000000000     
  -3.0226560934204585E-002   3.0483164247996339E-002   0.0000000000000000     
  -3.5738357047053901E-002   3.9324512351812675E-002   0.0000000000000000     
  -4.0903993806351249E-002   4.8918440120764434E-002   0.0000000000000000     
  -4.5723471212096661E-002   5.9264947554851601E-002   0.0000000000000000     
  -3.0486925397843454E-002   2.4367246614037403E-002   0.0000000000000000     
  -3.7186956433321337E-002   3.2273292176801090E-002   0.0000000000000000     
  -4.3519106544555174E-002   4.0973404441334106E-002   0.0000000000000000     
  -4.9483375731544987E-002   5.0467583407636407E-002   0.0000000000000000     
  -5.5079763994290744E-002   6.0755829075708034E-002   0.0000000000000000     
  -3.7480723011258918E-002   2.6807732161101640E-002   0.0000000000000000     
  -4.4912810210909350E-002   3.4395203197483445E-002   0.0000000000000000     
  -5.1989473955391621E-002   4.2865806021623522E-002   0.0000000000000000     
  -5.8710714244705732E-002   5.2219540633521896E-002   0.0000000000000000     
  -6.5076531078851682E-002   6.2456407033178535E-002   0.0000000000000000     
  -2.8932308554809074E-002   5.6912273822980933E-002   0.0000000000000000     
  -3.1976961609317810E-002   6.8157086414729423E-002   0.0000000000000000     
  -3.4824682195819578E-002   8.0111827532201932E-002   0.0000000000000000     
  -3.7475470314314356E-002   9.2776497175398473E-002   0.0000000000000000     
  -3.9929325964802170E-002  0.10615109534431905        0.0000000000000000     
  -3.7007652732269435E-002   5.7983762470609240E-002   0.0000000000000000     
  -4.0783783481674524E-002   6.9135716680183382E-002   0.0000000000000000     
  -4.4332265946691915E-002   8.1009605235642615E-002   0.0000000000000000     
  -4.7653100127321629E-002   9.3605428136986912E-002   0.0000000000000000     
  -5.0746286023563646E-002  0.10692318538421630        0.0000000000000000     
  -4.5723471212096661E-002   5.9264947554851601E-002   0.0000000000000000     
  -5.0235946772774216E-002   7.0346187553947337E-002   0.0000000000000000     
  -5.4480577996868014E-002   8.2144313017924742E-002   0.0000000000000000     
  -5.8457364884378062E-002   9.4659323946783891E-002   0.0000000000000000     
  -6.2166307435304345E-002  0.10789122034052470        0.0000000000000000     
  -5.5079763994290744E-002   6.0755829075708034E-002   0.0000000000000000     
  -6.0333451482616901E-002   7.1788499036021247E-002   0.0000000000000000     
  -6.5269618346347869E-002   8.3515950879048367E-002   0.0000000000000000     
  -6.9888264585483653E-002   9.5938184604789381E-002   0.0000000000000000     
  -7.4189390200024269E-002  0.10905520021324427        0.0000000000000000     
  -6.5076531078851682E-002   6.2456407033178535E-002   0.0000000000000000     
  -7.1076297611202557E-002   7.3462651126405154E-002   0.0000000000000000     
  -7.6699386995131486E-002   8.5124518819013423E-002   0.0000000000000000     
  -8.1945799230638425E-002   9.7442010111003383E-002   0.0000000000000000     
  -8.6815534317723417E-002  0.11041512500237496        0.0000000000000000     
  -3.9929325964802170E-002  0.10615109534431905        0.0000000000000000     
  -4.2181932615744280E-002  0.12011003768448478        0.0000000000000000     
  -4.4228973735601973E-002  0.13452773984141683        0.0000000000000000     
  -4.6070449324375255E-002  0.14940420181511518        0.0000000000000000     
  -4.7706359382064120E-002  0.16473942360557986        0.0000000000000000     
  -5.0746286023563646E-002  0.10692318538421630        0.0000000000000000     
  -5.3592613043450310E-002  0.12082694949845546        0.0000000000000000     
  -5.6172870595013948E-002  0.13518079300082914        0.0000000000000000     
  -5.8487058678254551E-002  0.14998471589133727        0.0000000000000000     
  -6.0535177293172121E-002  0.16523871816997993        0.0000000000000000     
  -6.2166307435304345E-002  0.10789122034052470        0.0000000000000000     
  -6.5576143966011372E-002  0.12170933725510866        0.0000000000000000     
  -6.8655612792863599E-002  0.13598300974649713        0.0000000000000000     
  -7.1404713915861090E-002  0.15071223781469020        0.0000000000000000     
  -7.3823447335003747E-002  0.16589702145968782        0.0000000000000000     
  -7.4189390200024269E-002  0.10905520021324427        0.0000000000000000     
  -7.8132525383427479E-002  0.12275720095444435        0.0000000000000000     
  -8.1677200329150976E-002  0.13693439007842095        0.0000000000000000     
  -8.4823415037194816E-002  0.15158676758517403        0.0000000000000000     
  -8.7571169507558985E-002  0.16671433347470357        0.0000000000000000     
  -8.6815534317723417E-002  0.11041512500237496        0.0000000000000000     
  -9.1261757295698576E-002  0.12397054059646256        0.0000000000000000     
  -9.5237633203876043E-002  0.13803493399660047        0.0000000000000000     
  -9.8743162042255805E-002  0.15260830520278865        0.0000000000000000     
 -0.10177834381083786       0.16769065421502719        0.0000000000000000     
 </DataArray>
 <DataArray  type="Float64" Name="stress" NumberOfComponents="3" format="ascii">
   11742131950.835846        3522639585.2507534        2310631730.9712477     
   10338156386.136848        1659331957.1794543        1375515513.4095068     
   9110067032.0498962        382311697.81496525        661127507.51560092     
   8057863888.5749826       -308421192.84271383        167467713.28953037     
   7181546955.7121172       -412866714.79358196       -105463869.26870251     
   8818803904.6927891        2645641171.4078369        1726010250.5125217     
   8056875494.6648703        1286295567.6241846        1147189691.3405328     
   7427071638.1667738        367365142.27328134        725224418.48900223     
   6929392335.1985035       -111150104.64487457        460114431.95793080     
   6563837585.7600565       -149250173.13028097        351859731.74731809     
   6491359216.5897837        1947407764.9769351        1286665587.1541886     
   6188983888.8118639        1037275963.7546065        1013085419.7760301     
   5974971457.4815502        421687150.69096494        832487613.37095344     
   5849321922.5988417        100641325.78601074        744872167.93895876     
   5812035284.1637383        74138489.039743662        750239083.48004544     
   4759797886.5268307        1427939365.9580491        992597740.89624858     
   4734481568.5778332        912273145.57072079        973202698.71599972     
   4753766489.9942207        545277723.06801808        982917092.16145515     
   4817652650.7759991        326953098.44994211        1021740921.2326156     
   4926140050.9231644        257299271.71649218        1089674185.9294803     
   3624119914.5039282        1087235974.3511784        843806711.73870122     
   3693368533.9627752        911287113.07252729        1027541528.1604401     
   3763456735.7047906        738136859.40444076        1176512854.8605063     
   3834384519.7299762        567785213.34691882        1290720691.8389003     
   3906151886.0383310        400232174.89996183        1370165039.0956221     
   7181546955.7121172       -412866714.79358196       -105463869.26870251     
   6928915729.6722441       -117615745.05591154       -29370825.808332331     
   6640568037.8389940        58580338.703834772        35812560.189904287     
   6316503880.2123642        115721536.48564863        90086288.726012394     
   5956723256.7923574        53807848.289534569        133450359.79998694     
   6563837585.7600565       -149250173.13028097        351859731.74731809     
   6255069606.2622166       -1257813.8761627674        354444655.49339753     
   5925642829.3382921        77871887.291005611        358739874.92245489     
   5575557254.9882860        88138930.371234417        364745390.03449064     
   5204812883.2121935        29543315.364512920        372461200.82949787     
   5812035284.1637383        74138489.039743662        750239083.48004544     
   5483187560.1939535        85689340.506112099        696883167.27368057     
   5148738707.1653786        78569761.776517153        657857499.89540148     
   4808688725.0780144        52779752.850956440        633162081.34520543     
   4463037613.9318619        8319313.7294354439        622796911.62309241     
   4926140050.9231644        257299271.71649218        1089674185.9294803     
   4613269591.4674559        143225718.09091878        997944709.53251457     
   4309855671.3202534        60673962.160363674        933165435.10874093     
   4015898290.4815555        9644003.9248273373        895336362.65815914     
   3731397448.9513650       -9864156.6156871319        884457492.18077052     
   3906151886.0383310        400232174.89996183        1370165039.0956221     
   3645315700.0827227        171351318.87825334        1257629282.2698984     
   3408993721.8029151        24184488.442545414        1184663680.5624750     
   3197185951.1989074       -41268316.407160163        1151268233.9733524     
   3009892388.2707005       -25007095.670862675        1157442942.5025294     
   5956723256.7923574        53807848.289534569        133450359.79998694     
   5564208780.4322567       -49206864.629610300        99152881.831485182     
   5186786021.1791534       -101915853.85876131        88448010.041769281     
   4824454979.0330563       -104319119.39789915        101335744.43083908     
   4477215653.9939537       -56416661.247043610        137816084.99869058     
   5204812883.2121935        29543315.364512920        372461200.82949787     
   4881713554.4584894       -31388448.445075750        354419255.06117564     
   4568308411.0146656       -60006261.221736431        356469520.70909297     
   4264597452.8807173       -56310122.965475082        378611997.77324647     
   3970580680.0566430       -20300033.676302433        420846686.25364143     
   4463037613.9318619        8319313.7294354439        622796911.62309241     
   4199352304.8915691       -13529839.338481665        614713377.62497425     
   3939963649.3640289       -21056814.030560017        623221660.28054488     
   3684871647.3492365       -14261610.346801043        648321759.58980787     
   3434076298.8472013        6855771.7128064632        690013675.55276036     
   3731397448.9513650       -9864156.6156871319        884457492.18077052     
   3517125031.7314882        4368962.6901597977        880035249.52287292     
   3301751736.2272387        14932487.714767218        888704428.75611985     
   3085277562.4386191        21826418.458137393        910465029.88051319     
   2867702510.3656263        25050754.920268536        945317052.89605057     
   3009892388.2707005       -25007095.670862675        1157442942.5025294     
   2835031734.9782495        22307957.640854239        1150384870.7548776     
   2653672671.6043057        47961644.014257431        1152917826.1358252     
   2465815198.1488638        51953963.449335098        1165041808.6453698     
   2271459314.6119266        34284915.946096659        1186756818.2835097     
   4477215653.9939537       -56416661.247043610        137816084.99869058     
   4032238585.4002995       -34562933.207946301        145568247.66168621     
   3574327553.2960973       -55822416.870667219        180563726.48394889     
   3103482557.6813416       -120195112.23524725        242802521.46547377     
   2619703598.5560250       -227681019.30167580        332284632.60626119     
   3970580680.0566430       -20300033.676302433        420846686.25364143     
   3591797341.5721426       -7838401.3847870827        404967975.78504026     
   3204560375.6022515       -23555527.377907634        414931609.79827750     
   2808869782.1469717       -67451411.655665159        450737588.29334450     
   2404725561.2062898       -139526054.21808076        512385911.27025306     
   3434076298.8472013        6855771.7128064632        690013675.55276036     
   3117483914.2506256        8724475.3903653622        655731150.64858413     
   2796918238.1938171       -2651125.7995139360        645889998.54881871     
   2472379270.6767840       -27271031.856831431        660490219.25344956     
   2143867011.6995111       -65135242.781585336        699531812.76248872     
   2867702510.3656263        25050754.920268536        945317052.89605057     
   2609298303.4357486        15125697.117505670        897857772.25232160     
   2351401141.0708017        6890787.8645168543        873438892.73556662     
   2094011023.2707753        346027.16126763821        872060414.34578633     
   1837127950.0356836       -4508584.9922113419        893722337.08298028     
   2271459314.6119266        34284915.946096659        1186756818.2835097     
   2067240509.1275141        11365263.796644688        1131347840.5962477     
   1868009084.2331917        5070213.6141525507        1097578292.3585272     
   1673765039.9289570        15399765.398622751        1085448173.5703487     
   1484508376.2148108        42353919.150048971        1094957484.2317169     
   3624119914.5039282        1087235974.3511784        843806711.73870122     
   3693368533.9627752        911287113.07252729        1027541528.1604401     
   3763456735.7047906        738136859.40444076        1176512854.8605063     
   3834384519.7299762        567785213.34691882        1290720691.8389003     
   3906151886.0383310        400232174.89996183        1370165039.0956221     
   2769310200.0952215        830793060.02856648        777173168.70728600     
   2771897691.7643118        684026722.19213355        955571043.90025961     
   2775114870.1457667        539359340.06358457        1110720189.7207353     
   2778961735.2395868        396790913.64292014        1242620606.1687117     
   2783438287.0457730        256321442.93013954        1351272293.2441893     
   1880353642.8748565        564106092.86245692        729577780.82774174     
   1849179322.0375438        456392073.05324852        902393836.62601209     
   1818424792.3417921        350077357.04924357        1063475923.4009578     
   1788090053.7876015        245161944.85044211        1212824041.1525791     
   1758175106.3749721        141645836.45684457        1350438189.8808753     
   957250242.84283161        287175072.85284948        701020548.10006881     
   925213424.78247035        228383165.65587187        868009906.33769739     
   893386502.29286599        170290910.36141706        1034780055.9011754     
   861769475.37401879        112898306.96948525        1201330996.7905025     
   830362344.02592790        56205355.480076164        1367662729.0056796     
  -8.5211142171607993E-004  -2.5563342651482401E-004   691501470.52426708     
  -9.0785895284955869E-004   3.6715136425618730E-006   852419253.03531575     
  -1.0107871499505387E-003   1.0518715019881781E-004   1024632587.2213880     
  -1.1610275469968684E-003   4.9082189777706396E-005   1208141473.0824833     
  -1.3586659270175799E-003  -1.6466910252948197E-004   1402945910.6186025     
   3906151886.0383310        400232174.89996183        1370165039.0956221     
   3645315700.0827227        171351318.87825334        1257629282.2698984     
   3408993721.8029151        24184488.442545414        1184663680.5624750     
   3197185951.1989074       -41268316.407160163        1151268233.9733524     
   3009892388.2707005       -25007095.670862675        1157442942.5025294     
   2783438287.0457730        256321442.93013954        1351272293.2441893     
   2633008472.5957870        98219998.418787479        1292596081.9148338     
   2500964313.9026322        1404073.0968735218        1262943983.1998830     
   2387305810.9663086       -34126333.035605192        1262315997.0993352     
   2292032963.7868156       -8371219.9786473513        1290712123.6131935     
   1758175106.3749721        141645836.45684457        1350438189.8808753     
   1688020113.4194763        45284338.452510715        1338471546.8090911     
   1630122224.3018429       -10220146.758951426        1344982973.8478143     
   1584481439.0220699       -24867619.177542925        1369972470.9970450     
   1551097757.5801594        1341921.1967374682        1413440038.2567840     
   830362344.02592790        56205355.480076164        1367662729.0056796     
   810350622.55379033        12544338.979419410        1395255676.9526680     
   796467453.00054491       -10688171.124930084        1430780652.5062678     
   788712835.36619151       -13492174.832973927        1474237655.6664786     
   787086769.65072978        4132327.8552893400        1525626686.4333012     
  -1.3586659270175799E-003  -1.6466910252948197E-004   1402945910.6186025     
  -1.2702922505089989E-003  -4.8210062315882907E-004   1462948472.3455658     
  -1.2592777095813130E-003  -1.0579163461006207E-003   1520337019.1752439     
  -1.3267474916319902E-003  -1.8949127981012939E-003   1575111551.1076381     
  -1.4713505139537788E-003  -2.9893669957008679E-003   1627272068.1427469     
   3009892388.2707005       -25007095.670862675        1157442942.5025294     
   2835031734.9782495        22307957.640854239        1150384870.7548776     
   2653672671.6043057        47961644.014257431        1152917826.1358252     
   2465815198.1488638        51953963.449335098        1165041808.6453698     
   2271459314.6119266        34284915.946096659        1186756818.2835097     
   2292032963.7868156       -8371219.9786473513        1290712123.6131935     
   2142485999.8170273        21594627.804687142        1271090573.2710929     
   1988065228.2860999        35314450.384222031        1265353727.3243775     
   1828770649.1940320        32788247.759956360        1273501585.7730486     
   1664602262.5408239        14016019.931892157        1295534148.6171012     
   1551097757.5801594        1341921.1967374682        1413440038.2567840     
   1439132132.2667084        17638858.251788676        1383150378.9273190     
   1323917301.9124739        23105111.837563932        1371039101.2600243     
   1205453266.5174556        17740681.954055846        1377106205.2549009     
   1083740026.0816531        1545568.6012704372        1401351690.9119494     
   787086769.65072978        4132327.8552893400        1525626686.4333012     
   724970132.32729197        10440648.982163012        1486564287.7235522     
   661228892.48342717        11333628.374278605        1469973947.9427598     
   595863050.11913323        6811266.0316315591        1475855667.0909278     
   528872605.23441261       -3126438.0457720160        1504209445.1680484     
  -1.4713505139537788E-003  -2.9893669957008679E-003   1627272068.1427469     
  -1.2208183182320471E-003  -4.1936005949867634E-003   1581332299.6597958     
  -1.0406053308419992E-003  -5.6329254447686624E-003   1562158267.3725882     
  -9.3397130688684473E-004  -7.3166461442622181E-003   1569749971.2811258     
  -8.9809112527713562E-004  -9.2372538189928431E-003   1604107411.3854058     
   2271459314.6119266        34284915.946096659        1186756818.2835097     
   2067240509.1275141        11365263.796644688        1131347840.5962477     
   1868009084.2331917        5070213.6141525507        1097578292.3585272     
   1673765039.9289570        15399765.398622751        1085448173.5703487     
   1484508376.2148108        42353919.150048971        1094957484.2317169     
   1664602262.5408239        14016019.931892157        1295534148.6171012     
   1517147050.5501637       -1461051.5439202189        1253648603.3321004     
   1373432374.0020614       -4469671.5445343852        1232070412.6680601     
   1233458232.8965218        4990159.9300572276        1230799576.6249828     
   1097224627.2335401        26918442.879843116        1249836095.2028699     
   1083740026.0816531        1545568.6012704372        1401351690.9119494     
   989242479.50308061       -7630700.6254011393        1371534925.3570931     
   897238623.21953845       -8494668.8686357141        1360693439.5946188     
   807728457.23102915       -1046336.1284238994        1368827233.6245224     
   720711981.53755426        14714297.595226228        1395936307.4468114     
   528872605.23441261       -3126438.0457720160        1504209445.1680484     
   483526795.98626459       -7143683.4478022158        1485006806.6712260     
   439427831.88562101       -7004778.3581537008        1483447373.1382017     
   396575712.93248206       -2709722.7768222392        1499531144.5689745     
   354970439.12684786        5741483.2961930931        1533258120.9635518     
  -8.9809112527713562E-004  -9.2372538189928431E-003   1604107411.3854058     
  -2.8374738456285247E-004  -1.1127957529802975E-002   1594064247.2744982     
   3.0662285897133795E-004  -1.3097879008489691E-002   1600332213.2988083     
   8.7653099064713760E-004  -1.5135660582009181E-002   1622911309.4583361     
   1.4210244702551108E-003  -1.7259545441202211E-002   1661801535.7530782     
  -8.5211142171607993E-004  -2.5563342651482401E-004   691501470.52426708     
  -9.0785895284955869E-004   3.6715136425618730E-006   852419253.03531575     
  -1.0107871499505387E-003   1.0518715019881781E-004   1024632587.2213880     
  -1.1610275469968684E-003   4.9082189777706396E-005   1208141473.0824833     
  -1.3586659270175799E-003  -1.6466910252948197E-004   1402945910.6186025     
  -957250242.84442341       -287175072.85332704        701020548.10031331     
  -925213424.78420043       -228383165.65593368        868009906.33792138     
  -893386502.29481244       -170290910.36132431        1034780055.9013819     
  -861769475.37625980       -112898306.96949849        1201330996.7906950     
  -830362344.02854204       -56205355.480456412        1367662729.0058601     
  -1880353642.8761108       -564106092.86283326        729577780.82818472     
  -1849179322.0389543       -456392073.05330944        902393836.62643290     
  -1818424792.3434210       -350077357.04919577        1063475923.4013627     
  -1788090053.7895098       -245161944.85049146        1212824041.1529744     
  -1758175106.3772225       -141645836.45719731        1350438189.8812678     
  -2769310200.0959134       -830793060.02877402        777173168.70788121     
  -2771897691.7651691       -684026722.19212365        955571043.90085065     
  -2775114870.1468353       -539359340.06350875        1110720189.7213306     
  -2778961735.2409120       -396790913.64292985        1242620606.1693213     
  -2783438287.0473990       -256321442.93038714        1351272293.2448232     
  -3624119914.5038328       -1087235974.3511498        843806711.73940277     
  -3693368533.9628453       -911287113.07237613        1027541528.1611738     
  -3763456735.7050557       -738136859.40426445        1176512854.8612850     
  -3834384519.7304654       -567785213.34681404        1290720691.8397362     
  -3906151886.0390730       -400232174.90002596        1370165039.0965276     
  -1.3586659270175799E-003  -1.6466910252948197E-004   1402945910.6186025     
  -1.2702922505089989E-003  -4.8210062315882907E-004   1462948472.3455658     
  -1.2592777095813130E-003  -1.0579163461006207E-003   1520337019.1752439     
  -1.3267474916319902E-003  -1.8949127981012939E-003   1575111551.1076381     
  -1.4713505139537788E-003  -2.9893669957008679E-003   1627272068.1427469     
  -830362344.02854204       -56205355.480456412        1367662729.0058601     
  -810350622.55620837       -12544338.980343282        1395255676.9527586     
  -796467453.00291705        10688171.122961968        1430780652.5062616     
  -788712835.36866724        13492174.829461932        1474237655.6663699     
  -787086769.65346026       -4132327.8608466089        1525626686.4330831     
  -1758175106.3772225       -141645836.45719731        1350438189.8812678     
  -1688020113.4215293       -45284338.453318894        1338471546.8093085     
  -1630122224.3038425        10220146.757204175        1344982973.8478439     
  -1584481439.0241618        24867619.174372852        1369972470.9968760     
  -1551097757.5824883       -1341921.2018138766        1413440038.2564020     
  -2783438287.0473990       -256321442.93038714        1351272293.2448232     
  -2633008472.5972328       -98219998.419409990        1292596081.9152153     
  -2500964313.9040356       -1404073.0983339548        1262943983.1999919     
  -2387305810.9678102        34126333.032837033        1262315997.0991542     
  -2292032963.7885561        8371219.9741058350        1290712123.6127009     
  -3906151886.0390730       -400232174.90002596        1370165039.0965276     
  -3645315700.0833178       -171351318.87861478        1257629282.2704792     
  -3408993721.8034978       -24184488.443654776        1184663680.5627050     
  -3197185951.1996136        41268316.404855013        1151268233.9732068     
  -3009892388.2716622        25007095.666914463        1157442942.5019827     
  -1.4713505139537788E-003  -2.9893669957008679E-003   1627272068.1427469     
  -1.2208183182320471E-003  -4.1936005949867634E-003   1581332299.6597958     
  -1.0406053308419992E-003  -5.6329254447686624E-003   1562158267.3725882     
  -9.3397130688684473E-004  -7.3166461442622181E-003   1569749971.2811258     
  -8.9809112527713562E-004  -9.2372538189928431E-003   1604107411.3854058     
  -787086769.65346026       -4132327.8608466089        1525626686.4330831     
  -724970132.32950354       -10440648.989967912        1486564287.7232249     
  -661228892.48525429       -11333628.384778649        1469973947.9423006     
  -595863050.12071359       -6811266.0452844203        1475855667.0903108     
  -528872605.23588121        3126438.0285132229        1504209445.1672537     
  -1551097757.5824883       -1341921.2018138766        1413440038.2564020     
  -1439132132.2685697       -17638858.258975327        1383150378.9267273     
  -1323917301.9139941       -23105111.847282231        1371039101.2591774     
  -1205453266.5187628       -17740681.966735601        1377106205.2537513     
  -1083740026.0828764       -1545568.6173374653        1401351690.9104478     
  -2292032963.7885561        8371219.9741058350        1290712123.6127009     
  -2142485999.8184178       -21594627.811218262        1271090573.2703030     
  -1988065228.2872603       -35314450.393144369        1265353727.3232188     
  -1828770649.1950824       -32788247.771669507        1273501585.7714467     
  -1664602262.5418837       -14016019.946791232        1295534148.6149902     
  -3009892388.2716622        25007095.666914463        1157442942.5019827     
  -2835031734.9790492       -22307957.646699190        1150384870.7539506     
  -2653672671.6050510       -47961644.022362947        1152917826.1344228     
  -2465815198.1496682       -51953963.460078120        1165041808.6433978     
  -2271459314.6129026       -34284915.959851980        1186756818.2808764     
  -8.9809112527713562E-004  -9.2372538189928431E-003   1604107411.3854058     
  -2.8374738456285247E-004  -1.1127957529802975E-002   1594064247.2744982     
   3.0662285897133795E-004  -1.3097879008489691E-002   1600332213.2988083     
   8.7653099064713760E-004  -1.5135660582009181E-002   1622911309.4583361     
   1.4210244702551108E-003  -1.7259545441202211E-002   1661801535.7530782     
  -528872605.23588121        3126438.0285132229        1504209445.1672537     
  -483526795.98654431        7143683.4268181622        1485006806.6702602     
  -439427831.88487244        7004778.3329065740        1483447373.1370218     
  -396575712.93086213        2709722.7467875034        1499531144.5675397     
  -354970439.12452030       -5741483.3315526098        1533258120.9618120     
  -1083740026.0828764       -1545568.6173374653        1401351690.9104478     
  -989242479.50327873        7630700.6056229472        1371534925.3551214     
  -897238623.21898460        8494668.8442363143        1360693439.5920894     
  -807728457.22999728        1046336.0984917581        1368827233.6213512     
  -720711981.53631735       -14714297.631602377        1395936307.4429045     
  -1664602262.5418837       -14016019.946791232        1295534148.6149902     
  -1517147050.5504854        1461051.5252873898        1253648603.3290803     
  -1373432374.0020339        4469671.5208755732        1232070412.6640034     
  -1233458232.8965275       -4990159.9600207210        1230799576.6197579     
  -1097224627.2339709       -26918442.917409122        1249836095.1963491     
  -2271459314.6129026       -34284915.959851980        1186756818.2808764     
  -2067240509.1281650       -11365263.814193487        1131347840.5921378     
  -1868009084.2340126       -5070213.6371498108        1097578292.3527694     
  -1673765039.9304547       -15399765.428753972        1085448173.5627739     
  -1484508376.2174792       -42353919.188972294        1094957484.2221477     
  -3624119914.5038328       -1087235974.3511498        843806711.73940277     
  -3693368533.9628453       -911287113.07237613        1027541528.1611738     
  -3763456735.7050557       -738136859.40426445        1176512854.8612850     
  -3834384519.7304654       -567785213.34681404        1290720691.8397362     
  -3906151886.0390730       -400232174.90002596        1370165039.0965276     
  -4759797886.5259657       -1427939365.9577897        992597740.89699244     
  -4734481568.5770912       -912273145.57050812        973202698.71668625     
  -4753766489.9936123       -545277723.06788218        982917092.16214371     
  -4817652650.7755308       -326953098.44991016        1021740921.2333647     
  -4926140050.9228449       -257299271.71659374        1089674185.9303498     
  -6491359216.5884075       -1947407764.9765222        1286665587.1548929     
  -6188983888.8104353       -1037275963.7543696        1013085419.7766118     
  -5974971457.4800587       -421687150.69086576        832487613.37151802     
  -5849321922.5972757       -100641325.78600979        744872167.93961120     
  -5812035284.1620874       -74138489.039804220        750239083.48089123     
  -8818803904.6911602       -2645641171.4073482        1726010250.5131052     
  -8056875494.6628809       -1286295567.6239617        1147189691.3409510     
  -7427071638.1643944       -367365142.27321672        725224418.48940837     
  -6929392335.1957006        111150104.64488554        460114431.95847571     
  -6563837585.7567997        149250173.13034630        351859731.74815404     
  -11742131950.834223       -3522639585.2502666        2310631730.9716277     
  -10338156386.134426       -1659331957.1792836        1375515513.4097035     
  -9110067032.0466213       -382311697.81493568        661127507.51581395     
  -8057863888.5708046        308421192.84277868        167467713.28995791     
  -7181546955.7069807        412866714.79385376       -105463869.26786360     
  -3906151886.0390730       -400232174.90002596        1370165039.0965276     
  -3645315700.0833178       -171351318.87861478        1257629282.2704792     
  -3408993721.8034978       -24184488.443654776        1184663680.5627050     
  -3197185951.1996136        41268316.404855013        1151268233.9732068     
  -3009892388.2716622        25007095.666914463        1157442942.5019827     
  -4926140050.9228449       -257299271.71659374        1089674185.9303498     
  -4613269591.4670153       -143225718.09124684        997944709.53302002     
  -4309855671.3197994       -60673962.161273718        933165435.10887265     
  -4015898290.4811940       -9644003.9266707897        895336362.65790498     
  -3731397448.9512005        9864156.6125566959        884457492.18011868     
  -5812035284.1620874       -74138489.039804220        750239083.48089123     
  -5483187560.1921673       -85689340.506316185        696883167.27415895     
  -5148738707.1635370       -78569761.777124166        657857499.89551485     
  -4808688725.0761919       -52779752.852221966        633162081.34495652     
  -4463037613.9301376       -8319313.7316193581        622796911.62248516     
  -6563837585.7567997        149250173.13034630        351859731.74815404     
  -6255069606.2587719        1257813.8761794567        354444655.49389637     
  -5925642829.3347101       -77871887.291202307        358739874.92263186     
  -5575557254.9846106       -88138930.371802092        364745390.03436106     
  -5204812883.2084770       -29543315.365611076        372461200.82908154     
  -7181546955.7069807        412866714.79385376       -105463869.26786360     
  -6928915729.6668282        117615745.05623722       -29370825.807768360     
  -6640568037.8333197       -58580338.703519821        35812560.190225147     
  -6316503880.2064486       -115721536.48540330        90086288.726116881     
  -5956723256.7862196       -53807848.289433718        133450359.79990816     
  -3009892388.2716622        25007095.666914463        1157442942.5019827     
  -2835031734.9790492       -22307957.646699190        1150384870.7539506     
  -2653672671.6050510       -47961644.022362947        1152917826.1344228     
  -2465815198.1496682       -51953963.460078120        1165041808.6433978     
  -2271459314.6129026       -34284915.959851980        1186756818.2808764     
  -3731397448.9512005        9864156.6125566959        884457492.18011868     
  -3517125031.7312198       -4368962.6947693825        880035249.52190435     
  -3301751736.2269497       -14932487.721131086        888704428.75478613     
  -3085277562.4383874       -21826418.466519356        910465029.87876523     
  -2867702510.3655353       -25050754.930941820        945317052.89384377     
  -4463037613.9301376       -8319313.7316193581        622796911.62248516     
  -4199352304.8896661        13529839.335275650        614713377.62414503     
  -3939963649.3619990        21056814.026156187        623221660.27949631     
  -3684871647.3471308        14261610.341039658        648321759.58853841     
  -3434076298.8450699       -6855771.7200973034        690013675.55127144     
  -5204812883.2084770       -29543315.365611076        372461200.82908154     
  -4881713554.4543915        31388448.443436384        354419255.06067318     
  -4568308411.0101957        60006261.219503880        356469520.70855170     
  -4264597452.8759012        56310122.962577581        378611997.77271307     
  -3970580680.0514998        20300033.672678471        420846686.25316197     
  -5956723256.7862196       -53807848.289433718        133450359.79990816     
  -5564208780.4253902        49206864.629711866        99152881.831490308     
  -5186786021.1715479        101915853.85889769        88448010.041951194     
  -4824454979.0246916        104319119.39812756        101335744.43129256     
  -4477215653.9848309        56416661.247375488        137816084.99951172     
  -2271459314.6129026       -34284915.959851980        1186756818.2808764     
  -2067240509.1281650       -11365263.814193487        1131347840.5921378     
  -1868009084.2340126       -5070213.6371498108        1097578292.3527694     
  -1673765039.9304547       -15399765.428753972        1085448173.5627739     
  -1484508376.2174792       -42353919.188972294        1094957484.2221477     
  -2867702510.3655353       -25050754.930941820        945317052.89384377     
  -2609298303.4354978       -15125697.131179571        897857772.24844265     
  -2351401141.0708408       -6890787.8826922178        873438892.72987700     
  -2094011023.2715600       -346027.18546080589        872060414.33815110     
  -1837127950.0376594        4508584.9605102539        893722337.07326305     
  -3434076298.8450699       -6855771.7200973034        690013675.55127144     
  -3117483914.2484016       -8724475.3998533487        655731150.64528632     
  -2796918238.1919031        2651125.7865017653        645889998.54360616     
  -2472379270.6755786        27271031.838951707        660490219.24622583     
  -2143867011.6994061        65135242.757532835        699531812.75315130     
  -3970580680.0514998        20300033.672678471        420846686.25316197     
  -3591797341.5668755        7838401.3798060417        404967975.78267217     
  -3204560375.5972023        23555527.370434999        414931609.79395080     
  -2808869782.1424966        67451411.644502640        450737588.28699976     
  -2404725561.2027364        139526054.20207870        512385911.26181430     
  -4477215653.9848309        56416661.247375488        137816084.99951172     
  -4032238585.3909140        34562933.207805872        145568247.66059512     
  -3574327553.2867427        55822416.869080305        180563726.48091829     
  -3103482557.6723289        120195112.23117399        242802521.46047270     
  -2619703598.5476460        227681019.29414392        332284632.59925908     
 </DataArray>
 <DataArray  type="Float64" Name="VM" NumberOfComponents="1" format="ascii">
   11177674649.124352     
   9907197157.6926861     
   8998214662.4804859     
   8221535524.2349377     
   7398882698.2988806     
   8389079984.0666962     
   7755798369.5998402     
   7358379876.6241941     
   7030942400.2434378     
   6667631451.6449881     
   6185090390.4273338     
   6003232877.0684166     
   5952952390.2564535     
   5941423714.6598206     
   5919707019.1733913     
   4566588968.0328560     
   4665810551.2851601     
   4816832849.4140749     
   4987323175.9183264     
   5160206969.0568008     
   3537242283.5511236     
   3777991656.6309977     
   4010368310.0547814     
   4224412098.0409274     
   4414396605.2980537     
   7398882698.2988806     
   6988651098.3583603     
   6611763487.5130768     
   6261389927.7043915     
   5934505520.8362989     
   6667631451.6449881     
   6285750401.9847717     
   5919792975.6676235     
   5567971005.7322941     
   5230044413.4521837     
   5919707019.1733913     
   5573129839.1411934     
   5235406171.3455439     
   4906643885.4187098     
   4587512672.8584356     
   5160206969.0568008     
   4861040218.8984041     
   4574869878.5017195     
   4300428391.9538870     
   4038195943.5968947     
   4414396605.2980537     
   4175877441.8895760     
   3968584435.7451634     
   3785749490.0742855     
   3626895188.1965132     
   5934505520.8362989     
   5591612631.2471056     
   5240727139.2755642     
   4880608365.5292807     
   4512007561.0274868     
   5230044413.4521837     
   4935806003.2563705     
   4639868657.0817566     
   4342826660.8982449     
   4046957097.5880103     
   4587512672.8584356     
   4338799028.4242067     
   4095355386.6676059     
   3859015154.9914007     
   3632869444.6828260     
   4038195943.5968947     
   3831214886.9301634     
   3636189052.3875041     
   3455273242.8273425     
   3291410048.4437070     
   3626895188.1965132     
   3456127148.7083154     
   3302220920.0438886     
   3166512621.2819042     
   3050901722.2699032     
   4512007561.0274868     
   4057471989.1861882     
   3616112689.2223177     
   3193107182.4272017     
   2800425254.7825618     
   4046957097.5880103     
   3663498425.9518023     
   3295717205.0770869     
   2948432549.4162107     
   2631598825.7638717     
   3632869444.6828260     
   3313839719.4471021     
   3013585126.1223392     
   2736707746.5984578     
   2491602683.6565270     
   3291410048.4437070     
   3031112783.2498550     
   2793137716.0405746     
   2581787326.5300350     
   2404071780.7603917     
   3050901722.2699032     
   2844285774.5569420     
   2663465179.8594179     
   2512079653.4419465     
   2395721165.4532509     
   3537242283.5511236     
   3777991656.6309977     
   4010368310.0547814     
   4224412098.0409274     
   4414396605.2980537     
   2805453047.2123756     
   2999100754.8519683     
   3193193532.3145256     
   3377828074.6355724     
   3546489093.9242659     
   2095251243.7481248     
   2286208873.7267637     
   2487081955.8242545     
   2689205319.2152729     
   2886737774.4000797     
   1482628938.1498880     
   1719650887.0682759     
   1971626772.0142334     
   2233313420.2758613     
   2501498325.9181719     
   1197715680.4566231     
   1476433455.6070778     
   1774715700.1581931     
   2092562414.1099682     
   2429973597.4624043     
   4414396605.2980537     
   4175877441.8895760     
   3968584435.7451634     
   3785749490.0742855     
   3626895188.1965132     
   3546489093.9242659     
   3419967922.3320665     
   3322107079.5849872     
   3249952101.8688107     
   3204759843.5255198     
   2886737774.4000797     
   2854739908.5275025     
   2846225677.2349391     
   2860257999.5478983     
   2897803103.8366990     
   2501498325.9181719     
   2546934508.6236887     
   2604685633.2162356     
   2674513305.8326435     
   2756606703.4639397     
   2429973597.4624043     
   2533901082.9577928     
   2633300961.8393407     
   2728173234.1070514     
   2818517899.7609220     
   3626895188.1965132     
   3456127148.7083154     
   3302220920.0438886     
   3166512621.2819042     
   3050901722.2699032     
   3204759843.5255198     
   3064548928.6345382     
   2947338324.1871610     
   2854984034.6842971     
   2789801468.4703693     
   2897803103.8366990     
   2790222695.0436521     
   2713290670.5186496     
   2668578507.0326667     
   2657852426.9083962     
   2756606703.4639397     
   2673526077.2711258     
   2629130692.7843113     
   2624021805.6149368     
   2658816966.1364365     
   2818517899.7609220     
   2738947886.6604991     
   2705737488.5530896     
   2718886705.4386959     
   2778395537.3173132     
   3050901722.2699032     
   2844285774.5569420     
   2663465179.8594179     
   2512079653.4419465     
   2395721165.4532509     
   2789801468.4703693     
   2649312816.4893651     
   2538989515.7005286     
   2461684738.8745475     
   2421024927.8634419     
   2657852426.9083962     
   2574787695.8062611     
   2523329340.5863581     
   2504862370.9584041     
   2520903017.5025449     
   2658816966.1364365     
   2617830973.2674904     
   2607311317.7244868     
   2627572113.0969019     
   2678925216.7500877     
   2778395537.3173132     
   2761000266.8084693     
   2771856702.4226899     
   2810964844.1599751     
   2878324692.0203199     
   1197715680.4566231     
   1476433455.6070778     
   1774715700.1581931     
   2092562414.1099682     
   2429973597.4624043     
   1482628938.1510465     
   1719650887.0694227     
   1971626772.0153694     
   2233313420.2769785     
   2501498325.9192519     
   2095251243.7494769     
   2286208873.7282495     
   2487081955.8258610     
   2689205319.2169776     
   2886737774.4018559     
   2805453047.2134099     
   2999100754.8532305     
   3193193532.3160052     
   3377828074.6372547     
   3546489093.9261284     
   3537242283.5515485     
   3777991656.6316934     
   4010368310.0557413     
   4224412098.0421381     
   4414396605.2994976     
   2429973597.4624043     
   2533901082.9577928     
   2633300961.8393407     
   2728173234.1070514     
   2818517899.7609220     
   2501498325.9192519     
   2546934508.6244588     
   2604685633.2166467     
   2674513305.8326650     
   2756606703.4635701     
   2886737774.4018559     
   2854739908.5287800     
   2846225677.2356229     
   2860257999.5479174     
   2897803103.8360295     
   3546489093.9261284     
   3419967922.3333697     
   3322107079.5856185     
   3249952101.8686647     
   3204759843.5245357     
   4414396605.2994976     
   4175877441.8904648     
   3968584435.7453985     
   3785749490.0737538     
   3626895188.1951256     
   2818517899.7609220     
   2738947886.6604991     
   2705737488.5530896     
   2718886705.4386959     
   2778395537.3173132     
   2756606703.4635701     
   2673526077.2701478     
   2629130692.7827215     
   2624021805.6127377     
   2658816966.1336441     
   2897803103.8360295     
   2790222695.0419183     
   2713290670.5158129     
   2668578507.0286932     
   2657852426.9032531     
   3204759843.5245357     
   3064548928.6322851     
   2947338324.1835418     
   2854984034.6792030     
   2789801468.4636879     
   3626895188.1951256     
   3456127148.7056828     
   3302220920.0398741     
   3166512621.2763410     
   3050901722.2625856     
   2778395537.3173132     
   2761000266.8084693     
   2771856702.4226899     
   2810964844.1599751     
   2878324692.0203199     
   2658816966.1336441     
   2617830973.2639036     
   2607311317.7201505     
   2627572113.0919023     
   2678925216.7445273     
   2657852426.9032531     
   2574787695.7993288     
   2523329340.5776482     
   2504862370.9480338     
   2520903017.4907169     
   2789801468.4636879     
   2649312816.4799170     
   2538989515.6881676     
   2461684738.8592672     
   2421024927.8454409     
   3050901722.2625856     
   2844285774.5462027     
   2663465179.8448544     
   2512079653.4232678     
   2395721165.4303889     
   3537242283.5515485     
   3777991656.6316934     
   4010368310.0557413     
   4224412098.0421381     
   4414396605.2994976     
   4566588968.0326290     
   4665810551.2849760     
   4816832849.4139814     
   4987323175.9183626     
   5160206969.0570097     
   6185090390.4266329     
   6003232877.0674429     
   5952952390.2552891     
   5941423714.6585379     
   5919707019.1720734     
   8389079984.0657034     
   7755798369.5982037     
   7358379876.6220016     
   7030942400.2407646     
   6667631451.6419115     
   11177674649.123240     
   9907197157.6905022     
   8998214662.4773006     
   8221535524.2308254     
   7398882698.2938614     
   4414396605.2994976     
   4175877441.8904648     
   3968584435.7453985     
   3785749490.0737538     
   3626895188.1951256     
   5160206969.0570097     
   4861040218.8981581     
   4574869878.5009584     
   4300428391.9525347     
   4038195943.5948606     
   5919707019.1720734     
   5573129839.1395321     
   5235406171.3434992     
   4906643885.4162302     
   4587512672.8554544     
   6667631451.6419115     
   6285750401.9814377     
   5919792975.6639977     
   5567971005.7283421     
   5230044413.4478655     
   7398882698.2938614     
   6988651098.3531055     
   6611763487.5075626     
   6261389927.6986017     
   5934505520.8302107     
   3626895188.1951256     
   3456127148.7056828     
   3302220920.0398741     
   3166512621.2763410     
   3050901722.2625856     
   4038195943.5948606     
   3831214886.9271388     
   3636189052.3834014     
   3455273242.8220658     
   3291410048.4371581     
   4587512672.8554544     
   4338799028.4204473     
   4095355386.6630282     
   3859015154.9859743     
   3632869444.6765327     
   5230044413.4478655     
   4935806003.2513752     
   4639868657.0760746     
   4342826660.8918848     
   4046957097.5810056     
   5934505520.8302107     
   5591612631.2402945     
   5240727139.2680426     
   4880608365.5210686     
   4512007561.0186214     
   3050901722.2625856     
   2844285774.5462027     
   2663465179.8448544     
   2512079653.4232678     
   2395721165.4303889     
   3291410048.4371581     
   3031112783.2403755     
   2793137716.0276647     
   2581787326.5131259     
   2404071780.7388940     
   3632869444.6765327     
   3313839719.4386172     
   3013585126.1111608     
   2736707746.5838780     
   2491602683.6375942     
   4046957097.5810056     
   3663498425.9433947     
   3295717205.0668378     
   2948432549.4034138     
   2631598825.7474418     
   4512007561.0186214     
   4057471989.1766324     
   3616112689.2117367     
   3193107182.4149985     
   2800425254.7677550     
 </DataArray>
 <DataArray  type="Float64" Name="strain" NumberOfComponents="3" format="ascii">
  0.17808900125434365        0.0000000000000000       0.10012737500875407     
  0.16400594664971688       -2.4035249311026671E-002   5.9605672247745295E-002
  0.14992289204509010       -3.9178473530000056E-002   2.8648858659009374E-002
  0.13583983744046330       -4.5429672656920148E-002   7.2569342425463160E-003
  0.12175678283583653       -4.2788846691786953E-002  -4.5701010016437754E-003
  0.13375185922117397        0.0000000000000000        7.4793777522209282E-002
  0.12784978040629358       -1.8846118012921270E-002   4.9711553291423086E-002
  0.12194770159141316       -3.1012605819612515E-002   3.1426391467856765E-002
  0.11604562277653276       -3.6499463420073756E-002   1.9938292051510334E-002
  0.11014354396165235       -3.5306690814304965E-002   1.5247255042383785E-002
   9.8452281451611723E-002   0.0000000000000000        5.5755508776681506E-002
   9.7963351661424697E-002  -1.3656986714815876E-002   4.3900368190294636E-002
   9.7474421871237671E-002  -2.2846738109224999E-002   3.6074463246074648E-002
   9.6985492081050631E-002  -2.7569254183227358E-002   3.2277793944021548E-002
   9.6496562290863591E-002  -2.7824534936822964E-002   3.2510360284135301E-002
   7.2190267945656930E-002   0.0000000000000000        4.3012568772170773E-002
   7.4346660415110274E-002  -8.4678554167104819E-003   4.2172116944359989E-002
   7.6503052884563591E-002  -1.4680870398837470E-002   4.2593073993663057E-002
   7.8659445354016935E-002  -1.8639044946380960E-002   4.4275439920080012E-002
   8.0815837823470293E-002  -2.0342379059340956E-002   4.7219214723610813E-002
   5.4965818703309577E-002   0.0000000000000000        3.6564957508677054E-002
   5.6999706667350283E-002  -3.2787241186050869E-003   4.4526799553619073E-002
   5.9033594631390976E-002  -6.5150026884499418E-003   5.0982223710621936E-002
   6.1067482595431682E-002  -9.7088357095345707E-003   5.5931229979685686E-002
   6.3101370559472375E-002  -1.2860223181858957E-002   5.9373818360810286E-002
  0.12175678283583653       -4.2788846691786953E-002  -4.5701010016437754E-003
  0.11607000755315029       -3.6604841065959744E-002  -1.2727357850277343E-003
  0.11038323227046407       -3.2226501210797724E-002   1.5518776082291859E-003
  0.10469645698777783       -2.9653827126301012E-002   3.9037391781272038E-003
   9.9009681705091612E-002  -2.8886818812469545E-002   5.7828489246661008E-003
  0.11014354396165235       -3.5306690814304965E-002   1.5247255042383785E-002
  0.10425744917375110       -3.1296311595913798E-002   1.5359268404713893E-002
   9.8371354385849846E-002  -2.8330349358508033E-002   1.5545394579973046E-002
   9.2485259597948608E-002  -2.6408804102087527E-002   1.5805633568161261E-002
   8.6599164810047327E-002  -2.5531675826652417E-002   1.6139985369278242E-002
   9.6496562290863591E-002  -2.7824534936822964E-002   3.2510360284135301E-002
   9.0958012634035343E-002  -2.5987782125867904E-002   3.0198270581859490E-002
   8.5419462977207067E-002  -2.4434197506218277E-002   2.8507158328800731E-002
   7.9880913320378791E-002  -2.3163781077874129E-002   2.7437023524958901E-002
   7.4342363663550529E-002  -2.2176532840835386E-002   2.6987866170334003E-002
   8.0815837823470293E-002  -2.0342379059340956E-002   4.7219214723610813E-002
   7.6171697934003010E-002  -2.0679252655821968E-002   4.3244270746408964E-002
   7.1527558044535741E-002  -2.0538045653928541E-002   4.0437168854712109E-002
   6.6883418155068458E-002  -1.9918758053660657E-002   3.8797909048520228E-002
   6.2239278265601189E-002  -1.8821389855018279E-002   3.8326491327833390E-002
   6.3101370559472375E-002  -1.2860223181858957E-002   5.9373818360810286E-002
   5.9898505073654115E-002  -1.5370723185776059E-002   5.4497268898362268E-002
   5.6695639587835855E-002  -1.6641893801638819E-002   5.1335426157707247E-002
   5.3492774102017596E-002  -1.6673735029447207E-002   4.9888290138845270E-002
   5.0289908616199322E-002  -1.5466246869201214E-002   5.0155860841776270E-002
   9.9009681705091612E-002  -2.8886818812469545E-002   5.7828489246661008E-003
   9.2982847330352336E-002  -2.8641158312654791E-002   4.2966248793643580E-003
   8.6956012955613032E-002  -2.7632527670208455E-002   3.8327471018100023E-003
   8.0929178580873770E-002  -2.5860926885130267E-002   4.3912155920030269E-003
   7.4902344206134452E-002  -2.3326355957420497E-002   5.9720303499432581E-003
   8.6599164810047327E-002  -2.5531675826652417E-002   1.6139985369278242E-002
   8.1518834816533534E-002  -2.4931708579710374E-002   1.5358167719317611E-002
   7.6438504823019782E-002  -2.3841646408768936E-002   1.5447012564060697E-002
   7.1358174829506002E-002  -2.2261489313828174E-002   1.6406519903507347E-002
   6.6277844835992222E-002  -2.0191237294888253E-002   1.8236689737657796E-002
   7.4342363663550529E-002  -2.2176532840835386E-002   2.6987866170334003E-002
   7.0056854278218561E-002  -2.1222258846765873E-002   2.6637579697082220E-002
   6.5771344892886607E-002  -2.0050765147329477E-002   2.7006271945490278E-002
   6.1485835507554612E-002  -1.8662051742526199E-002   2.8093942915558341E-002
   5.7200326122222658E-002  -1.7056118632355899E-002   2.9900592607286280E-002
   6.2239278265601189E-002  -1.8821389855018279E-002   3.8326491327833390E-002
   5.8596905715407335E-002  -1.7512809113821443E-002   3.8134860812657830E-002
   5.4954533165213475E-002  -1.6259883885890072E-002   3.8510525246098527E-002
   5.1312160615019628E-002  -1.5062614171224138E-002   3.9453484628155573E-002
   4.7669788064825760E-002  -1.3920999969823655E-002   4.0963738958828856E-002
   5.0289908616199322E-002  -1.5466246869201214E-002   5.0155860841776270E-002
   4.7138989128099891E-002  -1.3803359380877012E-002   4.9850011066044697E-002
   4.3988069640000474E-002  -1.2469002624450571E-002   4.9959772465885753E-002
   4.0837150151901050E-002  -1.1463176599922065E-002   5.0485145041299362E-002
   3.7686230663801626E-002  -1.0785881307291356E-002   5.1426128792285419E-002
   7.4902344206134452E-002  -2.3326355957420497E-002   5.9720303499432581E-003
   6.7376791089378052E-002  -2.0737241813800600E-002   6.3079573986730697E-003
   5.9851237972621624E-002  -1.8802011380991607E-002   7.8244281476377853E-003
   5.2325684855865265E-002  -1.7520664658994163E-002   1.0521442596837197E-002
   4.4800131739108795E-002  -1.6893201647808054E-002   1.4399000746271318E-002
   6.6277844835992222E-002  -2.0191237294888253E-002   1.8236689737657796E-002
   5.9902481033126315E-002  -1.8089626730940500E-002   1.7548612284018411E-002
   5.3527117230260393E-002  -1.6415394000976385E-002   1.7980369757925357E-002
   4.7151753427394520E-002  -1.5168539104995944E-002   1.9531962159378261E-002
   4.0776389624528564E-002  -1.4349062042999461E-002   2.2203389488377634E-002
   5.7200326122222658E-002  -1.7056118632355899E-002   2.9900592607286280E-002
   5.1914442860558602E-002  -1.5442011648080373E-002   2.8415016528105311E-002
   4.6628559598894524E-002  -1.4028776620960984E-002   2.7988566603782142E-002
   4.1342676337230558E-002  -1.2816413550997777E-002   2.8621242834316149E-002
   3.6056793075566446E-002  -1.1804922438190646E-002   3.0313045219707846E-002
   4.7669788064825760E-002  -1.3920999969823655E-002   4.0963738958828856E-002
   4.3412676571674948E-002  -1.2794396565220315E-002   3.8907170130933935E-002
   3.9155565078524114E-002  -1.1642159240945395E-002   3.7849018685207889E-002
   3.4898453585373253E-002  -1.0464287996999418E-002   3.7789284621650744E-002
   3.0641342092222454E-002  -9.2607828333819420E-003   3.8727967940262481E-002
   3.7686230663801626E-002  -1.0785881307291356E-002   5.1426128792285419E-002
   3.4397182166475346E-002  -1.0146781482360159E-002   4.9025073092504062E-002
   3.1108133669149100E-002  -9.2555418609300832E-003   4.7561726002202848E-002
   2.7819085171822838E-002  -8.1121624430010725E-003   4.7036087521381775E-002
   2.4530036674496603E-002  -6.7166432285732380E-003   4.7448157650041067E-002
   5.4965818703309577E-002   0.0000000000000000        3.6564957508677054E-002
   5.6999706667350283E-002  -3.2787241186050869E-003   4.4526799553619073E-002
   5.9033594631390976E-002  -6.5150026884499418E-003   5.0982223710621936E-002
   6.1067482595431682E-002  -9.7088357095345707E-003   5.5931229979685686E-002
   6.3101370559472375E-002  -1.2860223181858957E-002   5.9373818360810286E-002
   4.2001204701444195E-002   0.0000000000000000        3.3677503977315726E-002
   4.2778161251777858E-002  -2.4590430889526657E-003   4.1408078569011249E-002
   4.3555117802111520E-002  -4.8862520163357580E-003   4.8131208221231861E-002
   4.4332074352445183E-002  -7.2816267821492649E-003   5.3846892933977507E-002
   4.5109030902778853E-002  -9.6451673863932053E-003   5.8555132707248207E-002
   2.8518696916935322E-002   0.0000000000000000        3.1615037169202144E-002
   2.8537695002026155E-002  -1.6393620593002432E-003   3.9103732920460522E-002
   2.8556693087116985E-002  -3.2575013442215674E-003   4.6083956680708173E-002
   2.8575691172207814E-002  -4.8544178547639720E-003   5.2555708449945095E-002
   2.8594689257298647E-002  -6.4301115909274524E-003   5.8518988228171268E-002
   1.4518295349782946E-002   0.0000000000000000        3.0377557084336315E-002
   1.4278307918095147E-002  -8.1968102964782093E-004   3.7613762607966887E-002
   1.4038320486407347E-002  -1.6287506721073784E-003   4.4840469089050934E-002
   1.3798333054719553E-002  -2.4272089273786727E-003   5.2057676527588449E-002
   1.3558345623031751E-002  -3.2150557954617035E-003   5.9265384923579446E-002
  -1.2923689896027213E-014   0.0000000000000000        2.9965063722718240E-002
  -1.5149340115705456E-014   4.6004866582904924E-015   3.6938167631530350E-002
  -1.7372388250169735E-014   6.8070549197329910E-015   4.4400745446260145E-002
  -1.9595870065503007E-014   6.6231742312794495E-015   5.2352797166907612E-002
  -2.1821086604312256E-014   4.0488445929298678E-015   6.0794322793472771E-002
   6.3101370559472375E-002  -1.2860223181858957E-002   5.9373818360810286E-002
   5.9898505073654115E-002  -1.5370723185776059E-002   5.4497268898362268E-002
   5.6695639587835855E-002  -1.6641893801638819E-002   5.1335426157707247E-002
   5.3492774102017596E-002  -1.6673735029447207E-002   4.9888290138845270E-002
   5.0289908616199322E-002  -1.5466246869201214E-002   5.0155860841776270E-002
   4.5109030902778853E-002  -9.6451673863932053E-003   5.8555132707248207E-002
   4.3392374551169177E-002  -1.1528042389332475E-002   5.6012496882976132E-002
   4.1675718199559508E-002  -1.2481420351231938E-002   5.4727572605328262E-002
   3.9959061847949839E-002  -1.2505301272091630E-002   5.4700359874304522E-002
   3.8242405496340171E-002  -1.1599685151911537E-002   5.5930858689905050E-002
   2.8594689257298647E-002  -6.4301115909274524E-003   5.8518988228171268E-002
   2.7907246864728719E-002  -7.6853615928888690E-003   5.8000433695060610E-002
   2.7219804472158805E-002  -8.3209469008250717E-003   5.8282595533405292E-002
   2.6532362079588881E-002  -8.3368675147360658E-003   5.9365473743205291E-002
   2.5844919687018970E-002  -7.7331234346218400E-003   6.1249068324460643E-002
   1.3558345623031751E-002  -3.2150557954617035E-003   5.9265384923579446E-002
   1.3443122014332742E-002  -3.8426807964452949E-003   6.0461079334615607E-002
   1.3327898405633733E-002  -4.1604734504182258E-003   6.2000494941938267E-002
   1.3212674796934729E-002  -4.1684337573805229E-003   6.3883631745547412E-002
   1.3097451188235716E-002  -3.8665617173321599E-003   6.6110489745443049E-002
  -2.1821086604312256E-014   4.0488445929298678E-015   6.0794322793472771E-002
  -1.8761034392689169E-014  -1.6835491334354913E-015   6.3394433801641184E-002
  -1.5698380095852116E-014  -1.1335550553770446E-014   6.5881270830927235E-002
  -1.2637894203360034E-014  -2.4948142510194948E-014   6.8254833881330981E-002
  -9.5756735873919752E-015  -4.2466030691912238E-014   7.0515122952852366E-002
   5.0289908616199322E-002  -1.5466246869201214E-002   5.0155860841776270E-002
   4.7138989128099891E-002  -1.3803359380877012E-002   4.9850011066044697E-002
   4.3988069640000474E-002  -1.2469002624450571E-002   4.9959772465885753E-002
   4.0837150151901050E-002  -1.1463176599922065E-002   5.0485145041299362E-002
   3.7686230663801626E-002  -1.0785881307291356E-002   5.1426128792285419E-002
   3.8242405496340171E-002  -1.1599685151911537E-002   5.5930858689905050E-002
   3.5600126857927017E-002  -1.0352519535673683E-002   5.5080591508414024E-002
   3.2957848219513891E-002  -9.3517519683601336E-003   5.4831994850723029E-002
   3.0315569581100751E-002  -8.5973824499708876E-003   5.5185068716832104E-002
   2.7673290942687605E-002  -8.0894109805059178E-003   5.6139813106741057E-002
   2.5844919687018970E-002  -7.7331234346218400E-003   6.1249068324460643E-002
   2.3897341246519530E-002  -6.9016796904703970E-003   5.9936516420183827E-002
   2.1949762806020082E-002  -6.2345013122696389E-003   5.9411694387934387E-002
   2.0002184365520648E-002  -5.7315883000196802E-003   5.9674602227712377E-002
   1.8054605925021196E-002  -5.3929406537204239E-003   6.0725239939517811E-002
   1.3097451188235716E-002  -3.8665617173321599E-003   6.6110489745443049E-002
   1.2030632293877384E-002  -3.4508398452670758E-003   6.4417785801353933E-002
   1.0963813399519060E-002  -3.1172506561791590E-003   6.3698871077519592E-002
   9.8969945051607302E-003  -2.8657941500684738E-003   6.3953745573940207E-002
   8.8301756108024043E-003  -2.6964703269349299E-003   6.5182409290615431E-002
  -9.5756735873919752E-015  -4.2466030691912238E-014   7.0515122952852366E-002
   6.2103100439969694E-016  -6.3789251658619150E-014   6.8524399651924486E-002
   1.0821205043143323E-014  -8.8679064091934379E-014   6.7693524919478817E-002
   2.1017042273197006E-014  -1.1727424586993607E-013   6.8022498755515456E-002
   3.1218083673678620E-014  -1.4946377469016170E-013   6.9511321160034251E-002
   3.7686230663801626E-002  -1.0785881307291356E-002   5.1426128792285419E-002
   3.4397182166475346E-002  -1.0146781482360159E-002   4.9025073092504062E-002
   3.1108133669149100E-002  -9.2555418609300832E-003   4.7561726002202848E-002
   2.7819085171822838E-002  -8.1121624430010725E-003   4.7036087521381775E-002
   2.4530036674496603E-002  -6.7166432285732380E-003   4.7448157650041067E-002
   2.7673290942687605E-002  -8.0894109805059178E-003   5.6139813106741057E-002
   2.5293089433555661E-002  -7.6100861118161556E-003   5.4324772811057687E-002
   2.2912887924423694E-002  -6.9416563957525462E-003   5.3389717882282604E-002
   2.0532686415291747E-002  -6.0841218323149891E-003   5.3334648320415928E-002
   1.8152484906159783E-002  -5.0374824215036473E-003   5.4159564125457693E-002
   1.8054605925021196E-002  -5.3929406537204239E-003   6.0725239939517811E-002
   1.6525528161511684E-002  -5.0733907412720894E-003   5.9433180098807367E-002
   1.4996450398002152E-002  -4.6277709305749537E-003   5.8963382382433482E-002
   1.3467372634492606E-002  -4.0560812216288780E-003   5.9315846790395976E-002
   1.1938294870983107E-002  -3.3583216144340011E-003   6.0490573322695168E-002
   8.8301756108024043E-003  -2.6964703269349299E-003   6.5182409290615431E-002
   8.0944983503434213E-003  -2.5366953707280267E-003   6.4350294955753132E-002
   7.3588210898844521E-003  -2.3138854653973334E-003   6.4282719502655405E-002
   6.6231438294254786E-003  -2.0280406109427808E-003   6.4979682931322225E-002
   5.8874665689664998E-003  -1.6791608073643549E-003   6.6441185241753908E-002
   3.1218083673678620E-014  -1.4946377469016170E-013   6.9511321160034251E-002
   5.0910664572967335E-014  -1.8404722190723533E-013   6.9076117381894925E-002
   7.0599776025304095E-014  -2.1983109776968490E-013   6.9347729242948367E-002
   9.0287152754164879E-014  -2.5664366465338873E-013   7.0326156743194562E-002
   1.0998146837692957E-013  -2.9476421303797906E-013   7.2011399882633387E-002
  -1.2923689896027213E-014   0.0000000000000000        2.9965063722718240E-002
  -1.5149340115705456E-014   4.6004866582904924E-015   3.6938167631530350E-002
  -1.7372388250169735E-014   6.8070549197329910E-015   4.4400745446260145E-002
  -1.9595870065503007E-014   6.6231742312794495E-015   5.2352797166907612E-002
  -2.1821086604312256E-014   4.0488445929298678E-015   6.0794322793472771E-002
  -1.4518295349807088E-002   0.0000000000000000        3.0377557084346911E-002
  -1.4278307918123671E-002   8.1968102965544049E-004   3.7613762607976595E-002
  -1.4038320486440253E-002   1.6287506721186567E-003   4.4840469089059878E-002
  -1.3798333054756837E-002   2.4272089273896574E-003   5.2057676527596783E-002
  -1.3558345623073419E-002   3.2150557954684364E-003   5.9265384923587273E-002
  -2.8518696916954349E-002   0.0000000000000000        3.1615037169221337E-002
  -2.8537695002049356E-002   1.6393620593062796E-003   3.9103732920478758E-002
  -2.8556693087144369E-002   3.2575013442305081E-003   4.6083956680725714E-002
  -2.8575691172239372E-002   4.8544178547726916E-003   5.2555708449962220E-002
  -2.8594689257334389E-002   6.4301115909328240E-003   5.8518988228188268E-002
  -4.2001204701454686E-002   0.0000000000000000        3.3677503977341518E-002
  -4.2778161251792200E-002   2.4590430889571183E-003   4.1408078569036860E-002
  -4.3555117802129707E-002   4.8862520163423621E-003   4.8131208221257660E-002
  -4.4332074352467214E-002   7.2816267821557276E-003   5.3846892934003923E-002
  -4.5109030902804721E-002   9.6451673863972125E-003   5.8555132707275678E-002
  -5.4965818703308134E-002   0.0000000000000000        3.6564957508707453E-002
  -5.6999706667352212E-002   3.2787241186079587E-003   4.4526799553650867E-002
  -5.9033594631396277E-002   6.5150026884542075E-003   5.0982223710655687E-002
  -6.1067482595440356E-002   9.7088357095387601E-003   5.5931229979721900E-002
  -6.3101370559484421E-002   1.2860223181861599E-002   5.9373818360849526E-002
  -2.1821086604312256E-014   4.0488445929298678E-015   6.0794322793472771E-002
  -1.8761034392689169E-014  -1.6835491334354913E-015   6.3394433801641184E-002
  -1.5698380095852116E-014  -1.1335550553770446E-014   6.5881270830927235E-002
  -1.2637894203360034E-014  -2.4948142510194948E-014   6.8254833881330981E-002
  -9.5756735873919752E-015  -4.2466030691912238E-014   7.0515122952852366E-002
  -1.3558345623073419E-002   3.2150557954684364E-003   5.9265384923587273E-002
  -1.3443122014368421E-002   3.8426807964419864E-003   6.0461079334619541E-002
  -1.3327898405663428E-002   4.1604734503972850E-003   6.2000494941938003E-002
  -1.3212674796958430E-002   4.1684337573343680E-003   6.3883631745542693E-002
  -1.3097451188253440E-002   3.8665617172531919E-003   6.6110489745433598E-002
  -2.8594689257334389E-002   6.4301115909328240E-003   5.8518988228188268E-002
  -2.7907246864758893E-002   7.6853615928856641E-003   5.8000433695070040E-002
  -2.7219804472183397E-002   8.3209469008059481E-003   5.8282595533406568E-002
  -2.6532362079607897E-002   8.3368675146936900E-003   5.9365473743197957E-002
  -2.5844919687032404E-002   7.7331234345488775E-003   6.1249068324444086E-002
  -4.5109030902804721E-002   9.6451673863972125E-003   5.8555132707275678E-002
  -4.3392374551190160E-002   1.1528042389329330E-002   5.6012496882992660E-002
  -4.1675718199575586E-002   1.2481420351214609E-002   5.4727572605332980E-002
  -3.9959061847961025E-002   1.2505301272053003E-002   5.4700359874296681E-002
  -3.8242405496346457E-002   1.1599685151844542E-002   5.5930858689883706E-002
  -6.3101370559484421E-002   1.2860223181861599E-002   5.9373818360849526E-002
  -5.9898505073662220E-002   1.5370723185773007E-002   5.4497268898387428E-002
  -5.6695639587840019E-002   1.6641893801623241E-002   5.1335426157717218E-002
  -5.3492774102017832E-002   1.6673735029412318E-002   4.9888290138838956E-002
  -5.0289908616195617E-002   1.5466246869140221E-002   5.0155860841752581E-002
  -9.5756735873919752E-015  -4.2466030691912238E-014   7.0515122952852366E-002
   6.2103100439969694E-016  -6.3789251658619150E-014   6.8524399651924486E-002
   1.0821205043143323E-014  -8.8679064091934379E-014   6.7693524919478817E-002
   2.1017042273197006E-014  -1.1727424586993607E-013   6.8022498755515456E-002
   3.1218083673678620E-014  -1.4946377469016170E-013   6.9511321160034251E-002
  -1.3097451188253440E-002   3.8665617172531919E-003   6.6110489745433598E-002
  -1.2030632293875220E-002   3.4508398451480529E-003   6.4417785801339750E-002
  -1.0963813399497011E-002   3.1172506560132943E-003   6.3698871077499691E-002
  -9.8969945051188037E-003   2.8657941498488274E-003   6.3953745573913465E-002
  -8.8301756107405857E-003   2.6964703266546264E-003   6.5182409290581000E-002
  -2.5844919687032404E-002   7.7331234345488775E-003   6.1249068324444086E-002
  -2.3897341246514620E-002   6.9016796903599263E-003   5.9936516420158188E-002
  -2.1949762805996826E-002   6.2345013121152676E-003   5.9411694387897687E-002
  -2.0002184365479035E-002   5.7315882998148875E-003   5.9674602227662556E-002
  -1.8054605924961255E-002   5.3929406534587582E-003   6.0725239939452745E-002
  -3.8242405496346457E-002   1.1599685151844542E-002   5.5930858689883706E-002
  -3.5600126857917538E-002   1.0352519535571784E-002   5.5080591508379802E-002
  -3.2957848219488613E-002   9.3517519682172270E-003   5.4831994850672819E-002
  -3.0315569581059690E-002   8.5973824497809197E-003   5.5185068716762695E-002
  -2.7673290942630772E-002   8.0894109802628969E-003   5.6139813106649575E-002
  -5.0289908616195617E-002   1.5466246869140221E-002   5.0155860841752581E-002
  -4.7138989128083994E-002   1.3803359380783593E-002   4.9850011066004528E-002
  -4.3988069639972371E-002   1.2469002624319207E-002   4.9959772465824989E-002
  -4.0837150151860749E-002   1.1463176599747040E-002   5.0485145041213909E-002
  -3.7686230663749119E-002   1.0785881307066980E-002   5.1426128792171316E-002
   3.1218083673678620E-014  -1.4946377469016170E-013   6.9511321160034251E-002
   5.0910664572967335E-014  -1.8404722190723533E-013   6.9076117381894925E-002
   7.0599776025304095E-014  -2.1983109776968490E-013   6.9347729242948367E-002
   9.0287152754164879E-014  -2.5664366465338873E-013   7.0326156743194562E-002
   1.0998146837692957E-013  -2.9476421303797906E-013   7.2011399882633387E-002
  -8.8301756107405857E-003   2.6964703266546264E-003   6.5182409290581000E-002
  -8.0944983502431629E-003   2.5366953703796907E-003   6.4350294955711276E-002
  -7.3588210897457401E-003   2.3138854649728050E-003   6.4282719502604280E-002
  -6.6231438292483069E-003   2.0280406104341026E-003   6.4979682931260052E-002
  -5.8874665687509084E-003   1.6791608067633912E-003   6.6441185241678524E-002
  -1.8054605924961255E-002   5.3929406534587582E-003   6.0725239939452745E-002
  -1.6525528161416093E-002   5.0733907409434426E-003   5.9433180098721929E-002
  -1.4996450397870925E-002   4.6277709301655277E-003   5.8963382382323876E-002
  -1.3467372634325748E-002   4.0560812211248498E-003   5.9315846790258558E-002
  -1.1938294870780609E-002   3.3583216138215466E-003   6.0490573322525859E-002
  -2.7673290942630772E-002   8.0894109802628969E-003   5.6139813106649575E-002
  -2.5293089433467857E-002   7.6100861115072152E-003   5.4324772810926819E-002
  -2.2912887924304945E-002   6.9416563953580961E-003   5.3389717882106814E-002
  -2.0532686415142019E-002   6.0841218318156247E-003   5.3334648320189505E-002
  -1.8152484905979135E-002   5.0374824208797020E-003   5.4159564125175134E-002
  -3.7686230663749119E-002   1.0785881307066980E-002   5.1426128792171316E-002
  -3.4397182166398449E-002   1.0146781482070932E-002   4.9025073092325969E-002
  -3.1108133669047796E-002   9.2555418605509004E-003   4.7561726001953339E-002
  -2.7819085171697143E-002   8.1121624425063744E-003   4.7036087521053538E-002
  -2.4530036674346459E-002   6.7166432279378574E-003   4.7448157649626399E-002
  -5.4965818703308134E-002   0.0000000000000000        3.6564957508707453E-002
  -5.6999706667352212E-002   3.2787241186079587E-003   4.4526799553650867E-002
  -5.9033594631396277E-002   6.5150026884542075E-003   5.0982223710655687E-002
  -6.1067482595440356E-002   9.7088357095387601E-003   5.5931229979721900E-002
  -6.3101370559484421E-002   1.2860223181861599E-002   5.9373818360849526E-002
  -7.2190267945643816E-002   0.0000000000000000        4.3012568772203004E-002
  -7.4346660415098978E-002   8.4678554167103206E-003   4.2172116944389736E-002
  -7.6503052884554140E-002   1.4680870398836697E-002   4.2593073993692894E-002
  -7.8659445354009289E-002   1.8639044946379149E-002   4.4275439920112472E-002
  -8.0815837823464451E-002   2.0342379059337664E-002   4.7219214723648498E-002
  -9.8452281451590851E-002   0.0000000000000000        5.5755508776712030E-002
  -9.7963351661402076E-002   1.3656986714812684E-002   4.3900368190319845E-002
  -9.7474421871213315E-002   2.2846738109219198E-002   3.6074463246099114E-002
  -9.6985492081024541E-002   2.7569254183219545E-002   3.2277793944049817E-002
  -9.6496562290835766E-002   2.7824534936813701E-002   3.2510360284171952E-002
 -0.13375185922114927        0.0000000000000000        7.4793777522234553E-002
 -0.12784978040626155        1.8846118012915046E-002   4.9711553291441210E-002
 -0.12194770159137382        3.1012605819601691E-002   3.1426391467874362E-002
 -0.11604562277648611        3.6499463420059927E-002   1.9938292051533947E-002
 -0.11014354396159839        3.5306690814289769E-002   1.5247255042420010E-002
 -0.17808900125431903        0.0000000000000000       0.10012737500877053     
 -0.16400594664967735        2.4035249311017404E-002   5.9605672247753816E-002
 -0.14992289204503567        3.9178473529984180E-002   2.8648858659018603E-002
 -0.13583983744039396        4.5429672656900330E-002   7.2569342425648428E-003
 -0.12175678283575228        4.2788846691765796E-002  -4.5701010016074226E-003
  -6.3101370559484421E-002   1.2860223181861599E-002   5.9373818360849526E-002
  -5.9898505073662220E-002   1.5370723185773007E-002   5.4497268898387428E-002
  -5.6695639587840019E-002   1.6641893801623241E-002   5.1335426157717218E-002
  -5.3492774102017832E-002   1.6673735029412318E-002   4.9888290138838956E-002
  -5.0289908616195617E-002   1.5466246869140221E-002   5.0155860841752581E-002
  -8.0815837823464451E-002   2.0342379059337664E-002   4.7219214723648498E-002
  -7.6171697933994031E-002   2.0679252655814301E-002   4.3244270746430870E-002
  -7.1527558044523626E-002   2.0538045653911104E-002   4.0437168854717813E-002
  -6.6883418155053206E-002   1.9918758053628124E-002   3.8797909048509216E-002
  -6.2239278265582794E-002   1.8821389854965280E-002   3.8326491327805141E-002
  -9.6496562290835766E-002   2.7824534936813701E-002   3.2510360284171952E-002
  -9.0958012634004548E-002   2.5987782125855570E-002   3.0198270581880224E-002
  -8.5419462977173330E-002   2.4434197506198949E-002   2.8507158328805644E-002
  -7.9880913320342098E-002   2.3163781077843927E-002   2.7437023524948118E-002
  -7.4342363663510866E-002   2.2176532840790367E-002   2.6987866170307691E-002
 -0.11014354396159839        3.5306690814289769E-002   1.5247255042420010E-002
 -0.10425744917369377        3.1296311595896853E-002   1.5359268404735510E-002
  -9.8371354385789159E-002   2.8330349358486849E-002   1.5545394579980715E-002
  -9.2485259597884492E-002   2.6408804102059685E-002   1.5805633568155647E-002
  -8.6599164809979895E-002   2.5531675826615537E-002   1.6139985369260201E-002
 -0.12175678283575228        4.2788846691765796E-002  -4.5701010016074226E-003
 -0.11607000755306165        3.6604841065938094E-002  -1.2727357850032955E-003
 -0.11038323227037106        3.2226501210774597E-002   1.5518776082430897E-003
 -0.10469645698768046        2.9653827126275522E-002   3.9037391781317318E-003
  -9.9009681704989833E-002   2.8886818812440540E-002   5.7828489246626869E-003
  -5.0289908616195617E-002   1.5466246869140221E-002   5.0155860841752581E-002
  -4.7138989128083994E-002   1.3803359380783593E-002   4.9850011066004528E-002
  -4.3988069639972371E-002   1.2469002624319207E-002   4.9959772465824989E-002
  -4.0837150151860749E-002   1.1463176599747040E-002   5.0485145041213909E-002
  -3.7686230663749119E-002   1.0785881307066980E-002   5.1426128792171316E-002
  -6.2239278265582794E-002   1.8821389854965280E-002   3.8326491327805141E-002
  -5.8596905715379823E-002   1.7512809113743279E-002   3.8134860812615856E-002
  -5.4954533165176837E-002   1.6259883885782561E-002   3.8510525246040733E-002
  -5.1312160614973859E-002   1.5062614171083281E-002   3.9453484628079828E-002
  -4.7669788064770881E-002   1.3920999969645312E-002   4.0963738958733231E-002
  -7.4342363663510866E-002   2.2176532840790367E-002   2.6987866170307691E-002
  -7.0056854278170821E-002   2.1222258846702927E-002   2.6637579697046283E-002
  -6.5771344892830763E-002   2.0050765147245932E-002   2.7006271945444842E-002
  -6.1485835507490712E-002   1.8662051742419649E-002   2.8093942915503330E-002
  -5.7200326122150674E-002   1.7056118632223727E-002   2.9900592607221763E-002
  -8.6599164809979895E-002   2.5531675826615537E-002   1.6139985369260201E-002
  -8.1518834816457039E-002   2.4931708579662565E-002   1.5358167719295837E-002
  -7.6438504822934128E-002   2.3841646408709380E-002   1.5447012564037240E-002
  -7.1358174829411244E-002   2.2261489313755798E-002   1.6406519903484233E-002
  -6.6277844835888389E-002   2.0191237294802142E-002   1.8236689737637018E-002
  -9.9009681704989833E-002   2.8886818812440540E-002   5.7828489246626869E-003
  -9.2982847330238400E-002   2.8641158312622150E-002   4.2966248793645800E-003
  -8.6956012955486953E-002   2.7632527670172699E-002   3.8327471018178849E-003
  -8.0929178580735506E-002   2.5860926885092252E-002   4.3912155920226778E-003
  -7.4902344205984073E-002   2.3326355957380418E-002   5.9720303499788407E-003
  -3.7686230663749119E-002   1.0785881307066980E-002   5.1426128792171316E-002
  -3.4397182166398449E-002   1.0146781482070932E-002   4.9025073092325969E-002
  -3.1108133669047796E-002   9.2555418605509004E-003   4.7561726001953339E-002
  -2.7819085171697143E-002   8.1121624425063744E-003   4.7036087521053538E-002
  -2.4530036674346459E-002   6.7166432279378574E-003   4.7448157649626399E-002
  -4.7669788064770881E-002   1.3920999969645312E-002   4.0963738958733231E-002
  -4.3412676571602402E-002   1.2794396564991165E-002   3.8907170130765847E-002
  -3.9155565078433888E-002   1.1642159240642668E-002   3.7849018684961336E-002
  -3.4898453585265367E-002   1.0464287996600121E-002   3.7789284621319884E-002
  -3.0641342092096874E-002   9.2607828328634678E-003   3.8727967939841401E-002
  -5.7200326122150674E-002   1.7056118632223727E-002   2.9900592607221763E-002
  -5.1914442860474093E-002   1.5442011647911119E-002   2.8415016527962408E-002
  -4.6628559598797567E-002   1.4028776620734547E-002   2.7988566603556267E-002
  -4.1342676337121069E-002   1.2816413550693755E-002   2.8621242834003118E-002
  -3.6056793075444432E-002   1.1804922437789245E-002   3.0313045219303225E-002
  -6.6277844835888389E-002   2.0191237294802142E-002   1.8236689737637018E-002
  -5.9902481033013620E-002   1.8089626730831143E-002   1.7548612283915795E-002
  -5.3527117230138879E-002   1.6415394000826592E-002   1.7980369757737868E-002
  -4.7151753427264124E-002   1.5168539104787528E-002   1.9531962159103324E-002
  -4.0776389624389335E-002   1.4349062042714994E-002   2.2203389488011954E-002
  -7.4902344205984073E-002   2.3326355957380418E-002   5.9720303499788407E-003
  -6.7376791089220928E-002   2.0737241813751334E-002   6.3079573986257881E-003
  -5.9851237972457783E-002   1.8802011380918388E-002   7.8244281475064598E-003
  -5.2325684855694693E-002   1.7520664658881212E-002   1.0521442596620485E-002
  -4.4800131738931492E-002   1.6893201647640632E-002   1.4399000745967894E-002
 </DataArray>
 </PointData>
 </Piece>
 <Piece  NumberOfPoints="           400 "  NumberOfCells="          256 ">
 <Points>
 <DataArray  type="Float64" NumberOfComponents="3"  format="ascii" >
  0.50000000000000000        0.0000000000000000        0.0000000000000000     
  0.56250000000000000        0.0000000000000000        0.0000000000000000     
  0.62500000000000000        0.0000000000000000        0.0000000000000000     
  0.68750000000000000        0.0000000000000000        0.0000000000000000     
  0.75000000000000000        0.0000000000000000        0.0000000000000000     
  0.50000000000000000        6.2500000000000000E-002   0.0000000000000000     
  0.56250000000000000        6.2500000000000000E-002   0.0000000000000000     
  0.62500000000000000        6.2500000000000000E-002   0.0000000000000000     
  0.68750000000000000        6.2500000000000000E-002   0.0000000000000000     
  0.75000000000000000        6.2500000000000000E-002   0.0000000000000000     
  0.50000000000000000       0.12500000000000000        0.0000000000000000     
  0.56250000000000000       0.12500000000000000        0.0000000000000000     
  0.62500000000000000       0.12500000000000000        0.0000000000000000     
  0.68750000000000000       0.12500000000000000        0.0000000000000000     
  0.75000000000000000       0.12500000000000000        0.0000000000000000     
  0.50000000000000000       0.18750000000000000        0.0000000000000000     
  0.56250000000000000       0.18750000000000000        0.0000000000000000     
  0.62500000000000000       0.18750000000000000        0.0000000000000000     
  0.68750000000000000       0.18750000000000000        0.0000000000000000     
  0.75000000000000000       0.18750000000000000        0.0000000000000000     
  0.50000000000000000       0.25000000000000000        0.0000000000000000     
  0.56250000000000000       0.25000000000000000        0.0000000000000000     
  0.62500000000000000       0.25000000000000000        0.0000000000000000     
  0.68750000000000000       0.25000000000000000        0.0000000000000000     
  0.75000000000000000       0.25000000000000000        0.0000000000000000     
  0.75000000000000000        0.0000000000000000        0.0000000000000000     
  0.81250000000000000        0.0000000000000000        0.0000000000000000     
  0.87500000000000000        0.0000000000000000        0.0000000000000000     
  0.93750000000000000        0.0000000000000000        0.0000000000000000     
   1.0000000000000000        0.0000000000000000        0.0000000000000000     
  0.75000000000000000        6.2500000000000000E-002   0.0000000000000000     
  0.81250000000000000        6.2500000000000000E-002   0.0000000000000000     
  0.87500000000000000        6.2500000000000000E-002   0.0000000000000000     
  0.93750000000000000        6.2500000000000000E-002   0.0000000000000000     
   1.0000000000000000        6.2500000000000000E-002   0.0000000000000000     
  0.75000000000000000       0.12500000000000000        0.0000000000000000     
  0.81250000000000000       0.12500000000000000        0.0000000000000000     
  0.87500000000000000       0.12500000000000000        0.0000000000000000     
  0.93750000000000000       0.12500000000000000        0.0000000000000000     
   1.0000000000000000       0.12500000000000000        0.0000000000000000     
  0.75000000000000000       0.18750000000000000        0.0000000000000000     
  0.81250000000000000       0.18750000000000000        0.0000000000000000     
  0.87500000000000000       0.18750000000000000        0.0000000000000000     
  0.93750000000000000       0.18750000000000000        0.0000000000000000     
   1.0000000000000000       0.18750000000000000        0.0000000000000000     
  0.75000000000000000       0.25000000000000000        0.0000000000000000     
  0.81250000000000000       0.25000000000000000        0.0000000000000000     
  0.87500000000000000       0.25000000000000000        0.0000000000000000     
  0.93750000000000000       0.25000000000000000        0.0000000000000000     
   1.0000000000000000       0.25000000000000000        0.0000000000000000     
   1.0000000000000000        0.0000000000000000        0.0000000000000000     
   1.0625000000000000        0.0000000000000000        0.0000000000000000     
   1.1250000000000000        0.0000000000000000        0.0000000000000000     
   1.1875000000000000        0.0000000000000000        0.0000000000000000     
   1.2500000000000000        0.0000000000000000        0.0000000000000000     
   1.0000000000000000        6.2500000000000000E-002   0.0000000000000000     
   1.0625000000000000        6.2500000000000000E-002   0.0000000000000000     
   1.1250000000000000        6.2500000000000000E-002   0.0000000000000000     
   1.1875000000000000        6.2500000000000000E-002   0.0000000000000000     
   1.2500000000000000        6.2500000000000000E-002   0.0000000000000000     
   1.0000000000000000       0.12500000000000000        0.0000000000000000     
   1.0625000000000000       0.12500000000000000        0.0000000000000000     
   1.1250000000000000       0.12500000000000000        0.0000000000000000     
   1.1875000000000000       0.12500000000000000        0.0000000000000000     
   1.2500000000000000       0.12500000000000000        0.0000000000000000     
   1.0000000000000000       0.18750000000000000        0.0000000000000000     
   1.0625000000000000       0.18750000000000000        0.0000000000000000     
   1.1250000000000000       0.18750000000000000        0.0000000000000000     
   1.1875000000000000       0.18750000000000000        0.0000000000000000     
   1.2500000000000000       0.18750000000000000        0.0000000000000000     
   1.0000000000000000       0.25000000000000000        0.0000000000000000     
   1.0625000000000000       0.25000000000000000        0.0000000000000000     
   1.1250000000000000       0.25000000000000000        0.0000000000000000     
   1.1875000000000000       0.25000000000000000        0.0000000000000000     
   1.2500000000000000       0.25000000000000000        0.0000000000000000     
   1.2500000000000000        0.0000000000000000        0.0000000000000000     
   1.3125000000000000        0.0000000000000000        0.0000000000000000     
   1.3750000000000000        0.0000000000000000        0.0000000000000000     
   1.4375000000000000        0.0000000000000000        0.0000000000000000     
   1.5000000000000000        0.0000000000000000        0.0000000000000000     
   1.2500000000000000        6.2500000000000000E-002   0.0000000000000000     
   1.3125000000000000        6.2500000000000000E-002   0.0000000000000000     
   1.3750000000000000        6.2500000000000000E-002   0.0000000000000000     
   1.4375000000000000        6.2500000000000000E-002   0.0000000000000000     
   1.5000000000000000        6.2500000000000000E-002   0.0000000000000000     
   1.2500000000000000       0.12500000000000000        0.0000000000000000     
   1.3125000000000000       0.12500000000000000        0.0000000000000000     
   1.3750000000000000       0.12500000000000000        0.0000000000000000     
   1.4375000000000000       0.12500000000000000        0.0000000000000000     
   1.5000000000000000       0.12500000000000000        0.0000000000000000     
   1.2500000000000000       0.18750000000000000        0.0000000000000000     
   1.3125000000000000       0.18750000000000000        0.0000000000000000     
   1.3750000000000000       0.18750000000000000        0.0000000000000000     
   1.4375000000000000       0.18750000000000000        0.0000000000000000     
   1.5000000000000000       0.18750000000000000        0.0000000000000000     
   1.2500000000000000       0.25000000000000000        0.0000000000000000     
   1.3125000000000000       0.25000000000000000        0.0000000000000000     
   1.3750000000000000       0.25000000000000000        0.0000000000000000     
   1.4375000000000000       0.25000000000000000        0.0000000000000000     
   1.5000000000000000       0.25000000000000000        0.0000000000000000     
  0.50000000000000000       0.25000000000000000        0.0000000000000000     
  0.56250000000000000       0.25000000000000000        0.0000000000000000     
  0.62500000000000000       0.25000000000000000        0.0000000000000000     
  0.68750000000000000       0.25000000000000000        0.0000000000000000     
  0.75000000000000000       0.25000000000000000        0.0000000000000000     
  0.50000000000000000       0.31250000000000000        0.0000000000000000     
  0.56250000000000000       0.31250000000000000        0.0000000000000000     
  0.62500000000000000       0.31250000000000000        0.0000000000000000     
  0.68750000000000000       0.31250000000000000        0.0000000000000000     
  0.75000000000000000       0.31250000000000000        0.0000000000000000     
  0.50000000000000000       0.37500000000000000        0.0000000000000000     
  0.56250000000000000       0.37500000000000000        0.0000000000000000     
  0.62500000000000000       0.37500000000000000        0.0000000000000000     
  0.68750000000000000       0.37500000000000000        0.0000000000000000     
  0.75000000000000000       0.37500000000000000        0.0000000000000000     
  0.50000000000000000       0.43750000000000000        0.0000000000000000     
  0.56250000000000000       0.43750000000000000        0.0000000000000000     
  0.62500000000000000       0.43750000000000000        0.0000000000000000     
  0.68750000000000000       0.43750000000000000        0.0000000000000000     
  0.75000000000000000       0.43750000000000000        0.0000000000000000     
  0.50000000000000000       0.50000000000000000        0.0000000000000000     
  0.56250000000000000       0.50000000000000000        0.0000000000000000     
  0.62500000000000000       0.50000000000000000        0.0000000000000000     
  0.68750000000000000       0.50000000000000000        0.0000000000000000     
  0.75000000000000000       0.50000000000000000        0.0000000000000000     
  0.75000000000000000       0.25000000000000000        0.0000000000000000     
  0.81250000000000000       0.25000000000000000        0.0000000000000000     
  0.87500000000000000       0.25000000000000000        0.0000000000000000     
  0.93750000000000000       0.25000000000000000        0.0000000000000000     
   1.0000000000000000       0.25000000000000000        0.0000000000000000     
  0.75000000000000000       0.31250000000000000        0.0000000000000000     
  0.81250000000000000       0.31250000000000000        0.0000000000000000     
  0.87500000000000000       0.31250000000000000        0.0000000000000000     
  0.93750000000000000       0.31250000000000000        0.0000000000000000     
   1.0000000000000000       0.31250000000000000        0.0000000000000000     
  0.75000000000000000       0.37500000000000000        0.0000000000000000     
  0.81250000000000000       0.37500000000000000        0.0000000000000000     
  0.87500000000000000       0.37500000000000000        0.0000000000000000     
  0.93750000000000000       0.37500000000000000        0.0000000000000000     
   1.0000000000000000       0.37500000000000000        0.0000000000000000     
  0.75000000000000000       0.43750000000000000        0.0000000000000000     
  0.81250000000000000       0.43750000000000000        0.0000000000000000     
  0.87500000000000000       0.43750000000000000        0.0000000000000000     
  0.93750000000000000       0.43750000000000000        0.0000000000000000     
   1.0000000000000000       0.43750000000000000        0.0000000000000000     
  0.75000000000000000       0.50000000000000000        0.0000000000000000     
  0.81250000000000000       0.50000000000000000        0.0000000000000000     
  0.87500000000000000       0.50000000000000000        0.0000000000000000     
  0.93750000000000000       0.50000000000000000        0.0000000000000000     
   1.0000000000000000       0.50000000000000000        0.0000000000000000     
   1.0000000000000000       0.25000000000000000        0.0000000000000000     
   1.0625000000000000       0.25000000000000000        0.0000000000000000     
   1.1250000000000000       0.25000000000000000        0.0000000000000000     
   1.1875000000000000       0.25000000000000000        0.0000000000000000     
   1.2500000000000000       0.25000000000000000        0.0000000000000000     
   1.0000000000000000       0.31250000000000000        0.0000000000000000     
   1.0625000000000000       0.31250000000000000        0.0000000000000000     
   1.1250000000000000       0.31250000000000000        0.0000000000000000     
   1.1875000000000000       0.31250000000000000        0.0000000000000000     
   1.2500000000000000       0.31250000000000000        0.0000000000000000     
   1.0000000000000000       0.37500000000000000        0.0000000000000000     
   1.0625000000000000       0.37500000000000000        0.0000000000000000     
   1.1250000000000000       0.37500000000000000        0.0000000000000000     
   1.1875000000000000       0.37500000000000000        0.0000000000000000     
   1.2500000000000000       0.37500000000000000        0.0000000000000000     
   1.0000000000000000       0.43750000000000000        0.0000000000000000     
   1.0625000000000000       0.43750000000000000        0.0000000000000000     
   1.1250000000000000       0.43750000000000000        0.0000000000000000     
   1.1875000000000000       0.43750000000000000        0.0000000000000000     
   1.2500000000000000       0.43750000000000000        0.0000000000000000     
   1.0000000000000000       0.50000000000000000        0.0000000000000000     
   1.0625000000000000       0.50000000000000000        0.0000000000000000     
   1.1250000000000000       0.50000000000000000        0.0000000000000000     
   1.1875000000000000       0.50000000000000000        0.0000000000000000     
   1.2500000000000000       0.50000000000000000        0.0000000000000000     
   1.2500000000000000       0.25000000000000000        0.0000000000000000     
   1.3125000000000000       0.25000000000000000        0.0000000000000000     
   1.3750000000000000       0.25000000000000000        0.0000000000000000     
   1.4375000000000000       0.25000000000000000        0.0000000000000000     
   1.5000000000000000       0.25000000000000000        0.0000000000000000     
   1.2500000000000000       0.31250000000000000        0.0000000000000000     
   1.3125000000000000       0.31250000000000000        0.0000000000000000     
   1.3750000000000000       0.31250000000000000        0.0000000000000000     
   1.4375000000000000       0.31250000000000000        0.0000000000000000     
   1.5000000000000000       0.31250000000000000        0.0000000000000000     
   1.2500000000000000       0.37500000000000000        0.0000000000000000     
   1.3125000000000000       0.37500000000000000        0.0000000000000000     
   1.3750000000000000       0.37500000000000000        0.0000000000000000     
   1.4375000000000000       0.37500000000000000        0.0000000000000000     
   1.5000000000000000       0.37500000000000000        0.0000000000000000     
   1.2500000000000000       0.43750000000000000        0.0000000000000000     
   1.3125000000000000       0.43750000000000000        0.0000000000000000     
   1.3750000000000000       0.43750000000000000        0.0000000000000000     
   1.4375000000000000       0.43750000000000000        0.0000000000000000     
   1.5000000000000000       0.43750000000000000        0.0000000000000000     
   1.2500000000000000       0.50000000000000000        0.0000000000000000     
   1.3125000000000000       0.50000000000000000        0.0000000000000000     
   1.3750000000000000       0.50000000000000000        0.0000000000000000     
   1.4375000000000000       0.50000000000000000        0.0000000000000000     
   1.5000000000000000       0.50000000000000000        0.0000000000000000     
  0.50000000000000000       0.50000000000000000        0.0000000000000000     
  0.56250000000000000       0.50000000000000000        0.0000000000000000     
  0.62500000000000000       0.50000000000000000        0.0000000000000000     
  0.68750000000000000       0.50000000000000000        0.0000000000000000     
  0.75000000000000000       0.50000000000000000        0.0000000000000000     
  0.50000000000000000       0.56250000000000000        0.0000000000000000     
  0.56250000000000000       0.56250000000000000        0.0000000000000000     
  0.62500000000000000       0.56250000000000000        0.0000000000000000     
  0.68750000000000000       0.56250000000000000        0.0000000000000000     
  0.75000000000000000       0.56250000000000000        0.0000000000000000     
  0.50000000000000000       0.62500000000000000        0.0000000000000000     
  0.56250000000000000       0.62500000000000000        0.0000000000000000     
  0.62500000000000000       0.62500000000000000        0.0000000000000000     
  0.68750000000000000       0.62500000000000000        0.0000000000000000     
  0.75000000000000000       0.62500000000000000        0.0000000000000000     
  0.50000000000000000       0.68750000000000000        0.0000000000000000     
  0.56250000000000000       0.68750000000000000        0.0000000000000000     
  0.62500000000000000       0.68750000000000000        0.0000000000000000     
  0.68750000000000000       0.68750000000000000        0.0000000000000000     
  0.75000000000000000       0.68750000000000000        0.0000000000000000     
  0.50000000000000000       0.75000000000000000        0.0000000000000000     
  0.56250000000000000       0.75000000000000000        0.0000000000000000     
  0.62500000000000000       0.75000000000000000        0.0000000000000000     
  0.68750000000000000       0.75000000000000000        0.0000000000000000     
  0.75000000000000000       0.75000000000000000        0.0000000000000000     
  0.75000000000000000       0.50000000000000000        0.0000000000000000     
  0.81250000000000000       0.50000000000000000        0.0000000000000000     
  0.87500000000000000       0.50000000000000000        0.0000000000000000     
  0.93750000000000000       0.50000000000000000        0.0000000000000000     
   1.0000000000000000       0.50000000000000000        0.0000000000000000     
  0.75000000000000000       0.56250000000000000        0.0000000000000000     
  0.81250000000000000       0.56250000000000000        0.0000000000000000     
  0.87500000000000000       0.56250000000000000        0.0000000000000000     
  0.93750000000000000       0.56250000000000000        0.0000000000000000     
   1.0000000000000000       0.56250000000000000        0.0000000000000000     
  0.75000000000000000       0.62500000000000000        0.0000000000000000     
  0.81250000000000000       0.62500000000000000        0.0000000000000000     
  0.87500000000000000       0.62500000000000000        0.0000000000000000     
  0.93750000000000000       0.62500000000000000        0.0000000000000000     
   1.0000000000000000       0.62500000000000000        0.0000000000000000     
  0.75000000000000000       0.68750000000000000        0.0000000000000000     
  0.81250000000000000       0.68750000000000000        0.0000000000000000     
  0.87500000000000000       0.68750000000000000        0.0000000000000000     
  0.93750000000000000       0.68750000000000000        0.0000000000000000     
   1.0000000000000000       0.68750000000000000        0.0000000000000000     
  0.75000000000000000       0.75000000000000000        0.0000000000000000     
  0.81250000000000000       0.75000000000000000        0.0000000000000000     
  0.87500000000000000       0.75000000000000000        0.0000000000000000     
  0.93750000000000000       0.75000000000000000        0.0000000000000000     
   1.0000000000000000       0.75000000000000000        0.0000000000000000     
   1.0000000000000000       0.50000000000000000        0.0000000000000000     
   1.0625000000000000       0.50000000000000000        0.0000000000000000     
   1.1250000000000000       0.50000000000000000        0.0000000000000000     
   1.1875000000000000       0.50000000000000000        0.0000000000000000     
   1.2500000000000000       0.50000000000000000        0.0000000000000000     
   1.0000000000000000       0.56250000000000000        0.0000000000000000     
   1.0625000000000000       0.56250000000000000        0.0000000000000000     
   1.1250000000000000       0.56250000000000000        0.0000000000000000     
   1.1875000000000000       0.56250000000000000        0.0000000000000000     
   1.2500000000000000       0.56250000000000000        0.0000000000000000     
   1.0000000000000000       0.62500000000000000        0.0000000000000000     
   1.0625000000000000       0.62500000000000000        0.0000000000000000     
   1.1250000000000000       0.62500000000000000        0.0000000000000000     
   1.1875000000000000       0.62500000000000000        0.0000000000000000     
   1.2500000000000000       0.62500000000000000        0.0000000000000000     
   1.0000000000000000       0.68750000000000000        0.0000000000000000     
   1.0625000000000000       0.68750000000000000        0.0000000000000000     
   1.1250000000000000       0.68750000000000000        0.0000000000000000     
   1.1875000000000000       0.68750000000000000        0.0000000000000000     
   1.2500000000000000       0.68750000000000000        0.0000000000000000     
   1.0000000000000000       0.75000000000000000        0.0000000000000000     
   1.0625000000000000       0.75000000000000000        0.0000000000000000     
   1.1250000000000000       0.75000000000000000        0.0000000000000000     
   1.1875000000000000       0.75000000000000000        0.0000000000000000     
   1.2500000000000000       0.75000000000000000        0.0000000000000000     
   1.2500000000000000       0.50000000000000000        0.0000000000000000     
   1.3125000000000000       0.50000000000000000        0.0000000000000000     
   1.3750000000000000       0.50000000000000000        0.0000000000000000     
   1.4375000000000000       0.50000000000000000        0.0000000000000000     
   1.5000000000000000       0.50000000000000000        0.0000000000000000     
   1.2500000000000000       0.56250000000000000        0.0000000000000000     
   1.3125000000000000       0.56250000000000000        0.0000000000000000     
   1.3750000000000000       0.56250000000000000        0.0000000000000000     
   1.4375000000000000       0.56250000000000000        0.0000000000000000     
   1.5000000000000000       0.56250000000000000        0.0000000000000000     
   1.2500000000000000       0.62500000000000000        0.0000000000000000     
   1.3125000000000000       0.62500000000000000        0.0000000000000000     
   1.3750000000000000       0.62500000000000000        0.0000000000000000     
   1.4375000000000000       0.62500000000000000        0.0000000000000000     
   1.5000000000000000       0.62500000000000000        0.0000000000000000     
   1.2500000000000000       0.68750000000000000        0.0000000000000000     
   1.3125000000000000       0.68750000000000000        0.0000000000000000     
   1.3750000000000000       0.68750000000000000        0.0000000000000000     
   1.4375000000000000       0.68750000000000000        0.0000000000000000     
   1.5000000000000000       0.68750000000000000        0.0000000000000000     
   1.2500000000000000       0.75000000000000000        0.0000000000000000     
   1.3125000000000000       0.75000000000000000        0.0000000000000000     
   1.3750000000000000       0.75000000000000000        0.0000000000000000     
   1.4375000000000000       0.75000000000000000        0.0000000000000000     
   1.5000000000000000       0.75000000000000000        0.0000000000000000     
  0.50000000000000000       0.75000000000000000        0.0000000000000000     
  0.56250000000000000       0.75000000000000000        0.0000000000000000     
  0.62500000000000000       0.75000000000000000        0.0000000000000000     
  0.68750000000000000       0.75000000000000000        0.0000000000000000     
  0.75000000000000000       0.75000000000000000        0.0000000000000000     
  0.50000000000000000       0.81250000000000000        0.0000000000000000     
  0.56250000000000000       0.81250000000000000        0.0000000000000000     
  0.62500000000000000       0.81250000000000000        0.0000000000000000     
  0.68750000000000000       0.81250000000000000        0.0000000000000000     
  0.75000000000000000       0.81250000000000000        0.0000000000000000     
  0.50000000000000000       0.87500000000000000        0.0000000000000000     
  0.56250000000000000       0.87500000000000000        0.0000000000000000     
  0.62500000000000000       0.87500000000000000        0.0000000000000000     
  0.68750000000000000       0.87500000000000000        0.0000000000000000     
  0.75000000000000000       0.87500000000000000        0.0000000000000000     
  0.50000000000000000       0.93750000000000000        0.0000000000000000     
  0.56250000000000000       0.93750000000000000        0.0000000000000000     
  0.62500000000000000       0.93750000000000000        0.0000000000000000     
  0.68750000000000000       0.93750000000000000        0.0000000000000000     
  0.75000000000000000       0.93750000000000000        0.0000000000000000     
  0.50000000000000000        1.0000000000000000        0.0000000000000000     
  0.56250000000000000        1.0000000000000000        0.0000000000000000     
  0.62500000000000000        1.0000000000000000        0.0000000000000000     
  0.68750000000000000        1.0000000000000000        0.0000000000000000     
  0.75000000000000000        1.0000000000000000        0.0000000000000000     
  0.75000000000000000       0.75000000000000000        0.0000000000000000     
  0.81250000000000000       0.75000000000000000        0.0000000000000000     
  0.87500000000000000       0.75000000000000000        0.0000000000000000     
  0.93750000000000000       0.75000000000000000        0.0000000000000000     
   1.0000000000000000       0.75000000000000000        0.0000000000000000     
  0.75000000000000000       0.81250000000000000        0.0000000000000000     
  0.81250000000000000       0.81250000000000000        0.0000000000000000     
  0.87500000000000000       0.81250000000000000        0.0000000000000000     
  0.93750000000000000       0.81250000000000000        0.0000000000000000     
   1.0000000000000000       0.81250000000000000        0.0000000000000000     
  0.75000000000000000       0.87500000000000000        0.0000000000000000     
  0.81250000000000000       0.87500000000000000        0.0000000000000000     
  0.87500000000000000       0.87500000000000000        0.0000000000000000     
  0.93750000000000000       0.87500000000000000        0.0000000000000000     
   1.0000000000000000       0.87500000000000000        0.0000000000000000     
  0.75000000000000000       0.93750000000000000        0.0000000000000000     
  0.81250000000000000       0.93750000000000000        0.0000000000000000     
  0.87500000000000000       0.93750000000000000        0.0000000000000000     
  0.93750000000000000       0.93750000000000000        0.0000000000000000     
   1.0000000000000000       0.93750000000000000        0.0000000000000000     
  0.75000000000000000        1.0000000000000000        0.0000000000000000     
  0.81250000000000000        1.0000000000000000        0.0000000000000000     
  0.87500000000000000        1.0000000000000000        0.0000000000000000     
  0.93750000000000000        1.0000000000000000        0.0000000000000000     
   1.0000000000000000        1.0000000000000000        0.0000000000000000     
   1.0000000000000000       0.75000000000000000        0.0000000000000000     
   1.0625000000000000       0.75000000000000000        0.0000000000000000     
   1.1250000000000000       0.75000000000000000        0.0000000000000000     
   1.1875000000000000       0.75000000000000000        0.0000000000000000     
   1.2500000000000000       0.75000000000000000        0.0000000000000000     
   1.0000000000000000       0.81250000000000000        0.0000000000000000     
   1.0625000000000000       0.81250000000000000        0.0000000000000000     
   1.1250000000000000       0.81250000000000000        0.0000000000000000     
   1.1875000000000000       0.81250000000000000        0.0000000000000000     
   1.2500000000000000       0.81250000000000000        0.0000000000000000     
   1.0000000000000000       0.87500000000000000        0.0000000000000000     
   1.0625000000000000       0.87500000000000000        0.0000000000000000     
   1.1250000000000000       0.87500000000000000        0.0000000000000000     
   1.1875000000000000       0.87500000000000000        0.0000000000000000     
   1.2500000000000000       0.87500000000000000        0.0000000000000000     
   1.0000000000000000       0.93750000000000000        0.0000000000000000     
   1.0625000000000000       0.93750000000000000        0.0000000000000000     
   1.1250000000000000       0.93750000000000000        0.0000000000000000     
   1.1875000000000000       0.93750000000000000        0.0000000000000000     
   1.2500000000000000       0.93750000000000000        0.0000000000000000     
   1.0000000000000000        1.0000000000000000        0.0000000000000000     
   1.0625000000000000        1.0000000000000000        0.0000000000000000     
   1.1250000000000000        1.0000000000000000        0.0000000000000000     
   1.1875000000000000        1.0000000000000000        0.0000000000000000     
   1.2500000000000000        1.0000000000000000        0.0000000000000000     
   1.2500000000000000       0.75000000000000000        0.0000000000000000     
   1.3125000000000000       0.75000000000000000        0.0000000000000000     
   1.3750000000000000       0.75000000000000000        0.0000000000000000     
   1.4375000000000000       0.75000000000000000        0.0000000000000000     
   1.5000000000000000       0.75000000000000000        0.0000000000000000     
   1.2500000000000000       0.81250000000000000        0.0000000000000000     
   1.3125000000000000       0.81250000000000000        0.0000000000000000     
   1.3750000000000000       0.81250000000000000        0.0000000000000000     
   1.4375000000000000       0.81250000000000000        0.0000000000000000     
   1.5000000000000000       0.81250000000000000        0.0000000000000000     
   1.2500000000000000       0.87500000000000000        0.0000000000000000     
   1.3125000000000000       0.87500000000000000        0.0000000000000000     
   1.3750000000000000       0.87500000000000000        0.0000000000000000     
   1.4375000000000000       0.87500000000000000        0.0000000000000000     
   1.5000000000000000       0.87500000000000000        0.0000000000000000     
   1.2500000000000000       0.93750000000000000        0.0000000000000000     
   1.3125000000000000       0.93750000000000000        0.0000000000000000     
   1.3750000000000000       0.93750000000000000        0.0000000000000000     
   1.4375000000000000       0.93750000000000000        0.0000000000000000     
   1.5000000000000000       0.93750000000000000        0.0000000000000000     
   1.2500000000000000        1.0000000000000000        0.0000000000000000     
   1.3125000000000000        1.0000000000000000        0.0000000000000000     
   1.3750000000000000        1.0000000000000000        0.0000000000000000     
   1.4375000000000000        1.0000000000000000        0.0000000000000000     
   1.5000000000000000        1.0000000000000000        0.0000000000000000     
 </DataArray>
 </Points>
 <Cells>
 <DataArray  type="Int32"  Name="connectivity"  format="ascii">
           0           1           6           5
           1           2           7           6
           2           3           8           7
           3           4           9           8
           5           6          11          10
           6           7          12          11
           7           8          13          12
           8           9          14          13
          10          11          16          15
          11          12          17          16
          12          13          18          17
          13          14          19          18
          15          16          21          20
          16          17          22          21
          17          18          23          22
          18          19          24          23
          25          26          31          30
          26          27          32          31
          27          28          33          32
          28          29          34          33
          30          31          36          35
          31          32          37          36
          32          33          38          37
          33          34          39          38
          35          36          41          40
          36          37          42          41
          37          38          43          42
          38          39          44          43
          40          41          46          45
          41          42          47          46
          42          43          48          47
          43          44          49          48
          50          51          56          55
          51          52          57          56
          52          53          58          57
          53          54          59          58
          55          56          61          60
          56          57          62          61
          57          58          63          62
          58          59          64          63
          60          61          66          65
          61          62          67          66
          62          63          68          67
          63          64          69          68
          65          66          71          70
          66          67          72          71
          67          68          73          72
          68          69          74          73
          75          76          81          80
          76          77          82          81
          77          78          83          82
          78          79          84          83
          80          81          86          85
          81          82          87          86
          82          83          88          87
          83          84          89          88
          85          86          91          90
          86          87          92          91
          87          88          93          92
          88          89          94          93
          90          91          96          95
          91          92          97          96
          92          93          98          97
          93          94          99          98
         100         101         106         105
         101         102         107         106
         102         103         108         107
         103         104         109         108
         105         106         111         110
         106         107         112         111
         107         108         113         112
         108         109         114         113
         110         111         116         115
         111         112         117         116
         112         113         118         117
         113         114         119         118
         115         116         121         120
         116         117         122         121
         117         118         123         122
         118         119         124         123
         125         126         131         130
         126         127         132         131
         127         128         133         132
         128         129         134         133
         130         131         136         135
         131         132         137         136
         132         133         138         137
         133         134         139         138
         135         136         141         140
         136         137         142         141
         137         138         143         142
         138         139         144         143
         140         141         146         145
         141         142         147         146
         142         143         148         147
         143         144         149         148
         150         151         156         155
         151         152         157         156
         152         153         158         157
         153         154         159         158
         155         156         161         160
         156         157         162         161
         157         158         163         162
         158         159         164         163
         160         161         166         165
         161         162         167         166
         162         163         168         167
         163         164         169         168
         165         166         171         170
         166         167         172         171
         167         168         173         172
         168         169         174         173
         175         176         181         180
         176         177         182         181
         177         178         183         182
         178         179         184         183
         180         181         186         185
         181         182         187         186
         182         183         188         187
         183         184         189         188
         185         186         191         190
         186         187         192         191
         187         188         193         192
         188         189         194         193
         190         191         196         195
         191         192         197         196
         192         193         198         197
         193         194         199         198
         200         201         206         205
         201         202         207         206
         202         203         208         207
         203         204         209         208
         205         206         211         210
         206         207         212         211
         207         208         213         212
         208         209         214         213
         210         211         216         215
         211         212         217         216
         212         213         218         217
         213         214         219         218
         215         216         221         220
         216         217         222         221
         217         218         223         222
         218         219         224         223
         225         226         231         230
         226         227         232         231
         227         228         233         232
         228         229         234         233
         230         231         236         235
         231         232         237         236
         232         233         238         237
         233         234         239         238
         235         236         241         240
         236         237         242         241
         237         238         243         242
         238         239         244         243
         240         241         246         245
         241         242         247         246
         242         243         248         247
         243         244         249         248
         250         251         256         255
         251         252         257         256
         252         253         258         257
         253         254         259         258
         255         256         261         260
         256         257         262         261
         257         258         263         262
         258         259         264         263
         260         261         266         265
         261         262         267         266
         262         263         268         267
         263         264         269         268
         265         266         271         270
         266         267         272         271
         267         268         273         272
         268         269         274         273
         275         276         281         280
         276         277         282         281
         277         278         283         282
         278         279         284         283
         280         281         286         285
         281         282         287         286
         282         283         288         287
         283         284         289         288
         285         286         291         290
         286         287         292         291
         287         288         293         292
         288         289         294         293
         290         291         296         295
         291         292         297         296
         292         293         298         297
         293         294         299         298
         300         301         306         305
         301         302         307         306
         302         303         308         307
         303         304         309         308
         305         306         311         310
         306         307         312         311
         307         308         313         312
         308         309         314         313
         310         311         316         315
         311         312         317         316
         312         313         318         317
         313         314         319         318
         315         316         321         320
         316         317         322         321
         317         318         323         322
         318         319         324         323
         325         326         331         330
         326         327         332         331
         327         328         333         332
         328         329         334         333
         330         331         336         335
         331         332         337         336
         332         333         338         337
         333         334         339         338
         335         336         341         340
         336         337         342         341
         337         338         343         342
         338         339         344         343
         340         341         346         345
         341         342         347         346
         342         343         348         347
         343         344         349         348
         350         351         356         355
         351         352         357         356
         352         353         358         357
         353         354         359         358
         355         356         361         360
         356         357         362         361
         357         358         363         362
         358         359         364         363
         360         361         366         365
         361         362         367         366
         362         363         368         367
         363         364         369         368
         365         366         371         370
         366         367         372         371
         367         368         373         372
         368         369         374         373
         375         376         381         380
         376         377         382         381
         377         378         383         382
         378         379         384         383
         380         381         386         385
         381         382         387         386
         382         383         388         387
         383         384         389         388
         385         386         391         390
         386         387         392         391
         387         388         393         392
         388         389         394         393
         390         391         396         395
         391         392         397         396
         392         393         398         397
         393         394         399         398
 </DataArray>
 <DataArray  type="Int32"  Name="offsets"  format="ascii"> 
           4
           8
          12
          16
          20
          24
          28
          32
          36
          40
          44
          48
          52
          56
          60
          64
          68
          72
          76
          80
          84
          88
          92
          96
         100
         104
         108
         112
         116
         120
         124
         128
         132
         136
         140
         144
         148
         152
         156
         160
         164
         168
         172
         176
         180
         184
         188
         192
         196
         200
         204
         208
         212
         216
         220
         224
         228
         232
         236
         240
         244
         248
         252
         256
         260
         264
         268
         272
         276
         280
         284
         288
         292
         296
         300
         304
         308
         312
         316
         320
         324
         328
         332
         336
         340
         344
         348
         352
         356
         360
         364
         368
         372
         376
         380
         384
         388
         392
         396
         400
         404
         408
         412
         416
         420
         424
         428
         432
         436
         440
         444
         448
         452
         456
         460
         464
         468
         472
         476
         480
         484
         488
         492
         496
         500
         504
         508
         512
         516
         520
         524
         528
         532
         536
         540
         544
         548
         552
         556
         560
         564
         568
         572
         576
         580
         584
         588
         592
         596
         600
         604
         608
         612
         616
         620
         624
         628
         632
         636
         640
         644
         648
         652
         656
         660
         664
         668
         672
         676
         680
         684
         688
         692
         696
         700
         704
         708
         712
         716
         720
         724
         728
         732
         736
         740
         744
         748
         752
         756
         760
         764
         768
         772
         776
         780
         784
         788
         792
         796
         800
         804
         808
         812
         816
         820
         824
         828
         832
         836
         840
         844
         848
         852
         856
         860
         864
         868
         872
         876
         880
         884
         888
         892
         896
         900
         904
         908
         912
         916
         920
         924
         928
         932
         936
         940
         944
         948
         952
         956
         960
         964
         968
         972
         976
         980
         984
         988
         992
         996
        1000
        1004
        1008
        1012
        1016
        1020
        1024
 </DataArray>
 <DataArray  type="UInt8"  Name="types"  format="ascii">
 9
 9
 9
 9
 9
 9
 9
 9
 9
 9
 9
 9
 9
 9
 9
 9
 9
 9
 9
 9
 9
 9
 9
 9
 9
 9
 9
 9
 9
 9
 9
 9
 9
 9
 9
 9
 9
 9
 9
 9
 9
 9
 9
 9
 9
 9
 9
 9
 9
 9
 9
 9
 9
 9
 9
 9
 9
 9
 9
 9
 9
 9
 9
 9
 9
 9
 9
 9
 9
 9
 9
 9
 9
 9
 9
 9
 9
 9
 9
 9
 9
 9
 9
 9
 9
 9
 9
 9
 9
 9
 9
 9
 9
 9
 9
 9
 9
 9
 9
 9
 9
 9
 9
 9
 9
 9
 9
 9
 9
 9
 9
 9
 9
 9
 9
 9
 9
 9
 9
 9
 9
 9
 9
 9
 9
 9
 9
 9
 9
 9
 9
 9
 9
 9
 9
 9
 9
 9
 9
 9
 9
 9
 9
 9
 9
 9
 9
 9
 9
 9
 9
 9
 9
 9
 9
 9
 9
 9
 9
 9
 9
 9
 9
 9
 9
 9
 9
 9
 9
 9
 9
 9
 9
 9
 9
 9
 9
 9
 9
 9
 9
 9
 9
 9
 9
 9
 9
 9
 9
 9
 9
 9
 9
 9
 9
 9
 9
 9
 9
 9
 9
 9
 9
 9
 9
 9
 9
 9
 9
 9
 9
 9
 9
 9
 9
 9
 9
 9
 9
 9
 9
 9
 9
 9
 9
 9
 9
 9
 9
 9
 9
 9
 9
 9
 9
 9
 9
 9
 9
 9
 9
 9
 9
 9
 9
 9
 9
 9
 9
 9
 9
 9
 9
 9
 9
 9
 </DataArray>
 </Cells> 
 <PointData>
 <DataArray  type="Float64" Name="disp" NumberOfComponents="3" format="ascii">
   6.6700844661948755E-002   6.1463498573848620E-002   0.0000000000000000     
   7.2176772440313397E-002   7.2918019039104387E-002   0.0000000000000000     
   7.7415501087884170E-002   8.4892273368253474E-002   0.0000000000000000     
   8.2417030604661101E-002   9.7386261561295900E-002   0.0000000000000000     
   8.7181360990644163E-002  0.11039998361823164        0.0000000000000000     
   5.5445446447117075E-002   6.0368974542104534E-002   0.0000000000000000     
   6.0570004850807740E-002   7.1630361922192201E-002   0.0000000000000000     
   6.5402287612202958E-002   8.3505014211740905E-002   0.0000000000000000     
   6.9942294731302729E-002   9.5992931410750659E-002   0.0000000000000000     
   7.4190026208107065E-002  0.10909411351922146        0.0000000000000000     
   4.5357350099439989E-002   5.9275972814404533E-002   0.0000000000000000     
   4.9969186678014525E-002   7.0431712046110692E-002   0.0000000000000000     
   5.4274074341514197E-002   8.2263470001876532E-002   0.0000000000000000     
   5.8272013089939005E-002   9.4771246681702059E-002   0.0000000000000000     
   6.1963002923288935E-002  0.10795504208558729        0.0000000000000000     
   3.6436555618917510E-002   5.8184493390748646E-002   0.0000000000000000     
   4.0374317921933738E-002   6.9322069410859846E-002   0.0000000000000000     
   4.4030861275817866E-002   8.1167640738660354E-002   0.0000000000000000     
   4.7406185680569882E-002   9.3721207374150059E-002   0.0000000000000000     
   5.0500291136189771E-002  0.10698276931732907        0.0000000000000000     
   2.8683063005549625E-002   5.7094536271136850E-002   0.0000000000000000     
   3.1785398582565391E-002   6.8301434016439691E-002   0.0000000000000000     
   3.4672648415113971E-002   8.0217526422092317E-002   0.0000000000000000     
   3.7344812503195365E-002   9.2842813488094714E-002   0.0000000000000000     
   3.9801890846809573E-002  0.10617729521444688        0.0000000000000000     
   8.7181360990644163E-002  0.11039998361823164        0.0000000000000000     
   9.1634424983222523E-002  0.12392762302013946        0.0000000000000000     
   9.5702155319785251E-002  0.13796336324809802        0.0000000000000000     
   9.9384552000332388E-002  0.15250720430210737        0.0000000000000000     
  0.10268161502486392       0.16755914618216750        0.0000000000000000     
   7.4190026208107065E-002  0.10909411351922146        0.0000000000000000     
   7.8123550212764847E-002  0.12274793416674619        0.0000000000000000     
   8.1720934915425023E-002  0.13689376698291772        0.0000000000000000     
   8.4982180316087536E-002  0.15153161196773610        0.0000000000000000     
   8.7907286414752400E-002  0.16666146912120128        0.0000000000000000     
   6.1963002923288935E-002  0.10795504208558729        0.0000000000000000     
   6.5356432580168405E-002  0.12171806025793466        0.0000000000000000     
   6.8461690799181824E-002  0.13596350524314671        0.0000000000000000     
   7.1278777580329161E-002  0.15069137704122343        0.0000000000000000     
   7.3807692923610446E-002  0.16590167565216479        0.0000000000000000     
   5.0500291136189771E-002  0.10698276931732907        0.0000000000000000     
   5.3333072085433170E-002  0.12083800129370488        0.0000000000000000     
   5.5924422971055689E-002  0.13517257802878496        0.0000000000000000     
   5.8274343793057300E-002  0.14998649952256934        0.0000000000000000     
   6.0382834551438044E-002  0.16527976577505804        0.0000000000000000     
   3.9801890846809573E-002  0.10617729521444688        0.0000000000000000     
   4.2053468728559140E-002  0.12010775727405681        0.0000000000000000     
   4.4109131431046583E-002  0.13452098533983248        0.0000000000000000     
   4.5968878954271937E-002  0.14941697941177390        0.0000000000000000     
   4.7632711298235167E-002  0.16479573948988105        0.0000000000000000     
  0.10268161502486392       0.16755914618216750        0.0000000000000000     
  0.10564823701824694       0.18301052549853905        0.0000000000000000     
  0.10833931060534854       0.19875267886148282        0.0000000000000000     
  0.11075483578616871       0.21478560627099871        0.0000000000000000     
  0.11289481256070749       0.23110930772708682        0.0000000000000000     
   8.7907286414752400E-002  0.16666146912120128        0.0000000000000000     
   9.0506632671744774E-002  0.18219512989883863        0.0000000000000000     
   9.2790598547389747E-002  0.19804438575617350        0.0000000000000000     
   9.4759184041687330E-002  0.21420923669320599        0.0000000000000000     
   9.6412389154637512E-002  0.23068968270993598        0.0000000000000000     
   7.3807692923610446E-002  0.16590167565216479        0.0000000000000000     
   7.6029558377478157E-002  0.18151823365840863        0.0000000000000000     
   7.7925495490384786E-002  0.19746488364239267        0.0000000000000000     
   7.9495504262330347E-002  0.21374162560411708        0.0000000000000000     
   8.0739584693314770E-002  0.23034845954358166        0.0000000000000000     
   6.0382834551438044E-002  0.16527976577505804        0.0000000000000000     
   6.2217014135447092E-002  0.18097983677724902        0.0000000000000000     
   6.3744001434333633E-002  0.19701417252014036        0.0000000000000000     
   6.4963796448097688E-002  0.21338277300373193        0.0000000000000000     
   6.5876399176739264E-002  0.23008563822802383        0.0000000000000000     
   4.7632711298235167E-002  0.16479573948988105        0.0000000000000000     
   4.9068999945651538E-002  0.18057993925535989        0.0000000000000000     
   5.0246116379236289E-002  0.19669225238941640        0.0000000000000000     
   5.1164060598989439E-002  0.21313267889205065        0.0000000000000000     
   5.1822832604910968E-002  0.22990121876326258        0.0000000000000000     
  0.11289481256070749       0.23110930772708682        0.0000000000000000     
  0.11471325458901388       0.24796389343669406        0.0000000000000000     
  0.11616417553113695       0.26558947360676732        0.0000000000000000     
  0.11724757538707670       0.28398604823730672        0.0000000000000000     
  0.11796345415683308       0.30315361732831225        0.0000000000000000     
   9.6412389154637512E-002  0.23068968270993598        0.0000000000000000     
   9.7763126035426182E-002  0.24764280666153587        0.0000000000000000     
   9.8824306833239201E-002  0.26522569140317814        0.0000000000000000     
   9.9595931548076597E-002  0.28343833693486264        0.0000000000000000     
  0.10007800017993831       0.30228074325658949        0.0000000000000000     
   8.0739584693314770E-002  0.23034845954358166        0.0000000000000000     
   8.1711886696548913E-002  0.24735726011683903        0.0000000000000000     
   8.2466560185243495E-002  0.26483990197994162        0.0000000000000000     
   8.3003605159398530E-002  0.28279638513288952        0.0000000000000000     
   8.3323021619014018E-002  0.30122670957568254        0.0000000000000000     
   6.5876399176739264E-002  0.23008563822802383        0.0000000000000000     
   6.6559536572382047E-002  0.24710725380260334        0.0000000000000000     
   6.7090935587149805E-002  0.26443210533705780        0.0000000000000000     
   6.7470596221042511E-002  0.28206019283138711        0.0000000000000000     
   6.7698518474060179E-002  0.29999151628559134        0.0000000000000000     
   5.1822832604910968E-002  0.22990121876326258        0.0000000000000000     
   5.2306075662925625E-002  0.24689278771882900        0.0000000000000000     
   5.2697433038958144E-002  0.26400230147452663        0.0000000000000000     
   5.2996904733008533E-002  0.28122976003035560        0.0000000000000000     
   5.3204490745076785E-002  0.29857516338631584        0.0000000000000000     
   2.8683063005549625E-002   5.7094536271136850E-002   0.0000000000000000     
   3.1785398582565391E-002   6.8301434016439691E-002   0.0000000000000000     
   3.4672648415113971E-002   8.0217526422092317E-002   0.0000000000000000     
   3.7344812503195365E-002   9.2842813488094714E-002   0.0000000000000000     
   3.9801890846809573E-002  0.10617729521444688        0.0000000000000000     
   2.1512990307860531E-002   5.6141489799498262E-002   0.0000000000000000     
   2.3734352697896265E-002   6.7447318714187576E-002   0.0000000000000000     
   2.5818823320513589E-002   7.9449926684255670E-002   0.0000000000000000     
   2.7766402175712513E-002   9.2149313709702543E-002   0.0000000000000000     
   2.9577089263493030E-002  0.10554547979052820        0.0000000000000000     
   1.4342455574374415E-002   5.5460742319761988E-002   0.0000000000000000     
   1.5753104305913136E-002   6.6837236355440852E-002   0.0000000000000000     
   1.7088773553127781E-002   7.8901641157233540E-002   0.0000000000000000     
   1.8349463316018343E-002   9.1653956725140096E-002   0.0000000000000000     
   1.9535173594584829E-002  0.10509418305916046        0.0000000000000000     
   7.1714588050912666E-003   5.5052293831928001E-002   0.0000000000000000     
   7.8416534066160139E-003   6.6471186940199517E-002   0.0000000000000000     
   8.4824991129565444E-003   7.8572669841025969E-002   0.0000000000000000     
   9.0939959241128649E-003   9.1356742534407384E-002   0.0000000000000000     
   9.6761438400849616E-003  0.10482340502034369        0.0000000000000000     
   1.1094423990609670E-014   5.4916144335996328E-002   0.0000000000000000     
   4.8962570109445380E-015   6.6349170468463586E-002   0.0000000000000000     
  -1.1232334506949826E-016   7.8463012735632956E-002   0.0000000000000000     
  -3.9333770615601615E-015   9.1257671137504395E-002   0.0000000000000000     
  -6.5641936330962380E-015  0.10473314567407793        0.0000000000000000     
   3.9801890846809573E-002  0.10617729521444688        0.0000000000000000     
   4.2053468728559140E-002  0.12010775727405681        0.0000000000000000     
   4.4109131431046583E-002  0.13452098533983248        0.0000000000000000     
   4.5968878954271937E-002  0.14941697941177390        0.0000000000000000     
   4.7632711298235167E-002  0.16479573948988105        0.0000000000000000     
   2.9577089263493030E-002  0.10554547979052820        0.0000000000000000     
   3.1244333342066104E-002  0.11953433779512025        0.0000000000000000     
   3.2761583169642665E-002  0.13401180059186640        0.0000000000000000     
   3.4128838746222717E-002  0.14897786818076653        0.0000000000000000     
   3.5346100071806268E-002  0.16443254056182080        0.0000000000000000     
   1.9535173594584829E-002  0.10509418305916046        0.0000000000000000     
   2.0632376758473847E-002  0.11912475245302492        0.0000000000000000     
   2.1627545177332012E-002  0.13364809720046372        0.0000000000000000     
   2.2520678851159322E-002  0.14866421730147686        0.0000000000000000     
   2.3311777779955772E-002  0.16417311275606430        0.0000000000000000     
   9.6761438400849616E-003  0.10482340502034369        0.0000000000000000     
   1.0217598977782379E-002  0.11887900124777082        0.0000000000000000     
   1.0707017454114639E-002  0.13342987516562452        0.0000000000000000     
   1.1144399269081737E-002  0.14847602677390476        0.0000000000000000     
   1.1529744422683681E-002  0.16401745607261164        0.0000000000000000     
  -6.5641936330962380E-015  0.10473314567407793        0.0000000000000000     
  -8.3062896838459466E-015  0.11879708417935791        0.0000000000000000     
  -9.4609649975430088E-015  0.13335713448734873        0.0000000000000000     
  -1.0024045395823356E-014  0.14841329659805033        0.0000000000000000     
  -9.9998134772683045E-015  0.16396557051146271        0.0000000000000000     
   4.7632711298235167E-002  0.16479573948988105        0.0000000000000000     
   4.9068999945651538E-002  0.18057993925535989        0.0000000000000000     
   5.0246116379236289E-002  0.19669225238941640        0.0000000000000000     
   5.1164060598989439E-002  0.21313267889205065        0.0000000000000000     
   5.1822832604910968E-002  0.22990121876326258        0.0000000000000000     
   3.5346100071806268E-002  0.16443254056182080        0.0000000000000000     
   3.6390375576289380E-002  0.18029062239338794        0.0000000000000000     
   3.7238673689568132E-002  0.19646691833382679        0.0000000000000000     
   3.7890994411642516E-002  0.21296142838313747        0.0000000000000000     
   3.8347337742512533E-002  0.22977415254131994        0.0000000000000000     
   2.3311777779955772E-002  0.16417311275606430        0.0000000000000000     
   2.3986000795558467E-002  0.18008396749197988        0.0000000000000000     
   2.4528506729804500E-002  0.19630596543697737        0.0000000000000000     
   2.4939295582693869E-002  0.21283910659105670        0.0000000000000000     
   2.5218367354226581E-002  0.22968339095421791        0.0000000000000000     
   1.1529744422683681E-002  0.16401745607261164        0.0000000000000000     
   1.1855875603458799E-002  0.17995997455113580        0.0000000000000000     
   1.2115615499945409E-002  0.19620939369886803        0.0000000000000000     
   1.2308964112143517E-002  0.21276571351580828        0.0000000000000000     
   1.2435921440053118E-002  0.22962893400195664        0.0000000000000000     
  -9.9998134772683045E-015  0.16396557051146271        0.0000000000000000     
  -9.6255468873263084E-015  0.17991864357085566        0.0000000000000000     
  -9.1448116440462357E-015  0.19617720311949885        0.0000000000000000     
  -8.5546261914537514E-015  0.21274124915739234        0.0000000000000000     
  -7.8556952609609709E-015  0.22961078168453608        0.0000000000000000     
   5.1822832604910968E-002  0.22990121876326258        0.0000000000000000     
   5.2306075662925625E-002  0.24689278771882900        0.0000000000000000     
   5.2697433038958144E-002  0.26400230147452663        0.0000000000000000     
   5.2996904733008533E-002  0.28122976003035560        0.0000000000000000     
   5.3204490745076785E-002  0.29857516338631584        0.0000000000000000     
   3.8347337742512533E-002  0.22977415254131994        0.0000000000000000     
   3.8683933707416407E-002  0.24672067874635309        0.0000000000000000     
   3.8977012331592363E-002  0.26361659493621609        0.0000000000000000     
   3.9226573615040408E-002  0.28046190111090880        0.0000000000000000     
   3.9432617557760528E-002  0.29725659727043141        0.0000000000000000     
   2.5218367354226581E-002  0.22968339095421791        0.0000000000000000     
   2.5425540445091210E-002  0.24659774376601301        0.0000000000000000     
   2.5620633255976334E-002  0.26334109026599395        0.0000000000000000     
   2.5803645786881955E-002  0.27991343045416067        0.0000000000000000     
   2.5974578037808081E-002  0.29631476433051329        0.0000000000000000     
   1.2435921440053118E-002  0.22962893400195664        0.0000000000000000     
   1.2530895875950028E-002  0.24652398277780876        0.0000000000000000     
   1.2628295812110049E-002  0.26317578746386017        0.0000000000000000     
   1.2728121248533184E-002  0.27958434806011112        0.0000000000000000     
   1.2830372185219435E-002  0.29574966456656160        0.0000000000000000     
  -7.8556952609609709E-015  0.22961078168453608        0.0000000000000000     
  -7.1366523801685844E-015  0.24649939578174024        0.0000000000000000     
  -6.4913352471052121E-015  0.26312068652981496        0.0000000000000000     
  -5.9104197230874789E-015  0.27947465392876025        0.0000000000000000     
  -5.4053983511437309E-015  0.29556129797857611        0.0000000000000000     
   1.1094423990609670E-014   5.4916144335996328E-002   0.0000000000000000     
   4.8962570109445380E-015   6.6349170468463586E-002   0.0000000000000000     
  -1.1232334506949826E-016   7.8463012735632956E-002   0.0000000000000000     
  -3.9333770615601615E-015   9.1257671137504395E-002   0.0000000000000000     
  -6.5641936330962380E-015  0.10473314567407793        0.0000000000000000     
  -7.1714588050685001E-003   5.5052293831966977E-002   0.0000000000000000     
  -7.8416534066054321E-003   6.6471186940232740E-002   0.0000000000000000     
  -8.4824991129558210E-003   7.8572669841053905E-002   0.0000000000000000     
  -9.0939959241196616E-003   9.1356742534430505E-002   0.0000000000000000     
  -9.6761438400969537E-003  0.10482340502036253        0.0000000000000000     
  -1.4342455574349908E-002   5.5460742319839974E-002   0.0000000000000000     
  -1.5753104305900194E-002   6.6837236355506605E-002   0.0000000000000000     
  -1.7088773553124208E-002   7.8901641157288288E-002   0.0000000000000000     
  -1.8349463316021945E-002   9.1653956725185032E-002   0.0000000000000000     
  -1.9535173594593405E-002  0.10509418305919686        0.0000000000000000     
  -2.1512990307833130E-002   5.6141489799615321E-002   0.0000000000000000     
  -2.3734352697879386E-002   6.7447318714285220E-002   0.0000000000000000     
  -2.5818823320505262E-002   7.9449926684336106E-002   0.0000000000000000     
  -2.7766402175710778E-002   9.2149313709768019E-002   0.0000000000000000     
  -2.9577089263495924E-002  0.10554547979058092        0.0000000000000000     
  -2.8683063005518167E-002   5.7094536271293003E-002   0.0000000000000000     
  -3.1785398582542999E-002   6.8301434016568560E-002   0.0000000000000000     
  -3.4672648415099004E-002   8.0217526422197358E-002   0.0000000000000000     
  -3.7344812503186164E-002   9.2842813488179410E-002   0.0000000000000000     
  -3.9801890846804508E-002  0.10617729521451473        0.0000000000000000     
  -6.5641936330962380E-015  0.10473314567407793        0.0000000000000000     
  -8.3062896838459466E-015  0.11879708417935791        0.0000000000000000     
  -9.4609649975430088E-015  0.13335713448734873        0.0000000000000000     
  -1.0024045395823356E-014  0.14841329659805033        0.0000000000000000     
  -9.9998134772683045E-015  0.16396557051146271        0.0000000000000000     
  -9.6761438400969537E-003  0.10482340502036253        0.0000000000000000     
  -1.0217598977797816E-002  0.11887900124778576        0.0000000000000000     
  -1.0707017454132379E-002  0.13342987516563595        0.0000000000000000     
  -1.1144399269100628E-002  0.14847602677391317        0.0000000000000000     
  -1.1529744422702572E-002  0.16401745607261736        0.0000000000000000     
  -1.9535173594593405E-002  0.10509418305919686        0.0000000000000000     
  -2.0632376758485772E-002  0.11912475245305375        0.0000000000000000     
  -2.1627545177346212E-002  0.13364809720048582        0.0000000000000000     
  -2.2520678851174734E-002  0.14866421730149298        0.0000000000000000     
  -2.3311777779971329E-002  0.16417311275607530        0.0000000000000000     
  -2.9577089263495924E-002  0.10554547979058092        0.0000000000000000     
  -3.1244333342072165E-002  0.11953433779516198        0.0000000000000000     
  -3.2761583169650971E-002  0.13401180059189827        0.0000000000000000     
  -3.4128838746232334E-002  0.14897786818078981        0.0000000000000000     
  -3.5346100071816267E-002  0.16443254056183662        0.0000000000000000     
  -3.9801890846804508E-002  0.10617729521451473        0.0000000000000000     
  -4.2053468728556989E-002  0.12010775727411035        0.0000000000000000     
  -4.4109131431046646E-002  0.13452098533987331        0.0000000000000000     
  -4.5968878954273436E-002  0.14941697941180360        0.0000000000000000     
  -4.7632711298237401E-002  0.16479573948990128        0.0000000000000000     
  -9.9998134772683045E-015  0.16396557051146271        0.0000000000000000     
  -9.6255468873263084E-015  0.17991864357085566        0.0000000000000000     
  -9.1448116440462357E-015  0.19617720311949885        0.0000000000000000     
  -8.5546261914537514E-015  0.21274124915739234        0.0000000000000000     
  -7.8556952609609709E-015  0.22961078168453608        0.0000000000000000     
  -1.1529744422702572E-002  0.16401745607261736        0.0000000000000000     
  -1.1855875603477005E-002  0.17995997455113927        0.0000000000000000     
  -1.2115615499962712E-002  0.19620939369886978        0.0000000000000000     
  -1.2308964112159697E-002  0.21276571351580870        0.0000000000000000     
  -1.2435921440067969E-002  0.22962893400195619        0.0000000000000000     
  -2.3311777779971329E-002  0.16417311275607530        0.0000000000000000     
  -2.3986000795573528E-002  0.18008396749198660        0.0000000000000000     
  -2.4528506729818843E-002  0.19630596543698067        0.0000000000000000     
  -2.4939295582707275E-002  0.21283910659105754        0.0000000000000000     
  -2.5218367354238831E-002  0.22968339095421708        0.0000000000000000     
  -3.5346100071816267E-002  0.16443254056183662        0.0000000000000000     
  -3.6390375576299198E-002  0.18029062239339760        0.0000000000000000     
  -3.7238673689577548E-002  0.19646691833383159        0.0000000000000000     
  -3.7890994411651280E-002  0.21296142838313858        0.0000000000000000     
  -3.8347337742520457E-002  0.22977415254131872        0.0000000000000000     
  -4.7632711298237401E-002  0.16479573948990128        0.0000000000000000     
  -4.9068999945654015E-002  0.18057993925537225        0.0000000000000000     
  -5.0246116379238794E-002  0.19669225238942256        0.0000000000000000     
  -5.1164060598991742E-002  0.21313267889205215        0.0000000000000000     
  -5.1822832604912841E-002  0.22990121876326108        0.0000000000000000     
  -7.8556952609609709E-015  0.22961078168453608        0.0000000000000000     
  -7.1366523801685844E-015  0.24649939578174024        0.0000000000000000     
  -6.4913352471052121E-015  0.26312068652981496        0.0000000000000000     
  -5.9104197230874789E-015  0.27947465392876025        0.0000000000000000     
  -5.4053983511437309E-015  0.29556129797857611        0.0000000000000000     
  -1.2435921440067969E-002  0.22962893400195619        0.0000000000000000     
  -1.2530895875963491E-002  0.24652398277780763        0.0000000000000000     
  -1.2628295812122268E-002  0.26317578746385822        0.0000000000000000     
  -1.2728121248544293E-002  0.27958434806010818        0.0000000000000000     
  -1.2830372185229560E-002  0.29574966456655738        0.0000000000000000     
  -2.5218367354238831E-002  0.22968339095421708        0.0000000000000000     
  -2.5425540445102254E-002  0.24659774376601085        0.0000000000000000     
  -2.5620633255986281E-002  0.26334109026599017        0.0000000000000000     
  -2.5803645786890910E-002  0.27991343045415512        0.0000000000000000     
  -2.5974578037816151E-002  0.29631476433050552        0.0000000000000000     
  -3.8347337742520457E-002  0.22977415254131872        0.0000000000000000     
  -3.8683933707423401E-002  0.24672067874635006        0.0000000000000000     
  -3.8977012331598511E-002  0.26361659493621076        0.0000000000000000     
  -3.9226573615045779E-002  0.28046190111090097        0.0000000000000000     
  -3.9432617557765184E-002  0.29725659727042053        0.0000000000000000     
  -5.1822832604912841E-002  0.22990121876326108        0.0000000000000000     
  -5.2306075662926964E-002  0.24689278771882514        0.0000000000000000     
  -5.2697433038958977E-002  0.26400230147452003        0.0000000000000000     
  -5.2996904733008866E-002  0.28122976003034589        0.0000000000000000     
  -5.3204490745076646E-002  0.29857516338630252        0.0000000000000000     
  -2.8683063005518167E-002   5.7094536271293003E-002   0.0000000000000000     
  -3.1785398582542999E-002   6.8301434016568560E-002   0.0000000000000000     
  -3.4672648415099004E-002   8.0217526422197358E-002   0.0000000000000000     
  -3.7344812503186164E-002   9.2842813488179410E-002   0.0000000000000000     
  -3.9801890846804508E-002  0.10617729521451473        0.0000000000000000     
  -3.6436555618877771E-002   5.8184493390940298E-002   0.0000000000000000     
  -4.0374317921901860E-002   6.9322069411016568E-002   0.0000000000000000     
  -4.4030861275792560E-002   8.1167640738786934E-002   0.0000000000000000     
  -4.7406185680549856E-002   9.3721207374251353E-002   0.0000000000000000     
  -5.0500291136173749E-002  0.10698276931740985        0.0000000000000000     
  -4.5357350099384693E-002   5.9275972814624434E-002   0.0000000000000000     
  -4.9969186677966779E-002   7.0431712046289216E-002   0.0000000000000000     
  -5.4274074341473078E-002   8.2263470002019695E-002   0.0000000000000000     
  -5.8272013089903568E-002   9.4771246681815940E-002   0.0000000000000000     
  -6.1963002923258279E-002  0.10795504208567787        0.0000000000000000     
  -5.5445446447038915E-002   6.0368974542345431E-002   0.0000000000000000     
  -6.0570004850737741E-002   7.1630361922386476E-002   0.0000000000000000     
  -6.5402287612140536E-002   8.3505014211895726E-002   0.0000000000000000     
  -6.9942294731247315E-002   9.5992931410873145E-002   0.0000000000000000     
  -7.4190026208058091E-002  0.10909411351931876        0.0000000000000000     
  -6.6700844661840467E-002   6.1463498574103270E-002   0.0000000000000000     
  -7.2176772440214754E-002   7.2918019039308349E-002   0.0000000000000000     
  -7.7415501087794977E-002   8.4892273368414928E-002   0.0000000000000000     
  -8.2417030604581110E-002   9.7386261561422993E-002   0.0000000000000000     
  -8.7181360990573192E-002  0.11039998361833256        0.0000000000000000     
  -3.9801890846804508E-002  0.10617729521451473        0.0000000000000000     
  -4.2053468728556989E-002  0.12010775727411035        0.0000000000000000     
  -4.4109131431046646E-002  0.13452098533987331        0.0000000000000000     
  -4.5968878954273436E-002  0.14941697941180360        0.0000000000000000     
  -4.7632711298237401E-002  0.16479573948990128        0.0000000000000000     
  -5.0500291136173749E-002  0.10698276931740985        0.0000000000000000     
  -5.3333072085420222E-002  0.12083800129376851        0.0000000000000000     
  -5.5924422971045225E-002  0.13517257802883342        0.0000000000000000     
  -5.8274343793048786E-002  0.14998649952260465        0.0000000000000000     
  -6.0382834551430870E-002  0.16527976577508208        0.0000000000000000     
  -6.1963002923258279E-002  0.10795504208567787        0.0000000000000000     
  -6.5356432580141802E-002  0.12171806025800612        0.0000000000000000     
  -6.8461690799158759E-002  0.13596350524320117        0.0000000000000000     
  -7.1278777580309094E-002  0.15069137704126312        0.0000000000000000     
  -7.3807692923592863E-002  0.16590167565219197        0.0000000000000000     
  -7.4190026208058091E-002  0.10909411351931876        0.0000000000000000     
  -7.8123550212721743E-002  0.12274793416682307        0.0000000000000000     
  -8.1720934915387178E-002  0.13689376698297651        0.0000000000000000     
  -8.4982180316054368E-002  0.15153161196777909        0.0000000000000000     
  -8.7907286414723368E-002  0.16666146912123087        0.0000000000000000     
  -8.7181360990573192E-002  0.11039998361833256        0.0000000000000000     
  -9.1634424983160045E-002  0.12392762302021945        0.0000000000000000     
  -9.5702155319730531E-002  0.13796336324815947        0.0000000000000000     
  -9.9384552000284634E-002  0.15250720430215259        0.0000000000000000     
 -0.10268161502482237       0.16755914618219883        0.0000000000000000     
  -4.7632711298237401E-002  0.16479573948990128        0.0000000000000000     
  -4.9068999945654015E-002  0.18057993925537225        0.0000000000000000     
  -5.0246116379238794E-002  0.19669225238942256        0.0000000000000000     
  -5.1164060598991742E-002  0.21313267889205215        0.0000000000000000     
  -5.1822832604912841E-002  0.22990121876326108        0.0000000000000000     
  -6.0382834551430870E-002  0.16527976577508208        0.0000000000000000     
  -6.2217014135440861E-002  0.18097983677726379        0.0000000000000000     
  -6.3744001434328096E-002  0.19701417252014769        0.0000000000000000     
  -6.4963796448092567E-002  0.21338277300373387        0.0000000000000000     
  -6.5876399176734296E-002  0.23008563822802219        0.0000000000000000     
  -7.3807692923592863E-002  0.16590167565219197        0.0000000000000000     
  -7.6029558377462614E-002  0.18151823365842540        0.0000000000000000     
  -7.7925495490370908E-002  0.19746488364240120        0.0000000000000000     
  -7.9495504262317759E-002  0.21374162560411944        0.0000000000000000     
  -8.0739584693303126E-002  0.23034845954358005        0.0000000000000000     
  -8.7907286414723368E-002  0.16666146912123087        0.0000000000000000     
  -9.0506632671719267E-002  0.18219512989885708        0.0000000000000000     
  -9.2790598547367223E-002  0.19804438575618316        0.0000000000000000     
  -9.4759184041667249E-002  0.21420923669320893        0.0000000000000000     
  -9.6412389154619388E-002  0.23068968270993462        0.0000000000000000     
 -0.10268161502482237       0.16755914618219883        0.0000000000000000     
 -0.10564823701821083       0.18301052549855890        0.0000000000000000     
 -0.10833931060531707       0.19875267886149339        0.0000000000000000     
 -0.11075483578614112       0.21478560627100240        0.0000000000000000     
 -0.11289481256068298       0.23110930772708588        0.0000000000000000     
  -5.1822832604912841E-002  0.22990121876326108        0.0000000000000000     
  -5.2306075662926964E-002  0.24689278771882514        0.0000000000000000     
  -5.2697433038958977E-002  0.26400230147452003        0.0000000000000000     
  -5.2996904733008866E-002  0.28122976003034589        0.0000000000000000     
  -5.3204490745076646E-002  0.29857516338630252        0.0000000000000000     
  -6.5876399176734296E-002  0.23008563822802219        0.0000000000000000     
  -6.6559536572377065E-002  0.24710725380259893        0.0000000000000000     
  -6.7090935587144726E-002  0.26443210533705014        0.0000000000000000     
  -6.7470596221037238E-002  0.28206019283137590        0.0000000000000000     
  -6.7698518474054628E-002  0.29999151628557608        0.0000000000000000     
  -8.0739584693303126E-002  0.23034845954358005        0.0000000000000000     
  -8.1711886696537880E-002  0.24735726011683426        0.0000000000000000     
  -8.2466560185232823E-002  0.26483990197993335        0.0000000000000000     
  -8.3003605159387914E-002  0.28279638513287719        0.0000000000000000     
  -8.3323021619003207E-002  0.30122670957566605        0.0000000000000000     
  -9.6412389154619388E-002  0.23068968270993462        0.0000000000000000     
  -9.7763126035409403E-002  0.24764280666153110        0.0000000000000000     
  -9.8824306833223255E-002  0.26522569140316959        0.0000000000000000     
  -9.9595931548060901E-002  0.28343833693484999        0.0000000000000000     
 -0.10007800017992238       0.30228074325657234        0.0000000000000000     
 -0.11289481256068298       0.23110930772708588        0.0000000000000000     
 -0.11471325458899162       0.24796389343668951        0.0000000000000000     
 -0.11616417553111602       0.26558947360675883        0.0000000000000000     
 -0.11724757538705620       0.28398604823729401        0.0000000000000000     
 -0.11796345415681214       0.30315361732829499        0.0000000000000000     
 </DataArray>
 <DataArray  type="Float64" Name="stress" NumberOfComponents="3" format="ascii">
   5555279249.5455513        615109998.44816828       -237930688.65226969     
   5230079991.3172264        290149689.56075788       -145977194.08964065     
   4939352010.4329052        80093638.486690998       -81818701.691692740     
   4683095306.8925972       -15058154.774011374       -45455211.458430164     
   4461309880.6962900        4694309.7786347866       -36886723.389846817     
   5214136996.1372585        514228734.30801582        104495130.13025461     
   4858522584.8902607        264129418.83010650        171406875.20077425     
   4527638964.7025499        96466073.549839735        225441737.01941210     
   4221486135.5741315        11238698.467200756        266599715.58617777     
   3940064097.5050039        8447293.5822093487        294880810.90105712     
   4681465174.5848837        355888599.72464037        484905029.75133866     
   4338058807.2129250        193437236.72435355        515411124.66424668     
   4009642744.6155438        80953556.305985212        547958455.23808205     
   3696216986.7927384        18437558.469537973        582547021.47283638     
   3397781533.7445064        5889243.2150082588        619176823.36852014     
   3957263784.8884082        140089594.69803548        903299010.21098053     
   3668688658.2852187        78073143.243487597        886035554.30078113     
   3385363350.1718836        33556086.755136490        885731452.96430886     
   3107287860.5484161        6538425.2329995632        902386706.20156002     
   2834462189.4148040       -2979841.3229447603        936001314.01253688     
   3041532827.0478458       -133168280.77179718        1359677071.5091848     
   2850412138.1071386       -81962861.612492561        1283280164.1103749     
   2654800781.3715773       -45726335.102701187        1238760730.1980944     
   2454698756.8411627       -24458701.242424726        1226118769.7723410     
   2250106064.5158920       -18159960.031660795        1245354282.8331139     
   4461309880.6962900        4694309.7786347866       -36886723.389846817     
   4097425863.9458117        24815286.526978016       -37315762.875713609     
   3727420958.4416285        24533300.762968540       -19354304.283620369     
   3351295164.1837263        3848352.4865546227        16997652.386449248     
   2969048481.1721177       -37239558.302198648        71740107.134482101     
   3940064097.5050039        8447293.5822093487        294880810.90105712     
   3622702353.5770588        26220580.214819670        280922041.96470684     
   3301277908.6614227        30451530.221801996        284900913.30212027     
   2975790762.7580914        21140143.603131294        306817424.91328895     
   2646240915.8670712       -1713579.6411691904        346671576.79822171     
   3397781533.7445064        5889243.2150082588        619176823.36852014     
   3125648183.1984982        20926675.899713755        594089544.04204595     
   2851510319.4308190        29282397.845515966        586487047.18512356     
   2575367942.4414644        30956409.052403450        596369332.79775620     
   2297221052.2304406        25948709.520388365        623736400.87994540     
   2834462189.4148040       -2979841.3229447603        936001314.01253688     
   2606263352.8101377        8933573.5816737413        902186743.35629499     
   2378118190.7498207        21025903.634121656        885404097.36539829     
   2150026703.2338452        33297148.834378123        885653376.03984678     
   1921988890.2622209        45747309.182467580        902934579.37964094     
   2250106064.5158920       -18159960.031660795        1245354282.8331139     
   2064547862.4119766       -9758726.7392987013        1205213639.9074578     
   1881101522.6184225        5682047.5876032114        1181652063.8429434     
   1699767045.1352363        28162362.949064612        1174669554.6395609     
   1520544429.9624133        57682219.345073760        1184266112.2973199     
   2969048481.1721177       -37239558.302198648        71740107.134482101     
   2704303338.6636825       -37968466.563110948        45377341.675476663     
   2449047353.2893257       -7066851.0437779427       -1098894.3529351039     
   2203280525.0490499        55465288.255839944       -67688600.950735271     
   1967002853.9428549        149627951.33571631       -154391778.11793408     
   2646240915.8670712       -1713579.6411691904        346671576.79822171     
   2339670108.4474058       -14399050.728391528        325705475.85295498     
   2039321039.5862069       -6345393.2873951197        295438463.88989657     
   1745193709.2834797        22447392.681837916        255870540.90905294     
   1457288117.5392139        71979307.179285407        207001706.91043043     
   2297221052.2304406        25948709.520388365        623736400.87994540     
   1979717607.1898677        10574583.793962955        604354976.11019576     
   1665168482.1321487        5048191.3437052965        586485199.87427330     
   1353573677.0572877        9369532.1696490645        570127072.17217934     
   1044933191.9652804        23538606.271766841        555280593.00391674     
   1921988890.2622209        45747309.182467580        902934579.37964094     
   1624445834.8910646        36952437.003927708        881325842.44719923     
   1326589680.9271529        27113902.849531114        872041313.60019779     
   1028420428.3704805        16231706.719275713        875080992.83863831     
   729938077.22105145        4305848.6131529212        890444880.16251981     
   1520544429.9624133        57682219.345073760        1184266112.2973199     
   1273854791.5509989        64734508.901523829        1156618074.8639700     
   1023584635.9712154        59851741.230077028        1152106805.0676737     
   769733963.22305667        43033916.330716372        1170732302.9084308     
   512302773.30652869        14281034.203457445        1212494568.3862448     
   1967002853.9428549        149627951.33571631       -154391778.11793408     
   1617256528.9826078        159874343.92156160       -58888697.022516303     
   1225135986.8853364        28873346.050647557        66516065.522809625     
   790641227.65104818       -243375042.27698344        221822509.51803219     
   313772251.27970994       -656870821.06144798        407030634.96315265     
   1457288117.5392139        71979307.179285407        207001706.91043043     
   1176225590.8458107        61683683.723333657        283318301.68194044     
   848141023.96624374       -105352073.68649620        387307371.21846235     
   473034416.90054071       -429127965.05011356        518968915.51998043     
   50905769.648661673       -909643990.36765099        678302934.58650720     
   1044933191.9652804        23538606.271766841        555280593.00391674     
   826185301.58187139       -9209781.8130450845        606988241.22753811     
   555767547.96317172       -214191047.34882036        684139157.53127253     
   233679931.10919589       -591405190.33551466        786733341.91511405     
  -140077548.98005980       -1140852210.7731557        914770794.37907004     
   729938077.22105145        4305848.6131529212        890444880.16251981     
   567135661.19078588       -52806052.687590241        912121121.61427510     
   348015558.87611341       -297643574.93635380        957011424.46124446     
   72577770.277033508       -730206718.13314450        1025115788.7034239     
  -259177704.60645488       -1350495482.2779629        1116434214.3408277     
   512302773.30652869        14281034.203457445        1212494568.3862448     
   399076669.67256755       -69105128.900256962        1198716942.8421459     
   224885056.70506978       -355709656.44908780        1205924172.0083668     
  -10272065.595954657       -845532548.44301331        1234116255.8849101     
  -306394697.23051858       -1538573804.8820703        1283293194.4717743     
   3041532827.0478458       -133168280.77179718        1359677071.5091848     
   2850412138.1071386       -81962861.612492561        1283280164.1103749     
   2654800781.3715773       -45726335.102701187        1238760730.1980944     
   2454698756.8411627       -24458701.242424726        1226118769.7723410     
   2250106064.5158920       -18159960.031660795        1245354282.8331139     
   2157087487.6891770       -137094850.35318565        1398327017.1368511     
   2039511409.7688253       -90961454.348802805        1343287866.1117170     
   1918567331.0023475       -56054727.831507683        1314114486.1899271     
   1794255251.3897433       -32374670.801303029        1310806877.3714769     
   1666575170.9310098       -19921283.258187771        1333365039.6563721     
   1355350236.7281473       -116208993.41528195        1425885378.9183924     
   1294142477.3047657       -80300508.322835445        1393513762.3737807     
   1230689383.9839840       -51876469.555052459        1380996214.5493290     
   1164990956.7658026       -30936877.111937165        1388332735.4450331     
   1097047195.6502228       -17481730.993481100        1415523325.0608938     
   636321074.16475487       -70510709.958087415        1442352156.8538034     
   614305340.71495569       -49980023.534593940        1433957852.8965654     
   591166940.31648397       -33191560.273343235        1439405915.2763002     
   566905872.96934330       -20145320.174323857        1458696343.9930079     
   541522138.67352819       -10841303.237550050        1491829139.0466874     
  -1.0007562544224182E-003   1.8398149304410159E-002   1447727350.9430890     
  -6.0253999591950401E-004   1.5923022973412044E-002   1464620137.6800714     
  -1.4818732321816765E-004   1.3632936354904165E-002   1489343588.3708434     
   3.6072335594740596E-004   1.1525750592029333E-002   1521897703.0154004     
   9.2782924200816635E-004   9.6125488521384538E-003   1562282481.6137474     
   2250106064.5158920       -18159960.031660795        1245354282.8331139     
   2064547862.4119766       -9758726.7392987013        1205213639.9074578     
   1881101522.6184225        5682047.5876032114        1181652063.8429434     
   1699767045.1352363        28162362.949064612        1174669554.6395609     
   1520544429.9624133        57682219.345073760        1184266112.2973199     
   1666575170.9310098       -19921283.258187771        1333365039.6563721     
   1524180638.1573908       -14588122.648098707        1300657630.3851519     
   1383370002.1165628       -3975306.2620432377        1285281993.5873952     
   1244143262.8085241        11917165.899975896        1287238129.2631004     
   1106500420.2332730        33089293.837957859        1306526037.4122698     
   1097047195.6502228       -17481730.993481100        1415523325.0608938     
   999966919.67068887       -14571466.826527178        1389633189.6036060     
   903942574.84636688       -8141432.1421973109        1381827532.2321062     
   808974161.17726254        1808373.0595206320        1392106352.9463916     
   715061678.66336882        15277948.778611064        1420469651.7464676     
   541522138.67352819       -10841303.237550050        1491829139.0466874     
   491906706.95186377       -9708759.2745974362        1472140317.5628257     
   442819240.80784082       -6816330.0528404117        1471288679.7770731     
   394259740.24145305       -2164015.5722998381        1489274225.6894372     
   346228205.25270528        4248184.1670423150        1526096955.2999132     
   9.2782924200816635E-004   9.6125488521384538E-003   1562282481.6137474     
   9.2073784494153604E-004   7.7036133882247577E-003   1548179014.2628057     
   9.7687425913995903E-004   6.0047434058041835E-003   1553665436.2223020     
   1.0970963148937540E-003   4.5198391732633771E-003   1578741747.4922366     
   1.2781900080485284E-003   3.2378403987258363E-003   1623407948.0726087     
   1520544429.9624133        57682219.345073760        1184266112.2973199     
   1273854791.5509989        64734508.901523829        1156618074.8639700     
   1023584635.9712154        59851741.230077028        1152106805.0676737     
   769733963.22305667        43033916.330716372        1170732302.9084308     
   512302773.30652869        14281034.203457445        1212494568.3862448     
   1106500420.2332730        33089293.837957859        1306526037.4122698     
   919797145.71316028        37872697.291553408        1283331437.8916240     
   730408483.31678784        33704807.824281961        1283667016.6740484     
   538334433.04415667        20585625.436149746        1307532773.7595396     
   343574994.89526725       -1484849.8728473186        1354928709.1480999     
   715061678.66336882        15277948.778611064        1420469651.7464676     
   589468798.50888252        18129675.271642834        1402772807.6459913     
   462085659.77025247        15013873.150861591        1408999552.5145998     
   332912262.44747043        5930542.4162407219        1439149886.3522902     
   201948606.54054323       -9120316.9321975261        1493223809.1590629     
   346228205.25270528        4248184.1670423150        1526096955.2999132     
   282869749.93816978        5505442.8418059349        1514942184.1270752     
   218616165.33160374        3778937.2097970545        1528104412.5893290     
   153467451.43300116       -931332.72899827361        1565583640.6866817     
   87423608.242363870       -8625366.9745760038        1627379868.4191287     
   1.2781900080485284E-003   3.2378403987258363E-003   1623407948.0726087     
   1.0215271851853225E-003   2.0367407394339034E-003   1619839567.3348675     
   8.4904610814534294E-004   1.1148591207719430E-003   1640981596.8982358     
   7.4482544674028361E-004   4.2016527619785496E-004   1686834036.7627137     
   7.2130945904836058E-004  -3.4313211612728163E-006   1757396886.9283009     
   512302773.30652869        14281034.203457445        1212494568.3862448     
   399076669.67256755       -69105128.900256962        1198716942.8421459     
   224885056.70506978       -355709656.44908780        1205924172.0083668     
  -10272065.595954657       -845532548.44301331        1234116255.8849101     
  -306394697.23051858       -1538573804.8820703        1283293194.4717743     
   343574994.89526725       -1484849.8728473186        1354928709.1480999     
   285447773.13497031       -55986765.411166295        1285275171.1498642     
   181596419.37451491       -262902454.28334808        1230354938.1367261     
   32020933.613904297       -622231916.48938358        1190168010.1086895     
  -163278684.14686763       -1133975152.0292859        1164714387.0657580     
   201948606.54054323       -9120316.9321975261        1493223809.1590629     
   181058696.01043218       -40096456.098163731        1385475965.5956249     
   129686030.81353907       -172681777.48673558        1286209877.2920668     
   47830610.949862808       -406876281.09792066        1195425544.2483935     
  -64507563.580595523       -742679966.93170846        1113122966.4646056     
   87423608.242363870       -8625366.9745760038        1627379868.4191287     
   85909438.298951983       -21434200.961247534        1499319326.1794300     
   69153891.022136092       -85047626.059264094        1373488989.4743919     
   37156966.411916763       -199465642.26862746        1249888858.3040168     
  -10081335.531711251       -364688249.58935076        1128518932.6683109     
   7.2130945904836058E-004  -3.4313211612728163E-006   1757396886.9283009     
   5.3464558787512005E-004  -4.0082406258548056E-004   1626805252.9012775     
   3.1682532055752233E-004  -9.0415312599538425E-004   1492192274.6837003     
   6.9358438406527602E-005  -1.5063042388499446E-003   1353557952.2755640     
  -2.0844132281011866E-004  -2.2074832804188380E-003   1210902285.6768813     
  -1.0007562544224182E-003   1.8398149304410159E-002   1447727350.9430890     
  -6.0253999591950401E-004   1.5923022973412044E-002   1464620137.6800714     
  -1.4818732321816765E-004   1.3632936354904165E-002   1489343588.3708434     
   3.6072335594740596E-004   1.1525750592029333E-002   1521897703.0154004     
   9.2782924200816635E-004   9.6125488521384538E-003   1562282481.6137474     
  -636321074.16649914        70510709.995000452        1442352156.8520145     
  -614305340.71617603        49980023.565795898        1433957852.8951099     
  -591166940.31698751        33191560.299471527        1439405915.2751417     
  -566905872.96893489        20145320.196030051        1458696343.9921126     
  -541522138.67201579        10841303.255477339        1491829139.0460246     
  -1355350236.7291498        116208993.45245790        1425885378.9145060     
  -1294142477.3056107        80300508.353508890        1393513762.3706527     
  -1230689383.9843998        51876469.580137372        1380996214.5468912     
  -1164990956.7655110        30936877.132351816        1388332735.4432206     
  -1097047195.6489503        17481731.010143995        1415523325.0596392     
  -2157087487.6889496        137094850.39077079        1398327017.1305599     
  -2039511409.7689090        90961454.379061937        1343287866.1067045     
  -1918567331.0023789        56054727.855636001        1314114486.1860936     
  -1794255251.3893676        32374670.820490718        1310806877.3687224     
  -1666575170.9298751        19921283.273614883        1333365039.6545963     
  -3041532827.0459013        133168280.80993700        1359677071.5001760     
  -2850412138.1060634        81962861.642461300        1283280164.1032639     
  -2654800781.3709326        45726335.125959158        1238760730.1927471     
  -2454698756.8405075        24458701.260439277        1226118769.7686226     
  -2250106064.5147915        18159960.045888305        1245354282.8308914     
   9.2782924200816635E-004   9.6125488521384538E-003   1562282481.6137474     
   9.2073784494153604E-004   7.7036133882247577E-003   1548179014.2628057     
   9.7687425913995903E-004   6.0047434058041835E-003   1553665436.2223020     
   1.0970963148937540E-003   4.5198391732633771E-003   1578741747.4922366     
   1.2781900080485284E-003   3.2378403987258363E-003   1623407948.0726087     
  -541522138.67201579        10841303.255477339        1491829139.0460246     
  -491906706.95033026        9708759.2889116108        1472140317.5623343     
  -442819240.80616069        6816330.0639603138        1471288679.7767372     
  -394259740.23950261        2164015.5806356966        1489274225.6892333     
  -346228205.25035322       -4248184.1610484123        1526096955.2998188     
  -1097047195.6489503        17481731.010143995        1415523325.0596392     
  -999966919.66942167        14571466.839752555        1389633189.6026981     
  -903942574.84497905        8141432.1524085402        1381827532.2315040     
  -808974161.17562521       -1808373.0518969297        1392106352.9460549     
  -715061678.66135716       -15277948.773154736        1420469651.7463562     
  -1666575170.9298751        19921283.273614883        1333365039.6545963     
  -1524180638.1563466        14588122.660252512        1300657630.3838985     
  -1383370002.1154783        3975306.2713523507        1285281993.5866022     
  -1244143262.8072741       -11917165.893089950        1287238129.2627063     
  -1106500420.2317290       -33089293.833065748        1306526037.4122102     
  -2250106064.5147915        18159960.045888305        1245354282.8308914     
  -2064547862.4111071        9758726.7504010201        1205213639.9059331     
  -1881101522.6176569       -5682047.5792030096        1181652063.8420317     
  -1699767045.1344483       -28162362.942943633        1174669554.6391854     
  -1520544429.9614727       -57682219.340794802        1184266112.2973940     
   1.2781900080485284E-003   3.2378403987258363E-003   1623407948.0726087     
   1.0215271851853225E-003   2.0367407394339034E-003   1619839567.3348675     
   8.4904610814534294E-004   1.1148591207719430E-003   1640981596.8982358     
   7.4482544674028361E-004   4.2016527619785496E-004   1686834036.7627137     
   7.2130945904836058E-004  -3.4313211612728163E-006   1757396886.9283009     
  -346228205.25035322       -4248184.1610484123        1526096955.2998188     
  -282869749.93627036       -5505442.8380136639        1514942184.1271069     
  -218616165.33001494       -3778937.2077352107        1528104412.5894873     
  -153467451.43157804        931332.72981234640        1565583640.6869688     
  -87423608.240969136        8625366.9746030644        1627379868.4195404     
  -715061678.66135716       -15277948.773154736        1420469651.7463562     
  -589468798.50726318       -18129675.268191874        1402772807.6461177     
  -462085659.76889420       -15013873.148980319        1408999552.5149651     
  -332912262.44624841       -5930542.4155098349        1439149886.3528943     
  -201948606.53932676        9120316.9322094023        1493223809.1599052     
  -1106500420.2317290       -33089293.833065748        1306526037.4122102     
  -919797145.71194983       -37872697.288476169        1283331437.8919039     
  -730408483.31579411       -33704807.822633088        1283667016.6746633     
  -538334433.04326069       -20585625.435531199        1307532773.7604933     
  -343574994.89435363        1484849.8728183061        1354928709.1493912     
  -1520544429.9614727       -57682219.340794802        1184266112.2973940     
  -1273854791.5503268       -64734508.898855805        1156618074.8644619     
  -1023584635.9707146       -59851741.228697777        1152106805.0685852     
  -769733963.22261488       -43033916.330248237        1170732302.9097645     
  -512302773.30605012       -14281034.203580350        1212494568.3879986     
   7.2130945904836058E-004  -3.4313211612728163E-006   1757396886.9283009     
   5.3464558787512005E-004  -4.0082406258548056E-004   1626805252.9012775     
   3.1682532055752233E-004  -9.0415312599538425E-004   1492192274.6837003     
   6.9358438406527602E-005  -1.5063042388499446E-003   1353557952.2755640     
  -2.0844132281011866E-004  -2.2074832804188380E-003   1210902285.6768813     
  -87423608.240969136        8625366.9746030644        1627379868.4195404     
  -85909438.297906011        21434200.960535072        1499319326.1797407     
  -69153891.021485776        85047626.057657704        1373488989.4746084     
  -37156966.411701277        199465642.26599187        1249888858.3041427     
   10081335.531439722        364688249.58552229        1128518932.6683500     
  -201948606.53932676        9120316.9322094023        1493223809.1599052     
  -181058696.00951713        40096456.097520649        1385475965.5962777     
  -129686030.81295851        172681777.48532850        1286209877.2925446     
  -47830610.949648201        406876281.09564048        1195425544.2487078     
   64507563.580410123        742679966.92844880        1113122966.4647644     
  -343574994.89435363        1484849.8728183061        1354928709.1493912     
  -285447773.13429868        55986765.410559684        1285275171.1508939     
  -181596419.37410450        262902454.28209573        1230354938.1375158     
  -32020933.613769293        622231916.48743856        1190168010.1092517     
   163278684.14670464        1133975152.0265758        1164714387.0661104     
  -512302773.30605012       -14281034.203580350        1212494568.3879986     
  -399076669.67225301        69105128.899640232        1198716942.8435857     
  -224885056.70492604        355709656.44795847        1205924172.0095146     
   10272065.595930517        845532548.44137561        1234116255.8857863     
   306394697.23031616        1538573804.8798912        1283293194.4724047     
  -3041532827.0459013        133168280.80993700        1359677071.5001760     
  -2850412138.1060634        81962861.642461300        1283280164.1032639     
  -2654800781.3709326        45726335.125959158        1238760730.1927471     
  -2454698756.8405075        24458701.260439277        1226118769.7686226     
  -2250106064.5147915        18159960.045888305        1245354282.8308914     
  -3957263784.8872900       -140089594.66710210        903299010.20159352     
  -3668688658.2849684       -78073143.219574213        886035554.29345047     
  -3385363350.1721067       -33556086.736903906        885731452.95889997     
  -3107287860.5486989       -6538425.2190853357        902386706.19794178     
  -2834462189.4147463        2979841.3338825703        936001314.01057529     
  -4681465174.5855474       -355888599.70120001        484905029.74203426     
  -4338058807.2144594       -193437236.70678854        515411124.65712017     
  -4009642744.6175776       -80953556.293055773        547958455.23299563     
  -3696216986.7949061       -18437558.460013151        582547021.46966243     
  -3397781533.7464352       -5889243.2076511383        619176823.36712146     
  -5214136996.1406631       -514228734.29235911        104495130.12149911     
  -4858522584.8945322       -264129418.81917095        171406875.19427013     
  -4527638964.7073555       -96466073.542503595        225441737.01503348     
  -4221486135.5791330       -11238698.462347031        266599715.58378705     
  -3940064097.5098610       -8447293.5786981583        294880810.90052825     
  -5555279249.5526457       -615109998.44057441       -237930688.66001350     
  -5230079991.3251839       -290149689.55674028       -145977194.09509397     
  -4939352010.4414234       -80093638.485231400       -81818701.694984972     
  -4683095306.9013700        15058154.773916006       -45455211.459688611     
  -4461309880.7050180       -4694309.7792749405       -36886723.389202461     
  -2250106064.5147915        18159960.045888305        1245354282.8308914     
  -2064547862.4111071        9758726.7504010201        1205213639.9059331     
  -1881101522.6176569       -5682047.5792030096        1181652063.8420317     
  -1699767045.1344483       -28162362.942943633        1174669554.6391854     
  -1520544429.9614727       -57682219.340794802        1184266112.2973940     
  -2834462189.4147463        2979841.3338825703        936001314.01057529     
  -2606263352.8102431       -8933573.5731102228        902186743.35485125     
  -2378118190.7499943       -21025903.627614498        885404097.36443293     
  -2150026703.2339954       -33297148.829624295        885653376.03932321     
  -1921988890.2622514       -45747309.179144502        902934579.37951565     
  -3397781533.7464352       -5889243.2076511383        619176823.36712146     
  -3125648183.2003989       -20926675.893933535        594089544.04094589     
  -2851510319.4326324       -29282397.841112852        586487047.18432748     
  -2575367942.4431329       -30956409.049185038        596369332.79726338     
  -2297221052.2319045       -25948709.518158078        623736400.87976003     
  -3940064097.5098610       -8447293.5786981583        294880810.90052825     
  -3622702353.5815754       -26220580.212066412        280922041.96421736     
  -3301277908.6655750       -30451530.219705820        284900913.30171150     
  -2975790762.7618613       -21140143.601636648        306817424.91301525     
  -2646240915.8704247        1713579.6421741247        346671576.79812169     
  -4461309880.7050180       -4694309.7792749405       -36886723.389202461     
  -4097425863.9537683       -24815286.527496099       -37315762.875335388     
  -3727420958.4488153       -24533300.763375759       -19354304.283413801     
  -3351295164.1901674       -3848352.4869375229        16997652.386567663     
  -2969048481.1778197        37239558.301833749        71740107.134605080     
  -1520544429.9614727       -57682219.340794802        1184266112.2973940     
  -1273854791.5503268       -64734508.898855805        1156618074.8644619     
  -1023584635.9707146       -59851741.228697777        1152106805.0685852     
  -769733963.22261488       -43033916.330248237        1170732302.9097645     
  -512302773.30605012       -14281034.203580350        1212494568.3879986     
  -1921988890.2622514       -45747309.179144502        902934579.37951565     
  -1624445834.8912210       -36952437.001850605        881325842.44745052     
  -1326589680.9273510       -27113902.848436892        872041313.60085249     
  -1028420428.3706486       -16231706.718906105        875080992.83972263     
  -729938077.22110701       -4305848.6132461429        890444880.16405964     
  -2297221052.2319045       -25948709.518158078        623736400.87976003     
  -1979717607.1912329       -10574583.792574763        604354976.11031389     
  -1665168482.1333694       -5048191.3430109024        586485199.87475169     
  -1353573677.0583000       -9369532.1694328785        570127072.17306483     
  -1044933191.9660335       -23538606.271862864        555280593.00526118     
  -2646240915.8704247        1713579.6421741247        346671576.79812169     
  -2339670108.4503722        14399050.728953242        325705475.85305560     
  -2039321039.5887604        6345393.2876032591        295438463.89028311     
  -1745193709.2855783       -22447392.681849241        255870540.90979794     
  -1457288117.5408390       -71979307.179444969        207001706.91160658     
  -2969048481.1778197        37239558.301833749        71740107.134605080     
  -2704303338.6686316        37968466.562755108        45377341.675673939     
  -2449047353.2935200        7066851.0434237719       -1098894.3525565607     
  -2203280525.0524855       -55465288.256165028       -67688600.950081781     
  -1967002853.9455256       -149627951.33600473       -154391778.11690155     
  -512302773.30605012       -14281034.203580350        1212494568.3879986     
  -399076669.67225301        69105128.899640232        1198716942.8435857     
  -224885056.70492604        355709656.44795847        1205924172.0095146     
   10272065.595930517        845532548.44137561        1234116255.8857863     
   306394697.23031616        1538573804.8798912        1283293194.4724047     
  -729938077.22110701       -4305848.6132461429        890444880.16405964     
  -567135661.19086993        52806052.687122881        912121121.61544943     
  -348015558.87622774        297643574.93550515        957011424.46211302     
  -72577770.277173728        730206718.13193047        1025115788.7040414     
   259177704.60629055        1350495482.2763882        1116434214.3412409     
  -1044933191.9660335       -23538606.271862864        555280593.00526118     
  -826185301.58242917        9209781.8127178550        606988241.22848380     
  -555767547.96354246        214191047.34824538        684139157.53190148     
  -233679931.10936153        591405190.33475363        786733341.91551173     
   140077548.98011205        1140852210.7722321        914770794.37932241     
  -1457288117.5408390       -71979307.179444969        207001706.91160658     
  -1176225590.8469384       -61683683.723584592        283318301.68268764     
  -848141023.96686542        105352073.68618768        387307371.21889365     
  -473034416.90062225        429127965.04986155        518968915.52020973     
  -50905769.648205101        909643990.36744809        678302934.58666158     
  -1967002853.9455256       -149627951.33600473       -154391778.11690155     
  -1617256528.9843805       -159874343.92173034       -58888697.021937281     
  -1225135986.8861995       -28873346.050671697        66516065.523076080     
  -790641227.65096629        243375042.27723992        221822509.51814106     
  -313772251.27867198        656870821.06199920        407030634.96324492     
 </DataArray>
 <DataArray  type="Float64" Name="VM" NumberOfComponents="1" format="ascii">
   5290766775.9846325     
   5097484232.0161457     
   4901845111.7360935     
   4691303198.9164267     
   4459422272.9666996     
   4980276541.9508429     
   4741293943.8151836     
   4497168962.2510042     
   4241091099.7617769     
   3968848403.3741364     
   4591523870.5964270     
   4337508034.9501553     
   4081662526.9654832     
   3822603018.4794283     
   3560208348.9856772     
   4192020704.0922599     
   3941335159.8725696     
   3701590482.1684542     
   3475322881.7694592     
   3266638395.9257574     
   3901263467.5019965     
   3647686820.7350140     
   3431477354.8277597     
   3255193492.1294403     
   3123602213.9879613     
   4459422272.9666996     
   4085586018.0171976     
   3715366295.8200369     
   3349502035.0463705     
   2990424995.0775671     
   3968848403.3741364     
   3642309992.9533787     
   3323001617.9809127     
   3012520493.2118940     
   2714345595.5722618     
   3560208348.9856772     
   3280782257.8479996     
   3013365339.7086859     
   2760565764.1206198     
   2526940693.7829113     
   3266638395.9257574     
   3035000492.1195717     
   2820940868.0055456     
   2627789845.6832438     
   2460504187.0517540     
   3123602213.9879613     
   2939425151.4239764     
   2777911358.4933496     
   2642286388.2917767     
   2536756373.5590959     
   2990424995.0775671     
   2724619920.6979041     
   2452589153.2395673     
   2179234067.4942193     
   1915380016.4417858     
   2714345595.5722618     
   2413753249.3204870     
   2105626395.7281780     
   1789815387.4011581     
   1467148325.5327027     
   2526940693.7829113     
   2234769282.8929439     
   1948409643.2782085     
   1671736154.5755806     
   1411684377.4620233     
   2460504187.0517540     
   2215935071.7950087     
   2001493062.5453002     
   1827161530.6528573     
   1705391857.5725896     
   2536756373.5590959     
   2357483899.3221908     
   2229819429.0155191     
   2161726162.2008033     
   2160039606.3835964     
   1915380016.4417858     
   1546907979.0887029     
   1216425600.7184038     
   1012118066.9551415     
   1110433226.6980314     
   1467148325.5327027     
   1247223063.5572169     
   1126861424.9402866     
   1191172058.3155215     
   1502209814.6522186     
   1411684377.4620233     
   1339992587.2784467     
   1370377672.7300019     
   1549004192.1624939     
   1916187497.0543501     
   1705391857.5725896     
   1688275556.4436913     
   1749543861.0238175     
   1934955632.6013536     
   2297883564.4767842     
   2160039606.3835964     
   2121881919.1902595     
   2149384972.6337209     
   2296840055.1899972     
   2632527393.4717827     
   3901263467.5019965     
   3647686820.7350140     
   3431477354.8277597     
   3255193492.1294403     
   3123602213.9879613     
   3291428619.0690169     
   3125166327.4899354     
   2995376128.9878345     
   2903985616.1557517     
   2853884538.8128572     
   2847354916.8526082     
   2758770566.7102070     
   2702329177.2289834     
   2678918728.6482553     
   2689631070.5630989     
   2587640421.9844933     
   2565010218.5802264     
   2566294985.1731515     
   2591639186.8829722     
   2641192364.5526066     
   2507537327.3405290     
   2536796492.2504077     
   2579618764.9852490     
   2636004145.5450435     
   2705952633.9298010     
   3123602213.9879613     
   2939425151.4239764     
   2777911358.4933496     
   2642286388.2917767     
   2536756373.5590959     
   2853884538.8128572     
   2724097131.0841541     
   2622036821.7033033     
   2550324257.7866449     
   2511942599.4864621     
   2689631070.5630989     
   2609206461.3254433     
   2559859338.9432120     
   2543002129.4383078     
   2560043757.2256031     
   2641192364.5526066     
   2597774743.1092186     
   2587126761.9126444     
   2609619084.8215156     
   2665583787.2647119     
   2705952633.9298010     
   2681524711.9150810     
   2691027473.5006900     
   2734460918.6866288     
   2811825047.4728961     
   2536756373.5590959     
   2357483899.3221908     
   2229819429.0155191     
   2161726162.2008033     
   2160039606.3835964     
   2511942599.4864621     
   2398633917.4696779     
   2335255300.4112291     
   2325526100.0778918     
   2371929923.0384359     
   2560043757.2256031     
   2498085250.9981084     
   2482468548.6085625     
   2514428082.4257712     
   2594582873.5807958     
   2665583787.2647119     
   2638870543.5913572     
   2655614892.7647305     
   2716036167.5146456     
   2820206916.7606258     
   2811825047.4728961     
   2805644430.7343783     
   2842263500.1132550     
   2921682255.6095276     
   3043900697.2231941     
   2160039606.3835964     
   2121881919.1902595     
   2149384972.6337209     
   2296840055.1899972     
   2632527393.4717827     
   2371929923.0384359     
   2248642488.9971957     
   2165907875.6338558     
   2158152455.6518588     
   2279711475.9881086     
   2594582873.5807958     
   2408377201.1414227     
   2243220769.9001122     
   2115283411.7665031     
   2055469410.9294832     
   2820206916.7606258     
   2598760585.7966366     
   2382711217.5478106     
   2176061854.6140261     
   1987482717.4792078     
   3043900697.2231941     
   2817709352.0449495     
   2584552834.4139433     
   2344431144.3301663     
   2097344281.7936416     
   2507537327.3405290     
   2536796492.2504077     
   2579618764.9852490     
   2636004145.5450435     
   2705952633.9298010     
   2587640421.9874988     
   2565010218.5824337     
   2566294985.1746688     
   2591639186.8839126     
   2641192364.5530815     
   2847354916.8576322     
   2758770566.7139630     
   2702329177.2316332     
   2678918728.6499839     
   2689631070.5641017     
   3291428619.0747261     
   3125166327.4942818     
   2995376128.9909883     
   2903985616.1579294     
   2853884538.8143134     
   3901263467.5071974     
   3647686820.7390389     
   3431477354.8307729     
   3255193492.1316700     
   3123602213.9897141     
   2705952633.9298010     
   2681524711.9150810     
   2691027473.5006900     
   2734460918.6866288     
   2811825047.4728961     
   2641192364.5530815     
   2597774743.1094985     
   2587126761.9127626     
   2609619084.8215079     
   2665583787.2646255     
   2689631070.5641017     
   2609206461.3261118     
   2559859338.9435797     
   2543002129.4384413     
   2560043757.2255912     
   2853884538.8143134     
   2724097131.0852370     
   2622036821.7040339     
   2550324257.7870884     
   2511942599.4867125     
   3123602213.9897141     
   2939425151.4254246     
   2777911358.4944954     
   2642286388.2926769     
   2536756373.5598321     
   2811825047.4728961     
   2805644430.7343783     
   2842263500.1132550     
   2921682255.6095276     
   3043900697.2231941     
   2665583787.2646255     
   2638870543.5914054     
   2655614892.7649560     
   2716036167.5150847     
   2820206916.7612934     
   2560043757.2255912     
   2498085250.9983268     
   2482468548.6090999     
   2514428082.4266949     
   2594582873.5821538     
   2511942599.4867125     
   2398633917.4702144     
   2335255300.4121733     
   2325526100.0793633     
   2371929923.0405140     
   2536756373.5598321     
   2357483899.3232083     
   2229819429.0169878     
   2161726162.2028918     
   2160039606.3864241     
   3043900697.2231941     
   2817709352.0449495     
   2584552834.4139433     
   2344431144.3301663     
   2097344281.7936416     
   2820206916.7612934     
   2598760585.7971177     
   2382711217.5480742     
   2176061854.6139655     
   1987482717.4786048     
   2594582873.5821538     
   2408377201.1424375     
   2243220769.9007292     
   2115283411.7665455     
   2055469410.9286423     
   2371929923.0405140     
   2248642488.9988141     
   2165907875.6349378     
   2158152455.6521926     
   2279711475.9874268     
   2160039606.3864241     
   2121881919.1925573     
   2149384972.6353793     
   2296840055.1908150     
   2632527393.4715934     
   3901263467.5071974     
   3647686820.7390389     
   3431477354.8307729     
   3255193492.1316700     
   3123602213.9897141     
   4192020704.0987220     
   3941335159.8780513     
   3701590482.1729465     
   3475322881.7730880     
   3266638395.9287763     
   4591523870.6042633     
   4337508034.9571152     
   4081662526.9715066     
   3822603018.4846272     
   3560208348.9902854     
   4980276541.9602604     
   4741293943.8237305     
   4497168962.2586679     
   4241091099.7687006     
   3968848403.3805704     
   5290766775.9958162     
   5097484232.0263844     
   4901845111.7454834     
   4691303198.9251871     
   4459422272.9750919     
   3123602213.9897141     
   2939425151.4254246     
   2777911358.4944954     
   2642286388.2926769     
   2536756373.5598321     
   3266638395.9287763     
   3035000492.1220264     
   2820940868.0074768     
   2627789845.6847210     
   2460504187.0528755     
   3560208348.9902854     
   3280782257.8519235     
   3013365339.7119684     
   2760565764.1233120     
   2526940693.7850881     
   3968848403.3805704     
   3642309992.9590907     
   3323001617.9859357     
   3012520493.2162490     
   2714345595.5759845     
   4459422272.9750919     
   4085586018.0248861     
   3715366295.8270187     
   3349502035.0526218     
   2990424995.0830870     
   2536756373.5598321     
   2357483899.3232083     
   2229819429.0169878     
   2161726162.2028918     
   2160039606.3864241     
   2460504187.0528755     
   2215935071.7961483     
   2001493062.5466340     
   1827161530.6546099     
   1705391857.5750058     
   2526940693.7850881     
   2234769282.8948545     
   1948409643.2799768     
   1671736154.5773897     
   1411684377.4641268     
   2714345595.5759845     
   2413753249.3236876     
   2105626395.7309194     
   1789815387.4035053     
   1467148325.5347033     
   2990424995.0830870     
   2724619920.7026792     
   2452589153.2435832     
   2179234067.4974322     
   1915380016.4440489     
   2160039606.3864241     
   2121881919.1925573     
   2149384972.6353793     
   2296840055.1908150     
   2632527393.4715934     
   1705391857.5750058     
   1688275556.4455314     
   1749543861.0250463     
   1934955632.6018860     
   2297883564.4765797     
   1411684377.4641268     
   1339992587.2799745     
   1370377672.7309167     
   1549004192.1628084     
   1916187497.0541837     
   1467148325.5347033     
   1247223063.5586557     
   1126861424.9410832     
   1191172058.3157272     
   1502209814.6521478     
   1915380016.4440489     
   1546907979.0903280     
   1216425600.7192950     
   1012118066.9553012     
   1110433226.6979365     
 </DataArray>
 <DataArray  type="Float64" Name="strain" NumberOfComponents="3" format="ascii">
   8.9512437500185005E-002  -1.7524562940258281E-002  -1.0310329841598354E-002
   8.5717251407483319E-002  -2.1314571797240167E-002  -6.3256784105510944E-003
   8.1922065314781634E-002  -2.3361866077386342E-002  -3.5454770733066854E-003
   7.8126879222080003E-002  -2.3666445780696505E-002  -1.9697258298653070E-003
   7.4331693129378318E-002  -2.2228310907170867E-002  -1.5984246802266955E-003
   8.4331139597414229E-002  -1.7500206075552693E-002   4.5281223056443665E-003
   7.9654729320687151E-002  -1.9890455943949531E-002   7.4276312587002180E-003
   7.4978319043959962E-002  -2.1030426931015422E-002   9.7691419375078581E-003
   7.0301908767232857E-002  -2.0920119036750645E-002   1.1552654342067703E-002
   6.5625498490505696E-002  -1.9559532261154866E-002   1.2778168472379142E-002
   7.6244976577791529E-002  -1.7475849210847078E-002   2.1012551289224676E-002
   7.1333793936593642E-002  -1.8466340090658728E-002   2.2334482068784023E-002
   6.6422611295395811E-002  -1.8698987784644634E-002   2.3744866393650220E-002
   6.1511428654197953E-002  -1.8173792292804726E-002   2.5243704263822910E-002
   5.6600246013000066E-002  -1.6890753615139059E-002   2.6830995679302541E-002
   6.5253948441316628E-002  -1.7451492346141448E-002   3.9142957109142493E-002
   6.0754445255202870E-002  -1.7042224237367967E-002   3.8394874019700515E-002
   5.6254942069089042E-002  -1.6367548638273808E-002   3.8381696295120053E-002
   5.1755438882975270E-002  -1.5427465548858755E-002   3.9103423935400936E-002
   4.7255935696861456E-002  -1.4221974969123100E-002   4.0560056940543265E-002
   5.1358055187989748E-002  -1.7427135481435846E-002   5.8919339765398010E-002
   4.7916683276514771E-002  -1.5618108384077234E-002   5.5608807111449582E-002
   4.4475311365039794E-002  -1.4036109491902905E-002   5.3679631641917427E-002
   4.1033939453564830E-002  -1.2681138804912890E-002   5.3131813356801443E-002
   3.7592567542089839E-002  -1.1553196323107140E-002   5.3965352256101606E-002
   7.4331693129378318E-002  -2.2228310907170867E-002  -1.5984246802266955E-003
   6.8166354633128645E-002  -2.0073541210946094E-002  -1.6170163912809232E-003
   6.2001016136878973E-002  -1.8228216446158671E-002  -8.3868651895688262E-004
   5.5835677640629328E-002  -1.6692336612809385E-002   7.3656493674613410E-004
   4.9670339144379627E-002  -1.5465901710897234E-002   3.1087379758275580E-003
   6.5625498490505696E-002  -1.9559532261154866E-002   1.2778168472379142E-002
   6.0247269658543545E-002  -1.7676502097638297E-002   1.2173288485137296E-002
   5.4869040826581367E-002  -1.5998864039610414E-002   1.2345706243091878E-002
   4.9490811994619202E-002  -1.4526618087071601E-002   1.3295421746242521E-002
   4.4112583162657037E-002  -1.3259764240021510E-002   1.5022434994589606E-002
   5.6600246013000066E-002  -1.6890753615139059E-002   2.6830995679302541E-002
   5.1989503007143070E-002  -1.5279462984330597E-002   2.5743880241821990E-002
   4.7378760001286074E-002  -1.3769511633062163E-002   2.5414438711355354E-002
   4.2768016995429058E-002  -1.2360899561333931E-002   2.5842671087902769E-002
   3.8157273989572069E-002  -1.1053626769145730E-002   2.7028577371464302E-002
   4.7255935696861456E-002  -1.4221974969123100E-002   4.0560056940543265E-002
   4.3393054678927262E-002  -1.2882423871022793E-002   3.9094758878772784E-002
   3.9530173660993068E-002  -1.1540159226513743E-002   3.8367510885833928E-002
   3.5667292643058866E-002  -1.0195181035596260E-002   3.8378312961726696E-002
   3.1804411625124679E-002  -8.8474892982699782E-003   3.9127165106451110E-002
   3.7592567542089839E-002  -1.1553196323107140E-002   5.3965352256101606E-002
   3.4457924673896106E-002  -1.0485384757714863E-002   5.2225924395989845E-002
   3.1323281805702360E-002  -9.3108068199653921E-003   5.1204922766527550E-002
   2.8188638937508614E-002  -8.0294625098584378E-003   5.0902347367714304E-002
   2.5053996069314854E-002  -6.6413518273941707E-003   5.1318198199550524E-002
   4.9670339144379627E-002  -1.5465901710897234E-002   3.1087379758275580E-003
   4.5261564643876928E-002  -1.4154324469370261E-002   1.9663514726039888E-003
   4.0852790143374312E-002  -1.2363017617176258E-002  -4.7618755293854509E-005
   3.6444015642871627E-002  -1.0091981154314582E-002  -2.9331727078651948E-003
   3.2035241142368998E-002  -7.3412150807856680E-003  -6.6903103851104762E-003
   4.4112583162657037E-002  -1.3259764240021510E-002   1.5022434994589606E-002
   3.9066497061098715E-002  -1.1938334721043553E-002   1.4113903953628049E-002
   3.4020410959540420E-002  -1.0302361752720951E-002   1.2802333435228852E-002
   2.8974324857982139E-002  -8.3518453350534330E-003   1.1087723439392294E-002
   2.3928238756423803E-002  -6.0867854680413114E-003   8.9700739661186524E-003
   3.8157273989572069E-002  -1.1053626769145730E-002   2.7028577371464302E-002
   3.2942420534194647E-002  -9.7223449727166233E-003   2.6188715631441817E-002
   2.7727567078817288E-002  -8.2417058882656574E-003   2.5414358661218509E-002
   2.2512713623439883E-002  -6.6117095157922877E-003   2.4705506460794439E-002
   1.7297860168062507E-002  -4.8323558552969548E-003   2.4062159030169727E-002
   3.1804411625124679E-002  -8.8474892982699782E-003   3.9127165106451110E-002
   2.6889335063164769E-002  -7.5063552243898601E-003   3.8190786506045300E-002
   2.1974258501204894E-002  -6.1810500238102459E-003   3.7788456922675240E-002
   1.7059181939244963E-002  -4.8715736965311406E-003   3.7920176356340991E-002
   1.2144105377285094E-002  -3.5779262425527092E-003   3.8585944807042527E-002
   2.5053996069314854E-002  -6.6413518273941707E-003   5.1318198199550524E-002
   2.0907240648009029E-002  -5.2903654760629304E-003   5.0120116577438700E-002
   1.6760485226703203E-002  -4.1203941593547927E-003   4.9924628219599199E-002
   1.2613729805397364E-002  -3.1314378772700109E-003   5.0731733126032005E-002
   8.4669743840915246E-003  -2.3234966298083526E-003   5.2541431296737273E-002
   3.2035241142368998E-002  -7.3412150807856680E-003  -6.6903103851104762E-003
   2.6154903763435655E-002  -5.4217102462203459E-003  -2.5518435376423731E-003
   2.0274566384502368E-002  -5.6444575002492225E-003   2.8823628393217504E-003
   1.4394229005569054E-002  -8.0094568428716317E-003   9.6123087457813949E-003
   8.5138916266357390E-003  -1.2516708274089350E-002   1.7637994181736616E-002
   2.3928238756423803E-002  -6.0867854680413114E-003   8.9700739661186524E-003
   1.9295341428813506E-002  -4.8530665588401578E-003   1.2277126406217420E-002
   1.4662444101203209E-002  -5.9965730146061547E-003   1.6783319419466702E-002
   1.0029546773592912E-002  -9.5173048353379280E-003   2.2488653005865819E-002
   5.3966494459826153E-003  -1.5415262021037490E-002   2.9393127165415311E-002
   1.7297860168062507E-002  -4.8323558552969548E-003   2.4062159030169727E-002
   1.3815803935429749E-002  -4.2844228714601085E-003   2.6302823786526652E-002
   1.0333747702796964E-002  -6.3486885289628647E-003   2.9646030159688475E-002
   6.8516914701641715E-003  -1.1025152827804557E-002   3.4091778149654944E-002
   3.3696352375314487E-003  -1.8313815767985631E-002   3.9640067756426367E-002
   1.2144105377285094E-002  -3.5779262425527092E-003   3.8585944807042527E-002
   9.7162912832843840E-003  -3.7157791840804338E-003   3.9525248603285254E-002
   7.2884771892836597E-003  -6.7008040433197968E-003   4.1470495059987261E-002
   4.8606630952829476E-003  -1.2533000820270909E-002   4.4421684177148368E-002
   2.4328490012822321E-003  -2.1212369514933771E-002   4.8378815954769200E-002
   8.4669743840915246E-003  -2.3234966298083526E-003   5.2541431296737273E-002
   6.9968034723774108E-003  -3.1471354967004539E-003   5.1944400856492989E-002
   5.5266325606632694E-003  -7.0529195576768122E-003   5.2256714120362563E-002
   4.0564616489491556E-003  -1.4040848812737115E-002   5.3478371088346105E-002
   2.5862907372350419E-003  -2.4110923261881911E-002   5.5609371760443560E-002
   5.1358055187989748E-002  -1.7427135481435846E-002   5.8919339765398010E-002
   4.7916683276514771E-002  -1.5618108384077234E-002   5.5608807111449582E-002
   4.4475311365039794E-002  -1.4036109491902905E-002   5.3679631641917427E-002
   4.1033939453564830E-002  -1.2681138804912890E-002   5.3131813356801443E-002
   3.7592567542089839E-002  -1.1553196323107140E-002   5.3965352256101606E-002
   3.6636932379918885E-002  -1.3070351610998981E-002   6.0594170742596876E-002
   3.4446664101224433E-002  -1.1713581287990840E-002   5.8209140864841066E-002
   3.2256395822529996E-002  -1.0527082118870199E-002   5.6944961068230174E-002
   3.0066127543835572E-002  -9.5108541036371015E-003   5.6801631352763997E-002
   2.7875859265141099E-002  -8.6648972422915110E-003   5.7779151718442792E-002
   2.3170215579212200E-002  -8.7135677405621031E-003   6.1788366419797007E-002
   2.1970543830026938E-002  -7.8090541919044187E-003   6.0385596369530503E-002
   2.0770872080841662E-002  -7.0180547458374605E-003   5.9843169297137594E-002
   1.9571200331656394E-002  -6.3405694023612987E-003   6.0161085202618099E-002
   1.8371528582471118E-002  -5.7765981614757989E-003   6.1339344085972067E-002
   1.0957904785869686E-002  -4.3567838701252318E-003   6.2501926796998147E-002
   1.0488322462922231E-002  -3.9045270958180112E-003   6.2138173625517837E-002
   1.0018740139974783E-002  -3.5090273728048075E-003   6.2374256328639674E-002
   9.5491578170273424E-003  -3.1702847010854477E-003   6.3210174906363673E-002
   9.0795754940798876E-003  -2.8882990806601422E-003   6.4645929358689791E-002
  -1.0867001742909110E-013   3.1163960301228144E-013   6.2734851874200526E-002
  -8.9657448132385298E-014   2.6839641620313159E-013   6.3466872632803095E-002
  -7.0634470494823631E-014   2.2795654253116027E-013   6.4538222162736553E-002
  -5.1616697027689895E-014   1.9029222642075183E-013   6.5948900464000690E-002
  -3.2598923560556159E-014   1.5557000132560006E-013   6.7698907536595715E-002
   3.7592567542089839E-002  -1.1553196323107140E-002   5.3965352256101606E-002
   3.4457924673896106E-002  -1.0485384757714863E-002   5.2225924395989845E-002
   3.1323281805702360E-002  -9.3108068199653921E-003   5.1204922766527550E-002
   2.8188638937508614E-002  -8.0294625098584378E-003   5.0902347367714304E-002
   2.5053996069314854E-002  -6.6413518273941707E-003   5.1318198199550524E-002
   2.7875859265141099E-002  -8.6648972422915110E-003   5.7779151718442792E-002
   2.5475951249197007E-002  -7.8640385682552660E-003   5.6361830650023245E-002
   2.3076043233252932E-002  -6.9831051149502020E-003   5.5695553055453796E-002
   2.0676135217308857E-002  -6.0220968823763562E-003   5.5780318934734355E-002
   1.8276227201364764E-002  -4.9810138705337348E-003   5.6616128287865025E-002
   1.8371528582471118E-002  -5.7765981614757989E-003   6.1339344085972067E-002
   1.6738972661977450E-002  -5.2426923787955645E-003   6.0217438216156258E-002
   1.5106416741483768E-002  -4.6554034099351230E-003   5.9879193063391269E-002
   1.3473860820990106E-002  -4.0147312548943024E-003   6.0324608627676968E-002
   1.1841304900496424E-002  -3.3206759136733266E-003   6.1553684909013598E-002
   9.0795754940798876E-003  -2.8882990806601422E-003   6.4645929358689791E-002
   8.2469889122373831E-003  -2.6213461893359429E-003   6.3792747094389118E-002
   7.4144023303948821E-003  -2.3277017049198774E-003   6.3755842790339842E-002
   6.5818157485523828E-003  -2.0073656274122624E-003   6.4535216446542282E-002
   5.7492291667098766E-003  -1.6603379568128213E-003   6.6130868062996243E-002
  -3.2598923560556159E-014   1.5557000132560006E-013   6.7698907536595715E-002
  -2.3172436192098189E-014   1.2378986724570495E-013   6.7087757284721578E-002
  -1.3742479376688266E-014   9.5194685467703266E-014   6.7325502236299753E-002
  -4.3142572847543192E-015   6.9845171313254184E-014   6.8412142391330255E-002
   5.1139648071796273E-015   4.7573056605187958E-014   7.0347677749813042E-002
   2.5053996069314854E-002  -6.6413518273941707E-003   5.1318198199550524E-002
   2.0907240648009029E-002  -5.2903654760629304E-003   5.0120116577438700E-002
   1.6760485226703203E-002  -4.1203941593547927E-003   4.9924628219599199E-002
   1.2613729805397364E-002  -3.1314378772700109E-003   5.0731733126032005E-002
   8.4669743840915246E-003  -2.3234966298083526E-003   5.2541431296737273E-002
   1.8276227201364764E-002  -4.9810138705337348E-003   5.6616128287865025E-002
   1.5140588942094906E-002  -3.9677741070399120E-003   5.5611028975303706E-002
   1.2004950682825054E-002  -3.0902956195125730E-003   5.5625570722542095E-002
   8.8693124235551951E-003  -2.3485784079516209E-003   5.6659753529580054E-002
   5.7336741642853573E-003  -1.7426224723571249E-003   5.8713577396417665E-002
   1.1841304900496424E-002  -3.3206759136733266E-003   6.1553684909013598E-002
   9.7338315987898286E-003  -2.6451827380170323E-003   6.0786821664659624E-002
   7.6263582970832328E-003  -2.0601970796702354E-003   6.1056647275632654E-002
   5.5188849953766370E-003  -1.5657189386333401E-003   6.2363161741932571E-002
   3.4114116936700412E-003  -1.1617483149060082E-003   6.4706365063559396E-002
   5.7492291667098766E-003  -1.6603379568128213E-003   6.6130868062996243E-002
   4.6869686180937998E-003  -1.3225913689940832E-003   6.5647494645506593E-002
   3.6247080694777438E-003  -1.0300985398280678E-003   6.6217857878870925E-002
   2.5624475208616774E-003  -7.8285946931497697E-004   6.7841957763089544E-002
   1.5001869722456110E-003  -5.8087415745475268E-004   7.0519794298162242E-002
   5.1139648071796273E-015   4.7573056605187958E-014   7.0347677749813042E-002
   6.8417493892525272E-015   2.8838043064638441E-014   7.0193047917844253E-002
   8.5764728652293343E-015   1.4335754805472334E-014   7.1109202532256888E-002
   1.0312931064682118E-014   3.2786273695961654E-015   7.3096141593050931E-002
   1.2038980923279041E-014  -3.6637359812630166E-015   7.6153865100226370E-002
   8.4669743840915246E-003  -2.3234966298083526E-003   5.2541431296737273E-002
   6.9968034723774108E-003  -3.1471354967004539E-003   5.1944400856492989E-002
   5.5266325606632694E-003  -7.0529195576768122E-003   5.2256714120362563E-002
   4.0564616489491556E-003  -1.4040848812737115E-002   5.3478371088346105E-002
   2.5862907372350419E-003  -2.4110923261881911E-002   5.5609371760443560E-002
   5.7336741642853573E-003  -1.7426224723571249E-003   5.8713577396417665E-002
   5.0373967126386698E-003  -2.3603516225276233E-003   5.5695257416494115E-002
   4.3411192609919894E-003  -5.2896896682617101E-003   5.3315380652591463E-002
   3.6448418093453228E-003  -1.0530636609559246E-002   5.1573947104709882E-002
   2.9485643576986353E-003  -1.8083192446420426E-002   5.0470956772849518E-002
   3.4114116936700412E-003  -1.1617483149060082E-003   6.4706365063559396E-002
   3.2181272139980219E-003  -1.5735677483548899E-003   6.0037291842477081E-002
   3.0248427343259957E-003  -3.5264597788466218E-003   5.5735761349322899E-002
   2.8315582546539833E-003  -7.0204244063813252E-003   5.1801773584097051E-002
   2.6382737749819501E-003  -1.2055461630958830E-002   4.8235328546799572E-002
   1.5001869722456110E-003  -5.8087415745475268E-004   7.0519794298162242E-002
   1.5389949764554375E-003  -7.8678387418221890E-004   6.4970504134441970E-002
   1.5778029806652553E-003  -1.7632298894317486E-003   5.9517856210556982E-002
   1.6166109848750835E-003  -3.5102122032033747E-003   5.4161850526507398E-002
   1.6554189890848996E-003  -6.0277308154972897E-003   4.8902487082293472E-002
   1.2038980923279041E-014  -3.6637359812630166E-015   7.6153865100226370E-002
   1.0914880110846070E-014  -9.3536289824669439E-015   7.0494894292388699E-002
   9.8011876392689601E-015  -1.6653345369377348E-014   6.4661665236293686E-002
   8.6874951676918499E-015  -2.5451862839531714E-014   5.8654177931941109E-002
   7.5633943552588789E-015  -3.5749181392930041E-014   5.2472432379331524E-002
  -1.0867001742909110E-013   3.1163960301228144E-013   6.2734851874200526E-002
  -8.9657448132385298E-014   2.6839641620313159E-013   6.3466872632803095E-002
  -7.0634470494823631E-014   2.2795654253116027E-013   6.4538222162736553E-002
  -5.1616697027689895E-014   1.9029222642075183E-013   6.5948900464000690E-002
  -3.2598923560556159E-014   1.5557000132560006E-013   6.7698907536595715E-002
  -1.0957904786083321E-002   4.3567838707491702E-003   6.2501926796920626E-002
  -1.0488322463098582E-002   3.9045270963441459E-003   6.2138173625454762E-002
  -1.0018740140113815E-002   3.5090273732427957E-003   6.2374256328589478E-002
  -9.5491578171290649E-003   3.1702847014451752E-003   6.3210174906324884E-002
  -9.0795754941443152E-003   2.8882990809513676E-003   6.4645929358661064E-002
  -2.3170215579414788E-002   8.7135677411867146E-003   6.1788366419628593E-002
  -2.1970543830194388E-002   7.8090541924198675E-003   6.0385596369394945E-002
  -2.0770872080974015E-002   7.0180547462576209E-003   5.9843169297031956E-002
  -1.9571200331753611E-002   6.3405694027000858E-003   6.0161085202539558E-002
  -1.8371528582533225E-002   5.7765981617471512E-003   6.1339344085917701E-002
  -3.6636932380103009E-002   1.3070351611624259E-002   6.0594170742324260E-002
  -3.4446664101377124E-002   1.1713581288495575E-002   5.8209140864623865E-002
  -3.2256395822651163E-002   1.0527082119272495E-002   5.6944961068064057E-002
  -3.0066127543925247E-002   9.5108541039550173E-003   5.6801631352644641E-002
  -2.7875859265199324E-002   8.6648972425429557E-003   5.7779151718365840E-002
  -5.1358055188148045E-002   1.7427135482061790E-002   5.8919339765007628E-002
  -4.7916683276646693E-002   1.5618108384571339E-002   5.5608807111141439E-002
  -4.4475311365145334E-002   1.4036109492287313E-002   5.3679631641685710E-002
  -4.1033939453643989E-002   1.2681138805209859E-002   5.3131813356640314E-002
  -3.7592567542142630E-002   1.1553196323338760E-002   5.3965352256005295E-002
  -3.2598923560556159E-014   1.5557000132560006E-013   6.7698907536595715E-002
  -2.3172436192098189E-014   1.2378986724570495E-013   6.7087757284721578E-002
  -1.3742479376688266E-014   9.5194685467703266E-014   6.7325502236299753E-002
  -4.3142572847543192E-015   6.9845171313254184E-014   6.8412142391330255E-002
   5.1139648071796273E-015   4.7573056605187958E-014   7.0347677749813042E-002
  -9.0795754941443152E-003   2.8882990809513676E-003   6.4645929358661064E-002
  -8.2469889122833949E-003   2.6213461895668450E-003   6.3792747094367816E-002
  -7.4144023304224798E-003   2.3277017050968088E-003   6.3755842790325284E-002
  -6.5818157485615552E-003   2.0073656275414412E-003   6.4535216446533442E-002
  -5.7492291667006444E-003   1.6603379569009591E-003   6.6130868062992149E-002
  -1.8371528582533225E-002   5.7765981617471512E-003   6.1339344085917701E-002
  -1.6738972662022455E-002   5.2426923790096502E-003   6.0217438216116921E-002
  -1.5106416741511693E-002   4.6554034100983709E-003   5.9879193063365171E-002
  -1.3473860821000935E-002   4.0147312550131769E-003   6.0324608627662382E-002
  -1.1841304900490178E-002   3.3206759137542063E-003   6.1553684909008768E-002
  -2.7875859265199324E-002   8.6648972425429557E-003   5.7779151718365840E-002
  -2.5475951249240372E-002   7.8640385684526082E-003   5.6361830649968934E-002
  -2.3076043233281402E-002   6.9831051150999312E-003   5.5695553055419428E-002
  -2.0676135217322450E-002   6.0220968824848710E-003   5.5780318934717271E-002
  -1.8276227201363491E-002   4.9810138706075507E-003   5.6616128287862444E-002
  -3.7592567542142630E-002   1.1553196323338760E-002   5.3965352256005295E-002
  -3.4457924673937122E-002   1.0485384757895552E-002   5.2225924395923773E-002
  -3.1323281805731601E-002   9.3108068201015678E-003   5.1204922766488040E-002
  -2.8188638937526087E-002   8.0294625099565139E-003   5.0902347367698032E-002
  -2.5053996069320572E-002   6.6413518274607841E-003   5.1318198199553744E-002
   5.1139648071796273E-015   4.7573056605187958E-014   7.0347677749813042E-002
   6.8417493892525272E-015   2.8838043064638441E-014   7.0193047917844253E-002
   8.5764728652293343E-015   1.4335754805472334E-014   7.1109202532256888E-002
   1.0312931064682118E-014   3.2786273695961654E-015   7.3096141593050931E-002
   1.2038980923279041E-014  -3.6637359812630166E-015   7.6153865100226370E-002
  -5.7492291667006444E-003   1.6603379569009591E-003   6.6130868062992149E-002
  -4.6869686180811033E-003   1.3225913690477903E-003   6.5647494645507967E-002
  -3.6247080694615727E-003   1.0300985398544876E-003   6.6217857878877781E-002
  -2.5624475208420290E-003   7.8285946932142927E-004   6.7841957763101979E-002
  -1.5001869722225010E-003   5.8087415744823012E-004   7.0519794298180088E-002
  -1.1841304900490178E-002   3.3206759137542063E-003   6.1553684909008768E-002
  -9.7338315987800933E-003   2.6451827380664511E-003   6.0786821664665106E-002
  -7.6263582970700020E-003   2.0601970796947991E-003   6.1056647275648489E-002
  -5.5188849953599246E-003   1.5657189386394117E-003   6.2363161741958759E-002
  -3.4114116936498264E-003   1.1617483149001240E-003   6.4706365063595894E-002
  -1.8276227201363491E-002   4.9810138706075507E-003   5.6616128287862444E-002
  -1.5140588942090118E-002   3.9677741070851466E-003   5.5611028975315835E-002
  -1.2004950682816738E-002   3.0902956195350863E-003   5.5625570722568740E-002
  -8.8693124235433556E-003   2.3485784079574504E-003   5.6659753529621375E-002
  -5.7336741642699859E-003   1.7426224723520733E-003   5.8713577396473621E-002
  -2.5053996069320572E-002   6.6413518274607841E-003   5.1318198199553744E-002
  -2.0907240648011166E-002   5.2903654761040364E-003   5.0120116577460017E-002
  -1.6760485226701753E-002   4.1203941593752763E-003   4.9924628219638695E-002
  -1.2613729805392340E-002   3.1314378772756037E-003   5.0731733126089792E-002
  -8.4669743840829342E-003   2.3234966298039117E-003   5.2541431296813268E-002
   1.2038980923279041E-014  -3.6637359812630166E-015   7.6153865100226370E-002
   1.0914880110846070E-014  -9.3536289824669439E-015   7.0494894292388699E-002
   9.8011876392689601E-015  -1.6653345369377348E-014   6.4661665236293686E-002
   8.6874951676918499E-015  -2.5451862839531714E-014   5.8654177931941109E-002
   7.5633943552588789E-015  -3.5749181392930041E-014   5.2472432379331524E-002
  -1.5001869722225010E-003   5.8087415744823012E-004   7.0519794298180088E-002
  -1.5389949764344421E-003   7.8678387416511453E-004   6.4970504134455431E-002
  -1.5778029806463850E-003   1.7632298894017240E-003   5.9517856210566364E-002
  -1.6166109848583139E-003   3.5102122031583707E-003   5.4161850526512852E-002
  -1.6554189890702828E-003   6.0277308154348397E-003   4.8902487082295165E-002
  -3.4114116936498264E-003   1.1617483149001240E-003   6.4706365063595894E-002
  -3.2181272139795557E-003   1.5735677483395966E-003   6.0037291842505364E-002
  -3.0248427343092842E-003   3.5264597788202678E-003   5.5735761349343604E-002
  -2.8315582546390057E-003   7.0204244063422488E-003   5.1801773584110672E-002
  -2.6382737749687420E-003   1.2055461630905429E-002   4.8235328546806455E-002
  -5.7336741642699859E-003   1.7426224723520733E-003   5.8713577396473621E-002
  -5.0373967126244434E-003   2.3603516225141549E-003   5.5695257416538739E-002
  -4.3411192609788861E-003   5.2896896682387839E-003   5.3315380652625685E-002
  -3.6448418093333471E-003   1.0530636609526155E-002   5.1573947104734244E-002
  -2.9485643576878011E-003   1.8083192446376073E-002   5.0470956772864783E-002
  -8.4669743840829342E-003   2.3234966298039117E-003   5.2541431296813268E-002
  -6.9968034723690842E-003   3.1471354966886023E-003   5.1944400856555384E-002
  -5.5266325606552272E-003   7.0529195576572723E-003   5.2256714120412301E-002
  -4.0564616489413702E-003   1.4040848812709943E-002   5.3478371088384075E-002
  -2.5862907372275201E-003   2.4110923261846606E-002   5.5609371760470871E-002
  -5.1358055188148045E-002   1.7427135482061790E-002   5.8919339765007628E-002
  -4.7916683276646693E-002   1.5618108384571339E-002   5.5608807111141439E-002
  -4.4475311365145334E-002   1.4036109492287313E-002   5.3679631641685710E-002
  -4.1033939453643989E-002   1.2681138805209859E-002   5.3131813356640314E-002
  -3.7592567542142630E-002   1.1553196323338760E-002   5.3965352256005295E-002
  -6.5253948441452658E-002   1.7451492346651415E-002   3.9142957108735721E-002
  -6.0754445255318271E-002   1.7042224237765274E-002   3.8394874019382852E-002
  -5.6254942069183925E-002   1.6367548638578804E-002   3.8381696294885664E-002
  -5.1755438883049551E-002   1.5427465549092070E-002   3.9103423935244144E-002
  -4.7255935696915184E-002   1.4221974969305107E-002   4.0560056940458264E-002
  -7.6244976577919787E-002   1.7475849211241068E-002   2.1012551288821485E-002
  -7.1333793936707052E-002   1.8466340090959155E-002   2.2334482068475207E-002
  -6.6422611295494358E-002   1.8698987784870294E-002   2.3744866393429813E-002
  -6.1511428654281705E-002   1.8173792292974309E-002   2.5243704263685371E-002
  -5.6600246013069004E-002   1.6890753615271328E-002   2.6830995679241930E-002
  -8.4331139597549259E-002   1.7500206075830665E-002   4.5281223052649616E-003
  -7.9654729320813009E-002   1.9890455944153146E-002   7.4276312584183723E-003
  -7.4978319044076730E-002   2.1030426931161715E-002   9.7691419373181175E-003
  -7.0301908767340479E-002   2.0920119036856547E-002   1.1552654341964105E-002
  -6.5625498490604187E-002   1.9559532261237668E-002   1.2778168472356225E-002
  -8.9512437500341213E-002   1.7524562940420318E-002  -1.0310329841933918E-002
  -8.5717251407636030E-002   2.1314571797346915E-002  -6.3256784107874053E-003
  -8.1922065314930903E-002   2.3361866077453261E-002  -3.5454770734493490E-003
  -7.8126879222225748E-002   2.3666445780738784E-002  -1.9697258299198397E-003
  -7.4331693129520593E-002   2.2228310907203841E-002  -1.5984246801987734E-003
  -3.7592567542142630E-002   1.1553196323338760E-002   5.3965352256005295E-002
  -3.4457924673937122E-002   1.0485384757895552E-002   5.2225924395923773E-002
  -3.1323281805731601E-002   9.3108068201015678E-003   5.1204922766488040E-002
  -2.8188638937526087E-002   8.0294625099565139E-003   5.0902347367698032E-002
  -2.5053996069320572E-002   6.6413518274607841E-003   5.1318198199553744E-002
  -4.7255935696915184E-002   1.4221974969305107E-002   4.0560056940458264E-002
  -4.3393054678971837E-002   1.2882423871166046E-002   3.9094758878710223E-002
  -3.9530173661028498E-002   1.1540159226623062E-002   3.8367510885792093E-002
  -3.5667292643085144E-002   1.0195181035676241E-002   3.8378312961704006E-002
  -3.1804411625141804E-002   8.8474892983255171E-003   3.9127165106445677E-002
  -5.6600246013069004E-002   1.6890753615271328E-002   2.6830995679241930E-002
  -5.1989503007203647E-002   1.5279462984436436E-002   2.5743880241774320E-002
  -4.7378760001338310E-002   1.3769511633144615E-002   2.5414438711320857E-002
  -4.2768016995472953E-002   1.2360899561395914E-002   2.5842671087881415E-002
  -3.8157273989607624E-002   1.1053626769190222E-002   2.7028577371456267E-002
  -6.5625498490604187E-002   1.9559532261237668E-002   1.2778168472356225E-002
  -6.0247269658632585E-002   1.7676502097706766E-002   1.2173288485116087E-002
  -5.4869040826661060E-002   1.5998864039666112E-002   1.2345706243074166E-002
  -4.9490811994689507E-002   1.4526618087115363E-002   1.3295421746230661E-002
  -4.4112583162717947E-002   1.3259764240055025E-002   1.5022434994585273E-002
  -7.4331693129520593E-002   2.2228310907203841E-002  -1.5984246801987734E-003
  -6.8166354633258652E-002   2.0073541210977236E-002  -1.6170163912645336E-003
  -6.2001016136996712E-002   1.8228216446187814E-002  -8.3868651894793145E-004
  -5.5835677640734771E-002   1.6692336612835212E-002   7.3656493675126541E-004
  -4.9670339144472830E-002   1.5465901710919661E-002   3.1087379758328870E-003
  -2.5053996069320572E-002   6.6413518274607841E-003   5.1318198199553744E-002
  -2.0907240648011166E-002   5.2903654761040364E-003   5.0120116577460017E-002
  -1.6760485226701753E-002   4.1203941593752763E-003   4.9924628219638695E-002
  -1.2613729805392340E-002   3.1314378772756037E-003   5.0731733126089792E-002
  -8.4669743840829342E-003   2.3234966298039117E-003   5.2541431296813268E-002
  -3.1804411625141804E-002   8.8474892983255171E-003   3.9127165106445677E-002
  -2.6889335063177765E-002   7.5063552244252624E-003   3.8190786506056187E-002
  -2.1974258501213664E-002   6.1810500238294735E-003   3.7788456922703606E-002
  -1.7059181939249612E-002   4.8715736965381402E-003   3.7920176356387982E-002
  -1.2144105377285552E-002   3.5779262425514324E-003   3.8585944807109251E-002
  -3.8157273989607624E-002   1.1053626769190222E-002   2.7028577371456267E-002
  -3.2942420534224345E-002   9.7223449727465855E-003   2.6188715631446938E-002
  -2.7727567078841102E-002   8.2417058882833308E-003   2.5414358661239242E-002
  -2.2512713623457838E-002   6.6117095158009526E-003   2.4705506460832808E-002
  -1.7297860168074577E-002   4.8323558552991197E-003   2.4062159030227986E-002
  -4.4112583162717947E-002   1.3259764240055025E-002   1.5022434994585273E-002
  -3.9066497061150972E-002   1.1938334721067749E-002   1.4113903953632410E-002
  -3.4020410959584024E-002   1.0302361752737191E-002   1.2802333435245601E-002
  -2.8974324858017059E-002   8.3518453350637373E-003   1.1087723439424577E-002
  -2.3928238756450095E-002   6.0867854680467792E-003   8.9700739661696186E-003
  -4.9670339144472830E-002   1.5465901710919661E-002   3.1087379758328870E-003
  -4.5261564643957641E-002   1.4154324469389079E-002   1.9663514726125375E-003
  -4.0852790143442452E-002   1.2363017617191330E-002  -4.7618755277450964E-005
  -3.6444015642927263E-002   1.0091981154326343E-002  -2.9331727078368772E-003
  -3.2035241142412074E-002   7.3412150807942167E-003  -6.6903103850657342E-003
  -8.4669743840829342E-003   2.3234966298039117E-003   5.2541431296813268E-002
  -6.9968034723690842E-003   3.1471354966886023E-003   5.1944400856555384E-002
  -5.5266325606552272E-003   7.0529195576572723E-003   5.2256714120412301E-002
  -4.0564616489413702E-003   1.4040848812709943E-002   5.3478371088384075E-002
  -2.5862907372275201E-003   2.4110923261846606E-002   5.5609371760470871E-002
  -1.2144105377285552E-002   3.5779262425514324E-003   3.8585944807109251E-002
  -9.7162912832834472E-003   3.7157791840730647E-003   3.9525248603336144E-002
  -7.2884771892813213E-003   6.7008040433062244E-003   4.1470495060024898E-002
  -4.8606630952792145E-003   1.2533000820251376E-002   4.4421684177175125E-002
  -2.4328490012770973E-003   2.1212369514908347E-002   4.8378815954787102E-002
  -1.7297860168074577E-002   4.8323558552991197E-003   2.4062159030227986E-002
  -1.3815803935437410E-002   4.2844228714574439E-003   2.6302823786567633E-002
  -1.0333747702800267E-002   6.3486885289551348E-003   2.9646030159715731E-002
  -6.8516914701631272E-003   1.1025152827792702E-002   3.4091778149672174E-002
  -3.3696352375259600E-003   1.8313815767969976E-002   3.9640067756437303E-002
  -2.3928238756450095E-002   6.0867854680467792E-003   8.9700739661696186E-003
  -1.9295341428831048E-002   4.8530665588416150E-003   1.2277126406249797E-002
  -1.4662444101212029E-002   5.9965730146041216E-003   1.6783319419485392E-002
  -1.0029546773593011E-002   9.5173048353341377E-003   2.2488653005875756E-002
  -5.3966494459739920E-003   1.5415262021031828E-002   2.9393127165422001E-002
  -3.2035241142412074E-002   7.3412150807942167E-003  -6.6903103850657342E-003
  -2.6154903763464354E-002   5.4217102462263966E-003  -2.5518435376172821E-003
  -2.0274566384516635E-002   5.6444575002531361E-003   2.8823628393332967E-003
  -1.4394229005568970E-002   8.0094568428754967E-003   9.6123087457861134E-003
  -8.5138916266211950E-003   1.2516708274093347E-002   1.7637994181740613E-002
 </DataArray>
 </PointData>
 </Piece>
 </UnstructuredGrid>
 </VTKFile>
