 <VTKFile type="UnstructuredGrid"  version="0.1"   >
 <UnstructuredGrid>
 <Piece  NumberOfPoints="          1600 "  NumberOfCells="         1024 ">
 <Points>
 <DataArray  type="Float64" NumberOfComponents="3"  format="ascii" >
   0.0000000000000000        0.0000000000000000        0.0000000000000000     
   3.1250000000000000E-002   0.0000000000000000        0.0000000000000000     
   6.2500000000000000E-002   0.0000000000000000        0.0000000000000000     
   9.3750000000000000E-002   0.0000000000000000        0.0000000000000000     
  0.12500000000000000        0.0000000000000000        0.0000000000000000     
   0.0000000000000000        3.1250000000000000E-002   0.0000000000000000     
   3.1250000000000000E-002   3.1250000000000000E-002   0.0000000000000000     
   6.2500000000000000E-002   3.1250000000000000E-002   0.0000000000000000     
   9.3750000000000000E-002   3.1250000000000000E-002   0.0000000000000000     
  0.12500000000000000        3.1250000000000000E-002   0.0000000000000000     
   0.0000000000000000        6.2500000000000000E-002   0.0000000000000000     
   3.1250000000000000E-002   6.2500000000000000E-002   0.0000000000000000     
   6.2500000000000000E-002   6.2500000000000000E-002   0.0000000000000000     
   9.3750000000000000E-002   6.2500000000000000E-002   0.0000000000000000     
  0.12500000000000000        6.2500000000000000E-002   0.0000000000000000     
   0.0000000000000000        9.3750000000000000E-002   0.0000000000000000     
   3.1250000000000000E-002   9.3750000000000000E-002   0.0000000000000000     
   6.2500000000000000E-002   9.3750000000000000E-002   0.0000000000000000     
   9.3750000000000000E-002   9.3750000000000000E-002   0.0000000000000000     
  0.12500000000000000        9.3750000000000000E-002   0.0000000000000000     
   0.0000000000000000       0.12500000000000000        0.0000000000000000     
   3.1250000000000000E-002  0.12500000000000000        0.0000000000000000     
   6.2500000000000000E-002  0.12500000000000000        0.0000000000000000     
   9.3750000000000000E-002  0.12500000000000000        0.0000000000000000     
  0.12500000000000000       0.12500000000000000        0.0000000000000000     
  0.12500000000000000        0.0000000000000000        0.0000000000000000     
  0.15625000000000000        0.0000000000000000        0.0000000000000000     
  0.18750000000000000        0.0000000000000000        0.0000000000000000     
  0.21875000000000000        0.0000000000000000        0.0000000000000000     
  0.25000000000000000        0.0000000000000000        0.0000000000000000     
  0.12500000000000000        3.1250000000000000E-002   0.0000000000000000     
  0.15625000000000000        3.1250000000000000E-002   0.0000000000000000     
  0.18750000000000000        3.1250000000000000E-002   0.0000000000000000     
  0.21875000000000000        3.1250000000000000E-002   0.0000000000000000     
  0.25000000000000000        3.1250000000000000E-002   0.0000000000000000     
  0.12500000000000000        6.2500000000000000E-002   0.0000000000000000     
  0.15625000000000000        6.2500000000000000E-002   0.0000000000000000     
  0.18750000000000000        6.2500000000000000E-002   0.0000000000000000     
  0.21875000000000000        6.2500000000000000E-002   0.0000000000000000     
  0.25000000000000000        6.2500000000000000E-002   0.0000000000000000     
  0.12500000000000000        9.3750000000000000E-002   0.0000000000000000     
  0.15625000000000000        9.3750000000000000E-002   0.0000000000000000     
  0.18750000000000000        9.3750000000000000E-002   0.0000000000000000     
  0.21875000000000000        9.3750000000000000E-002   0.0000000000000000     
  0.25000000000000000        9.3750000000000000E-002   0.0000000000000000     
  0.12500000000000000       0.12500000000000000        0.0000000000000000     
  0.15625000000000000       0.12500000000000000        0.0000000000000000     
  0.18750000000000000       0.12500000000000000        0.0000000000000000     
  0.21875000000000000       0.12500000000000000        0.0000000000000000     
  0.25000000000000000       0.12500000000000000        0.0000000000000000     
  0.25000000000000000        0.0000000000000000        0.0000000000000000     
  0.28125000000000000        0.0000000000000000        0.0000000000000000     
  0.31250000000000000        0.0000000000000000        0.0000000000000000     
  0.34375000000000000        0.0000000000000000        0.0000000000000000     
  0.37500000000000000        0.0000000000000000        0.0000000000000000     
  0.25000000000000000        3.1250000000000000E-002   0.0000000000000000     
  0.28125000000000000        3.1250000000000000E-002   0.0000000000000000     
  0.31250000000000000        3.1250000000000000E-002   0.0000000000000000     
  0.34375000000000000        3.1250000000000000E-002   0.0000000000000000     
  0.37500000000000000        3.1250000000000000E-002   0.0000000000000000     
  0.25000000000000000        6.2500000000000000E-002   0.0000000000000000     
  0.28125000000000000        6.2500000000000000E-002   0.0000000000000000     
  0.31250000000000000        6.2500000000000000E-002   0.0000000000000000     
  0.34375000000000000        6.2500000000000000E-002   0.0000000000000000     
  0.37500000000000000        6.2500000000000000E-002   0.0000000000000000     
  0.25000000000000000        9.3750000000000000E-002   0.0000000000000000     
  0.28125000000000000        9.3750000000000000E-002   0.0000000000000000     
  0.31250000000000000        9.3750000000000000E-002   0.0000000000000000     
  0.34375000000000000        9.3750000000000000E-002   0.0000000000000000     
  0.37500000000000000        9.3750000000000000E-002   0.0000000000000000     
  0.25000000000000000       0.12500000000000000        0.0000000000000000     
  0.28125000000000000       0.12500000000000000        0.0000000000000000     
  0.31250000000000000       0.12500000000000000        0.0000000000000000     
  0.34375000000000000       0.12500000000000000        0.0000000000000000     
  0.37500000000000000       0.12500000000000000        0.0000000000000000     
  0.37500000000000000        0.0000000000000000        0.0000000000000000     
  0.40625000000000000        0.0000000000000000        0.0000000000000000     
  0.43750000000000000        0.0000000000000000        0.0000000000000000     
  0.46875000000000000        0.0000000000000000        0.0000000000000000     
  0.50000000000000000        0.0000000000000000        0.0000000000000000     
  0.37500000000000000        3.1250000000000000E-002   0.0000000000000000     
  0.40625000000000000        3.1250000000000000E-002   0.0000000000000000     
  0.43750000000000000        3.1250000000000000E-002   0.0000000000000000     
  0.46875000000000000        3.1250000000000000E-002   0.0000000000000000     
  0.50000000000000000        3.1250000000000000E-002   0.0000000000000000     
  0.37500000000000000        6.2500000000000000E-002   0.0000000000000000     
  0.40625000000000000        6.2500000000000000E-002   0.0000000000000000     
  0.43750000000000000        6.2500000000000000E-002   0.0000000000000000     
  0.46875000000000000        6.2500000000000000E-002   0.0000000000000000     
  0.50000000000000000        6.2500000000000000E-002   0.0000000000000000     
  0.37500000000000000        9.3750000000000000E-002   0.0000000000000000     
  0.40625000000000000        9.3750000000000000E-002   0.0000000000000000     
  0.43750000000000000        9.3750000000000000E-002   0.0000000000000000     
  0.46875000000000000        9.3750000000000000E-002   0.0000000000000000     
  0.50000000000000000        9.3750000000000000E-002   0.0000000000000000     
  0.37500000000000000       0.12500000000000000        0.0000000000000000     
  0.40625000000000000       0.12500000000000000        0.0000000000000000     
  0.43750000000000000       0.12500000000000000        0.0000000000000000     
  0.46875000000000000       0.12500000000000000        0.0000000000000000     
  0.50000000000000000       0.12500000000000000        0.0000000000000000     
  0.50000000000000000        0.0000000000000000        0.0000000000000000     
  0.53125000000000000        0.0000000000000000        0.0000000000000000     
  0.56250000000000000        0.0000000000000000        0.0000000000000000     
  0.59375000000000000        0.0000000000000000        0.0000000000000000     
  0.62500000000000000        0.0000000000000000        0.0000000000000000     
  0.50000000000000000        3.1250000000000000E-002   0.0000000000000000     
  0.53125000000000000        3.1250000000000000E-002   0.0000000000000000     
  0.56250000000000000        3.1250000000000000E-002   0.0000000000000000     
  0.59375000000000000        3.1250000000000000E-002   0.0000000000000000     
  0.62500000000000000        3.1250000000000000E-002   0.0000000000000000     
  0.50000000000000000        6.2500000000000000E-002   0.0000000000000000     
  0.53125000000000000        6.2500000000000000E-002   0.0000000000000000     
  0.56250000000000000        6.2500000000000000E-002   0.0000000000000000     
  0.59375000000000000        6.2500000000000000E-002   0.0000000000000000     
  0.62500000000000000        6.2500000000000000E-002   0.0000000000000000     
  0.50000000000000000        9.3750000000000000E-002   0.0000000000000000     
  0.53125000000000000        9.3750000000000000E-002   0.0000000000000000     
  0.56250000000000000        9.3750000000000000E-002   0.0000000000000000     
  0.59375000000000000        9.3750000000000000E-002   0.0000000000000000     
  0.62500000000000000        9.3750000000000000E-002   0.0000000000000000     
  0.50000000000000000       0.12500000000000000        0.0000000000000000     
  0.53125000000000000       0.12500000000000000        0.0000000000000000     
  0.56250000000000000       0.12500000000000000        0.0000000000000000     
  0.59375000000000000       0.12500000000000000        0.0000000000000000     
  0.62500000000000000       0.12500000000000000        0.0000000000000000     
  0.62500000000000000        0.0000000000000000        0.0000000000000000     
  0.65625000000000000        0.0000000000000000        0.0000000000000000     
  0.68750000000000000        0.0000000000000000        0.0000000000000000     
  0.71875000000000000        0.0000000000000000        0.0000000000000000     
  0.75000000000000000        0.0000000000000000        0.0000000000000000     
  0.62500000000000000        3.1250000000000000E-002   0.0000000000000000     
  0.65625000000000000        3.1250000000000000E-002   0.0000000000000000     
  0.68750000000000000        3.1250000000000000E-002   0.0000000000000000     
  0.71875000000000000        3.1250000000000000E-002   0.0000000000000000     
  0.75000000000000000        3.1250000000000000E-002   0.0000000000000000     
  0.62500000000000000        6.2500000000000000E-002   0.0000000000000000     
  0.65625000000000000        6.2500000000000000E-002   0.0000000000000000     
  0.68750000000000000        6.2500000000000000E-002   0.0000000000000000     
  0.71875000000000000        6.2500000000000000E-002   0.0000000000000000     
  0.75000000000000000        6.2500000000000000E-002   0.0000000000000000     
  0.62500000000000000        9.3750000000000000E-002   0.0000000000000000     
  0.65625000000000000        9.3750000000000000E-002   0.0000000000000000     
  0.68750000000000000        9.3750000000000000E-002   0.0000000000000000     
  0.71875000000000000        9.3750000000000000E-002   0.0000000000000000     
  0.75000000000000000        9.3750000000000000E-002   0.0000000000000000     
  0.62500000000000000       0.12500000000000000        0.0000000000000000     
  0.65625000000000000       0.12500000000000000        0.0000000000000000     
  0.68750000000000000       0.12500000000000000        0.0000000000000000     
  0.71875000000000000       0.12500000000000000        0.0000000000000000     
  0.75000000000000000       0.12500000000000000        0.0000000000000000     
  0.75000000000000000        0.0000000000000000        0.0000000000000000     
  0.78125000000000000        0.0000000000000000        0.0000000000000000     
  0.81250000000000000        0.0000000000000000        0.0000000000000000     
  0.84375000000000000        0.0000000000000000        0.0000000000000000     
  0.87500000000000000        0.0000000000000000        0.0000000000000000     
  0.75000000000000000        3.1250000000000000E-002   0.0000000000000000     
  0.78125000000000000        3.1250000000000000E-002   0.0000000000000000     
  0.81250000000000000        3.1250000000000000E-002   0.0000000000000000     
  0.84375000000000000        3.1250000000000000E-002   0.0000000000000000     
  0.87500000000000000        3.1250000000000000E-002   0.0000000000000000     
  0.75000000000000000        6.2500000000000000E-002   0.0000000000000000     
  0.78125000000000000        6.2500000000000000E-002   0.0000000000000000     
  0.81250000000000000        6.2500000000000000E-002   0.0000000000000000     
  0.84375000000000000        6.2500000000000000E-002   0.0000000000000000     
  0.87500000000000000        6.2500000000000000E-002   0.0000000000000000     
  0.75000000000000000        9.3750000000000000E-002   0.0000000000000000     
  0.78125000000000000        9.3750000000000000E-002   0.0000000000000000     
  0.81250000000000000        9.3750000000000000E-002   0.0000000000000000     
  0.84375000000000000        9.3750000000000000E-002   0.0000000000000000     
  0.87500000000000000        9.3750000000000000E-002   0.0000000000000000     
  0.75000000000000000       0.12500000000000000        0.0000000000000000     
  0.78125000000000000       0.12500000000000000        0.0000000000000000     
  0.81250000000000000       0.12500000000000000        0.0000000000000000     
  0.84375000000000000       0.12500000000000000        0.0000000000000000     
  0.87500000000000000       0.12500000000000000        0.0000000000000000     
  0.87500000000000000        0.0000000000000000        0.0000000000000000     
  0.90625000000000000        0.0000000000000000        0.0000000000000000     
  0.93750000000000000        0.0000000000000000        0.0000000000000000     
  0.96875000000000000        0.0000000000000000        0.0000000000000000     
   1.0000000000000000        0.0000000000000000        0.0000000000000000     
  0.87500000000000000        3.1250000000000000E-002   0.0000000000000000     
  0.90625000000000000        3.1250000000000000E-002   0.0000000000000000     
  0.93750000000000000        3.1250000000000000E-002   0.0000000000000000     
  0.96875000000000000        3.1250000000000000E-002   0.0000000000000000     
   1.0000000000000000        3.1250000000000000E-002   0.0000000000000000     
  0.87500000000000000        6.2500000000000000E-002   0.0000000000000000     
  0.90625000000000000        6.2500000000000000E-002   0.0000000000000000     
  0.93750000000000000        6.2500000000000000E-002   0.0000000000000000     
  0.96875000000000000        6.2500000000000000E-002   0.0000000000000000     
   1.0000000000000000        6.2500000000000000E-002   0.0000000000000000     
  0.87500000000000000        9.3750000000000000E-002   0.0000000000000000     
  0.90625000000000000        9.3750000000000000E-002   0.0000000000000000     
  0.93750000000000000        9.3750000000000000E-002   0.0000000000000000     
  0.96875000000000000        9.3750000000000000E-002   0.0000000000000000     
   1.0000000000000000        9.3750000000000000E-002   0.0000000000000000     
  0.87500000000000000       0.12500000000000000        0.0000000000000000     
  0.90625000000000000       0.12500000000000000        0.0000000000000000     
  0.93750000000000000       0.12500000000000000        0.0000000000000000     
  0.96875000000000000       0.12500000000000000        0.0000000000000000     
   1.0000000000000000       0.12500000000000000        0.0000000000000000     
   0.0000000000000000       0.12500000000000000        0.0000000000000000     
   3.1250000000000000E-002  0.12500000000000000        0.0000000000000000     
   6.2500000000000000E-002  0.12500000000000000        0.0000000000000000     
   9.3750000000000000E-002  0.12500000000000000        0.0000000000000000     
  0.12500000000000000       0.12500000000000000        0.0000000000000000     
   0.0000000000000000       0.15625000000000000        0.0000000000000000     
   3.1250000000000000E-002  0.15625000000000000        0.0000000000000000     
   6.2500000000000000E-002  0.15625000000000000        0.0000000000000000     
   9.3750000000000000E-002  0.15625000000000000        0.0000000000000000     
  0.12500000000000000       0.15625000000000000        0.0000000000000000     
   0.0000000000000000       0.18750000000000000        0.0000000000000000     
   3.1250000000000000E-002  0.18750000000000000        0.0000000000000000     
   6.2500000000000000E-002  0.18750000000000000        0.0000000000000000     
   9.3750000000000000E-002  0.18750000000000000        0.0000000000000000     
  0.12500000000000000       0.18750000000000000        0.0000000000000000     
   0.0000000000000000       0.21875000000000000        0.0000000000000000     
   3.1250000000000000E-002  0.21875000000000000        0.0000000000000000     
   6.2500000000000000E-002  0.21875000000000000        0.0000000000000000     
   9.3750000000000000E-002  0.21875000000000000        0.0000000000000000     
  0.12500000000000000       0.21875000000000000        0.0000000000000000     
   0.0000000000000000       0.25000000000000000        0.0000000000000000     
   3.1250000000000000E-002  0.25000000000000000        0.0000000000000000     
   6.2500000000000000E-002  0.25000000000000000        0.0000000000000000     
   9.3750000000000000E-002  0.25000000000000000        0.0000000000000000     
  0.12500000000000000       0.25000000000000000        0.0000000000000000     
  0.12500000000000000       0.12500000000000000        0.0000000000000000     
  0.15625000000000000       0.12500000000000000        0.0000000000000000     
  0.18750000000000000       0.12500000000000000        0.0000000000000000     
  0.21875000000000000       0.12500000000000000        0.0000000000000000     
  0.25000000000000000       0.12500000000000000        0.0000000000000000     
  0.12500000000000000       0.15625000000000000        0.0000000000000000     
  0.15625000000000000       0.15625000000000000        0.0000000000000000     
  0.18750000000000000       0.15625000000000000        0.0000000000000000     
  0.21875000000000000       0.15625000000000000        0.0000000000000000     
  0.25000000000000000       0.15625000000000000        0.0000000000000000     
  0.12500000000000000       0.18750000000000000        0.0000000000000000     
  0.15625000000000000       0.18750000000000000        0.0000000000000000     
  0.18750000000000000       0.18750000000000000        0.0000000000000000     
  0.21875000000000000       0.18750000000000000        0.0000000000000000     
  0.25000000000000000       0.18750000000000000        0.0000000000000000     
  0.12500000000000000       0.21875000000000000        0.0000000000000000     
  0.15625000000000000       0.21875000000000000        0.0000000000000000     
  0.18750000000000000       0.21875000000000000        0.0000000000000000     
  0.21875000000000000       0.21875000000000000        0.0000000000000000     
  0.25000000000000000       0.21875000000000000        0.0000000000000000     
  0.12500000000000000       0.25000000000000000        0.0000000000000000     
  0.15625000000000000       0.25000000000000000        0.0000000000000000     
  0.18750000000000000       0.25000000000000000        0.0000000000000000     
  0.21875000000000000       0.25000000000000000        0.0000000000000000     
  0.25000000000000000       0.25000000000000000        0.0000000000000000     
  0.25000000000000000       0.12500000000000000        0.0000000000000000     
  0.28125000000000000       0.12500000000000000        0.0000000000000000     
  0.31250000000000000       0.12500000000000000        0.0000000000000000     
  0.34375000000000000       0.12500000000000000        0.0000000000000000     
  0.37500000000000000       0.12500000000000000        0.0000000000000000     
  0.25000000000000000       0.15625000000000000        0.0000000000000000     
  0.28125000000000000       0.15625000000000000        0.0000000000000000     
  0.31250000000000000       0.15625000000000000        0.0000000000000000     
  0.34375000000000000       0.15625000000000000        0.0000000000000000     
  0.37500000000000000       0.15625000000000000        0.0000000000000000     
  0.25000000000000000       0.18750000000000000        0.0000000000000000     
  0.28125000000000000       0.18750000000000000        0.0000000000000000     
  0.31250000000000000       0.18750000000000000        0.0000000000000000     
  0.34375000000000000       0.18750000000000000        0.0000000000000000     
  0.37500000000000000       0.18750000000000000        0.0000000000000000     
  0.25000000000000000       0.21875000000000000        0.0000000000000000     
  0.28125000000000000       0.21875000000000000        0.0000000000000000     
  0.31250000000000000       0.21875000000000000        0.0000000000000000     
  0.34375000000000000       0.21875000000000000        0.0000000000000000     
  0.37500000000000000       0.21875000000000000        0.0000000000000000     
  0.25000000000000000       0.25000000000000000        0.0000000000000000     
  0.28125000000000000       0.25000000000000000        0.0000000000000000     
  0.31250000000000000       0.25000000000000000        0.0000000000000000     
  0.34375000000000000       0.25000000000000000        0.0000000000000000     
  0.37500000000000000       0.25000000000000000        0.0000000000000000     
  0.37500000000000000       0.12500000000000000        0.0000000000000000     
  0.40625000000000000       0.12500000000000000        0.0000000000000000     
  0.43750000000000000       0.12500000000000000        0.0000000000000000     
  0.46875000000000000       0.12500000000000000        0.0000000000000000     
  0.50000000000000000       0.12500000000000000        0.0000000000000000     
  0.37500000000000000       0.15625000000000000        0.0000000000000000     
  0.40625000000000000       0.15625000000000000        0.0000000000000000     
  0.43750000000000000       0.15625000000000000        0.0000000000000000     
  0.46875000000000000       0.15625000000000000        0.0000000000000000     
  0.50000000000000000       0.15625000000000000        0.0000000000000000     
  0.37500000000000000       0.18750000000000000        0.0000000000000000     
  0.40625000000000000       0.18750000000000000        0.0000000000000000     
  0.43750000000000000       0.18750000000000000        0.0000000000000000     
  0.46875000000000000       0.18750000000000000        0.0000000000000000     
  0.50000000000000000       0.18750000000000000        0.0000000000000000     
  0.37500000000000000       0.21875000000000000        0.0000000000000000     
  0.40625000000000000       0.21875000000000000        0.0000000000000000     
  0.43750000000000000       0.21875000000000000        0.0000000000000000     
  0.46875000000000000       0.21875000000000000        0.0000000000000000     
  0.50000000000000000       0.21875000000000000        0.0000000000000000     
  0.37500000000000000       0.25000000000000000        0.0000000000000000     
  0.40625000000000000       0.25000000000000000        0.0000000000000000     
  0.43750000000000000       0.25000000000000000        0.0000000000000000     
  0.46875000000000000       0.25000000000000000        0.0000000000000000     
  0.50000000000000000       0.25000000000000000        0.0000000000000000     
  0.50000000000000000       0.12500000000000000        0.0000000000000000     
  0.53125000000000000       0.12500000000000000        0.0000000000000000     
  0.56250000000000000       0.12500000000000000        0.0000000000000000     
  0.59375000000000000       0.12500000000000000        0.0000000000000000     
  0.62500000000000000       0.12500000000000000        0.0000000000000000     
  0.50000000000000000       0.15625000000000000        0.0000000000000000     
  0.53125000000000000       0.15625000000000000        0.0000000000000000     
  0.56250000000000000       0.15625000000000000        0.0000000000000000     
  0.59375000000000000       0.15625000000000000        0.0000000000000000     
  0.62500000000000000       0.15625000000000000        0.0000000000000000     
  0.50000000000000000       0.18750000000000000        0.0000000000000000     
  0.53125000000000000       0.18750000000000000        0.0000000000000000     
  0.56250000000000000       0.18750000000000000        0.0000000000000000     
  0.59375000000000000       0.18750000000000000        0.0000000000000000     
  0.62500000000000000       0.18750000000000000        0.0000000000000000     
  0.50000000000000000       0.21875000000000000        0.0000000000000000     
  0.53125000000000000       0.21875000000000000        0.0000000000000000     
  0.56250000000000000       0.21875000000000000        0.0000000000000000     
  0.59375000000000000       0.21875000000000000        0.0000000000000000     
  0.62500000000000000       0.21875000000000000        0.0000000000000000     
  0.50000000000000000       0.25000000000000000        0.0000000000000000     
  0.53125000000000000       0.25000000000000000        0.0000000000000000     
  0.56250000000000000       0.25000000000000000        0.0000000000000000     
  0.59375000000000000       0.25000000000000000        0.0000000000000000     
  0.62500000000000000       0.25000000000000000        0.0000000000000000     
  0.62500000000000000       0.12500000000000000        0.0000000000000000     
  0.65625000000000000       0.12500000000000000        0.0000000000000000     
  0.68750000000000000       0.12500000000000000        0.0000000000000000     
  0.71875000000000000       0.12500000000000000        0.0000000000000000     
  0.75000000000000000       0.12500000000000000        0.0000000000000000     
  0.62500000000000000       0.15625000000000000        0.0000000000000000     
  0.65625000000000000       0.15625000000000000        0.0000000000000000     
  0.68750000000000000       0.15625000000000000        0.0000000000000000     
  0.71875000000000000       0.15625000000000000        0.0000000000000000     
  0.75000000000000000       0.15625000000000000        0.0000000000000000     
  0.62500000000000000       0.18750000000000000        0.0000000000000000     
  0.65625000000000000       0.18750000000000000        0.0000000000000000     
  0.68750000000000000       0.18750000000000000        0.0000000000000000     
  0.71875000000000000       0.18750000000000000        0.0000000000000000     
  0.75000000000000000       0.18750000000000000        0.0000000000000000     
  0.62500000000000000       0.21875000000000000        0.0000000000000000     
  0.65625000000000000       0.21875000000000000        0.0000000000000000     
  0.68750000000000000       0.21875000000000000        0.0000000000000000     
  0.71875000000000000       0.21875000000000000        0.0000000000000000     
  0.75000000000000000       0.21875000000000000        0.0000000000000000     
  0.62500000000000000       0.25000000000000000        0.0000000000000000     
  0.65625000000000000       0.25000000000000000        0.0000000000000000     
  0.68750000000000000       0.25000000000000000        0.0000000000000000     
  0.71875000000000000       0.25000000000000000        0.0000000000000000     
  0.75000000000000000       0.25000000000000000        0.0000000000000000     
  0.75000000000000000       0.12500000000000000        0.0000000000000000     
  0.78125000000000000       0.12500000000000000        0.0000000000000000     
  0.81250000000000000       0.12500000000000000        0.0000000000000000     
  0.84375000000000000       0.12500000000000000        0.0000000000000000     
  0.87500000000000000       0.12500000000000000        0.0000000000000000     
  0.75000000000000000       0.15625000000000000        0.0000000000000000     
  0.78125000000000000       0.15625000000000000        0.0000000000000000     
  0.81250000000000000       0.15625000000000000        0.0000000000000000     
  0.84375000000000000       0.15625000000000000        0.0000000000000000     
  0.87500000000000000       0.15625000000000000        0.0000000000000000     
  0.75000000000000000       0.18750000000000000        0.0000000000000000     
  0.78125000000000000       0.18750000000000000        0.0000000000000000     
  0.81250000000000000       0.18750000000000000        0.0000000000000000     
  0.84375000000000000       0.18750000000000000        0.0000000000000000     
  0.87500000000000000       0.18750000000000000        0.0000000000000000     
  0.75000000000000000       0.21875000000000000        0.0000000000000000     
  0.78125000000000000       0.21875000000000000        0.0000000000000000     
  0.81250000000000000       0.21875000000000000        0.0000000000000000     
  0.84375000000000000       0.21875000000000000        0.0000000000000000     
  0.87500000000000000       0.21875000000000000        0.0000000000000000     
  0.75000000000000000       0.25000000000000000        0.0000000000000000     
  0.78125000000000000       0.25000000000000000        0.0000000000000000     
  0.81250000000000000       0.25000000000000000        0.0000000000000000     
  0.84375000000000000       0.25000000000000000        0.0000000000000000     
  0.87500000000000000       0.25000000000000000        0.0000000000000000     
  0.87500000000000000       0.12500000000000000        0.0000000000000000     
  0.90625000000000000       0.12500000000000000        0.0000000000000000     
  0.93750000000000000       0.12500000000000000        0.0000000000000000     
  0.96875000000000000       0.12500000000000000        0.0000000000000000     
   1.0000000000000000       0.12500000000000000        0.0000000000000000     
  0.87500000000000000       0.15625000000000000        0.0000000000000000     
  0.90625000000000000       0.15625000000000000        0.0000000000000000     
  0.93750000000000000       0.15625000000000000        0.0000000000000000     
  0.96875000000000000       0.15625000000000000        0.0000000000000000     
   1.0000000000000000       0.15625000000000000        0.0000000000000000     
  0.87500000000000000       0.18750000000000000        0.0000000000000000     
  0.90625000000000000       0.18750000000000000        0.0000000000000000     
  0.93750000000000000       0.18750000000000000        0.0000000000000000     
  0.96875000000000000       0.18750000000000000        0.0000000000000000     
   1.0000000000000000       0.18750000000000000        0.0000000000000000     
  0.87500000000000000       0.21875000000000000        0.0000000000000000     
  0.90625000000000000       0.21875000000000000        0.0000000000000000     
  0.93750000000000000       0.21875000000000000        0.0000000000000000     
  0.96875000000000000       0.21875000000000000        0.0000000000000000     
   1.0000000000000000       0.21875000000000000        0.0000000000000000     
  0.87500000000000000       0.25000000000000000        0.0000000000000000     
  0.90625000000000000       0.25000000000000000        0.0000000000000000     
  0.93750000000000000       0.25000000000000000        0.0000000000000000     
  0.96875000000000000       0.25000000000000000        0.0000000000000000     
   1.0000000000000000       0.25000000000000000        0.0000000000000000     
   0.0000000000000000       0.25000000000000000        0.0000000000000000     
   3.1250000000000000E-002  0.25000000000000000        0.0000000000000000     
   6.2500000000000000E-002  0.25000000000000000        0.0000000000000000     
   9.3750000000000000E-002  0.25000000000000000        0.0000000000000000     
  0.12500000000000000       0.25000000000000000        0.0000000000000000     
   0.0000000000000000       0.28125000000000000        0.0000000000000000     
   3.1250000000000000E-002  0.28125000000000000        0.0000000000000000     
   6.2500000000000000E-002  0.28125000000000000        0.0000000000000000     
   9.3750000000000000E-002  0.28125000000000000        0.0000000000000000     
  0.12500000000000000       0.28125000000000000        0.0000000000000000     
   0.0000000000000000       0.31250000000000000        0.0000000000000000     
   3.1250000000000000E-002  0.31250000000000000        0.0000000000000000     
   6.2500000000000000E-002  0.31250000000000000        0.0000000000000000     
   9.3750000000000000E-002  0.31250000000000000        0.0000000000000000     
  0.12500000000000000       0.31250000000000000        0.0000000000000000     
   0.0000000000000000       0.34375000000000000        0.0000000000000000     
   3.1250000000000000E-002  0.34375000000000000        0.0000000000000000     
   6.2500000000000000E-002  0.34375000000000000        0.0000000000000000     
   9.3750000000000000E-002  0.34375000000000000        0.0000000000000000     
  0.12500000000000000       0.34375000000000000        0.0000000000000000     
   0.0000000000000000       0.37500000000000000        0.0000000000000000     
   3.1250000000000000E-002  0.37500000000000000        0.0000000000000000     
   6.2500000000000000E-002  0.37500000000000000        0.0000000000000000     
   9.3750000000000000E-002  0.37500000000000000        0.0000000000000000     
  0.12500000000000000       0.37500000000000000        0.0000000000000000     
  0.12500000000000000       0.25000000000000000        0.0000000000000000     
  0.15625000000000000       0.25000000000000000        0.0000000000000000     
  0.18750000000000000       0.25000000000000000        0.0000000000000000     
  0.21875000000000000       0.25000000000000000        0.0000000000000000     
  0.25000000000000000       0.25000000000000000        0.0000000000000000     
  0.12500000000000000       0.28125000000000000        0.0000000000000000     
  0.15625000000000000       0.28125000000000000        0.0000000000000000     
  0.18750000000000000       0.28125000000000000        0.0000000000000000     
  0.21875000000000000       0.28125000000000000        0.0000000000000000     
  0.25000000000000000       0.28125000000000000        0.0000000000000000     
  0.12500000000000000       0.31250000000000000        0.0000000000000000     
  0.15625000000000000       0.31250000000000000        0.0000000000000000     
  0.18750000000000000       0.31250000000000000        0.0000000000000000     
  0.21875000000000000       0.31250000000000000        0.0000000000000000     
  0.25000000000000000       0.31250000000000000        0.0000000000000000     
  0.12500000000000000       0.34375000000000000        0.0000000000000000     
  0.15625000000000000       0.34375000000000000        0.0000000000000000     
  0.18750000000000000       0.34375000000000000        0.0000000000000000     
  0.21875000000000000       0.34375000000000000        0.0000000000000000     
  0.25000000000000000       0.34375000000000000        0.0000000000000000     
  0.12500000000000000       0.37500000000000000        0.0000000000000000     
  0.15625000000000000       0.37500000000000000        0.0000000000000000     
  0.18750000000000000       0.37500000000000000        0.0000000000000000     
  0.21875000000000000       0.37500000000000000        0.0000000000000000     
  0.25000000000000000       0.37500000000000000        0.0000000000000000     
  0.25000000000000000       0.25000000000000000        0.0000000000000000     
  0.28125000000000000       0.25000000000000000        0.0000000000000000     
  0.31250000000000000       0.25000000000000000        0.0000000000000000     
  0.34375000000000000       0.25000000000000000        0.0000000000000000     
  0.37500000000000000       0.25000000000000000        0.0000000000000000     
  0.25000000000000000       0.28125000000000000        0.0000000000000000     
  0.28125000000000000       0.28125000000000000        0.0000000000000000     
  0.31250000000000000       0.28125000000000000        0.0000000000000000     
  0.34375000000000000       0.28125000000000000        0.0000000000000000     
  0.37500000000000000       0.28125000000000000        0.0000000000000000     
  0.25000000000000000       0.31250000000000000        0.0000000000000000     
  0.28125000000000000       0.31250000000000000        0.0000000000000000     
  0.31250000000000000       0.31250000000000000        0.0000000000000000     
  0.34375000000000000       0.31250000000000000        0.0000000000000000     
  0.37500000000000000       0.31250000000000000        0.0000000000000000     
  0.25000000000000000       0.34375000000000000        0.0000000000000000     
  0.28125000000000000       0.34375000000000000        0.0000000000000000     
  0.31250000000000000       0.34375000000000000        0.0000000000000000     
  0.34375000000000000       0.34375000000000000        0.0000000000000000     
  0.37500000000000000       0.34375000000000000        0.0000000000000000     
  0.25000000000000000       0.37500000000000000        0.0000000000000000     
  0.28125000000000000       0.37500000000000000        0.0000000000000000     
  0.31250000000000000       0.37500000000000000        0.0000000000000000     
  0.34375000000000000       0.37500000000000000        0.0000000000000000     
  0.37500000000000000       0.37500000000000000        0.0000000000000000     
  0.37500000000000000       0.25000000000000000        0.0000000000000000     
  0.40625000000000000       0.25000000000000000        0.0000000000000000     
  0.43750000000000000       0.25000000000000000        0.0000000000000000     
  0.46875000000000000       0.25000000000000000        0.0000000000000000     
  0.50000000000000000       0.25000000000000000        0.0000000000000000     
  0.37500000000000000       0.28125000000000000        0.0000000000000000     
  0.40625000000000000       0.28125000000000000        0.0000000000000000     
  0.43750000000000000       0.28125000000000000        0.0000000000000000     
  0.46875000000000000       0.28125000000000000        0.0000000000000000     
  0.50000000000000000       0.28125000000000000        0.0000000000000000     
  0.37500000000000000       0.31250000000000000        0.0000000000000000     
  0.40625000000000000       0.31250000000000000        0.0000000000000000     
  0.43750000000000000       0.31250000000000000        0.0000000000000000     
  0.46875000000000000       0.31250000000000000        0.0000000000000000     
  0.50000000000000000       0.31250000000000000        0.0000000000000000     
  0.37500000000000000       0.34375000000000000        0.0000000000000000     
  0.40625000000000000       0.34375000000000000        0.0000000000000000     
  0.43750000000000000       0.34375000000000000        0.0000000000000000     
  0.46875000000000000       0.34375000000000000        0.0000000000000000     
  0.50000000000000000       0.34375000000000000        0.0000000000000000     
  0.37500000000000000       0.37500000000000000        0.0000000000000000     
  0.40625000000000000       0.37500000000000000        0.0000000000000000     
  0.43750000000000000       0.37500000000000000        0.0000000000000000     
  0.46875000000000000       0.37500000000000000        0.0000000000000000     
  0.50000000000000000       0.37500000000000000        0.0000000000000000     
  0.50000000000000000       0.25000000000000000        0.0000000000000000     
  0.53125000000000000       0.25000000000000000        0.0000000000000000     
  0.56250000000000000       0.25000000000000000        0.0000000000000000     
  0.59375000000000000       0.25000000000000000        0.0000000000000000     
  0.62500000000000000       0.25000000000000000        0.0000000000000000     
  0.50000000000000000       0.28125000000000000        0.0000000000000000     
  0.53125000000000000       0.28125000000000000        0.0000000000000000     
  0.56250000000000000       0.28125000000000000        0.0000000000000000     
  0.59375000000000000       0.28125000000000000        0.0000000000000000     
  0.62500000000000000       0.28125000000000000        0.0000000000000000     
  0.50000000000000000       0.31250000000000000        0.0000000000000000     
  0.53125000000000000       0.31250000000000000        0.0000000000000000     
  0.56250000000000000       0.31250000000000000        0.0000000000000000     
  0.59375000000000000       0.31250000000000000        0.0000000000000000     
  0.62500000000000000       0.31250000000000000        0.0000000000000000     
  0.50000000000000000       0.34375000000000000        0.0000000000000000     
  0.53125000000000000       0.34375000000000000        0.0000000000000000     
  0.56250000000000000       0.34375000000000000        0.0000000000000000     
  0.59375000000000000       0.34375000000000000        0.0000000000000000     
  0.62500000000000000       0.34375000000000000        0.0000000000000000     
  0.50000000000000000       0.37500000000000000        0.0000000000000000     
  0.53125000000000000       0.37500000000000000        0.0000000000000000     
  0.56250000000000000       0.37500000000000000        0.0000000000000000     
  0.59375000000000000       0.37500000000000000        0.0000000000000000     
  0.62500000000000000       0.37500000000000000        0.0000000000000000     
  0.62500000000000000       0.25000000000000000        0.0000000000000000     
  0.65625000000000000       0.25000000000000000        0.0000000000000000     
  0.68750000000000000       0.25000000000000000        0.0000000000000000     
  0.71875000000000000       0.25000000000000000        0.0000000000000000     
  0.75000000000000000       0.25000000000000000        0.0000000000000000     
  0.62500000000000000       0.28125000000000000        0.0000000000000000     
  0.65625000000000000       0.28125000000000000        0.0000000000000000     
  0.68750000000000000       0.28125000000000000        0.0000000000000000     
  0.71875000000000000       0.28125000000000000        0.0000000000000000     
  0.75000000000000000       0.28125000000000000        0.0000000000000000     
  0.62500000000000000       0.31250000000000000        0.0000000000000000     
  0.65625000000000000       0.31250000000000000        0.0000000000000000     
  0.68750000000000000       0.31250000000000000        0.0000000000000000     
  0.71875000000000000       0.31250000000000000        0.0000000000000000     
  0.75000000000000000       0.31250000000000000        0.0000000000000000     
  0.62500000000000000       0.34375000000000000        0.0000000000000000     
  0.65625000000000000       0.34375000000000000        0.0000000000000000     
  0.68750000000000000       0.34375000000000000        0.0000000000000000     
  0.71875000000000000       0.34375000000000000        0.0000000000000000     
  0.75000000000000000       0.34375000000000000        0.0000000000000000     
  0.62500000000000000       0.37500000000000000        0.0000000000000000     
  0.65625000000000000       0.37500000000000000        0.0000000000000000     
  0.68750000000000000       0.37500000000000000        0.0000000000000000     
  0.71875000000000000       0.37500000000000000        0.0000000000000000     
  0.75000000000000000       0.37500000000000000        0.0000000000000000     
  0.75000000000000000       0.25000000000000000        0.0000000000000000     
  0.78125000000000000       0.25000000000000000        0.0000000000000000     
  0.81250000000000000       0.25000000000000000        0.0000000000000000     
  0.84375000000000000       0.25000000000000000        0.0000000000000000     
  0.87500000000000000       0.25000000000000000        0.0000000000000000     
  0.75000000000000000       0.28125000000000000        0.0000000000000000     
  0.78125000000000000       0.28125000000000000        0.0000000000000000     
  0.81250000000000000       0.28125000000000000        0.0000000000000000     
  0.84375000000000000       0.28125000000000000        0.0000000000000000     
  0.87500000000000000       0.28125000000000000        0.0000000000000000     
  0.75000000000000000       0.31250000000000000        0.0000000000000000     
  0.78125000000000000       0.31250000000000000        0.0000000000000000     
  0.81250000000000000       0.31250000000000000        0.0000000000000000     
  0.84375000000000000       0.31250000000000000        0.0000000000000000     
  0.87500000000000000       0.31250000000000000        0.0000000000000000     
  0.75000000000000000       0.34375000000000000        0.0000000000000000     
  0.78125000000000000       0.34375000000000000        0.0000000000000000     
  0.81250000000000000       0.34375000000000000        0.0000000000000000     
  0.84375000000000000       0.34375000000000000        0.0000000000000000     
  0.87500000000000000       0.34375000000000000        0.0000000000000000     
  0.75000000000000000       0.37500000000000000        0.0000000000000000     
  0.78125000000000000       0.37500000000000000        0.0000000000000000     
  0.81250000000000000       0.37500000000000000        0.0000000000000000     
  0.84375000000000000       0.37500000000000000        0.0000000000000000     
  0.87500000000000000       0.37500000000000000        0.0000000000000000     
  0.87500000000000000       0.25000000000000000        0.0000000000000000     
  0.90625000000000000       0.25000000000000000        0.0000000000000000     
  0.93750000000000000       0.25000000000000000        0.0000000000000000     
  0.96875000000000000       0.25000000000000000        0.0000000000000000     
   1.0000000000000000       0.25000000000000000        0.0000000000000000     
  0.87500000000000000       0.28125000000000000        0.0000000000000000     
  0.90625000000000000       0.28125000000000000        0.0000000000000000     
  0.93750000000000000       0.28125000000000000        0.0000000000000000     
  0.96875000000000000       0.28125000000000000        0.0000000000000000     
   1.0000000000000000       0.28125000000000000        0.0000000000000000     
  0.87500000000000000       0.31250000000000000        0.0000000000000000     
  0.90625000000000000       0.31250000000000000        0.0000000000000000     
  0.93750000000000000       0.31250000000000000        0.0000000000000000     
  0.96875000000000000       0.31250000000000000        0.0000000000000000     
   1.0000000000000000       0.31250000000000000        0.0000000000000000     
  0.87500000000000000       0.34375000000000000        0.0000000000000000     
  0.90625000000000000       0.34375000000000000        0.0000000000000000     
  0.93750000000000000       0.34375000000000000        0.0000000000000000     
  0.96875000000000000       0.34375000000000000        0.0000000000000000     
   1.0000000000000000       0.34375000000000000        0.0000000000000000     
  0.87500000000000000       0.37500000000000000        0.0000000000000000     
  0.90625000000000000       0.37500000000000000        0.0000000000000000     
  0.93750000000000000       0.37500000000000000        0.0000000000000000     
  0.96875000000000000       0.37500000000000000        0.0000000000000000     
   1.0000000000000000       0.37500000000000000        0.0000000000000000     
   0.0000000000000000       0.37500000000000000        0.0000000000000000     
   3.1250000000000000E-002  0.37500000000000000        0.0000000000000000     
   6.2500000000000000E-002  0.37500000000000000        0.0000000000000000     
   9.3750000000000000E-002  0.37500000000000000        0.0000000000000000     
  0.12500000000000000       0.37500000000000000        0.0000000000000000     
   0.0000000000000000       0.40625000000000000        0.0000000000000000     
   3.1250000000000000E-002  0.40625000000000000        0.0000000000000000     
   6.2500000000000000E-002  0.40625000000000000        0.0000000000000000     
   9.3750000000000000E-002  0.40625000000000000        0.0000000000000000     
  0.12500000000000000       0.40625000000000000        0.0000000000000000     
   0.0000000000000000       0.43750000000000000        0.0000000000000000     
   3.1250000000000000E-002  0.43750000000000000        0.0000000000000000     
   6.2500000000000000E-002  0.43750000000000000        0.0000000000000000     
   9.3750000000000000E-002  0.43750000000000000        0.0000000000000000     
  0.12500000000000000       0.43750000000000000        0.0000000000000000     
   0.0000000000000000       0.46875000000000000        0.0000000000000000     
   3.1250000000000000E-002  0.46875000000000000        0.0000000000000000     
   6.2500000000000000E-002  0.46875000000000000        0.0000000000000000     
   9.3750000000000000E-002  0.46875000000000000        0.0000000000000000     
  0.12500000000000000       0.46875000000000000        0.0000000000000000     
   0.0000000000000000       0.50000000000000000        0.0000000000000000     
   3.1250000000000000E-002  0.50000000000000000        0.0000000000000000     
   6.2500000000000000E-002  0.50000000000000000        0.0000000000000000     
   9.3750000000000000E-002  0.50000000000000000        0.0000000000000000     
  0.12500000000000000       0.50000000000000000        0.0000000000000000     
  0.12500000000000000       0.37500000000000000        0.0000000000000000     
  0.15625000000000000       0.37500000000000000        0.0000000000000000     
  0.18750000000000000       0.37500000000000000        0.0000000000000000     
  0.21875000000000000       0.37500000000000000        0.0000000000000000     
  0.25000000000000000       0.37500000000000000        0.0000000000000000     
  0.12500000000000000       0.40625000000000000        0.0000000000000000     
  0.15625000000000000       0.40625000000000000        0.0000000000000000     
  0.18750000000000000       0.40625000000000000        0.0000000000000000     
  0.21875000000000000       0.40625000000000000        0.0000000000000000     
  0.25000000000000000       0.40625000000000000        0.0000000000000000     
  0.12500000000000000       0.43750000000000000        0.0000000000000000     
  0.15625000000000000       0.43750000000000000        0.0000000000000000     
  0.18750000000000000       0.43750000000000000        0.0000000000000000     
  0.21875000000000000       0.43750000000000000        0.0000000000000000     
  0.25000000000000000       0.43750000000000000        0.0000000000000000     
  0.12500000000000000       0.46875000000000000        0.0000000000000000     
  0.15625000000000000       0.46875000000000000        0.0000000000000000     
  0.18750000000000000       0.46875000000000000        0.0000000000000000     
  0.21875000000000000       0.46875000000000000        0.0000000000000000     
  0.25000000000000000       0.46875000000000000        0.0000000000000000     
  0.12500000000000000       0.50000000000000000        0.0000000000000000     
  0.15625000000000000       0.50000000000000000        0.0000000000000000     
  0.18750000000000000       0.50000000000000000        0.0000000000000000     
  0.21875000000000000       0.50000000000000000        0.0000000000000000     
  0.25000000000000000       0.50000000000000000        0.0000000000000000     
  0.25000000000000000       0.37500000000000000        0.0000000000000000     
  0.28125000000000000       0.37500000000000000        0.0000000000000000     
  0.31250000000000000       0.37500000000000000        0.0000000000000000     
  0.34375000000000000       0.37500000000000000        0.0000000000000000     
  0.37500000000000000       0.37500000000000000        0.0000000000000000     
  0.25000000000000000       0.40625000000000000        0.0000000000000000     
  0.28125000000000000       0.40625000000000000        0.0000000000000000     
  0.31250000000000000       0.40625000000000000        0.0000000000000000     
  0.34375000000000000       0.40625000000000000        0.0000000000000000     
  0.37500000000000000       0.40625000000000000        0.0000000000000000     
  0.25000000000000000       0.43750000000000000        0.0000000000000000     
  0.28125000000000000       0.43750000000000000        0.0000000000000000     
  0.31250000000000000       0.43750000000000000        0.0000000000000000     
  0.34375000000000000       0.43750000000000000        0.0000000000000000     
  0.37500000000000000       0.43750000000000000        0.0000000000000000     
  0.25000000000000000       0.46875000000000000        0.0000000000000000     
  0.28125000000000000       0.46875000000000000        0.0000000000000000     
  0.31250000000000000       0.46875000000000000        0.0000000000000000     
  0.34375000000000000       0.46875000000000000        0.0000000000000000     
  0.37500000000000000       0.46875000000000000        0.0000000000000000     
  0.25000000000000000       0.50000000000000000        0.0000000000000000     
  0.28125000000000000       0.50000000000000000        0.0000000000000000     
  0.31250000000000000       0.50000000000000000        0.0000000000000000     
  0.34375000000000000       0.50000000000000000        0.0000000000000000     
  0.37500000000000000       0.50000000000000000        0.0000000000000000     
  0.37500000000000000       0.37500000000000000        0.0000000000000000     
  0.40625000000000000       0.37500000000000000        0.0000000000000000     
  0.43750000000000000       0.37500000000000000        0.0000000000000000     
  0.46875000000000000       0.37500000000000000        0.0000000000000000     
  0.50000000000000000       0.37500000000000000        0.0000000000000000     
  0.37500000000000000       0.40625000000000000        0.0000000000000000     
  0.40625000000000000       0.40625000000000000        0.0000000000000000     
  0.43750000000000000       0.40625000000000000        0.0000000000000000     
  0.46875000000000000       0.40625000000000000        0.0000000000000000     
  0.50000000000000000       0.40625000000000000        0.0000000000000000     
  0.37500000000000000       0.43750000000000000        0.0000000000000000     
  0.40625000000000000       0.43750000000000000        0.0000000000000000     
  0.43750000000000000       0.43750000000000000        0.0000000000000000     
  0.46875000000000000       0.43750000000000000        0.0000000000000000     
  0.50000000000000000       0.43750000000000000        0.0000000000000000     
  0.37500000000000000       0.46875000000000000        0.0000000000000000     
  0.40625000000000000       0.46875000000000000        0.0000000000000000     
  0.43750000000000000       0.46875000000000000        0.0000000000000000     
  0.46875000000000000       0.46875000000000000        0.0000000000000000     
  0.50000000000000000       0.46875000000000000        0.0000000000000000     
  0.37500000000000000       0.50000000000000000        0.0000000000000000     
  0.40625000000000000       0.50000000000000000        0.0000000000000000     
  0.43750000000000000       0.50000000000000000        0.0000000000000000     
  0.46875000000000000       0.50000000000000000        0.0000000000000000     
  0.50000000000000000       0.50000000000000000        0.0000000000000000     
  0.50000000000000000       0.37500000000000000        0.0000000000000000     
  0.53125000000000000       0.37500000000000000        0.0000000000000000     
  0.56250000000000000       0.37500000000000000        0.0000000000000000     
  0.59375000000000000       0.37500000000000000        0.0000000000000000     
  0.62500000000000000       0.37500000000000000        0.0000000000000000     
  0.50000000000000000       0.40625000000000000        0.0000000000000000     
  0.53125000000000000       0.40625000000000000        0.0000000000000000     
  0.56250000000000000       0.40625000000000000        0.0000000000000000     
  0.59375000000000000       0.40625000000000000        0.0000000000000000     
  0.62500000000000000       0.40625000000000000        0.0000000000000000     
  0.50000000000000000       0.43750000000000000        0.0000000000000000     
  0.53125000000000000       0.43750000000000000        0.0000000000000000     
  0.56250000000000000       0.43750000000000000        0.0000000000000000     
  0.59375000000000000       0.43750000000000000        0.0000000000000000     
  0.62500000000000000       0.43750000000000000        0.0000000000000000     
  0.50000000000000000       0.46875000000000000        0.0000000000000000     
  0.53125000000000000       0.46875000000000000        0.0000000000000000     
  0.56250000000000000       0.46875000000000000        0.0000000000000000     
  0.59375000000000000       0.46875000000000000        0.0000000000000000     
  0.62500000000000000       0.46875000000000000        0.0000000000000000     
  0.50000000000000000       0.50000000000000000        0.0000000000000000     
  0.53125000000000000       0.50000000000000000        0.0000000000000000     
  0.56250000000000000       0.50000000000000000        0.0000000000000000     
  0.59375000000000000       0.50000000000000000        0.0000000000000000     
  0.62500000000000000       0.50000000000000000        0.0000000000000000     
  0.62500000000000000       0.37500000000000000        0.0000000000000000     
  0.65625000000000000       0.37500000000000000        0.0000000000000000     
  0.68750000000000000       0.37500000000000000        0.0000000000000000     
  0.71875000000000000       0.37500000000000000        0.0000000000000000     
  0.75000000000000000       0.37500000000000000        0.0000000000000000     
  0.62500000000000000       0.40625000000000000        0.0000000000000000     
  0.65625000000000000       0.40625000000000000        0.0000000000000000     
  0.68750000000000000       0.40625000000000000        0.0000000000000000     
  0.71875000000000000       0.40625000000000000        0.0000000000000000     
  0.75000000000000000       0.40625000000000000        0.0000000000000000     
  0.62500000000000000       0.43750000000000000        0.0000000000000000     
  0.65625000000000000       0.43750000000000000        0.0000000000000000     
  0.68750000000000000       0.43750000000000000        0.0000000000000000     
  0.71875000000000000       0.43750000000000000        0.0000000000000000     
  0.75000000000000000       0.43750000000000000        0.0000000000000000     
  0.62500000000000000       0.46875000000000000        0.0000000000000000     
  0.65625000000000000       0.46875000000000000        0.0000000000000000     
  0.68750000000000000       0.46875000000000000        0.0000000000000000     
  0.71875000000000000       0.46875000000000000        0.0000000000000000     
  0.75000000000000000       0.46875000000000000        0.0000000000000000     
  0.62500000000000000       0.50000000000000000        0.0000000000000000     
  0.65625000000000000       0.50000000000000000        0.0000000000000000     
  0.68750000000000000       0.50000000000000000        0.0000000000000000     
  0.71875000000000000       0.50000000000000000        0.0000000000000000     
  0.75000000000000000       0.50000000000000000        0.0000000000000000     
  0.75000000000000000       0.37500000000000000        0.0000000000000000     
  0.78125000000000000       0.37500000000000000        0.0000000000000000     
  0.81250000000000000       0.37500000000000000        0.0000000000000000     
  0.84375000000000000       0.37500000000000000        0.0000000000000000     
  0.87500000000000000       0.37500000000000000        0.0000000000000000     
  0.75000000000000000       0.40625000000000000        0.0000000000000000     
  0.78125000000000000       0.40625000000000000        0.0000000000000000     
  0.81250000000000000       0.40625000000000000        0.0000000000000000     
  0.84375000000000000       0.40625000000000000        0.0000000000000000     
  0.87500000000000000       0.40625000000000000        0.0000000000000000     
  0.75000000000000000       0.43750000000000000        0.0000000000000000     
  0.78125000000000000       0.43750000000000000        0.0000000000000000     
  0.81250000000000000       0.43750000000000000        0.0000000000000000     
  0.84375000000000000       0.43750000000000000        0.0000000000000000     
  0.87500000000000000       0.43750000000000000        0.0000000000000000     
  0.75000000000000000       0.46875000000000000        0.0000000000000000     
  0.78125000000000000       0.46875000000000000        0.0000000000000000     
  0.81250000000000000       0.46875000000000000        0.0000000000000000     
  0.84375000000000000       0.46875000000000000        0.0000000000000000     
  0.87500000000000000       0.46875000000000000        0.0000000000000000     
  0.75000000000000000       0.50000000000000000        0.0000000000000000     
  0.78125000000000000       0.50000000000000000        0.0000000000000000     
  0.81250000000000000       0.50000000000000000        0.0000000000000000     
  0.84375000000000000       0.50000000000000000        0.0000000000000000     
  0.87500000000000000       0.50000000000000000        0.0000000000000000     
  0.87500000000000000       0.37500000000000000        0.0000000000000000     
  0.90625000000000000       0.37500000000000000        0.0000000000000000     
  0.93750000000000000       0.37500000000000000        0.0000000000000000     
  0.96875000000000000       0.37500000000000000        0.0000000000000000     
   1.0000000000000000       0.37500000000000000        0.0000000000000000     
  0.87500000000000000       0.40625000000000000        0.0000000000000000     
  0.90625000000000000       0.40625000000000000        0.0000000000000000     
  0.93750000000000000       0.40625000000000000        0.0000000000000000     
  0.96875000000000000       0.40625000000000000        0.0000000000000000     
   1.0000000000000000       0.40625000000000000        0.0000000000000000     
  0.87500000000000000       0.43750000000000000        0.0000000000000000     
  0.90625000000000000       0.43750000000000000        0.0000000000000000     
  0.93750000000000000       0.43750000000000000        0.0000000000000000     
  0.96875000000000000       0.43750000000000000        0.0000000000000000     
   1.0000000000000000       0.43750000000000000        0.0000000000000000     
  0.87500000000000000       0.46875000000000000        0.0000000000000000     
  0.90625000000000000       0.46875000000000000        0.0000000000000000     
  0.93750000000000000       0.46875000000000000        0.0000000000000000     
  0.96875000000000000       0.46875000000000000        0.0000000000000000     
   1.0000000000000000       0.46875000000000000        0.0000000000000000     
  0.87500000000000000       0.50000000000000000        0.0000000000000000     
  0.90625000000000000       0.50000000000000000        0.0000000000000000     
  0.93750000000000000       0.50000000000000000        0.0000000000000000     
  0.96875000000000000       0.50000000000000000        0.0000000000000000     
   1.0000000000000000       0.50000000000000000        0.0000000000000000     
   0.0000000000000000       0.50000000000000000        0.0000000000000000     
   3.1250000000000000E-002  0.50000000000000000        0.0000000000000000     
   6.2500000000000000E-002  0.50000000000000000        0.0000000000000000     
   9.3750000000000000E-002  0.50000000000000000        0.0000000000000000     
  0.12500000000000000       0.50000000000000000        0.0000000000000000     
   0.0000000000000000       0.53125000000000000        0.0000000000000000     
   3.1250000000000000E-002  0.53125000000000000        0.0000000000000000     
   6.2500000000000000E-002  0.53125000000000000        0.0000000000000000     
   9.3750000000000000E-002  0.53125000000000000        0.0000000000000000     
  0.12500000000000000       0.53125000000000000        0.0000000000000000     
   0.0000000000000000       0.56250000000000000        0.0000000000000000     
   3.1250000000000000E-002  0.56250000000000000        0.0000000000000000     
   6.2500000000000000E-002  0.56250000000000000        0.0000000000000000     
   9.3750000000000000E-002  0.56250000000000000        0.0000000000000000     
  0.12500000000000000       0.56250000000000000        0.0000000000000000     
   0.0000000000000000       0.59375000000000000        0.0000000000000000     
   3.1250000000000000E-002  0.59375000000000000        0.0000000000000000     
   6.2500000000000000E-002  0.59375000000000000        0.0000000000000000     
   9.3750000000000000E-002  0.59375000000000000        0.0000000000000000     
  0.12500000000000000       0.59375000000000000        0.0000000000000000     
   0.0000000000000000       0.62500000000000000        0.0000000000000000     
   3.1250000000000000E-002  0.62500000000000000        0.0000000000000000     
   6.2500000000000000E-002  0.62500000000000000        0.0000000000000000     
   9.3750000000000000E-002  0.62500000000000000        0.0000000000000000     
  0.12500000000000000       0.62500000000000000        0.0000000000000000     
  0.12500000000000000       0.50000000000000000        0.0000000000000000     
  0.15625000000000000       0.50000000000000000        0.0000000000000000     
  0.18750000000000000       0.50000000000000000        0.0000000000000000     
  0.21875000000000000       0.50000000000000000        0.0000000000000000     
  0.25000000000000000       0.50000000000000000        0.0000000000000000     
  0.12500000000000000       0.53125000000000000        0.0000000000000000     
  0.15625000000000000       0.53125000000000000        0.0000000000000000     
  0.18750000000000000       0.53125000000000000        0.0000000000000000     
  0.21875000000000000       0.53125000000000000        0.0000000000000000     
  0.25000000000000000       0.53125000000000000        0.0000000000000000     
  0.12500000000000000       0.56250000000000000        0.0000000000000000     
  0.15625000000000000       0.56250000000000000        0.0000000000000000     
  0.18750000000000000       0.56250000000000000        0.0000000000000000     
  0.21875000000000000       0.56250000000000000        0.0000000000000000     
  0.25000000000000000       0.56250000000000000        0.0000000000000000     
  0.12500000000000000       0.59375000000000000        0.0000000000000000     
  0.15625000000000000       0.59375000000000000        0.0000000000000000     
  0.18750000000000000       0.59375000000000000        0.0000000000000000     
  0.21875000000000000       0.59375000000000000        0.0000000000000000     
  0.25000000000000000       0.59375000000000000        0.0000000000000000     
  0.12500000000000000       0.62500000000000000        0.0000000000000000     
  0.15625000000000000       0.62500000000000000        0.0000000000000000     
  0.18750000000000000       0.62500000000000000        0.0000000000000000     
  0.21875000000000000       0.62500000000000000        0.0000000000000000     
  0.25000000000000000       0.62500000000000000        0.0000000000000000     
  0.25000000000000000       0.50000000000000000        0.0000000000000000     
  0.28125000000000000       0.50000000000000000        0.0000000000000000     
  0.31250000000000000       0.50000000000000000        0.0000000000000000     
  0.34375000000000000       0.50000000000000000        0.0000000000000000     
  0.37500000000000000       0.50000000000000000        0.0000000000000000     
  0.25000000000000000       0.53125000000000000        0.0000000000000000     
  0.28125000000000000       0.53125000000000000        0.0000000000000000     
  0.31250000000000000       0.53125000000000000        0.0000000000000000     
  0.34375000000000000       0.53125000000000000        0.0000000000000000     
  0.37500000000000000       0.53125000000000000        0.0000000000000000     
  0.25000000000000000       0.56250000000000000        0.0000000000000000     
  0.28125000000000000       0.56250000000000000        0.0000000000000000     
  0.31250000000000000       0.56250000000000000        0.0000000000000000     
  0.34375000000000000       0.56250000000000000        0.0000000000000000     
  0.37500000000000000       0.56250000000000000        0.0000000000000000     
  0.25000000000000000       0.59375000000000000        0.0000000000000000     
  0.28125000000000000       0.59375000000000000        0.0000000000000000     
  0.31250000000000000       0.59375000000000000        0.0000000000000000     
  0.34375000000000000       0.59375000000000000        0.0000000000000000     
  0.37500000000000000       0.59375000000000000        0.0000000000000000     
  0.25000000000000000       0.62500000000000000        0.0000000000000000     
  0.28125000000000000       0.62500000000000000        0.0000000000000000     
  0.31250000000000000       0.62500000000000000        0.0000000000000000     
  0.34375000000000000       0.62500000000000000        0.0000000000000000     
  0.37500000000000000       0.62500000000000000        0.0000000000000000     
  0.37500000000000000       0.50000000000000000        0.0000000000000000     
  0.40625000000000000       0.50000000000000000        0.0000000000000000     
  0.43750000000000000       0.50000000000000000        0.0000000000000000     
  0.46875000000000000       0.50000000000000000        0.0000000000000000     
  0.50000000000000000       0.50000000000000000        0.0000000000000000     
  0.37500000000000000       0.53125000000000000        0.0000000000000000     
  0.40625000000000000       0.53125000000000000        0.0000000000000000     
  0.43750000000000000       0.53125000000000000        0.0000000000000000     
  0.46875000000000000       0.53125000000000000        0.0000000000000000     
  0.50000000000000000       0.53125000000000000        0.0000000000000000     
  0.37500000000000000       0.56250000000000000        0.0000000000000000     
  0.40625000000000000       0.56250000000000000        0.0000000000000000     
  0.43750000000000000       0.56250000000000000        0.0000000000000000     
  0.46875000000000000       0.56250000000000000        0.0000000000000000     
  0.50000000000000000       0.56250000000000000        0.0000000000000000     
  0.37500000000000000       0.59375000000000000        0.0000000000000000     
  0.40625000000000000       0.59375000000000000        0.0000000000000000     
  0.43750000000000000       0.59375000000000000        0.0000000000000000     
  0.46875000000000000       0.59375000000000000        0.0000000000000000     
  0.50000000000000000       0.59375000000000000        0.0000000000000000     
  0.37500000000000000       0.62500000000000000        0.0000000000000000     
  0.40625000000000000       0.62500000000000000        0.0000000000000000     
  0.43750000000000000       0.62500000000000000        0.0000000000000000     
  0.46875000000000000       0.62500000000000000        0.0000000000000000     
  0.50000000000000000       0.62500000000000000        0.0000000000000000     
  0.50000000000000000       0.50000000000000000        0.0000000000000000     
  0.53125000000000000       0.50000000000000000        0.0000000000000000     
  0.56250000000000000       0.50000000000000000        0.0000000000000000     
  0.59375000000000000       0.50000000000000000        0.0000000000000000     
  0.62500000000000000       0.50000000000000000        0.0000000000000000     
  0.50000000000000000       0.53125000000000000        0.0000000000000000     
  0.53125000000000000       0.53125000000000000        0.0000000000000000     
  0.56250000000000000       0.53125000000000000        0.0000000000000000     
  0.59375000000000000       0.53125000000000000        0.0000000000000000     
  0.62500000000000000       0.53125000000000000        0.0000000000000000     
  0.50000000000000000       0.56250000000000000        0.0000000000000000     
  0.53125000000000000       0.56250000000000000        0.0000000000000000     
  0.56250000000000000       0.56250000000000000        0.0000000000000000     
  0.59375000000000000       0.56250000000000000        0.0000000000000000     
  0.62500000000000000       0.56250000000000000        0.0000000000000000     
  0.50000000000000000       0.59375000000000000        0.0000000000000000     
  0.53125000000000000       0.59375000000000000        0.0000000000000000     
  0.56250000000000000       0.59375000000000000        0.0000000000000000     
  0.59375000000000000       0.59375000000000000        0.0000000000000000     
  0.62500000000000000       0.59375000000000000        0.0000000000000000     
  0.50000000000000000       0.62500000000000000        0.0000000000000000     
  0.53125000000000000       0.62500000000000000        0.0000000000000000     
  0.56250000000000000       0.62500000000000000        0.0000000000000000     
  0.59375000000000000       0.62500000000000000        0.0000000000000000     
  0.62500000000000000       0.62500000000000000        0.0000000000000000     
  0.62500000000000000       0.50000000000000000        0.0000000000000000     
  0.65625000000000000       0.50000000000000000        0.0000000000000000     
  0.68750000000000000       0.50000000000000000        0.0000000000000000     
  0.71875000000000000       0.50000000000000000        0.0000000000000000     
  0.75000000000000000       0.50000000000000000        0.0000000000000000     
  0.62500000000000000       0.53125000000000000        0.0000000000000000     
  0.65625000000000000       0.53125000000000000        0.0000000000000000     
  0.68750000000000000       0.53125000000000000        0.0000000000000000     
  0.71875000000000000       0.53125000000000000        0.0000000000000000     
  0.75000000000000000       0.53125000000000000        0.0000000000000000     
  0.62500000000000000       0.56250000000000000        0.0000000000000000     
  0.65625000000000000       0.56250000000000000        0.0000000000000000     
  0.68750000000000000       0.56250000000000000        0.0000000000000000     
  0.71875000000000000       0.56250000000000000        0.0000000000000000     
  0.75000000000000000       0.56250000000000000        0.0000000000000000     
  0.62500000000000000       0.59375000000000000        0.0000000000000000     
  0.65625000000000000       0.59375000000000000        0.0000000000000000     
  0.68750000000000000       0.59375000000000000        0.0000000000000000     
  0.71875000000000000       0.59375000000000000        0.0000000000000000     
  0.75000000000000000       0.59375000000000000        0.0000000000000000     
  0.62500000000000000       0.62500000000000000        0.0000000000000000     
  0.65625000000000000       0.62500000000000000        0.0000000000000000     
  0.68750000000000000       0.62500000000000000        0.0000000000000000     
  0.71875000000000000       0.62500000000000000        0.0000000000000000     
  0.75000000000000000       0.62500000000000000        0.0000000000000000     
  0.75000000000000000       0.50000000000000000        0.0000000000000000     
  0.78125000000000000       0.50000000000000000        0.0000000000000000     
  0.81250000000000000       0.50000000000000000        0.0000000000000000     
  0.84375000000000000       0.50000000000000000        0.0000000000000000     
  0.87500000000000000       0.50000000000000000        0.0000000000000000     
  0.75000000000000000       0.53125000000000000        0.0000000000000000     
  0.78125000000000000       0.53125000000000000        0.0000000000000000     
  0.81250000000000000       0.53125000000000000        0.0000000000000000     
  0.84375000000000000       0.53125000000000000        0.0000000000000000     
  0.87500000000000000       0.53125000000000000        0.0000000000000000     
  0.75000000000000000       0.56250000000000000        0.0000000000000000     
  0.78125000000000000       0.56250000000000000        0.0000000000000000     
  0.81250000000000000       0.56250000000000000        0.0000000000000000     
  0.84375000000000000       0.56250000000000000        0.0000000000000000     
  0.87500000000000000       0.56250000000000000        0.0000000000000000     
  0.75000000000000000       0.59375000000000000        0.0000000000000000     
  0.78125000000000000       0.59375000000000000        0.0000000000000000     
  0.81250000000000000       0.59375000000000000        0.0000000000000000     
  0.84375000000000000       0.59375000000000000        0.0000000000000000     
  0.87500000000000000       0.59375000000000000        0.0000000000000000     
  0.75000000000000000       0.62500000000000000        0.0000000000000000     
  0.78125000000000000       0.62500000000000000        0.0000000000000000     
  0.81250000000000000       0.62500000000000000        0.0000000000000000     
  0.84375000000000000       0.62500000000000000        0.0000000000000000     
  0.87500000000000000       0.62500000000000000        0.0000000000000000     
  0.87500000000000000       0.50000000000000000        0.0000000000000000     
  0.90625000000000000       0.50000000000000000        0.0000000000000000     
  0.93750000000000000       0.50000000000000000        0.0000000000000000     
  0.96875000000000000       0.50000000000000000        0.0000000000000000     
   1.0000000000000000       0.50000000000000000        0.0000000000000000     
  0.87500000000000000       0.53125000000000000        0.0000000000000000     
  0.90625000000000000       0.53125000000000000        0.0000000000000000     
  0.93750000000000000       0.53125000000000000        0.0000000000000000     
  0.96875000000000000       0.53125000000000000        0.0000000000000000     
   1.0000000000000000       0.53125000000000000        0.0000000000000000     
  0.87500000000000000       0.56250000000000000        0.0000000000000000     
  0.90625000000000000       0.56250000000000000        0.0000000000000000     
  0.93750000000000000       0.56250000000000000        0.0000000000000000     
  0.96875000000000000       0.56250000000000000        0.0000000000000000     
   1.0000000000000000       0.56250000000000000        0.0000000000000000     
  0.87500000000000000       0.59375000000000000        0.0000000000000000     
  0.90625000000000000       0.59375000000000000        0.0000000000000000     
  0.93750000000000000       0.59375000000000000        0.0000000000000000     
  0.96875000000000000       0.59375000000000000        0.0000000000000000     
   1.0000000000000000       0.59375000000000000        0.0000000000000000     
  0.87500000000000000       0.62500000000000000        0.0000000000000000     
  0.90625000000000000       0.62500000000000000        0.0000000000000000     
  0.93750000000000000       0.62500000000000000        0.0000000000000000     
  0.96875000000000000       0.62500000000000000        0.0000000000000000     
   1.0000000000000000       0.62500000000000000        0.0000000000000000     
   0.0000000000000000       0.62500000000000000        0.0000000000000000     
   3.1250000000000000E-002  0.62500000000000000        0.0000000000000000     
   6.2500000000000000E-002  0.62500000000000000        0.0000000000000000     
   9.3750000000000000E-002  0.62500000000000000        0.0000000000000000     
  0.12500000000000000       0.62500000000000000        0.0000000000000000     
   0.0000000000000000       0.65625000000000000        0.0000000000000000     
   3.1250000000000000E-002  0.65625000000000000        0.0000000000000000     
   6.2500000000000000E-002  0.65625000000000000        0.0000000000000000     
   9.3750000000000000E-002  0.65625000000000000        0.0000000000000000     
  0.12500000000000000       0.65625000000000000        0.0000000000000000     
   0.0000000000000000       0.68750000000000000        0.0000000000000000     
   3.1250000000000000E-002  0.68750000000000000        0.0000000000000000     
   6.2500000000000000E-002  0.68750000000000000        0.0000000000000000     
   9.3750000000000000E-002  0.68750000000000000        0.0000000000000000     
  0.12500000000000000       0.68750000000000000        0.0000000000000000     
   0.0000000000000000       0.71875000000000000        0.0000000000000000     
   3.1250000000000000E-002  0.71875000000000000        0.0000000000000000     
   6.2500000000000000E-002  0.71875000000000000        0.0000000000000000     
   9.3750000000000000E-002  0.71875000000000000        0.0000000000000000     
  0.12500000000000000       0.71875000000000000        0.0000000000000000     
   0.0000000000000000       0.75000000000000000        0.0000000000000000     
   3.1250000000000000E-002  0.75000000000000000        0.0000000000000000     
   6.2500000000000000E-002  0.75000000000000000        0.0000000000000000     
   9.3750000000000000E-002  0.75000000000000000        0.0000000000000000     
  0.12500000000000000       0.75000000000000000        0.0000000000000000     
  0.12500000000000000       0.62500000000000000        0.0000000000000000     
  0.15625000000000000       0.62500000000000000        0.0000000000000000     
  0.18750000000000000       0.62500000000000000        0.0000000000000000     
  0.21875000000000000       0.62500000000000000        0.0000000000000000     
  0.25000000000000000       0.62500000000000000        0.0000000000000000     
  0.12500000000000000       0.65625000000000000        0.0000000000000000     
  0.15625000000000000       0.65625000000000000        0.0000000000000000     
  0.18750000000000000       0.65625000000000000        0.0000000000000000     
  0.21875000000000000       0.65625000000000000        0.0000000000000000     
  0.25000000000000000       0.65625000000000000        0.0000000000000000     
  0.12500000000000000       0.68750000000000000        0.0000000000000000     
  0.15625000000000000       0.68750000000000000        0.0000000000000000     
  0.18750000000000000       0.68750000000000000        0.0000000000000000     
  0.21875000000000000       0.68750000000000000        0.0000000000000000     
  0.25000000000000000       0.68750000000000000        0.0000000000000000     
  0.12500000000000000       0.71875000000000000        0.0000000000000000     
  0.15625000000000000       0.71875000000000000        0.0000000000000000     
  0.18750000000000000       0.71875000000000000        0.0000000000000000     
  0.21875000000000000       0.71875000000000000        0.0000000000000000     
  0.25000000000000000       0.71875000000000000        0.0000000000000000     
  0.12500000000000000       0.75000000000000000        0.0000000000000000     
  0.15625000000000000       0.75000000000000000        0.0000000000000000     
  0.18750000000000000       0.75000000000000000        0.0000000000000000     
  0.21875000000000000       0.75000000000000000        0.0000000000000000     
  0.25000000000000000       0.75000000000000000        0.0000000000000000     
  0.25000000000000000       0.62500000000000000        0.0000000000000000     
  0.28125000000000000       0.62500000000000000        0.0000000000000000     
  0.31250000000000000       0.62500000000000000        0.0000000000000000     
  0.34375000000000000       0.62500000000000000        0.0000000000000000     
  0.37500000000000000       0.62500000000000000        0.0000000000000000     
  0.25000000000000000       0.65625000000000000        0.0000000000000000     
  0.28125000000000000       0.65625000000000000        0.0000000000000000     
  0.31250000000000000       0.65625000000000000        0.0000000000000000     
  0.34375000000000000       0.65625000000000000        0.0000000000000000     
  0.37500000000000000       0.65625000000000000        0.0000000000000000     
  0.25000000000000000       0.68750000000000000        0.0000000000000000     
  0.28125000000000000       0.68750000000000000        0.0000000000000000     
  0.31250000000000000       0.68750000000000000        0.0000000000000000     
  0.34375000000000000       0.68750000000000000        0.0000000000000000     
  0.37500000000000000       0.68750000000000000        0.0000000000000000     
  0.25000000000000000       0.71875000000000000        0.0000000000000000     
  0.28125000000000000       0.71875000000000000        0.0000000000000000     
  0.31250000000000000       0.71875000000000000        0.0000000000000000     
  0.34375000000000000       0.71875000000000000        0.0000000000000000     
  0.37500000000000000       0.71875000000000000        0.0000000000000000     
  0.25000000000000000       0.75000000000000000        0.0000000000000000     
  0.28125000000000000       0.75000000000000000        0.0000000000000000     
  0.31250000000000000       0.75000000000000000        0.0000000000000000     
  0.34375000000000000       0.75000000000000000        0.0000000000000000     
  0.37500000000000000       0.75000000000000000        0.0000000000000000     
  0.37500000000000000       0.62500000000000000        0.0000000000000000     
  0.40625000000000000       0.62500000000000000        0.0000000000000000     
  0.43750000000000000       0.62500000000000000        0.0000000000000000     
  0.46875000000000000       0.62500000000000000        0.0000000000000000     
  0.50000000000000000       0.62500000000000000        0.0000000000000000     
  0.37500000000000000       0.65625000000000000        0.0000000000000000     
  0.40625000000000000       0.65625000000000000        0.0000000000000000     
  0.43750000000000000       0.65625000000000000        0.0000000000000000     
  0.46875000000000000       0.65625000000000000        0.0000000000000000     
  0.50000000000000000       0.65625000000000000        0.0000000000000000     
  0.37500000000000000       0.68750000000000000        0.0000000000000000     
  0.40625000000000000       0.68750000000000000        0.0000000000000000     
  0.43750000000000000       0.68750000000000000        0.0000000000000000     
  0.46875000000000000       0.68750000000000000        0.0000000000000000     
  0.50000000000000000       0.68750000000000000        0.0000000000000000     
  0.37500000000000000       0.71875000000000000        0.0000000000000000     
  0.40625000000000000       0.71875000000000000        0.0000000000000000     
  0.43750000000000000       0.71875000000000000        0.0000000000000000     
  0.46875000000000000       0.71875000000000000        0.0000000000000000     
  0.50000000000000000       0.71875000000000000        0.0000000000000000     
  0.37500000000000000       0.75000000000000000        0.0000000000000000     
  0.40625000000000000       0.75000000000000000        0.0000000000000000     
  0.43750000000000000       0.75000000000000000        0.0000000000000000     
  0.46875000000000000       0.75000000000000000        0.0000000000000000     
  0.50000000000000000       0.75000000000000000        0.0000000000000000     
  0.50000000000000000       0.62500000000000000        0.0000000000000000     
  0.53125000000000000       0.62500000000000000        0.0000000000000000     
  0.56250000000000000       0.62500000000000000        0.0000000000000000     
  0.59375000000000000       0.62500000000000000        0.0000000000000000     
  0.62500000000000000       0.62500000000000000        0.0000000000000000     
  0.50000000000000000       0.65625000000000000        0.0000000000000000     
  0.53125000000000000       0.65625000000000000        0.0000000000000000     
  0.56250000000000000       0.65625000000000000        0.0000000000000000     
  0.59375000000000000       0.65625000000000000        0.0000000000000000     
  0.62500000000000000       0.65625000000000000        0.0000000000000000     
  0.50000000000000000       0.68750000000000000        0.0000000000000000     
  0.53125000000000000       0.68750000000000000        0.0000000000000000     
  0.56250000000000000       0.68750000000000000        0.0000000000000000     
  0.59375000000000000       0.68750000000000000        0.0000000000000000     
  0.62500000000000000       0.68750000000000000        0.0000000000000000     
  0.50000000000000000       0.71875000000000000        0.0000000000000000     
  0.53125000000000000       0.71875000000000000        0.0000000000000000     
  0.56250000000000000       0.71875000000000000        0.0000000000000000     
  0.59375000000000000       0.71875000000000000        0.0000000000000000     
  0.62500000000000000       0.71875000000000000        0.0000000000000000     
  0.50000000000000000       0.75000000000000000        0.0000000000000000     
  0.53125000000000000       0.75000000000000000        0.0000000000000000     
  0.56250000000000000       0.75000000000000000        0.0000000000000000     
  0.59375000000000000       0.75000000000000000        0.0000000000000000     
  0.62500000000000000       0.75000000000000000        0.0000000000000000     
  0.62500000000000000       0.62500000000000000        0.0000000000000000     
  0.65625000000000000       0.62500000000000000        0.0000000000000000     
  0.68750000000000000       0.62500000000000000        0.0000000000000000     
  0.71875000000000000       0.62500000000000000        0.0000000000000000     
  0.75000000000000000       0.62500000000000000        0.0000000000000000     
  0.62500000000000000       0.65625000000000000        0.0000000000000000     
  0.65625000000000000       0.65625000000000000        0.0000000000000000     
  0.68750000000000000       0.65625000000000000        0.0000000000000000     
  0.71875000000000000       0.65625000000000000        0.0000000000000000     
  0.75000000000000000       0.65625000000000000        0.0000000000000000     
  0.62500000000000000       0.68750000000000000        0.0000000000000000     
  0.65625000000000000       0.68750000000000000        0.0000000000000000     
  0.68750000000000000       0.68750000000000000        0.0000000000000000     
  0.71875000000000000       0.68750000000000000        0.0000000000000000     
  0.75000000000000000       0.68750000000000000        0.0000000000000000     
  0.62500000000000000       0.71875000000000000        0.0000000000000000     
  0.65625000000000000       0.71875000000000000        0.0000000000000000     
  0.68750000000000000       0.71875000000000000        0.0000000000000000     
  0.71875000000000000       0.71875000000000000        0.0000000000000000     
  0.75000000000000000       0.71875000000000000        0.0000000000000000     
  0.62500000000000000       0.75000000000000000        0.0000000000000000     
  0.65625000000000000       0.75000000000000000        0.0000000000000000     
  0.68750000000000000       0.75000000000000000        0.0000000000000000     
  0.71875000000000000       0.75000000000000000        0.0000000000000000     
  0.75000000000000000       0.75000000000000000        0.0000000000000000     
  0.75000000000000000       0.62500000000000000        0.0000000000000000     
  0.78125000000000000       0.62500000000000000        0.0000000000000000     
  0.81250000000000000       0.62500000000000000        0.0000000000000000     
  0.84375000000000000       0.62500000000000000        0.0000000000000000     
  0.87500000000000000       0.62500000000000000        0.0000000000000000     
  0.75000000000000000       0.65625000000000000        0.0000000000000000     
  0.78125000000000000       0.65625000000000000        0.0000000000000000     
  0.81250000000000000       0.65625000000000000        0.0000000000000000     
  0.84375000000000000       0.65625000000000000        0.0000000000000000     
  0.87500000000000000       0.65625000000000000        0.0000000000000000     
  0.75000000000000000       0.68750000000000000        0.0000000000000000     
  0.78125000000000000       0.68750000000000000        0.0000000000000000     
  0.81250000000000000       0.68750000000000000        0.0000000000000000     
  0.84375000000000000       0.68750000000000000        0.0000000000000000     
  0.87500000000000000       0.68750000000000000        0.0000000000000000     
  0.75000000000000000       0.71875000000000000        0.0000000000000000     
  0.78125000000000000       0.71875000000000000        0.0000000000000000     
  0.81250000000000000       0.71875000000000000        0.0000000000000000     
  0.84375000000000000       0.71875000000000000        0.0000000000000000     
  0.87500000000000000       0.71875000000000000        0.0000000000000000     
  0.75000000000000000       0.75000000000000000        0.0000000000000000     
  0.78125000000000000       0.75000000000000000        0.0000000000000000     
  0.81250000000000000       0.75000000000000000        0.0000000000000000     
  0.84375000000000000       0.75000000000000000        0.0000000000000000     
  0.87500000000000000       0.75000000000000000        0.0000000000000000     
  0.87500000000000000       0.62500000000000000        0.0000000000000000     
  0.90625000000000000       0.62500000000000000        0.0000000000000000     
  0.93750000000000000       0.62500000000000000        0.0000000000000000     
  0.96875000000000000       0.62500000000000000        0.0000000000000000     
   1.0000000000000000       0.62500000000000000        0.0000000000000000     
  0.87500000000000000       0.65625000000000000        0.0000000000000000     
  0.90625000000000000       0.65625000000000000        0.0000000000000000     
  0.93750000000000000       0.65625000000000000        0.0000000000000000     
  0.96875000000000000       0.65625000000000000        0.0000000000000000     
   1.0000000000000000       0.65625000000000000        0.0000000000000000     
  0.87500000000000000       0.68750000000000000        0.0000000000000000     
  0.90625000000000000       0.68750000000000000        0.0000000000000000     
  0.93750000000000000       0.68750000000000000        0.0000000000000000     
  0.96875000000000000       0.68750000000000000        0.0000000000000000     
   1.0000000000000000       0.68750000000000000        0.0000000000000000     
  0.87500000000000000       0.71875000000000000        0.0000000000000000     
  0.90625000000000000       0.71875000000000000        0.0000000000000000     
  0.93750000000000000       0.71875000000000000        0.0000000000000000     
  0.96875000000000000       0.71875000000000000        0.0000000000000000     
   1.0000000000000000       0.71875000000000000        0.0000000000000000     
  0.87500000000000000       0.75000000000000000        0.0000000000000000     
  0.90625000000000000       0.75000000000000000        0.0000000000000000     
  0.93750000000000000       0.75000000000000000        0.0000000000000000     
  0.96875000000000000       0.75000000000000000        0.0000000000000000     
   1.0000000000000000       0.75000000000000000        0.0000000000000000     
   0.0000000000000000       0.75000000000000000        0.0000000000000000     
   3.1250000000000000E-002  0.75000000000000000        0.0000000000000000     
   6.2500000000000000E-002  0.75000000000000000        0.0000000000000000     
   9.3750000000000000E-002  0.75000000000000000        0.0000000000000000     
  0.12500000000000000       0.75000000000000000        0.0000000000000000     
   0.0000000000000000       0.78125000000000000        0.0000000000000000     
   3.1250000000000000E-002  0.78125000000000000        0.0000000000000000     
   6.2500000000000000E-002  0.78125000000000000        0.0000000000000000     
   9.3750000000000000E-002  0.78125000000000000        0.0000000000000000     
  0.12500000000000000       0.78125000000000000        0.0000000000000000     
   0.0000000000000000       0.81250000000000000        0.0000000000000000     
   3.1250000000000000E-002  0.81250000000000000        0.0000000000000000     
   6.2500000000000000E-002  0.81250000000000000        0.0000000000000000     
   9.3750000000000000E-002  0.81250000000000000        0.0000000000000000     
  0.12500000000000000       0.81250000000000000        0.0000000000000000     
   0.0000000000000000       0.84375000000000000        0.0000000000000000     
   3.1250000000000000E-002  0.84375000000000000        0.0000000000000000     
   6.2500000000000000E-002  0.84375000000000000        0.0000000000000000     
   9.3750000000000000E-002  0.84375000000000000        0.0000000000000000     
  0.12500000000000000       0.84375000000000000        0.0000000000000000     
   0.0000000000000000       0.87500000000000000        0.0000000000000000     
   3.1250000000000000E-002  0.87500000000000000        0.0000000000000000     
   6.2500000000000000E-002  0.87500000000000000        0.0000000000000000     
   9.3750000000000000E-002  0.87500000000000000        0.0000000000000000     
  0.12500000000000000       0.87500000000000000        0.0000000000000000     
  0.12500000000000000       0.75000000000000000        0.0000000000000000     
  0.15625000000000000       0.75000000000000000        0.0000000000000000     
  0.18750000000000000       0.75000000000000000        0.0000000000000000     
  0.21875000000000000       0.75000000000000000        0.0000000000000000     
  0.25000000000000000       0.75000000000000000        0.0000000000000000     
  0.12500000000000000       0.78125000000000000        0.0000000000000000     
  0.15625000000000000       0.78125000000000000        0.0000000000000000     
  0.18750000000000000       0.78125000000000000        0.0000000000000000     
  0.21875000000000000       0.78125000000000000        0.0000000000000000     
  0.25000000000000000       0.78125000000000000        0.0000000000000000     
  0.12500000000000000       0.81250000000000000        0.0000000000000000     
  0.15625000000000000       0.81250000000000000        0.0000000000000000     
  0.18750000000000000       0.81250000000000000        0.0000000000000000     
  0.21875000000000000       0.81250000000000000        0.0000000000000000     
  0.25000000000000000       0.81250000000000000        0.0000000000000000     
  0.12500000000000000       0.84375000000000000        0.0000000000000000     
  0.15625000000000000       0.84375000000000000        0.0000000000000000     
  0.18750000000000000       0.84375000000000000        0.0000000000000000     
  0.21875000000000000       0.84375000000000000        0.0000000000000000     
  0.25000000000000000       0.84375000000000000        0.0000000000000000     
  0.12500000000000000       0.87500000000000000        0.0000000000000000     
  0.15625000000000000       0.87500000000000000        0.0000000000000000     
  0.18750000000000000       0.87500000000000000        0.0000000000000000     
  0.21875000000000000       0.87500000000000000        0.0000000000000000     
  0.25000000000000000       0.87500000000000000        0.0000000000000000     
  0.25000000000000000       0.75000000000000000        0.0000000000000000     
  0.28125000000000000       0.75000000000000000        0.0000000000000000     
  0.31250000000000000       0.75000000000000000        0.0000000000000000     
  0.34375000000000000       0.75000000000000000        0.0000000000000000     
  0.37500000000000000       0.75000000000000000        0.0000000000000000     
  0.25000000000000000       0.78125000000000000        0.0000000000000000     
  0.28125000000000000       0.78125000000000000        0.0000000000000000     
  0.31250000000000000       0.78125000000000000        0.0000000000000000     
  0.34375000000000000       0.78125000000000000        0.0000000000000000     
  0.37500000000000000       0.78125000000000000        0.0000000000000000     
  0.25000000000000000       0.81250000000000000        0.0000000000000000     
  0.28125000000000000       0.81250000000000000        0.0000000000000000     
  0.31250000000000000       0.81250000000000000        0.0000000000000000     
  0.34375000000000000       0.81250000000000000        0.0000000000000000     
  0.37500000000000000       0.81250000000000000        0.0000000000000000     
  0.25000000000000000       0.84375000000000000        0.0000000000000000     
  0.28125000000000000       0.84375000000000000        0.0000000000000000     
  0.31250000000000000       0.84375000000000000        0.0000000000000000     
  0.34375000000000000       0.84375000000000000        0.0000000000000000     
  0.37500000000000000       0.84375000000000000        0.0000000000000000     
  0.25000000000000000       0.87500000000000000        0.0000000000000000     
  0.28125000000000000       0.87500000000000000        0.0000000000000000     
  0.31250000000000000       0.87500000000000000        0.0000000000000000     
  0.34375000000000000       0.87500000000000000        0.0000000000000000     
  0.37500000000000000       0.87500000000000000        0.0000000000000000     
  0.37500000000000000       0.75000000000000000        0.0000000000000000     
  0.40625000000000000       0.75000000000000000        0.0000000000000000     
  0.43750000000000000       0.75000000000000000        0.0000000000000000     
  0.46875000000000000       0.75000000000000000        0.0000000000000000     
  0.50000000000000000       0.75000000000000000        0.0000000000000000     
  0.37500000000000000       0.78125000000000000        0.0000000000000000     
  0.40625000000000000       0.78125000000000000        0.0000000000000000     
  0.43750000000000000       0.78125000000000000        0.0000000000000000     
  0.46875000000000000       0.78125000000000000        0.0000000000000000     
  0.50000000000000000       0.78125000000000000        0.0000000000000000     
  0.37500000000000000       0.81250000000000000        0.0000000000000000     
  0.40625000000000000       0.81250000000000000        0.0000000000000000     
  0.43750000000000000       0.81250000000000000        0.0000000000000000     
  0.46875000000000000       0.81250000000000000        0.0000000000000000     
  0.50000000000000000       0.81250000000000000        0.0000000000000000     
  0.37500000000000000       0.84375000000000000        0.0000000000000000     
  0.40625000000000000       0.84375000000000000        0.0000000000000000     
  0.43750000000000000       0.84375000000000000        0.0000000000000000     
  0.46875000000000000       0.84375000000000000        0.0000000000000000     
  0.50000000000000000       0.84375000000000000        0.0000000000000000     
  0.37500000000000000       0.87500000000000000        0.0000000000000000     
  0.40625000000000000       0.87500000000000000        0.0000000000000000     
  0.43750000000000000       0.87500000000000000        0.0000000000000000     
  0.46875000000000000       0.87500000000000000        0.0000000000000000     
  0.50000000000000000       0.87500000000000000        0.0000000000000000     
  0.50000000000000000       0.75000000000000000        0.0000000000000000     
  0.53125000000000000       0.75000000000000000        0.0000000000000000     
  0.56250000000000000       0.75000000000000000        0.0000000000000000     
  0.59375000000000000       0.75000000000000000        0.0000000000000000     
  0.62500000000000000       0.75000000000000000        0.0000000000000000     
  0.50000000000000000       0.78125000000000000        0.0000000000000000     
  0.53125000000000000       0.78125000000000000        0.0000000000000000     
  0.56250000000000000       0.78125000000000000        0.0000000000000000     
  0.59375000000000000       0.78125000000000000        0.0000000000000000     
  0.62500000000000000       0.78125000000000000        0.0000000000000000     
  0.50000000000000000       0.81250000000000000        0.0000000000000000     
  0.53125000000000000       0.81250000000000000        0.0000000000000000     
  0.56250000000000000       0.81250000000000000        0.0000000000000000     
  0.59375000000000000       0.81250000000000000        0.0000000000000000     
  0.62500000000000000       0.81250000000000000        0.0000000000000000     
  0.50000000000000000       0.84375000000000000        0.0000000000000000     
  0.53125000000000000       0.84375000000000000        0.0000000000000000     
  0.56250000000000000       0.84375000000000000        0.0000000000000000     
  0.59375000000000000       0.84375000000000000        0.0000000000000000     
  0.62500000000000000       0.84375000000000000        0.0000000000000000     
  0.50000000000000000       0.87500000000000000        0.0000000000000000     
  0.53125000000000000       0.87500000000000000        0.0000000000000000     
  0.56250000000000000       0.87500000000000000        0.0000000000000000     
  0.59375000000000000       0.87500000000000000        0.0000000000000000     
  0.62500000000000000       0.87500000000000000        0.0000000000000000     
  0.62500000000000000       0.75000000000000000        0.0000000000000000     
  0.65625000000000000       0.75000000000000000        0.0000000000000000     
  0.68750000000000000       0.75000000000000000        0.0000000000000000     
  0.71875000000000000       0.75000000000000000        0.0000000000000000     
  0.75000000000000000       0.75000000000000000        0.0000000000000000     
  0.62500000000000000       0.78125000000000000        0.0000000000000000     
  0.65625000000000000       0.78125000000000000        0.0000000000000000     
  0.68750000000000000       0.78125000000000000        0.0000000000000000     
  0.71875000000000000       0.78125000000000000        0.0000000000000000     
  0.75000000000000000       0.78125000000000000        0.0000000000000000     
  0.62500000000000000       0.81250000000000000        0.0000000000000000     
  0.65625000000000000       0.81250000000000000        0.0000000000000000     
  0.68750000000000000       0.81250000000000000        0.0000000000000000     
  0.71875000000000000       0.81250000000000000        0.0000000000000000     
  0.75000000000000000       0.81250000000000000        0.0000000000000000     
  0.62500000000000000       0.84375000000000000        0.0000000000000000     
  0.65625000000000000       0.84375000000000000        0.0000000000000000     
  0.68750000000000000       0.84375000000000000        0.0000000000000000     
  0.71875000000000000       0.84375000000000000        0.0000000000000000     
  0.75000000000000000       0.84375000000000000        0.0000000000000000     
  0.62500000000000000       0.87500000000000000        0.0000000000000000     
  0.65625000000000000       0.87500000000000000        0.0000000000000000     
  0.68750000000000000       0.87500000000000000        0.0000000000000000     
  0.71875000000000000       0.87500000000000000        0.0000000000000000     
  0.75000000000000000       0.87500000000000000        0.0000000000000000     
  0.75000000000000000       0.75000000000000000        0.0000000000000000     
  0.78125000000000000       0.75000000000000000        0.0000000000000000     
  0.81250000000000000       0.75000000000000000        0.0000000000000000     
  0.84375000000000000       0.75000000000000000        0.0000000000000000     
  0.87500000000000000       0.75000000000000000        0.0000000000000000     
  0.75000000000000000       0.78125000000000000        0.0000000000000000     
  0.78125000000000000       0.78125000000000000        0.0000000000000000     
  0.81250000000000000       0.78125000000000000        0.0000000000000000     
  0.84375000000000000       0.78125000000000000        0.0000000000000000     
  0.87500000000000000       0.78125000000000000        0.0000000000000000     
  0.75000000000000000       0.81250000000000000        0.0000000000000000     
  0.78125000000000000       0.81250000000000000        0.0000000000000000     
  0.81250000000000000       0.81250000000000000        0.0000000000000000     
  0.84375000000000000       0.81250000000000000        0.0000000000000000     
  0.87500000000000000       0.81250000000000000        0.0000000000000000     
  0.75000000000000000       0.84375000000000000        0.0000000000000000     
  0.78125000000000000       0.84375000000000000        0.0000000000000000     
  0.81250000000000000       0.84375000000000000        0.0000000000000000     
  0.84375000000000000       0.84375000000000000        0.0000000000000000     
  0.87500000000000000       0.84375000000000000        0.0000000000000000     
  0.75000000000000000       0.87500000000000000        0.0000000000000000     
  0.78125000000000000       0.87500000000000000        0.0000000000000000     
  0.81250000000000000       0.87500000000000000        0.0000000000000000     
  0.84375000000000000       0.87500000000000000        0.0000000000000000     
  0.87500000000000000       0.87500000000000000        0.0000000000000000     
  0.87500000000000000       0.75000000000000000        0.0000000000000000     
  0.90625000000000000       0.75000000000000000        0.0000000000000000     
  0.93750000000000000       0.75000000000000000        0.0000000000000000     
  0.96875000000000000       0.75000000000000000        0.0000000000000000     
   1.0000000000000000       0.75000000000000000        0.0000000000000000     
  0.87500000000000000       0.78125000000000000        0.0000000000000000     
  0.90625000000000000       0.78125000000000000        0.0000000000000000     
  0.93750000000000000       0.78125000000000000        0.0000000000000000     
  0.96875000000000000       0.78125000000000000        0.0000000000000000     
   1.0000000000000000       0.78125000000000000        0.0000000000000000     
  0.87500000000000000       0.81250000000000000        0.0000000000000000     
  0.90625000000000000       0.81250000000000000        0.0000000000000000     
  0.93750000000000000       0.81250000000000000        0.0000000000000000     
  0.96875000000000000       0.81250000000000000        0.0000000000000000     
   1.0000000000000000       0.81250000000000000        0.0000000000000000     
  0.87500000000000000       0.84375000000000000        0.0000000000000000     
  0.90625000000000000       0.84375000000000000        0.0000000000000000     
  0.93750000000000000       0.84375000000000000        0.0000000000000000     
  0.96875000000000000       0.84375000000000000        0.0000000000000000     
   1.0000000000000000       0.84375000000000000        0.0000000000000000     
  0.87500000000000000       0.87500000000000000        0.0000000000000000     
  0.90625000000000000       0.87500000000000000        0.0000000000000000     
  0.93750000000000000       0.87500000000000000        0.0000000000000000     
  0.96875000000000000       0.87500000000000000        0.0000000000000000     
   1.0000000000000000       0.87500000000000000        0.0000000000000000     
   0.0000000000000000       0.87500000000000000        0.0000000000000000     
   3.1250000000000000E-002  0.87500000000000000        0.0000000000000000     
   6.2500000000000000E-002  0.87500000000000000        0.0000000000000000     
   9.3750000000000000E-002  0.87500000000000000        0.0000000000000000     
  0.12500000000000000       0.87500000000000000        0.0000000000000000     
   0.0000000000000000       0.90625000000000000        0.0000000000000000     
   3.1250000000000000E-002  0.90625000000000000        0.0000000000000000     
   6.2500000000000000E-002  0.90625000000000000        0.0000000000000000     
   9.3750000000000000E-002  0.90625000000000000        0.0000000000000000     
  0.12500000000000000       0.90625000000000000        0.0000000000000000     
   0.0000000000000000       0.93750000000000000        0.0000000000000000     
   3.1250000000000000E-002  0.93750000000000000        0.0000000000000000     
   6.2500000000000000E-002  0.93750000000000000        0.0000000000000000     
   9.3750000000000000E-002  0.93750000000000000        0.0000000000000000     
  0.12500000000000000       0.93750000000000000        0.0000000000000000     
   0.0000000000000000       0.96875000000000000        0.0000000000000000     
   3.1250000000000000E-002  0.96875000000000000        0.0000000000000000     
   6.2500000000000000E-002  0.96875000000000000        0.0000000000000000     
   9.3750000000000000E-002  0.96875000000000000        0.0000000000000000     
  0.12500000000000000       0.96875000000000000        0.0000000000000000     
   0.0000000000000000        1.0000000000000000        0.0000000000000000     
   3.1250000000000000E-002   1.0000000000000000        0.0000000000000000     
   6.2500000000000000E-002   1.0000000000000000        0.0000000000000000     
   9.3750000000000000E-002   1.0000000000000000        0.0000000000000000     
  0.12500000000000000        1.0000000000000000        0.0000000000000000     
  0.12500000000000000       0.87500000000000000        0.0000000000000000     
  0.15625000000000000       0.87500000000000000        0.0000000000000000     
  0.18750000000000000       0.87500000000000000        0.0000000000000000     
  0.21875000000000000       0.87500000000000000        0.0000000000000000     
  0.25000000000000000       0.87500000000000000        0.0000000000000000     
  0.12500000000000000       0.90625000000000000        0.0000000000000000     
  0.15625000000000000       0.90625000000000000        0.0000000000000000     
  0.18750000000000000       0.90625000000000000        0.0000000000000000     
  0.21875000000000000       0.90625000000000000        0.0000000000000000     
  0.25000000000000000       0.90625000000000000        0.0000000000000000     
  0.12500000000000000       0.93750000000000000        0.0000000000000000     
  0.15625000000000000       0.93750000000000000        0.0000000000000000     
  0.18750000000000000       0.93750000000000000        0.0000000000000000     
  0.21875000000000000       0.93750000000000000        0.0000000000000000     
  0.25000000000000000       0.93750000000000000        0.0000000000000000     
  0.12500000000000000       0.96875000000000000        0.0000000000000000     
  0.15625000000000000       0.96875000000000000        0.0000000000000000     
  0.18750000000000000       0.96875000000000000        0.0000000000000000     
  0.21875000000000000       0.96875000000000000        0.0000000000000000     
  0.25000000000000000       0.96875000000000000        0.0000000000000000     
  0.12500000000000000        1.0000000000000000        0.0000000000000000     
  0.15625000000000000        1.0000000000000000        0.0000000000000000     
  0.18750000000000000        1.0000000000000000        0.0000000000000000     
  0.21875000000000000        1.0000000000000000        0.0000000000000000     
  0.25000000000000000        1.0000000000000000        0.0000000000000000     
  0.25000000000000000       0.87500000000000000        0.0000000000000000     
  0.28125000000000000       0.87500000000000000        0.0000000000000000     
  0.31250000000000000       0.87500000000000000        0.0000000000000000     
  0.34375000000000000       0.87500000000000000        0.0000000000000000     
  0.37500000000000000       0.87500000000000000        0.0000000000000000     
  0.25000000000000000       0.90625000000000000        0.0000000000000000     
  0.28125000000000000       0.90625000000000000        0.0000000000000000     
  0.31250000000000000       0.90625000000000000        0.0000000000000000     
  0.34375000000000000       0.90625000000000000        0.0000000000000000     
  0.37500000000000000       0.90625000000000000        0.0000000000000000     
  0.25000000000000000       0.93750000000000000        0.0000000000000000     
  0.28125000000000000       0.93750000000000000        0.0000000000000000     
  0.31250000000000000       0.93750000000000000        0.0000000000000000     
  0.34375000000000000       0.93750000000000000        0.0000000000000000     
  0.37500000000000000       0.93750000000000000        0.0000000000000000     
  0.25000000000000000       0.96875000000000000        0.0000000000000000     
  0.28125000000000000       0.96875000000000000        0.0000000000000000     
  0.31250000000000000       0.96875000000000000        0.0000000000000000     
  0.34375000000000000       0.96875000000000000        0.0000000000000000     
  0.37500000000000000       0.96875000000000000        0.0000000000000000     
  0.25000000000000000        1.0000000000000000        0.0000000000000000     
  0.28125000000000000        1.0000000000000000        0.0000000000000000     
  0.31250000000000000        1.0000000000000000        0.0000000000000000     
  0.34375000000000000        1.0000000000000000        0.0000000000000000     
  0.37500000000000000        1.0000000000000000        0.0000000000000000     
  0.37500000000000000       0.87500000000000000        0.0000000000000000     
  0.40625000000000000       0.87500000000000000        0.0000000000000000     
  0.43750000000000000       0.87500000000000000        0.0000000000000000     
  0.46875000000000000       0.87500000000000000        0.0000000000000000     
  0.50000000000000000       0.87500000000000000        0.0000000000000000     
  0.37500000000000000       0.90625000000000000        0.0000000000000000     
  0.40625000000000000       0.90625000000000000        0.0000000000000000     
  0.43750000000000000       0.90625000000000000        0.0000000000000000     
  0.46875000000000000       0.90625000000000000        0.0000000000000000     
  0.50000000000000000       0.90625000000000000        0.0000000000000000     
  0.37500000000000000       0.93750000000000000        0.0000000000000000     
  0.40625000000000000       0.93750000000000000        0.0000000000000000     
  0.43750000000000000       0.93750000000000000        0.0000000000000000     
  0.46875000000000000       0.93750000000000000        0.0000000000000000     
  0.50000000000000000       0.93750000000000000        0.0000000000000000     
  0.37500000000000000       0.96875000000000000        0.0000000000000000     
  0.40625000000000000       0.96875000000000000        0.0000000000000000     
  0.43750000000000000       0.96875000000000000        0.0000000000000000     
  0.46875000000000000       0.96875000000000000        0.0000000000000000     
  0.50000000000000000       0.96875000000000000        0.0000000000000000     
  0.37500000000000000        1.0000000000000000        0.0000000000000000     
  0.40625000000000000        1.0000000000000000        0.0000000000000000     
  0.43750000000000000        1.0000000000000000        0.0000000000000000     
  0.46875000000000000        1.0000000000000000        0.0000000000000000     
  0.50000000000000000        1.0000000000000000        0.0000000000000000     
  0.50000000000000000       0.87500000000000000        0.0000000000000000     
  0.53125000000000000       0.87500000000000000        0.0000000000000000     
  0.56250000000000000       0.87500000000000000        0.0000000000000000     
  0.59375000000000000       0.87500000000000000        0.0000000000000000     
  0.62500000000000000       0.87500000000000000        0.0000000000000000     
  0.50000000000000000       0.90625000000000000        0.0000000000000000     
  0.53125000000000000       0.90625000000000000        0.0000000000000000     
  0.56250000000000000       0.90625000000000000        0.0000000000000000     
  0.59375000000000000       0.90625000000000000        0.0000000000000000     
  0.62500000000000000       0.90625000000000000        0.0000000000000000     
  0.50000000000000000       0.93750000000000000        0.0000000000000000     
  0.53125000000000000       0.93750000000000000        0.0000000000000000     
  0.56250000000000000       0.93750000000000000        0.0000000000000000     
  0.59375000000000000       0.93750000000000000        0.0000000000000000     
  0.62500000000000000       0.93750000000000000        0.0000000000000000     
  0.50000000000000000       0.96875000000000000        0.0000000000000000     
  0.53125000000000000       0.96875000000000000        0.0000000000000000     
  0.56250000000000000       0.96875000000000000        0.0000000000000000     
  0.59375000000000000       0.96875000000000000        0.0000000000000000     
  0.62500000000000000       0.96875000000000000        0.0000000000000000     
  0.50000000000000000        1.0000000000000000        0.0000000000000000     
  0.53125000000000000        1.0000000000000000        0.0000000000000000     
  0.56250000000000000        1.0000000000000000        0.0000000000000000     
  0.59375000000000000        1.0000000000000000        0.0000000000000000     
  0.62500000000000000        1.0000000000000000        0.0000000000000000     
  0.62500000000000000       0.87500000000000000        0.0000000000000000     
  0.65625000000000000       0.87500000000000000        0.0000000000000000     
  0.68750000000000000       0.87500000000000000        0.0000000000000000     
  0.71875000000000000       0.87500000000000000        0.0000000000000000     
  0.75000000000000000       0.87500000000000000        0.0000000000000000     
  0.62500000000000000       0.90625000000000000        0.0000000000000000     
  0.65625000000000000       0.90625000000000000        0.0000000000000000     
  0.68750000000000000       0.90625000000000000        0.0000000000000000     
  0.71875000000000000       0.90625000000000000        0.0000000000000000     
  0.75000000000000000       0.90625000000000000        0.0000000000000000     
  0.62500000000000000       0.93750000000000000        0.0000000000000000     
  0.65625000000000000       0.93750000000000000        0.0000000000000000     
  0.68750000000000000       0.93750000000000000        0.0000000000000000     
  0.71875000000000000       0.93750000000000000        0.0000000000000000     
  0.75000000000000000       0.93750000000000000        0.0000000000000000     
  0.62500000000000000       0.96875000000000000        0.0000000000000000     
  0.65625000000000000       0.96875000000000000        0.0000000000000000     
  0.68750000000000000       0.96875000000000000        0.0000000000000000     
  0.71875000000000000       0.96875000000000000        0.0000000000000000     
  0.75000000000000000       0.96875000000000000        0.0000000000000000     
  0.62500000000000000        1.0000000000000000        0.0000000000000000     
  0.65625000000000000        1.0000000000000000        0.0000000000000000     
  0.68750000000000000        1.0000000000000000        0.0000000000000000     
  0.71875000000000000        1.0000000000000000        0.0000000000000000     
  0.75000000000000000        1.0000000000000000        0.0000000000000000     
  0.75000000000000000       0.87500000000000000        0.0000000000000000     
  0.78125000000000000       0.87500000000000000        0.0000000000000000     
  0.81250000000000000       0.87500000000000000        0.0000000000000000     
  0.84375000000000000       0.87500000000000000        0.0000000000000000     
  0.87500000000000000       0.87500000000000000        0.0000000000000000     
  0.75000000000000000       0.90625000000000000        0.0000000000000000     
  0.78125000000000000       0.90625000000000000        0.0000000000000000     
  0.81250000000000000       0.90625000000000000        0.0000000000000000     
  0.84375000000000000       0.90625000000000000        0.0000000000000000     
  0.87500000000000000       0.90625000000000000        0.0000000000000000     
  0.75000000000000000       0.93750000000000000        0.0000000000000000     
  0.78125000000000000       0.93750000000000000        0.0000000000000000     
  0.81250000000000000       0.93750000000000000        0.0000000000000000     
  0.84375000000000000       0.93750000000000000        0.0000000000000000     
  0.87500000000000000       0.93750000000000000        0.0000000000000000     
  0.75000000000000000       0.96875000000000000        0.0000000000000000     
  0.78125000000000000       0.96875000000000000        0.0000000000000000     
  0.81250000000000000       0.96875000000000000        0.0000000000000000     
  0.84375000000000000       0.96875000000000000        0.0000000000000000     
  0.87500000000000000       0.96875000000000000        0.0000000000000000     
  0.75000000000000000        1.0000000000000000        0.0000000000000000     
  0.78125000000000000        1.0000000000000000        0.0000000000000000     
  0.81250000000000000        1.0000000000000000        0.0000000000000000     
  0.84375000000000000        1.0000000000000000        0.0000000000000000     
  0.87500000000000000        1.0000000000000000        0.0000000000000000     
  0.87500000000000000       0.87500000000000000        0.0000000000000000     
  0.90625000000000000       0.87500000000000000        0.0000000000000000     
  0.93750000000000000       0.87500000000000000        0.0000000000000000     
  0.96875000000000000       0.87500000000000000        0.0000000000000000     
   1.0000000000000000       0.87500000000000000        0.0000000000000000     
  0.87500000000000000       0.90625000000000000        0.0000000000000000     
  0.90625000000000000       0.90625000000000000        0.0000000000000000     
  0.93750000000000000       0.90625000000000000        0.0000000000000000     
  0.96875000000000000       0.90625000000000000        0.0000000000000000     
   1.0000000000000000       0.90625000000000000        0.0000000000000000     
  0.87500000000000000       0.93750000000000000        0.0000000000000000     
  0.90625000000000000       0.93750000000000000        0.0000000000000000     
  0.93750000000000000       0.93750000000000000        0.0000000000000000     
  0.96875000000000000       0.93750000000000000        0.0000000000000000     
   1.0000000000000000       0.93750000000000000        0.0000000000000000     
  0.87500000000000000       0.96875000000000000        0.0000000000000000     
  0.90625000000000000       0.96875000000000000        0.0000000000000000     
  0.93750000000000000       0.96875000000000000        0.0000000000000000     
  0.96875000000000000       0.96875000000000000        0.0000000000000000     
   1.0000000000000000       0.96875000000000000        0.0000000000000000     
  0.87500000000000000        1.0000000000000000        0.0000000000000000     
  0.90625000000000000        1.0000000000000000        0.0000000000000000     
  0.93750000000000000        1.0000000000000000        0.0000000000000000     
  0.96875000000000000        1.0000000000000000        0.0000000000000000     
   1.0000000000000000        1.0000000000000000        0.0000000000000000     
 </DataArray>
 </Points>
 <Cells>
 <DataArray  type="Int32"  Name="connectivity"  format="ascii">
           0           1           6           5
           1           2           7           6
           2           3           8           7
           3           4           9           8
           5           6          11          10
           6           7          12          11
           7           8          13          12
           8           9          14          13
          10          11          16          15
          11          12          17          16
          12          13          18          17
          13          14          19          18
          15          16          21          20
          16          17          22          21
          17          18          23          22
          18          19          24          23
          25          26          31          30
          26          27          32          31
          27          28          33          32
          28          29          34          33
          30          31          36          35
          31          32          37          36
          32          33          38          37
          33          34          39          38
          35          36          41          40
          36          37          42          41
          37          38          43          42
          38          39          44          43
          40          41          46          45
          41          42          47          46
          42          43          48          47
          43          44          49          48
          50          51          56          55
          51          52          57          56
          52          53          58          57
          53          54          59          58
          55          56          61          60
          56          57          62          61
          57          58          63          62
          58          59          64          63
          60          61          66          65
          61          62          67          66
          62          63          68          67
          63          64          69          68
          65          66          71          70
          66          67          72          71
          67          68          73          72
          68          69          74          73
          75          76          81          80
          76          77          82          81
          77          78          83          82
          78          79          84          83
          80          81          86          85
          81          82          87          86
          82          83          88          87
          83          84          89          88
          85          86          91          90
          86          87          92          91
          87          88          93          92
          88          89          94          93
          90          91          96          95
          91          92          97          96
          92          93          98          97
          93          94          99          98
         100         101         106         105
         101         102         107         106
         102         103         108         107
         103         104         109         108
         105         106         111         110
         106         107         112         111
         107         108         113         112
         108         109         114         113
         110         111         116         115
         111         112         117         116
         112         113         118         117
         113         114         119         118
         115         116         121         120
         116         117         122         121
         117         118         123         122
         118         119         124         123
         125         126         131         130
         126         127         132         131
         127         128         133         132
         128         129         134         133
         130         131         136         135
         131         132         137         136
         132         133         138         137
         133         134         139         138
         135         136         141         140
         136         137         142         141
         137         138         143         142
         138         139         144         143
         140         141         146         145
         141         142         147         146
         142         143         148         147
         143         144         149         148
         150         151         156         155
         151         152         157         156
         152         153         158         157
         153         154         159         158
         155         156         161         160
         156         157         162         161
         157         158         163         162
         158         159         164         163
         160         161         166         165
         161         162         167         166
         162         163         168         167
         163         164         169         168
         165         166         171         170
         166         167         172         171
         167         168         173         172
         168         169         174         173
         175         176         181         180
         176         177         182         181
         177         178         183         182
         178         179         184         183
         180         181         186         185
         181         182         187         186
         182         183         188         187
         183         184         189         188
         185         186         191         190
         186         187         192         191
         187         188         193         192
         188         189         194         193
         190         191         196         195
         191         192         197         196
         192         193         198         197
         193         194         199         198
         200         201         206         205
         201         202         207         206
         202         203         208         207
         203         204         209         208
         205         206         211         210
         206         207         212         211
         207         208         213         212
         208         209         214         213
         210         211         216         215
         211         212         217         216
         212         213         218         217
         213         214         219         218
         215         216         221         220
         216         217         222         221
         217         218         223         222
         218         219         224         223
         225         226         231         230
         226         227         232         231
         227         228         233         232
         228         229         234         233
         230         231         236         235
         231         232         237         236
         232         233         238         237
         233         234         239         238
         235         236         241         240
         236         237         242         241
         237         238         243         242
         238         239         244         243
         240         241         246         245
         241         242         247         246
         242         243         248         247
         243         244         249         248
         250         251         256         255
         251         252         257         256
         252         253         258         257
         253         254         259         258
         255         256         261         260
         256         257         262         261
         257         258         263         262
         258         259         264         263
         260         261         266         265
         261         262         267         266
         262         263         268         267
         263         264         269         268
         265         266         271         270
         266         267         272         271
         267         268         273         272
         268         269         274         273
         275         276         281         280
         276         277         282         281
         277         278         283         282
         278         279         284         283
         280         281         286         285
         281         282         287         286
         282         283         288         287
         283         284         289         288
         285         286         291         290
         286         287         292         291
         287         288         293         292
         288         289         294         293
         290         291         296         295
         291         292         297         296
         292         293         298         297
         293         294         299         298
         300         301         306         305
         301         302         307         306
         302         303         308         307
         303         304         309         308
         305         306         311         310
         306         307         312         311
         307         308         313         312
         308         309         314         313
         310         311         316         315
         311         312         317         316
         312         313         318         317
         313         314         319         318
         315         316         321         320
         316         317         322         321
         317         318         323         322
         318         319         324         323
         325         326         331         330
         326         327         332         331
         327         328         333         332
         328         329         334         333
         330         331         336         335
         331         332         337         336
         332         333         338         337
         333         334         339         338
         335         336         341         340
         336         337         342         341
         337         338         343         342
         338         339         344         343
         340         341         346         345
         341         342         347         346
         342         343         348         347
         343         344         349         348
         350         351         356         355
         351         352         357         356
         352         353         358         357
         353         354         359         358
         355         356         361         360
         356         357         362         361
         357         358         363         362
         358         359         364         363
         360         361         366         365
         361         362         367         366
         362         363         368         367
         363         364         369         368
         365         366         371         370
         366         367         372         371
         367         368         373         372
         368         369         374         373
         375         376         381         380
         376         377         382         381
         377         378         383         382
         378         379         384         383
         380         381         386         385
         381         382         387         386
         382         383         388         387
         383         384         389         388
         385         386         391         390
         386         387         392         391
         387         388         393         392
         388         389         394         393
         390         391         396         395
         391         392         397         396
         392         393         398         397
         393         394         399         398
         400         401         406         405
         401         402         407         406
         402         403         408         407
         403         404         409         408
         405         406         411         410
         406         407         412         411
         407         408         413         412
         408         409         414         413
         410         411         416         415
         411         412         417         416
         412         413         418         417
         413         414         419         418
         415         416         421         420
         416         417         422         421
         417         418         423         422
         418         419         424         423
         425         426         431         430
         426         427         432         431
         427         428         433         432
         428         429         434         433
         430         431         436         435
         431         432         437         436
         432         433         438         437
         433         434         439         438
         435         436         441         440
         436         437         442         441
         437         438         443         442
         438         439         444         443
         440         441         446         445
         441         442         447         446
         442         443         448         447
         443         444         449         448
         450         451         456         455
         451         452         457         456
         452         453         458         457
         453         454         459         458
         455         456         461         460
         456         457         462         461
         457         458         463         462
         458         459         464         463
         460         461         466         465
         461         462         467         466
         462         463         468         467
         463         464         469         468
         465         466         471         470
         466         467         472         471
         467         468         473         472
         468         469         474         473
         475         476         481         480
         476         477         482         481
         477         478         483         482
         478         479         484         483
         480         481         486         485
         481         482         487         486
         482         483         488         487
         483         484         489         488
         485         486         491         490
         486         487         492         491
         487         488         493         492
         488         489         494         493
         490         491         496         495
         491         492         497         496
         492         493         498         497
         493         494         499         498
         500         501         506         505
         501         502         507         506
         502         503         508         507
         503         504         509         508
         505         506         511         510
         506         507         512         511
         507         508         513         512
         508         509         514         513
         510         511         516         515
         511         512         517         516
         512         513         518         517
         513         514         519         518
         515         516         521         520
         516         517         522         521
         517         518         523         522
         518         519         524         523
         525         526         531         530
         526         527         532         531
         527         528         533         532
         528         529         534         533
         530         531         536         535
         531         532         537         536
         532         533         538         537
         533         534         539         538
         535         536         541         540
         536         537         542         541
         537         538         543         542
         538         539         544         543
         540         541         546         545
         541         542         547         546
         542         543         548         547
         543         544         549         548
         550         551         556         555
         551         552         557         556
         552         553         558         557
         553         554         559         558
         555         556         561         560
         556         557         562         561
         557         558         563         562
         558         559         564         563
         560         561         566         565
         561         562         567         566
         562         563         568         567
         563         564         569         568
         565         566         571         570
         566         567         572         571
         567         568         573         572
         568         569         574         573
         575         576         581         580
         576         577         582         581
         577         578         583         582
         578         579         584         583
         580         581         586         585
         581         582         587         586
         582         583         588         587
         583         584         589         588
         585         586         591         590
         586         587         592         591
         587         588         593         592
         588         589         594         593
         590         591         596         595
         591         592         597         596
         592         593         598         597
         593         594         599         598
         600         601         606         605
         601         602         607         606
         602         603         608         607
         603         604         609         608
         605         606         611         610
         606         607         612         611
         607         608         613         612
         608         609         614         613
         610         611         616         615
         611         612         617         616
         612         613         618         617
         613         614         619         618
         615         616         621         620
         616         617         622         621
         617         618         623         622
         618         619         624         623
         625         626         631         630
         626         627         632         631
         627         628         633         632
         628         629         634         633
         630         631         636         635
         631         632         637         636
         632         633         638         637
         633         634         639         638
         635         636         641         640
         636         637         642         641
         637         638         643         642
         638         639         644         643
         640         641         646         645
         641         642         647         646
         642         643         648         647
         643         644         649         648
         650         651         656         655
         651         652         657         656
         652         653         658         657
         653         654         659         658
         655         656         661         660
         656         657         662         661
         657         658         663         662
         658         659         664         663
         660         661         666         665
         661         662         667         666
         662         663         668         667
         663         664         669         668
         665         666         671         670
         666         667         672         671
         667         668         673         672
         668         669         674         673
         675         676         681         680
         676         677         682         681
         677         678         683         682
         678         679         684         683
         680         681         686         685
         681         682         687         686
         682         683         688         687
         683         684         689         688
         685         686         691         690
         686         687         692         691
         687         688         693         692
         688         689         694         693
         690         691         696         695
         691         692         697         696
         692         693         698         697
         693         694         699         698
         700         701         706         705
         701         702         707         706
         702         703         708         707
         703         704         709         708
         705         706         711         710
         706         707         712         711
         707         708         713         712
         708         709         714         713
         710         711         716         715
         711         712         717         716
         712         713         718         717
         713         714         719         718
         715         716         721         720
         716         717         722         721
         717         718         723         722
         718         719         724         723
         725         726         731         730
         726         727         732         731
         727         728         733         732
         728         729         734         733
         730         731         736         735
         731         732         737         736
         732         733         738         737
         733         734         739         738
         735         736         741         740
         736         737         742         741
         737         738         743         742
         738         739         744         743
         740         741         746         745
         741         742         747         746
         742         743         748         747
         743         744         749         748
         750         751         756         755
         751         752         757         756
         752         753         758         757
         753         754         759         758
         755         756         761         760
         756         757         762         761
         757         758         763         762
         758         759         764         763
         760         761         766         765
         761         762         767         766
         762         763         768         767
         763         764         769         768
         765         766         771         770
         766         767         772         771
         767         768         773         772
         768         769         774         773
         775         776         781         780
         776         777         782         781
         777         778         783         782
         778         779         784         783
         780         781         786         785
         781         782         787         786
         782         783         788         787
         783         784         789         788
         785         786         791         790
         786         787         792         791
         787         788         793         792
         788         789         794         793
         790         791         796         795
         791         792         797         796
         792         793         798         797
         793         794         799         798
         800         801         806         805
         801         802         807         806
         802         803         808         807
         803         804         809         808
         805         806         811         810
         806         807         812         811
         807         808         813         812
         808         809         814         813
         810         811         816         815
         811         812         817         816
         812         813         818         817
         813         814         819         818
         815         816         821         820
         816         817         822         821
         817         818         823         822
         818         819         824         823
         825         826         831         830
         826         827         832         831
         827         828         833         832
         828         829         834         833
         830         831         836         835
         831         832         837         836
         832         833         838         837
         833         834         839         838
         835         836         841         840
         836         837         842         841
         837         838         843         842
         838         839         844         843
         840         841         846         845
         841         842         847         846
         842         843         848         847
         843         844         849         848
         850         851         856         855
         851         852         857         856
         852         853         858         857
         853         854         859         858
         855         856         861         860
         856         857         862         861
         857         858         863         862
         858         859         864         863
         860         861         866         865
         861         862         867         866
         862         863         868         867
         863         864         869         868
         865         866         871         870
         866         867         872         871
         867         868         873         872
         868         869         874         873
         875         876         881         880
         876         877         882         881
         877         878         883         882
         878         879         884         883
         880         881         886         885
         881         882         887         886
         882         883         888         887
         883         884         889         888
         885         886         891         890
         886         887         892         891
         887         888         893         892
         888         889         894         893
         890         891         896         895
         891         892         897         896
         892         893         898         897
         893         894         899         898
         900         901         906         905
         901         902         907         906
         902         903         908         907
         903         904         909         908
         905         906         911         910
         906         907         912         911
         907         908         913         912
         908         909         914         913
         910         911         916         915
         911         912         917         916
         912         913         918         917
         913         914         919         918
         915         916         921         920
         916         917         922         921
         917         918         923         922
         918         919         924         923
         925         926         931         930
         926         927         932         931
         927         928         933         932
         928         929         934         933
         930         931         936         935
         931         932         937         936
         932         933         938         937
         933         934         939         938
         935         936         941         940
         936         937         942         941
         937         938         943         942
         938         939         944         943
         940         941         946         945
         941         942         947         946
         942         943         948         947
         943         944         949         948
         950         951         956         955
         951         952         957         956
         952         953         958         957
         953         954         959         958
         955         956         961         960
         956         957         962         961
         957         958         963         962
         958         959         964         963
         960         961         966         965
         961         962         967         966
         962         963         968         967
         963         964         969         968
         965         966         971         970
         966         967         972         971
         967         968         973         972
         968         969         974         973
         975         976         981         980
         976         977         982         981
         977         978         983         982
         978         979         984         983
         980         981         986         985
         981         982         987         986
         982         983         988         987
         983         984         989         988
         985         986         991         990
         986         987         992         991
         987         988         993         992
         988         989         994         993
         990         991         996         995
         991         992         997         996
         992         993         998         997
         993         994         999         998
        1000        1001        1006        1005
        1001        1002        1007        1006
        1002        1003        1008        1007
        1003        1004        1009        1008
        1005        1006        1011        1010
        1006        1007        1012        1011
        1007        1008        1013        1012
        1008        1009        1014        1013
        1010        1011        1016        1015
        1011        1012        1017        1016
        1012        1013        1018        1017
        1013        1014        1019        1018
        1015        1016        1021        1020
        1016        1017        1022        1021
        1017        1018        1023        1022
        1018        1019        1024        1023
        1025        1026        1031        1030
        1026        1027        1032        1031
        1027        1028        1033        1032
        1028        1029        1034        1033
        1030        1031        1036        1035
        1031        1032        1037        1036
        1032        1033        1038        1037
        1033        1034        1039        1038
        1035        1036        1041        1040
        1036        1037        1042        1041
        1037        1038        1043        1042
        1038        1039        1044        1043
        1040        1041        1046        1045
        1041        1042        1047        1046
        1042        1043        1048        1047
        1043        1044        1049        1048
        1050        1051        1056        1055
        1051        1052        1057        1056
        1052        1053        1058        1057
        1053        1054        1059        1058
        1055        1056        1061        1060
        1056        1057        1062        1061
        1057        1058        1063        1062
        1058        1059        1064        1063
        1060        1061        1066        1065
        1061        1062        1067        1066
        1062        1063        1068        1067
        1063        1064        1069        1068
        1065        1066        1071        1070
        1066        1067        1072        1071
        1067        1068        1073        1072
        1068        1069        1074        1073
        1075        1076        1081        1080
        1076        1077        1082        1081
        1077        1078        1083        1082
        1078        1079        1084        1083
        1080        1081        1086        1085
        1081        1082        1087        1086
        1082        1083        1088        1087
        1083        1084        1089        1088
        1085        1086        1091        1090
        1086        1087        1092        1091
        1087        1088        1093        1092
        1088        1089        1094        1093
        1090        1091        1096        1095
        1091        1092        1097        1096
        1092        1093        1098        1097
        1093        1094        1099        1098
        1100        1101        1106        1105
        1101        1102        1107        1106
        1102        1103        1108        1107
        1103        1104        1109        1108
        1105        1106        1111        1110
        1106        1107        1112        1111
        1107        1108        1113        1112
        1108        1109        1114        1113
        1110        1111        1116        1115
        1111        1112        1117        1116
        1112        1113        1118        1117
        1113        1114        1119        1118
        1115        1116        1121        1120
        1116        1117        1122        1121
        1117        1118        1123        1122
        1118        1119        1124        1123
        1125        1126        1131        1130
        1126        1127        1132        1131
        1127        1128        1133        1132
        1128        1129        1134        1133
        1130        1131        1136        1135
        1131        1132        1137        1136
        1132        1133        1138        1137
        1133        1134        1139        1138
        1135        1136        1141        1140
        1136        1137        1142        1141
        1137        1138        1143        1142
        1138        1139        1144        1143
        1140        1141        1146        1145
        1141        1142        1147        1146
        1142        1143        1148        1147
        1143        1144        1149        1148
        1150        1151        1156        1155
        1151        1152        1157        1156
        1152        1153        1158        1157
        1153        1154        1159        1158
        1155        1156        1161        1160
        1156        1157        1162        1161
        1157        1158        1163        1162
        1158        1159        1164        1163
        1160        1161        1166        1165
        1161        1162        1167        1166
        1162        1163        1168        1167
        1163        1164        1169        1168
        1165        1166        1171        1170
        1166        1167        1172        1171
        1167        1168        1173        1172
        1168        1169        1174        1173
        1175        1176        1181        1180
        1176        1177        1182        1181
        1177        1178        1183        1182
        1178        1179        1184        1183
        1180        1181        1186        1185
        1181        1182        1187        1186
        1182        1183        1188        1187
        1183        1184        1189        1188
        1185        1186        1191        1190
        1186        1187        1192        1191
        1187        1188        1193        1192
        1188        1189        1194        1193
        1190        1191        1196        1195
        1191        1192        1197        1196
        1192        1193        1198        1197
        1193        1194        1199        1198
        1200        1201        1206        1205
        1201        1202        1207        1206
        1202        1203        1208        1207
        1203        1204        1209        1208
        1205        1206        1211        1210
        1206        1207        1212        1211
        1207        1208        1213        1212
        1208        1209        1214        1213
        1210        1211        1216        1215
        1211        1212        1217        1216
        1212        1213        1218        1217
        1213        1214        1219        1218
        1215        1216        1221        1220
        1216        1217        1222        1221
        1217        1218        1223        1222
        1218        1219        1224        1223
        1225        1226        1231        1230
        1226        1227        1232        1231
        1227        1228        1233        1232
        1228        1229        1234        1233
        1230        1231        1236        1235
        1231        1232        1237        1236
        1232        1233        1238        1237
        1233        1234        1239        1238
        1235        1236        1241        1240
        1236        1237        1242        1241
        1237        1238        1243        1242
        1238        1239        1244        1243
        1240        1241        1246        1245
        1241        1242        1247        1246
        1242        1243        1248        1247
        1243        1244        1249        1248
        1250        1251        1256        1255
        1251        1252        1257        1256
        1252        1253        1258        1257
        1253        1254        1259        1258
        1255        1256        1261        1260
        1256        1257        1262        1261
        1257        1258        1263        1262
        1258        1259        1264        1263
        1260        1261        1266        1265
        1261        1262        1267        1266
        1262        1263        1268        1267
        1263        1264        1269        1268
        1265        1266        1271        1270
        1266        1267        1272        1271
        1267        1268        1273        1272
        1268        1269        1274        1273
        1275        1276        1281        1280
        1276        1277        1282        1281
        1277        1278        1283        1282
        1278        1279        1284        1283
        1280        1281        1286        1285
        1281        1282        1287        1286
        1282        1283        1288        1287
        1283        1284        1289        1288
        1285        1286        1291        1290
        1286        1287        1292        1291
        1287        1288        1293        1292
        1288        1289        1294        1293
        1290        1291        1296        1295
        1291        1292        1297        1296
        1292        1293        1298        1297
        1293        1294        1299        1298
        1300        1301        1306        1305
        1301        1302        1307        1306
        1302        1303        1308        1307
        1303        1304        1309        1308
        1305        1306        1311        1310
        1306        1307        1312        1311
        1307        1308        1313        1312
        1308        1309        1314        1313
        1310        1311        1316        1315
        1311        1312        1317        1316
        1312        1313        1318        1317
        1313        1314        1319        1318
        1315        1316        1321        1320
        1316        1317        1322        1321
        1317        1318        1323        1322
        1318        1319        1324        1323
        1325        1326        1331        1330
        1326        1327        1332        1331
        1327        1328        1333        1332
        1328        1329        1334        1333
        1330        1331        1336        1335
        1331        1332        1337        1336
        1332        1333        1338        1337
        1333        1334        1339        1338
        1335        1336        1341        1340
        1336        1337        1342        1341
        1337        1338        1343        1342
        1338        1339        1344        1343
        1340        1341        1346        1345
        1341        1342        1347        1346
        1342        1343        1348        1347
        1343        1344        1349        1348
        1350        1351        1356        1355
        1351        1352        1357        1356
        1352        1353        1358        1357
        1353        1354        1359        1358
        1355        1356        1361        1360
        1356        1357        1362        1361
        1357        1358        1363        1362
        1358        1359        1364        1363
        1360        1361        1366        1365
        1361        1362        1367        1366
        1362        1363        1368        1367
        1363        1364        1369        1368
        1365        1366        1371        1370
        1366        1367        1372        1371
        1367        1368        1373        1372
        1368        1369        1374        1373
        1375        1376        1381        1380
        1376        1377        1382        1381
        1377        1378        1383        1382
        1378        1379        1384        1383
        1380        1381        1386        1385
        1381        1382        1387        1386
        1382        1383        1388        1387
        1383        1384        1389        1388
        1385        1386        1391        1390
        1386        1387        1392        1391
        1387        1388        1393        1392
        1388        1389        1394        1393
        1390        1391        1396        1395
        1391        1392        1397        1396
        1392        1393        1398        1397
        1393        1394        1399        1398
        1400        1401        1406        1405
        1401        1402        1407        1406
        1402        1403        1408        1407
        1403        1404        1409        1408
        1405        1406        1411        1410
        1406        1407        1412        1411
        1407        1408        1413        1412
        1408        1409        1414        1413
        1410        1411        1416        1415
        1411        1412        1417        1416
        1412        1413        1418        1417
        1413        1414        1419        1418
        1415        1416        1421        1420
        1416        1417        1422        1421
        1417        1418        1423        1422
        1418        1419        1424        1423
        1425        1426        1431        1430
        1426        1427        1432        1431
        1427        1428        1433        1432
        1428        1429        1434        1433
        1430        1431        1436        1435
        1431        1432        1437        1436
        1432        1433        1438        1437
        1433        1434        1439        1438
        1435        1436        1441        1440
        1436        1437        1442        1441
        1437        1438        1443        1442
        1438        1439        1444        1443
        1440        1441        1446        1445
        1441        1442        1447        1446
        1442        1443        1448        1447
        1443        1444        1449        1448
        1450        1451        1456        1455
        1451        1452        1457        1456
        1452        1453        1458        1457
        1453        1454        1459        1458
        1455        1456        1461        1460
        1456        1457        1462        1461
        1457        1458        1463        1462
        1458        1459        1464        1463
        1460        1461        1466        1465
        1461        1462        1467        1466
        1462        1463        1468        1467
        1463        1464        1469        1468
        1465        1466        1471        1470
        1466        1467        1472        1471
        1467        1468        1473        1472
        1468        1469        1474        1473
        1475        1476        1481        1480
        1476        1477        1482        1481
        1477        1478        1483        1482
        1478        1479        1484        1483
        1480        1481        1486        1485
        1481        1482        1487        1486
        1482        1483        1488        1487
        1483        1484        1489        1488
        1485        1486        1491        1490
        1486        1487        1492        1491
        1487        1488        1493        1492
        1488        1489        1494        1493
        1490        1491        1496        1495
        1491        1492        1497        1496
        1492        1493        1498        1497
        1493        1494        1499        1498
        1500        1501        1506        1505
        1501        1502        1507        1506
        1502        1503        1508        1507
        1503        1504        1509        1508
        1505        1506        1511        1510
        1506        1507        1512        1511
        1507        1508        1513        1512
        1508        1509        1514        1513
        1510        1511        1516        1515
        1511        1512        1517        1516
        1512        1513        1518        1517
        1513        1514        1519        1518
        1515        1516        1521        1520
        1516        1517        1522        1521
        1517        1518        1523        1522
        1518        1519        1524        1523
        1525        1526        1531        1530
        1526        1527        1532        1531
        1527        1528        1533        1532
        1528        1529        1534        1533
        1530        1531        1536        1535
        1531        1532        1537        1536
        1532        1533        1538        1537
        1533        1534        1539        1538
        1535        1536        1541        1540
        1536        1537        1542        1541
        1537        1538        1543        1542
        1538        1539        1544        1543
        1540        1541        1546        1545
        1541        1542        1547        1546
        1542        1543        1548        1547
        1543        1544        1549        1548
        1550        1551        1556        1555
        1551        1552        1557        1556
        1552        1553        1558        1557
        1553        1554        1559        1558
        1555        1556        1561        1560
        1556        1557        1562        1561
        1557        1558        1563        1562
        1558        1559        1564        1563
        1560        1561        1566        1565
        1561        1562        1567        1566
        1562        1563        1568        1567
        1563        1564        1569        1568
        1565        1566        1571        1570
        1566        1567        1572        1571
        1567        1568        1573        1572
        1568        1569        1574        1573
        1575        1576        1581        1580
        1576        1577        1582        1581
        1577        1578        1583        1582
        1578        1579        1584        1583
        1580        1581        1586        1585
        1581        1582        1587        1586
        1582        1583        1588        1587
        1583        1584        1589        1588
        1585        1586        1591        1590
        1586        1587        1592        1591
        1587        1588        1593        1592
        1588        1589        1594        1593
        1590        1591        1596        1595
        1591        1592        1597        1596
        1592        1593        1598        1597
        1593        1594        1599        1598
 </DataArray>
 <DataArray  type="Int32"  Name="offsets"  format="ascii"> 
           4
           8
          12
          16
          20
          24
          28
          32
          36
          40
          44
          48
          52
          56
          60
          64
          68
          72
          76
          80
          84
          88
          92
          96
         100
         104
         108
         112
         116
         120
         124
         128
         132
         136
         140
         144
         148
         152
         156
         160
         164
         168
         172
         176
         180
         184
         188
         192
         196
         200
         204
         208
         212
         216
         220
         224
         228
         232
         236
         240
         244
         248
         252
         256
         260
         264
         268
         272
         276
         280
         284
         288
         292
         296
         300
         304
         308
         312
         316
         320
         324
         328
         332
         336
         340
         344
         348
         352
         356
         360
         364
         368
         372
         376
         380
         384
         388
         392
         396
         400
         404
         408
         412
         416
         420
         424
         428
         432
         436
         440
         444
         448
         452
         456
         460
         464
         468
         472
         476
         480
         484
         488
         492
         496
         500
         504
         508
         512
         516
         520
         524
         528
         532
         536
         540
         544
         548
         552
         556
         560
         564
         568
         572
         576
         580
         584
         588
         592
         596
         600
         604
         608
         612
         616
         620
         624
         628
         632
         636
         640
         644
         648
         652
         656
         660
         664
         668
         672
         676
         680
         684
         688
         692
         696
         700
         704
         708
         712
         716
         720
         724
         728
         732
         736
         740
         744
         748
         752
         756
         760
         764
         768
         772
         776
         780
         784
         788
         792
         796
         800
         804
         808
         812
         816
         820
         824
         828
         832
         836
         840
         844
         848
         852
         856
         860
         864
         868
         872
         876
         880
         884
         888
         892
         896
         900
         904
         908
         912
         916
         920
         924
         928
         932
         936
         940
         944
         948
         952
         956
         960
         964
         968
         972
         976
         980
         984
         988
         992
         996
        1000
        1004
        1008
        1012
        1016
        1020
        1024
        1028
        1032
        1036
        1040
        1044
        1048
        1052
        1056
        1060
        1064
        1068
        1072
        1076
        1080
        1084
        1088
        1092
        1096
        1100
        1104
        1108
        1112
        1116
        1120
        1124
        1128
        1132
        1136
        1140
        1144
        1148
        1152
        1156
        1160
        1164
        1168
        1172
        1176
        1180
        1184
        1188
        1192
        1196
        1200
        1204
        1208
        1212
        1216
        1220
        1224
        1228
        1232
        1236
        1240
        1244
        1248
        1252
        1256
        1260
        1264
        1268
        1272
        1276
        1280
        1284
        1288
        1292
        1296
        1300
        1304
        1308
        1312
        1316
        1320
        1324
        1328
        1332
        1336
        1340
        1344
        1348
        1352
        1356
        1360
        1364
        1368
        1372
        1376
        1380
        1384
        1388
        1392
        1396
        1400
        1404
        1408
        1412
        1416
        1420
        1424
        1428
        1432
        1436
        1440
        1444
        1448
        1452
        1456
        1460
        1464
        1468
        1472
        1476
        1480
        1484
        1488
        1492
        1496
        1500
        1504
        1508
        1512
        1516
        1520
        1524
        1528
        1532
        1536
        1540
        1544
        1548
        1552
        1556
        1560
        1564
        1568
        1572
        1576
        1580
        1584
        1588
        1592
        1596
        1600
        1604
        1608
        1612
        1616
        1620
        1624
        1628
        1632
        1636
        1640
        1644
        1648
        1652
        1656
        1660
        1664
        1668
        1672
        1676
        1680
        1684
        1688
        1692
        1696
        1700
        1704
        1708
        1712
        1716
        1720
        1724
        1728
        1732
        1736
        1740
        1744
        1748
        1752
        1756
        1760
        1764
        1768
        1772
        1776
        1780
        1784
        1788
        1792
        1796
        1800
        1804
        1808
        1812
        1816
        1820
        1824
        1828
        1832
        1836
        1840
        1844
        1848
        1852
        1856
        1860
        1864
        1868
        1872
        1876
        1880
        1884
        1888
        1892
        1896
        1900
        1904
        1908
        1912
        1916
        1920
        1924
        1928
        1932
        1936
        1940
        1944
        1948
        1952
        1956
        1960
        1964
        1968
        1972
        1976
        1980
        1984
        1988
        1992
        1996
        2000
        2004
        2008
        2012
        2016
        2020
        2024
        2028
        2032
        2036
        2040
        2044
        2048
        2052
        2056
        2060
        2064
        2068
        2072
        2076
        2080
        2084
        2088
        2092
        2096
        2100
        2104
        2108
        2112
        2116
        2120
        2124
        2128
        2132
        2136
        2140
        2144
        2148
        2152
        2156
        2160
        2164
        2168
        2172
        2176
        2180
        2184
        2188
        2192
        2196
        2200
        2204
        2208
        2212
        2216
        2220
        2224
        2228
        2232
        2236
        2240
        2244
        2248
        2252
        2256
        2260
        2264
        2268
        2272
        2276
        2280
        2284
        2288
        2292
        2296
        2300
        2304
        2308
        2312
        2316
        2320
        2324
        2328
        2332
        2336
        2340
        2344
        2348
        2352
        2356
        2360
        2364
        2368
        2372
        2376
        2380
        2384
        2388
        2392
        2396
        2400
        2404
        2408
        2412
        2416
        2420
        2424
        2428
        2432
        2436
        2440
        2444
        2448
        2452
        2456
        2460
        2464
        2468
        2472
        2476
        2480
        2484
        2488
        2492
        2496
        2500
        2504
        2508
        2512
        2516
        2520
        2524
        2528
        2532
        2536
        2540
        2544
        2548
        2552
        2556
        2560
        2564
        2568
        2572
        2576
        2580
        2584
        2588
        2592
        2596
        2600
        2604
        2608
        2612
        2616
        2620
        2624
        2628
        2632
        2636
        2640
        2644
        2648
        2652
        2656
        2660
        2664
        2668
        2672
        2676
        2680
        2684
        2688
        2692
        2696
        2700
        2704
        2708
        2712
        2716
        2720
        2724
        2728
        2732
        2736
        2740
        2744
        2748
        2752
        2756
        2760
        2764
        2768
        2772
        2776
        2780
        2784
        2788
        2792
        2796
        2800
        2804
        2808
        2812
        2816
        2820
        2824
        2828
        2832
        2836
        2840
        2844
        2848
        2852
        2856
        2860
        2864
        2868
        2872
        2876
        2880
        2884
        2888
        2892
        2896
        2900
        2904
        2908
        2912
        2916
        2920
        2924
        2928
        2932
        2936
        2940
        2944
        2948
        2952
        2956
        2960
        2964
        2968
        2972
        2976
        2980
        2984
        2988
        2992
        2996
        3000
        3004
        3008
        3012
        3016
        3020
        3024
        3028
        3032
        3036
        3040
        3044
        3048
        3052
        3056
        3060
        3064
        3068
        3072
        3076
        3080
        3084
        3088
        3092
        3096
        3100
        3104
        3108
        3112
        3116
        3120
        3124
        3128
        3132
        3136
        3140
        3144
        3148
        3152
        3156
        3160
        3164
        3168
        3172
        3176
        3180
        3184
        3188
        3192
        3196
        3200
        3204
        3208
        3212
        3216
        3220
        3224
        3228
        3232
        3236
        3240
        3244
        3248
        3252
        3256
        3260
        3264
        3268
        3272
        3276
        3280
        3284
        3288
        3292
        3296
        3300
        3304
        3308
        3312
        3316
        3320
        3324
        3328
        3332
        3336
        3340
        3344
        3348
        3352
        3356
        3360
        3364
        3368
        3372
        3376
        3380
        3384
        3388
        3392
        3396
        3400
        3404
        3408
        3412
        3416
        3420
        3424
        3428
        3432
        3436
        3440
        3444
        3448
        3452
        3456
        3460
        3464
        3468
        3472
        3476
        3480
        3484
        3488
        3492
        3496
        3500
        3504
        3508
        3512
        3516
        3520
        3524
        3528
        3532
        3536
        3540
        3544
        3548
        3552
        3556
        3560
        3564
        3568
        3572
        3576
        3580
        3584
        3588
        3592
        3596
        3600
        3604
        3608
        3612
        3616
        3620
        3624
        3628
        3632
        3636
        3640
        3644
        3648
        3652
        3656
        3660
        3664
        3668
        3672
        3676
        3680
        3684
        3688
        3692
        3696
        3700
        3704
        3708
        3712
        3716
        3720
        3724
        3728
        3732
        3736
        3740
        3744
        3748
        3752
        3756
        3760
        3764
        3768
        3772
        3776
        3780
        3784
        3788
        3792
        3796
        3800
        3804
        3808
        3812
        3816
        3820
        3824
        3828
        3832
        3836
        3840
        3844
        3848
        3852
        3856
        3860
        3864
        3868
        3872
        3876
        3880
        3884
        3888
        3892
        3896
        3900
        3904
        3908
        3912
        3916
        3920
        3924
        3928
        3932
        3936
        3940
        3944
        3948
        3952
        3956
        3960
        3964
        3968
        3972
        3976
        3980
        3984
        3988
        3992
        3996
        4000
        4004
        4008
        4012
        4016
        4020
        4024
        4028
        4032
        4036
        4040
        4044
        4048
        4052
        4056
        4060
        4064
        4068
        4072
        4076
        4080
        4084
        4088
        4092
        4096
 </DataArray>
 <DataArray  type="UInt8"  Name="types"  format="ascii">
 9
 9
 9
 9
 9
 9
 9
 9
 9
 9
 9
 9
 9
 9
 9
 9
 9
 9
 9
 9
 9
 9
 9
 9
 9
 9
 9
 9
 9
 9
 9
 9
 9
 9
 9
 9
 9
 9
 9
 9
 9
 9
 9
 9
 9
 9
 9
 9
 9
 9
 9
 9
 9
 9
 9
 9
 9
 9
 9
 9
 9
 9
 9
 9
 9
 9
 9
 9
 9
 9
 9
 9
 9
 9
 9
 9
 9
 9
 9
 9
 9
 9
 9
 9
 9
 9
 9
 9
 9
 9
 9
 9
 9
 9
 9
 9
 9
 9
 9
 9
 9
 9
 9
 9
 9
 9
 9
 9
 9
 9
 9
 9
 9
 9
 9
 9
 9
 9
 9
 9
 9
 9
 9
 9
 9
 9
 9
 9
 9
 9
 9
 9
 9
 9
 9
 9
 9
 9
 9
 9
 9
 9
 9
 9
 9
 9
 9
 9
 9
 9
 9
 9
 9
 9
 9
 9
 9
 9
 9
 9
 9
 9
 9
 9
 9
 9
 9
 9
 9
 9
 9
 9
 9
 9
 9
 9
 9
 9
 9
 9
 9
 9
 9
 9
 9
 9
 9
 9
 9
 9
 9
 9
 9
 9
 9
 9
 9
 9
 9
 9
 9
 9
 9
 9
 9
 9
 9
 9
 9
 9
 9
 9
 9
 9
 9
 9
 9
 9
 9
 9
 9
 9
 9
 9
 9
 9
 9
 9
 9
 9
 9
 9
 9
 9
 9
 9
 9
 9
 9
 9
 9
 9
 9
 9
 9
 9
 9
 9
 9
 9
 9
 9
 9
 9
 9
 9
 9
 9
 9
 9
 9
 9
 9
 9
 9
 9
 9
 9
 9
 9
 9
 9
 9
 9
 9
 9
 9
 9
 9
 9
 9
 9
 9
 9
 9
 9
 9
 9
 9
 9
 9
 9
 9
 9
 9
 9
 9
 9
 9
 9
 9
 9
 9
 9
 9
 9
 9
 9
 9
 9
 9
 9
 9
 9
 9
 9
 9
 9
 9
 9
 9
 9
 9
 9
 9
 9
 9
 9
 9
 9
 9
 9
 9
 9
 9
 9
 9
 9
 9
 9
 9
 9
 9
 9
 9
 9
 9
 9
 9
 9
 9
 9
 9
 9
 9
 9
 9
 9
 9
 9
 9
 9
 9
 9
 9
 9
 9
 9
 9
 9
 9
 9
 9
 9
 9
 9
 9
 9
 9
 9
 9
 9
 9
 9
 9
 9
 9
 9
 9
 9
 9
 9
 9
 9
 9
 9
 9
 9
 9
 9
 9
 9
 9
 9
 9
 9
 9
 9
 9
 9
 9
 9
 9
 9
 9
 9
 9
 9
 9
 9
 9
 9
 9
 9
 9
 9
 9
 9
 9
 9
 9
 9
 9
 9
 9
 9
 9
 9
 9
 9
 9
 9
 9
 9
 9
 9
 9
 9
 9
 9
 9
 9
 9
 9
 9
 9
 9
 9
 9
 9
 9
 9
 9
 9
 9
 9
 9
 9
 9
 9
 9
 9
 9
 9
 9
 9
 9
 9
 9
 9
 9
 9
 9
 9
 9
 9
 9
 9
 9
 9
 9
 9
 9
 9
 9
 9
 9
 9
 9
 9
 9
 9
 9
 9
 9
 9
 9
 9
 9
 9
 9
 9
 9
 9
 9
 9
 9
 9
 9
 9
 9
 9
 9
 9
 9
 9
 9
 9
 9
 9
 9
 9
 9
 9
 9
 9
 9
 9
 9
 9
 9
 9
 9
 9
 9
 9
 9
 9
 9
 9
 9
 9
 9
 9
 9
 9
 9
 9
 9
 9
 9
 9
 9
 9
 9
 9
 9
 9
 9
 9
 9
 9
 9
 9
 9
 9
 9
 9
 9
 9
 9
 9
 9
 9
 9
 9
 9
 9
 9
 9
 9
 9
 9
 9
 9
 9
 9
 9
 9
 9
 9
 9
 9
 9
 9
 9
 9
 9
 9
 9
 9
 9
 9
 9
 9
 9
 9
 9
 9
 9
 9
 9
 9
 9
 9
 9
 9
 9
 9
 9
 9
 9
 9
 9
 9
 9
 9
 9
 9
 9
 9
 9
 9
 9
 9
 9
 9
 9
 9
 9
 9
 9
 9
 9
 9
 9
 9
 9
 9
 9
 9
 9
 9
 9
 9
 9
 9
 9
 9
 9
 9
 9
 9
 9
 9
 9
 9
 9
 9
 9
 9
 9
 9
 9
 9
 9
 9
 9
 9
 9
 9
 9
 9
 9
 9
 9
 9
 9
 9
 9
 9
 9
 9
 9
 9
 9
 9
 9
 9
 9
 9
 9
 9
 9
 9
 9
 9
 9
 9
 9
 9
 9
 9
 9
 9
 9
 9
 9
 9
 9
 9
 9
 9
 9
 9
 9
 9
 9
 9
 9
 9
 9
 9
 9
 9
 9
 9
 9
 9
 9
 9
 9
 9
 9
 9
 9
 9
 9
 9
 9
 9
 9
 9
 9
 9
 9
 9
 9
 9
 9
 9
 9
 9
 9
 9
 9
 9
 9
 9
 9
 9
 9
 9
 9
 9
 9
 9
 9
 9
 9
 9
 9
 9
 9
 9
 9
 9
 9
 9
 9
 9
 9
 9
 9
 9
 9
 9
 9
 9
 9
 9
 9
 9
 9
 9
 9
 9
 9
 9
 9
 9
 9
 9
 9
 9
 9
 9
 9
 9
 9
 9
 9
 9
 9
 9
 9
 9
 9
 9
 9
 9
 9
 9
 9
 9
 9
 9
 9
 9
 9
 9
 9
 9
 9
 9
 9
 9
 9
 9
 9
 9
 9
 9
 9
 9
 9
 9
 9
 9
 9
 9
 9
 9
 9
 9
 9
 9
 9
 9
 9
 9
 9
 9
 9
 9
 9
 9
 9
 9
 9
 9
 9
 9
 9
 9
 9
 9
 9
 9
 9
 9
 9
 9
 9
 9
 9
 9
 9
 9
 9
 9
 9
 9
 9
 9
 9
 9
 9
 9
 9
 9
 9
 9
 9
 9
 9
 9
 9
 9
 9
 9
 9
 9
 9
 9
 9
 9
 9
 9
 9
 9
 9
 9
 9
 9
 9
 9
 9
 9
 9
 9
 9
 9
 9
 9
 9
 9
 9
 9
 9
 9
 9
 9
 9
 9
 9
 9
 9
 9
 9
 9
 9
 9
 9
 9
 9
 9
 9
 9
 9
 9
 9
 9
 9
 9
 9
 9
 9
 9
 9
 9
 9
 9
 9
 9
 9
 9
 9
 9
 9
 9
 9
 9
 9
 9
 9
 9
 9
 9
 9
 9
 9
 9
 9
 9
 9
 9
 9
 9
 9
 9
 9
 9
 9
 </DataArray>
 </Cells> 
 <PointData>
 <DataArray  type="Float64" Name="disp" NumberOfComponents="3" format="ascii">
   0.0000000000000000        0.0000000000000000        0.0000000000000000     
   6.0962010499564321E-003   3.7903034928349114E-003   0.0000000000000000     
   1.1666473666196629E-002   7.3233871756197538E-003   0.0000000000000000     
   1.6710817848720586E-002   1.0599251048354526E-002   0.0000000000000000     
   2.1229233597528308E-002   1.3617895111039230E-002   0.0000000000000000     
   0.0000000000000000        0.0000000000000000        0.0000000000000000     
   4.8914190460007520E-003   3.0218118768707376E-003   0.0000000000000000     
   9.5742085815436386E-003   6.0597938376325856E-003   0.0000000000000000     
   1.4048368606628663E-002   9.1139458822855450E-003   0.0000000000000000     
   1.8313899121255816E-002   1.2184268010829613E-002   0.0000000000000000     
   0.0000000000000000        0.0000000000000000        0.0000000000000000     
   3.9538250765028286E-003   2.4246530404097612E-003   0.0000000000000000     
   7.9111909079154098E-003   5.0619735338101827E-003   0.0000000000000000     
   1.1872097494237741E-002   7.9119614802012662E-003   0.0000000000000000     
   1.5836544835469830E-002   1.0974616879583010E-002   0.0000000000000000     
   0.0000000000000000        0.0000000000000000        0.0000000000000000     
   3.2834191414626620E-003   1.9988269834519822E-003   0.0000000000000000     
   6.6774206453119383E-003   4.3299262641525458E-003   0.0000000000000000     
   1.0182004511547830E-002   6.9932978421016895E-003   0.0000000000000000     
   1.3797170740170337E-002   9.9889417172994155E-003   0.0000000000000000     
   0.0000000000000000        0.0000000000000000        0.0000000000000000     
   2.8802012408802508E-003   1.7443337059974010E-003   0.0000000000000000     
   5.8728977937332269E-003   3.8636520286596740E-003   0.0000000000000000     
   8.9780896585589277E-003   6.3579549679868182E-003   0.0000000000000000     
   1.2195776835357351E-002   9.2272425239788361E-003   0.0000000000000000     
   2.1229233597528308E-002   1.3617895111039230E-002   0.0000000000000000     
   2.5434890940491606E-002   1.6610192499306085E-002   0.0000000000000000     
   2.9540959905482281E-002   1.9807016348787308E-002   0.0000000000000000     
   3.3547440492500344E-002   2.3208366659482900E-002   0.0000000000000000     
   3.7454332701545787E-002   2.6814243431392860E-002   0.0000000000000000     
   1.8313899121255816E-002   1.2184268010829613E-002   0.0000000000000000     
   2.2409155428260608E-002   1.5339198284206330E-002   0.0000000000000000     
   2.6372492830478548E-002   1.8647174763357224E-002   0.0000000000000000     
   3.0203911327909630E-002   2.2108197448282293E-002   0.0000000000000000     
   3.3903410920553850E-002   2.5722266338981552E-002   0.0000000000000000     
   1.5836544835469830E-002   1.0974616879583010E-002   0.0000000000000000     
   1.9732799000088046E-002   1.4208741533024623E-002   0.0000000000000000     
   2.3489126056568773E-002   1.7573137241595319E-002   0.0000000000000000     
   2.7105526004912017E-002   2.1067804005295097E-002   0.0000000000000000     
   3.0581998845117777E-002   2.4692741824123957E-002   0.0000000000000000     
   1.3797170740170337E-002   9.9889417172994155E-003   0.0000000000000000     
   1.7405821655973902E-002   1.3218822245760972E-002   0.0000000000000000     
   2.0890859583752953E-002   1.6584903783501598E-002   0.0000000000000000     
   2.4252284523507507E-002   2.0087186330521308E-002   0.0000000000000000     
   2.7490096475237553E-002   2.3725669886820087E-002   0.0000000000000000     
   1.2195776835357351E-002   9.2272425239788361E-003   0.0000000000000000     
   1.5428223395918182E-002   1.2369440422415369E-002   0.0000000000000000     
   1.8577693412031096E-002   1.5682474389076065E-002   0.0000000000000000     
   2.1644186883696091E-002   1.9166344423960920E-002   0.0000000000000000     
   2.4627703810913174E-002   2.2821050527069939E-002   0.0000000000000000     
   3.7454332701545787E-002   2.6814243431392860E-002   0.0000000000000000     
   4.1265634671626410E-002   3.0619814137076391E-002   0.0000000000000000     
   4.4985344541750016E-002   3.4620246249092684E-002   0.0000000000000000     
   4.8613462311916621E-002   3.8815539767441738E-002   0.0000000000000000     
   5.2149987982126195E-002   4.3205694692123556E-002   0.0000000000000000     
   3.3903410920553850E-002   2.5722266338981552E-002   0.0000000000000000     
   3.7494026327603035E-002   2.9518429001564341E-002   0.0000000000000000     
   4.0998792268248964E-002   3.3525733002140033E-002   0.0000000000000000     
   4.4417708742491673E-002   3.7744178340708617E-002   0.0000000000000000     
   4.7750775750331133E-002   4.2173765017270104E-002   0.0000000000000000     
   3.0581998845117777E-002   2.4692741824123957E-002   0.0000000000000000     
   3.3947944402386472E-002   2.8492914067940193E-002   0.0000000000000000     
   3.7232762501918523E-002   3.2513284106602106E-002   0.0000000000000000     
   4.0436453143713920E-002   3.6753851940109689E-002   0.0000000000000000     
   4.3559016327772683E-002   4.1214617568462938E-002   0.0000000000000000     
   2.7490096475237553E-002   2.3725669886820087E-002   0.0000000000000000     
   3.0627388895976729E-002   2.7543269336203949E-002   0.0000000000000000     
   3.3687255242758674E-002   3.1582899562478901E-002   0.0000000000000000     
   3.6669695515583377E-002   3.5844560565644938E-002   0.0000000000000000     
   3.9574709714450852E-002   4.0328252345702059E-002   0.0000000000000000     
   2.4627703810913174E-002   2.2821050527069939E-002   0.0000000000000000     
   2.7532359808373798E-002   2.6669494806355609E-002   0.0000000000000000     
   3.0362270490769415E-002   3.0734579369770421E-002   0.0000000000000000     
   3.3117435858100029E-002   3.5016304217314380E-002   0.0000000000000000     
   3.5797855910365634E-002   3.9514669348987480E-002   0.0000000000000000     
   5.2149987982126195E-002   4.3205694692123556E-002   0.0000000000000000     
   5.5594819696079843E-002   4.7797116854606553E-002   0.0000000000000000     
   5.8947855597478636E-002   5.2596212086359145E-002   0.0000000000000000     
   6.2209095686322574E-002   5.7602980387381320E-002   0.0000000000000000     
   6.5378539962611670E-002   6.2817421757673089E-002   0.0000000000000000     
   4.7750775750331133E-002   4.2173765017270104E-002   0.0000000000000000     
   5.0994754781436634E-002   4.6808658702357377E-002   0.0000000000000000     
   5.4146407325477465E-002   5.1643025066503326E-002   0.0000000000000000     
   5.7205733382453619E-002   5.6676864109707979E-002   0.0000000000000000     
   6.0172732952365103E-002   6.1910175831971309E-002   0.0000000000000000     
   4.3559016327772683E-002   4.1214617568462938E-002   0.0000000000000000     
   4.6596223878611572E-002   4.5883187281494354E-002   0.0000000000000000     
   4.9543847620747365E-002   5.0747167369036443E-002   0.0000000000000000     
   5.2401887554180071E-002   5.5806557831089204E-002   0.0000000000000000     
   5.5170343678909668E-002   6.1061358667652624E-002   0.0000000000000000     
   3.9574709714450852E-002   4.0328252345702059E-002   0.0000000000000000     
   4.2399226987604649E-002   4.5020702592017493E-002   0.0000000000000000     
   4.5140176483288344E-002   4.9908638993958476E-002   0.0000000000000000     
   4.7797558201501909E-002   5.4992061551524980E-002   0.0000000000000000     
   5.0371372142245359E-002   6.0270970264717026E-002   0.0000000000000000     
   3.5797855910365634E-002   3.9514669348987480E-002   0.0000000000000000     
   3.8403764108415880E-002   4.4221204633926807E-002   0.0000000000000000     
   4.0935393913100381E-002   4.9127439941269425E-002   0.0000000000000000     
   4.3392745324419148E-002   5.4233375271015322E-002   0.0000000000000000     
   4.5775818342372175E-002   5.9539010623164502E-002   0.0000000000000000     
   6.5378539962611670E-002   6.2817421757673089E-002   0.0000000000000000     
   6.8452908425316400E-002   6.8221806169438903E-002   0.0000000000000000     
   7.1428921073407259E-002   7.3798403594883238E-002   0.0000000000000000     
   7.4306577906884302E-002   7.9547214034006067E-002   0.0000000000000000     
   7.7085878925747447E-002   8.5468237486807416E-002   0.0000000000000000     
   6.0172732952365103E-002   6.1910175831971309E-002   0.0000000000000000     
   6.3048049619661692E-002   6.7331310426827273E-002   0.0000000000000000     
   6.5832326968793153E-002   7.2928618087809816E-002   0.0000000000000000     
   6.8525564999759495E-002   7.8702098814918922E-002   0.0000000000000000     
   7.1127763712560743E-002   8.4651752608154621E-002   0.0000000000000000     
   5.5170343678909668E-002   6.1061358667652624E-002   0.0000000000000000     
   5.7851709326012211E-002   6.6503079194426870E-002   0.0000000000000000     
   6.0448477826563742E-002   7.2123228727112049E-002   0.0000000000000000     
   6.2960649180564265E-002   7.7921807265708201E-002   0.0000000000000000     
   6.5388223388013769E-002   8.3898814810215300E-002   0.0000000000000000     
   5.0371372142245359E-002   6.0270970264717026E-002   0.0000000000000000     
   5.2863887544367973E-002   6.5737112472237652E-002   0.0000000000000000     
   5.5277373646719044E-002   7.1382235512789938E-002   0.0000000000000000     
   5.7611830449298559E-002   7.7206339386373848E-002   0.0000000000000000     
   5.9867257952106526E-002   8.3209424092989412E-002   0.0000000000000000     
   4.5775818342372175E-002   5.9539010623164502E-002   0.0000000000000000     
   4.8084584274728975E-002   6.5033410260259661E-002   0.0000000000000000     
   5.0319014429259047E-002   7.0705638444843455E-002   0.0000000000000000     
   5.2479108805962391E-002   7.6555695176915906E-002   0.0000000000000000     
   5.4564867404839013E-002   8.2583580456477013E-002   0.0000000000000000     
   7.7085878925747447E-002   8.5468237486807416E-002   0.0000000000000000     
   7.9769713653302293E-002   9.1558639315048859E-002   0.0000000000000000     
   8.2360971612854425E-002   9.7815584880491996E-002   0.0000000000000000     
   8.4859652804403815E-002  0.10423907418313680        0.0000000000000000     
   8.7265757227950477E-002  0.11082910722298329        0.0000000000000000     
   7.1127763712560743E-002   8.4651752608154621E-002   0.0000000000000000     
   7.3640552570335957E-002   9.0771142715543485E-002   0.0000000000000000     
   7.6065561036224291E-002   9.7053832385112088E-002   0.0000000000000000     
   7.8402789110225732E-002  0.10349982161686044        0.0000000000000000     
   8.0652236792340265E-002  0.11010911041078854        0.0000000000000000     
   6.5388223388013769E-002   8.3898814810215300E-002   0.0000000000000000     
   6.7732156902594126E-002   9.0045609559710207E-002   0.0000000000000000     
   6.9993406177987230E-002   9.6353549713269801E-002   0.0000000000000000     
   7.2171971214193081E-002  0.10282263527089409        0.0000000000000000     
   7.4267852011211694E-002  0.10945286623258307        0.0000000000000000     
   5.9867257952106526E-002   8.3209424092989412E-002   0.0000000000000000     
   6.2044526650076814E-002   8.9382039847549041E-002   0.0000000000000000     
   6.4144507038143256E-002   9.5714736864965150E-002   0.0000000000000000     
   6.6167199116305919E-002  0.10220751514523777        0.0000000000000000     
   6.8112602884564735E-002  0.10886037468836685        0.0000000000000000     
   5.4564867404839013E-002   8.2583580456477013E-002   0.0000000000000000     
   5.6577661812783980E-002   8.8780433579059986E-002   0.0000000000000000     
   5.8518863616692375E-002   9.5137393840198148E-002   0.0000000000000000     
   6.0388472816564176E-002  0.10165446123989144        0.0000000000000000     
   6.2186489412399404E-002  0.10833163577813992        0.0000000000000000     
   8.7265757227950477E-002  0.11082910722298329        0.0000000000000000     
   8.9578855255057210E-002  0.11756372988789147        0.0000000000000000     
   9.1798517257286855E-002  0.12442098806572140        0.0000000000000000     
   9.3924743234639368E-002  0.13140088175647302        0.0000000000000000     
   9.5957533187114780E-002  0.13850341096014634        0.0000000000000000     
   8.0652236792340265E-002  0.11010911041078854        0.0000000000000000     
   8.2812061218157984E-002  0.11686306673767018        0.0000000000000000     
   8.4880419523268885E-002  0.12374305856827909        0.0000000000000000     
   8.6857311707673024E-002  0.13074908590261528        0.0000000000000000     
   8.8742737771370372E-002  0.13788114874067872        0.0000000000000000     
   7.4267852011211694E-002  0.10945286623258307        0.0000000000000000     
   7.6278350022539590E-002  0.11622815849334446        0.0000000000000000     
   7.8200766701673363E-002  0.12313242794818599        0.0000000000000000     
   8.0035102048612972E-002  0.13016567459710765        0.0000000000000000     
   8.1781356063358457E-002  0.13732789844010948        0.0000000000000000     
   6.8112602884564735E-002  0.10886037468836685        0.0000000000000000     
   6.9977721668202056E-002  0.11565900515491435        0.0000000000000000     
   7.1759558792500233E-002  0.12258909620544213        0.0000000000000000     
   7.3458114257459239E-002  0.12965064783995020        0.0000000000000000     
   7.5073388063079088E-002  0.13684366005843854        0.0000000000000000     
   6.2186489412399404E-002  0.10833163577813992        0.0000000000000000     
   6.3910176155145410E-002  0.11515560672237982        0.0000000000000000     
   6.5556795795749551E-002  0.12211306334004747        0.0000000000000000     
   6.7126348334211813E-002  0.12920400563114287        0.0000000000000000     
   6.8618833770532212E-002  0.13642843359566598        0.0000000000000000     
   9.5957533187114780E-002  0.13850341096014634        0.0000000000000000     
   9.7941055192844240E-002  0.14579090401689804        0.0000000000000000     
   9.9919477329958872E-002  0.15332568926688481        0.0000000000000000     
  0.10189279959845871       0.16110776671010663        0.0000000000000000     
  0.10386102199834371       0.16913713634656347        0.0000000000000000     
   8.8742737771370372E-002  0.13788114874067872        0.0000000000000000     
   9.0553939299572964E-002  0.14515495978235343        0.0000000000000000     
   9.2308157877492858E-002  0.15258623172752334        0.0000000000000000     
   9.4005393505130069E-002  0.16017496457618841        0.0000000000000000     
   9.5645646182484542E-002  0.16792115832834872        0.0000000000000000     
   8.1781356063358457E-002  0.13732789844010948        0.0000000000000000     
   8.3439492682378380E-002  0.14460676748547358        0.0000000000000000     
   8.5009475842141288E-002  0.15198994974148211        0.0000000000000000     
   8.6491305542647196E-002  0.15947744520813512        0.0000000000000000     
   8.7884981783896088E-002  0.16706925388543253        0.0000000000000000     
   7.5073388063079088E-002  0.13684366005843854        0.0000000000000000     
   7.6597715341260489E-002  0.14414632712625841        0.0000000000000000     
   7.8023431223904149E-002  0.15153684330876116        0.0000000000000000     
   7.9350535711010126E-002  0.15901520860594662        0.0000000000000000     
   8.0579028802578348E-002  0.16658142301781492        0.0000000000000000     
   6.8618833770532212E-002  0.13642843359566598        0.0000000000000000     
   7.0028607276219262E-002  0.14377363870470808        0.0000000000000000     
   7.1350024022781455E-002  0.15122691242936043        0.0000000000000000     
   7.2583084010218818E-002  0.15878825476962302        0.0000000000000000     
   7.3727787238531295E-002  0.16645766572549583        0.0000000000000000     
   0.0000000000000000        0.0000000000000000        0.0000000000000000     
   2.8802012408802508E-003   1.7443337059974010E-003   0.0000000000000000     
   5.8728977937332269E-003   3.8636520286596740E-003   0.0000000000000000     
   8.9780896585589277E-003   6.3579549679868182E-003   0.0000000000000000     
   1.2195776835357351E-002   9.2272425239788361E-003   0.0000000000000000     
   0.0000000000000000        0.0000000000000000        0.0000000000000000     
   2.6103534801511950E-003   1.5884886279571016E-003   0.0000000000000000     
   5.2897153012714856E-003   3.5558185484879505E-003   0.0000000000000000     
   8.0380854633608691E-003   5.9019897615925458E-003   0.0000000000000000     
   1.0855463966419348E-002   8.6270022672708911E-003   0.0000000000000000     
   0.0000000000000000        0.0000000000000000        0.0000000000000000     
   2.3400579646710939E-003   1.4586071692421691E-003   0.0000000000000000     
   4.7199661160189253E-003   3.2990935447937586E-003   0.0000000000000000     
   7.1397244540434956E-003   5.5214591266547694E-003   0.0000000000000000     
   9.5993329787448060E-003   8.1257039148251997E-003   0.0000000000000000     
   0.0000000000000000        0.0000000000000000        0.0000000000000000     
   2.0693146944399457E-003   1.3546893298526030E-003   0.0000000000000000     
   4.1636502379755486E-003   3.0934770175770981E-003   0.0000000000000000     
   6.2830066306068071E-003   5.2163630631734846E-003   0.0000000000000000     
   8.4273838723337244E-003   7.7233474666417662E-003   0.0000000000000000     
   0.0000000000000000        0.0000000000000000        0.0000000000000000     
   1.7981236694577518E-003   1.2767351097884034E-003   0.0000000000000000     
   3.6207676671413530E-003   2.9389689668379692E-003   0.0000000000000000     
   5.4679319930508036E-003   4.9867015711486974E-003   0.0000000000000000     
   7.3396166471861026E-003   7.4199329227205880E-003   0.0000000000000000     
   1.2195776835357351E-002   9.2272425239788361E-003   0.0000000000000000     
   1.5428223395918182E-002   1.2369440422415369E-002   0.0000000000000000     
   1.8577693412031096E-002   1.5682474389076065E-002   0.0000000000000000     
   2.1644186883696091E-002   1.9166344423960920E-002   0.0000000000000000     
   2.4627703810913174E-002   2.2821050527069939E-002   0.0000000000000000     
   1.0855463966419348E-002   8.6270022672708911E-003   0.0000000000000000     
   1.3688540052759959E-002   1.1648661114119999E-002   0.0000000000000000     
   1.6484002964695738E-002   1.4884771350736901E-002   0.0000000000000000     
   1.9241852702226687E-002   1.8335332977121598E-002   0.0000000000000000     
   2.1962089265352799E-002   2.2000345993274086E-002   0.0000000000000000     
   9.5993329787448060E-003   8.1257039148251997E-003   0.0000000000000000     
   1.2075307459338299E-002   1.1044549372007047E-002   0.0000000000000000     
   1.4544163665039430E-002   1.4210716960902316E-002   0.0000000000000000     
   1.7005901595848191E-002   1.7624206681510997E-002   0.0000000000000000     
   1.9460521251764586E-002   2.1285018533833105E-002   0.0000000000000000     
   8.4273838723337244E-003   7.7233474666417662E-003   0.0000000000000000     
   1.0588525615653207E-002   1.0557105196076512E-002   0.0000000000000000     
   1.2758175513062169E-002   1.3660311219572299E-002   0.0000000000000000     
   1.4936333564560610E-002   1.7032965537129130E-002   0.0000000000000000     
   1.7122999770148528E-002   2.0675068148747002E-002   0.0000000000000000     
   7.3396166471861026E-003   7.4199329227205880E-003   0.0000000000000000     
   9.2281945217046780E-003   1.0186328586328394E-002   0.0000000000000000     
   1.1126038508763958E-002   1.3233554126746858E-002   0.0000000000000000     
   1.3033148608363939E-002   1.6561609543975987E-002   0.0000000000000000     
   1.4949524820504625E-002   2.0170494838015775E-002   0.0000000000000000     
   2.4627703810913174E-002   2.2821050527069939E-002   0.0000000000000000     
   2.7532359808373798E-002   2.6669494806355609E-002   0.0000000000000000     
   3.0362270490769415E-002   3.0734579369770421E-002   0.0000000000000000     
   3.3117435858100029E-002   3.5016304217314380E-002   0.0000000000000000     
   3.5797855910365634E-002   3.9514669348987480E-002   0.0000000000000000     
   2.1962089265352799E-002   2.2000345993274086E-002   0.0000000000000000     
   2.4627977164127186E-002   2.5877741580802818E-002   0.0000000000000000     
   2.7222780908602934E-002   2.9965450921316264E-002   0.0000000000000000     
   2.9746500498780047E-002   3.4263474014814423E-002   0.0000000000000000     
   3.2199135934658528E-002   3.8771810861297287E-002   0.0000000000000000     
   1.9460521251764586E-002   2.1285018533833105E-002   0.0000000000000000     
   2.1879360987786398E-002   2.5174160761953241E-002   0.0000000000000000     
   2.4233759158911405E-002   2.9272641609956032E-002   0.0000000000000000     
   2.6523715765139608E-002   3.3580461077841468E-002   0.0000000000000000     
   2.8749230806471009E-002   3.8097619165609560E-002   0.0000000000000000     
   1.7122999770148528E-002   2.0675068148747002E-002   0.0000000000000000     
   1.9286511279351430E-002   2.4558752349806874E-002   0.0000000000000000     
   2.1395205241694817E-002   2.8656151435689711E-002   0.0000000000000000     
   2.3449081657178700E-002   3.2967265406395510E-002   0.0000000000000000     
   2.5448140525803072E-002   3.7492094261924271E-002   0.0000000000000000     
   1.4949524820504625E-002   2.0170494838015775E-002   0.0000000000000000     
   1.6849428038822282E-002   2.4031516344363721E-002   0.0000000000000000     
   1.8707119156953184E-002   2.8115980398517319E-002   0.0000000000000000     
   2.0522598174897332E-002   3.2423887000476562E-002   0.0000000000000000     
   2.2295865092654722E-002   3.6955236150241461E-002   0.0000000000000000     
   3.5797855910365634E-002   3.9514669348987480E-002   0.0000000000000000     
   3.8403764108415880E-002   4.4221204633926807E-002   0.0000000000000000     
   4.0935393913100381E-002   4.9127439941269425E-002   0.0000000000000000     
   4.3392745324419148E-002   5.4233375271015322E-002   0.0000000000000000     
   4.5775818342372175E-002   5.9539010623164502E-002   0.0000000000000000     
   3.2199135934658528E-002   3.8771810861297287E-002   0.0000000000000000     
   3.4584073252048660E-002   4.3487715982590283E-002   0.0000000000000000     
   3.6904698486760729E-002   4.8408443900518801E-002   0.0000000000000000     
   3.9161011638794742E-002   5.3533994615082840E-002   0.0000000000000000     
   4.1353012708150699E-002   5.8864368126282415E-002   0.0000000000000000     
   2.8749230806471009E-002   3.8097619165609560E-002   0.0000000000000000     
   3.0914392429506412E-002   4.2823259213375889E-002   0.0000000000000000     
   3.3023288780846628E-002   4.7756524561256106E-002   0.0000000000000000     
   3.5075919860491668E-002   5.2897415209250183E-002   0.0000000000000000     
   3.7072285668441514E-002   5.8245931157358120E-002   0.0000000000000000     
   2.5448140525803072E-002   3.7492094261924271E-002   0.0000000000000000     
   2.7394721640789124E-002   4.2227834326283659E-002   0.0000000000000000     
   2.9291164795358073E-002   4.7171681923481354E-002   0.0000000000000000     
   3.1137469989509902E-002   5.2323637053517322E-002   0.0000000000000000     
   3.2933637223244619E-002   5.7683699716391583E-002   0.0000000000000000     
   2.2295865092654722E-002   3.6955236150241461E-002   0.0000000000000000     
   2.4025060885896819E-002   4.1701441321313579E-002   0.0000000000000000     
   2.5708326530295061E-002   4.6653915987194525E-002   0.0000000000000000     
   2.7345662025849465E-002   5.1812660147884271E-002   0.0000000000000000     
   2.8937067372560014E-002   5.7177673803382831E-002   0.0000000000000000     
   4.5775818342372175E-002   5.9539010623164502E-002   0.0000000000000000     
   4.8084584274728975E-002   6.5033410260259661E-002   0.0000000000000000     
   5.0319014429259047E-002   7.0705638444843455E-002   0.0000000000000000     
   5.2479108805962391E-002   7.6555695176915906E-002   0.0000000000000000     
   5.4564867404839013E-002   8.2583580456477013E-002   0.0000000000000000     
   4.1353012708150699E-002   5.8864368126282415E-002   0.0000000000000000     
   4.3478062666209669E-002   6.4385413068110325E-002   0.0000000000000000     
   4.5533522484352718E-002   7.0082978074559349E-002   0.0000000000000000     
   4.7519392162579867E-002   7.5957063145629472E-002   0.0000000000000000     
   4.9435671700891082E-002   8.2007668281320723E-002   0.0000000000000000     
   3.7072285668441514E-002   5.8245931157358120E-002   0.0000000000000000     
   3.9008585867924522E-002   6.3786561405407088E-002   0.0000000000000000     
   4.0881020122169050E-002   6.9503794953224271E-002   0.0000000000000000     
   4.2689588431175061E-002   7.5397631800809675E-002   0.0000000000000000     
   4.4434290794942592E-002   8.1468071948163245E-002   0.0000000000000000     
   3.2933637223244619E-002   5.7683699716391583E-002   0.0000000000000000     
   3.4676153879873550E-002   6.3236855272149964E-002   0.0000000000000000     
   3.6361507342708016E-002   6.8968089080838235E-002   0.0000000000000000     
   3.7989697611748009E-002   7.4877401142456446E-002   0.0000000000000000     
   3.9560724686993544E-002   8.0964791457004553E-002   0.0000000000000000     
   2.8937067372560014E-002   5.7177673803382831E-002   0.0000000000000000     
   3.0480766702056732E-002   6.2736294668338924E-002   0.0000000000000000     
   3.1974984145969623E-002   6.8475860457401283E-002   0.0000000000000000     
   3.3419719704298689E-002   7.4396371170569867E-002   0.0000000000000000     
   3.4814973377043930E-002   8.0497826807844702E-002   0.0000000000000000     
   5.4564867404839013E-002   8.2583580456477013E-002   0.0000000000000000     
   5.6577661812783980E-002   8.8780433579059986E-002   0.0000000000000000     
   5.8518863616692375E-002   9.5137393840198148E-002   0.0000000000000000     
   6.0388472816564176E-002  0.10165446123989144        0.0000000000000000     
   6.2186489412399404E-002  0.10833163577813992        0.0000000000000000     
   4.9435671700891082E-002   8.2007668281320723E-002   0.0000000000000000     
   5.1284247007705522E-002   8.8226742366563596E-002   0.0000000000000000     
   5.3067003991442298E-002   9.4606234286288615E-002   0.0000000000000000     
   5.4783942652101410E-002  0.10114614404049574        0.0000000000000000     
   5.6435062989682858E-002  0.10784647162918502        0.0000000000000000     
   4.4434290794942592E-002   8.1468071948163245E-002   0.0000000000000000     
   4.6116966851831288E-002   8.7706917822380367E-002   0.0000000000000000     
   4.7739456240200796E-002   9.4105971850556358E-002   0.0000000000000000     
   4.9301758960051123E-002  0.10066523403269124        0.0000000000000000     
   5.0803875011382275E-002  0.10738470436878496        0.0000000000000000     
   3.9560724686993544E-002   8.0964791457004553E-002   0.0000000000000000     
   4.1075821345161273E-002   8.7220959946510329E-002   0.0000000000000000     
   4.2536220362967871E-002   9.3636606533001446E-002   0.0000000000000000     
   4.3941921740413337E-002  0.10021173121647790        0.0000000000000000     
   4.5292925477497650E-002  0.10694633399693972        0.0000000000000000     
   3.4814973377043930E-002   8.0497826807844702E-002   0.0000000000000000     
   3.6160810487695490E-002   8.6768868738953453E-002   0.0000000000000000     
   3.7457296359743528E-002   9.3198138333623795E-002   0.0000000000000000     
   3.8704430993188023E-002   9.9785635591855770E-002   0.0000000000000000     
   3.9902214388029003E-002  0.10653136051364931        0.0000000000000000     
   6.2186489412399404E-002  0.10833163577813992        0.0000000000000000     
   6.3910176155145410E-002  0.11515560672237982        0.0000000000000000     
   6.5556795795749551E-002  0.12211306334004747        0.0000000000000000     
   6.7126348334211813E-002  0.12920400563114287        0.0000000000000000     
   6.8618833770532212E-002  0.13642843359566598        0.0000000000000000     
   5.6435062989682858E-002  0.10784647162918502        0.0000000000000000     
   5.8018047948618090E-002  0.11469438239401858        0.0000000000000000     
   5.9530580473338555E-002  0.12167704167665858        0.0000000000000000     
   6.0972660563844247E-002  0.12879444947710500        0.0000000000000000     
   6.2344288220135172E-002  0.13604660579535785        0.0000000000000000     
   5.0803875011382275E-002  0.10738470436878496        0.0000000000000000     
   5.2243671513868634E-002  0.11425175136810828        0.0000000000000000     
   5.3619015587184585E-002  0.12125374353993193        0.0000000000000000     
   5.4929907231330115E-002  0.12839068088425595        0.0000000000000000     
   5.6176346446305252E-002  0.13566256340108029        0.0000000000000000     
   4.5292925477497650E-002  0.10694633399693972        0.0000000000000000     
   4.6587046850897020E-002  0.11382771364464894        0.0000000000000000     
   4.7822101137287618E-002  0.12084316892986761        0.0000000000000000     
   4.8998088336669410E-002  0.12799269985259570        0.0000000000000000     
   5.0115008449042438E-002  0.13527630641283328        0.0000000000000000     
   3.9902214388029003E-002  0.10653136051364931        0.0000000000000000     
   4.1048173959703262E-002  0.11342226922364054        0.0000000000000000     
   4.2139837123647647E-002  0.12044531784646553        0.0000000000000000     
   4.3177203879862139E-002  0.12760050638212425        0.0000000000000000     
   4.4160274228346758E-002  0.13488783483061678        0.0000000000000000     
   6.8618833770532212E-002  0.13642843359566598        0.0000000000000000     
   7.0028607276219262E-002  0.14377363870470808        0.0000000000000000     
   7.1350024022781455E-002  0.15122691242936043        0.0000000000000000     
   7.2583084010218818E-002  0.15878825476962302        0.0000000000000000     
   7.3727787238531295E-002  0.16645766572549583        0.0000000000000000     
   6.2344288220135172E-002  0.13604660579535785        0.0000000000000000     
   6.3645489268733937E-002  0.14343389147525398        0.0000000000000000     
   6.4876289536163131E-002  0.15095668736063023        0.0000000000000000     
   6.6036689022422768E-002  0.15861499345148655        0.0000000000000000     
   6.7126687727512846E-002  0.16640880974782302        0.0000000000000000     
   5.6176346446305252E-002  0.13566256340108029        0.0000000000000000     
   5.7361682100283667E-002  0.14307227469232767        0.0000000000000000     
   5.8489263061439083E-002  0.15062269835992076        0.0000000000000000     
   5.9559089329771490E-002  0.15831383440385960        0.0000000000000000     
   6.0571160905280884E-002  0.16614568282414416        0.0000000000000000     
   5.0115008449042438E-002  0.13527630641283328        0.0000000000000000     
   5.1177185770868480E-002  0.14268878835592905        0.0000000000000000     
   5.2188944598609330E-002  0.15022494542723200        0.0000000000000000     
   5.3150284932264980E-002  0.15788477762674205        0.0000000000000000     
   5.4061206771835416E-002  0.16566828495445923        0.0000000000000000     
   4.4160274228346758E-002  0.13488783483061678        0.0000000000000000     
   4.5092000280488369E-002  0.14228343246605826        0.0000000000000000     
   4.5975334147673852E-002  0.14976342856256403        0.0000000000000000     
   4.6810275829903200E-002  0.15732782312013402        0.0000000000000000     
   4.7596825327176441E-002  0.16497661613876830        0.0000000000000000     
   0.0000000000000000        0.0000000000000000        0.0000000000000000     
   1.7981236694577518E-003   1.2767351097884034E-003   0.0000000000000000     
   3.6207676671413530E-003   2.9389689668379692E-003   0.0000000000000000     
   5.4679319930508036E-003   4.9867015711486974E-003   0.0000000000000000     
   7.3396166471861026E-003   7.4199329227205880E-003   0.0000000000000000     
   0.0000000000000000        0.0000000000000000        0.0000000000000000     
   1.5347665320371655E-003   1.2176153069420124E-003   0.0000000000000000     
   3.0986880946430395E-003   2.8210139368629529E-003   0.0000000000000000     
   4.6917646878176233E-003   4.8101958897628213E-003   0.0000000000000000     
   6.3139963115609148E-003   7.1851611656416174E-003   0.0000000000000000     
   0.0000000000000000        0.0000000000000000        0.0000000000000000     
   1.2875249244908415E-003   1.1702007192058717E-003   0.0000000000000000     
   2.6047812116073103E-003   2.7250564719386292E-003   0.0000000000000000     
   3.9517688613494063E-003   4.6645672581982732E-003   0.0000000000000000     
   5.3284878737171306E-003   6.9887330779848031E-003   0.0000000000000000     
   0.0000000000000000        0.0000000000000000        0.0000000000000000     
   1.0563988468187794E-003   1.1344913465799816E-003   0.0000000000000000     
   2.1390470180341647E-003   2.6510965720649999E-003   0.0000000000000000     
   3.2479445136461543E-003   4.5498156764550530E-003   0.0000000000000000     
   4.3830913336547492E-003   6.8306486597501433E-003   0.0000000000000000     
   0.0000000000000000        0.0000000000000000        0.0000000000000000     
   8.4138829902097952E-004   1.1104871890643417E-003   0.0000000000000000     
   1.7014855139236011E-003   2.5991342372420623E-003   0.0000000000000000     
   2.5802916447078654E-003   4.4659411445331617E-003   0.0000000000000000     
   3.4778066913737716E-003   6.7109079109376399E-003   0.0000000000000000     
   7.3396166471861026E-003   7.4199329227205880E-003   0.0000000000000000     
   9.2281945217046780E-003   1.0186328586328394E-002   0.0000000000000000     
   1.1126038508763958E-002   1.3233554126746858E-002   0.0000000000000000     
   1.3033148608363939E-002   1.6561609543975987E-002   0.0000000000000000     
   1.4949524820504625E-002   2.0170494838015775E-002   0.0000000000000000     
   6.3139963115609148E-003   7.1851611656416174E-003   0.0000000000000000     
   7.9527127449527755E-003   9.8963982451620285E-003   0.0000000000000000     
   9.5952437670730646E-003   1.2894395608986739E-002   0.0000000000000000     
   1.1241589377921786E-002   1.6179153257115751E-002   0.0000000000000000     
   1.2891749577498933E-002   1.9750671189549061E-002   0.0000000000000000     
   5.3284878737171306E-003   6.9887330779848031E-003   0.0000000000000000     
   6.7204788528575574E-003   9.6514928749767640E-003   0.0000000000000000     
   8.1132824029177628E-003   1.2606785592852702E-002   0.0000000000000000     
   9.5068985238977513E-003   1.5854611231612612E-002   0.0000000000000000     
   1.0901327215797516E-002   1.9394969791256499E-002   0.0000000000000000     
   4.3830913336547492E-003   6.8306486597501433E-003   0.0000000000000000     
   5.5314928454190237E-003   9.4516124757725965E-003   0.0000000000000000     
   6.6801544162980522E-003   1.2370724078344735E-002   0.0000000000000000     
   7.8290760462918340E-003   1.5587983467466567E-002   0.0000000000000000     
   8.9782577354003724E-003   1.9103390643138086E-002   0.0000000000000000     
   3.4778066913737716E-003   6.7109079109376399E-003   0.0000000000000000     
   4.3857547226371753E-003   9.2967570475495278E-003   0.0000000000000000     
   5.2958598072139311E-003   1.2186211065462853E-002   0.0000000000000000     
   6.2081219451040389E-003   1.5379269964677617E-002   0.0000000000000000     
   7.1225411363074996E-003   1.8875933745193821E-002   0.0000000000000000     
   1.4949524820504625E-002   2.0170494838015775E-002   0.0000000000000000     
   1.6849428038822282E-002   2.4031516344363721E-002   0.0000000000000000     
   1.8707119156953184E-002   2.8115980398517319E-002   0.0000000000000000     
   2.0522598174897332E-002   3.2423887000476562E-002   0.0000000000000000     
   2.2295865092654722E-002   3.6955236150241461E-002   0.0000000000000000     
   1.2891749577498933E-002   1.9750671189549061E-002   0.0000000000000000     
   1.4528977977331702E-002   2.3582826357619175E-002   0.0000000000000000     
   1.6136528188947279E-002   2.7649495712658585E-002   0.0000000000000000     
   1.7714400212345660E-002   3.1950679254667304E-002   0.0000000000000000     
   1.9262594047526851E-002   3.6486376983645319E-002   0.0000000000000000     
   1.0901327215797516E-002   1.9394969791256499E-002   0.0000000000000000     
   1.2286027806012435E-002   2.3203056001568623E-002   0.0000000000000000     
   1.3650459621937876E-002   2.7254064592333267E-002   0.0000000000000000     
   1.4994622663573839E-002   3.1547995563550417E-002   0.0000000000000000     
   1.6318516930920325E-002   3.6084848915220076E-002   0.0000000000000000     
   8.9782577354003724E-003   1.9103390643138086E-002   0.0000000000000000     
   1.0120577524864482E-002   2.2892205276212083E-002   0.0000000000000000     
   1.1248913455924981E-002   2.6929687037541356E-002   0.0000000000000000     
   1.2363265528581871E-002   3.1215835927125912E-002   0.0000000000000000     
   1.3463633742835152E-002   3.5750651944965725E-002   0.0000000000000000     
   7.1225411363074996E-003   1.8875933745193821E-002   0.0000000000000000     
   8.0326271338878406E-003   2.2650274181549537E-002   0.0000000000000000     
   8.9318896909085944E-003   2.6676363048282858E-002   0.0000000000000000     
   9.8203288073697558E-003   3.0954200345393774E-002   0.0000000000000000     
   1.0697944483271332E-002   3.5483786072882287E-002   0.0000000000000000     
   2.2295865092654722E-002   3.6955236150241461E-002   0.0000000000000000     
   2.4025060885896819E-002   4.1701441321313579E-002   0.0000000000000000     
   2.5708326530295061E-002   4.6653915987194525E-002   0.0000000000000000     
   2.7345662025849465E-002   5.1812660147884271E-002   0.0000000000000000     
   2.8937067372560014E-002   5.7177673803382831E-002   0.0000000000000000     
   1.9262594047526851E-002   3.6486376983645319E-002   0.0000000000000000     
   2.0774935499617755E-002   4.1241454704821066E-002   0.0000000000000000     
   2.2245250373745279E-002   4.6200778223423000E-002   0.0000000000000000     
   2.3673538669909421E-002   5.1364347539451100E-002   0.0000000000000000     
   2.5059800388110190E-002   5.6732162652905385E-002   0.0000000000000000     
   1.6318516930920325E-002   3.6084848915220076E-002   0.0000000000000000     
   1.7613870816740217E-002   4.0845248983161546E-002   0.0000000000000000     
   1.8872412713796399E-002   4.5809820103194170E-002   0.0000000000000000     
   2.0094142622088869E-002   5.0978562275317905E-002   0.0000000000000000     
   2.1279060541617625E-002   5.6351475499532788E-002   0.0000000000000000     
   1.3463633742835152E-002   3.5750651944965725E-002   0.0000000000000000     
   1.4541866837264210E-002   4.0512824156335024E-002   0.0000000000000000     
   1.5589813550448424E-002   4.5481041626508005E-002   0.0000000000000000     
   1.6607473882387799E-002   5.0655304355484668E-002   0.0000000000000000     
   1.7594847833082333E-002   5.6035612343265012E-002   0.0000000000000000     
   1.0697944483271332E-002   3.5483786072882287E-002   0.0000000000000000     
   1.1558923561189727E-002   4.0244180224341508E-002   0.0000000000000000     
   1.2397452883701355E-002   4.5214442793364541E-002   0.0000000000000000     
   1.3213532450806214E-002   5.0394573779951407E-002   0.0000000000000000     
   1.4007162262504305E-002   5.5784573184102085E-002   0.0000000000000000     
   2.8937067372560014E-002   5.7177673803382831E-002   0.0000000000000000     
   3.0480766702056732E-002   6.2736294668338924E-002   0.0000000000000000     
   3.1974984145969623E-002   6.8475860457401283E-002   0.0000000000000000     
   3.3419719704298689E-002   7.4396371170569867E-002   0.0000000000000000     
   3.4814973377043930E-002   8.0497826807844702E-002   0.0000000000000000     
   2.5059800388110190E-002   5.6732162652905385E-002   0.0000000000000000     
   2.6404176124245282E-002   6.2294079115796500E-002   0.0000000000000000     
   2.7706806474212427E-002   6.8039952480135099E-002   0.0000000000000000     
   2.8967691438011603E-002   7.3969782745921198E-002   0.0000000000000000     
   3.0186831015642825E-002   8.0083569913154767E-002   0.0000000000000000     
   2.1279060541617625E-002   5.6351475499532788E-002   0.0000000000000000     
   2.2428133936210411E-002   6.1919408136345180E-002   0.0000000000000000     
   2.3542330269694947E-002   6.7673208546261507E-002   0.0000000000000000     
   2.4621649542071251E-002   7.3612876729281781E-002   0.0000000000000000     
   2.5666091753339303E-002   7.9738412685405949E-002   0.0000000000000000     
   1.7594847833082333E-002   5.6035612343265012E-002   0.0000000000000000     
   1.8552640137952107E-002   6.1612281729984980E-002   0.0000000000000000     
   1.9481555532417205E-002   6.7375628655780506E-002   0.0000000000000000     
   2.0381594016477628E-002   7.3325653120651590E-002   0.0000000000000000     
   2.1252755590133367E-002   7.9462355124598247E-002   0.0000000000000000     
   1.4007162262504305E-002   5.5784573184102085E-002   0.0000000000000000     
   1.4777694729470379E-002   6.1372699896715871E-002   0.0000000000000000     
   1.5524482262379189E-002   6.7147212808692056E-002   0.0000000000000000     
   1.6247524861230732E-002   7.3108111920030666E-002   0.0000000000000000     
   1.6946822526025015E-002   7.9255397230731661E-002   0.0000000000000000     
   3.4814973377043930E-002   8.0497826807844702E-002   0.0000000000000000     
   3.6160810487695490E-002   8.6768868738953453E-002   0.0000000000000000     
   3.7457296359743528E-002   9.3198138333623795E-002   0.0000000000000000     
   3.8704430993188023E-002   9.9785635591855770E-002   0.0000000000000000     
   3.9902214388029003E-002  0.10653136051364931        0.0000000000000000     
   3.0186831015642825E-002   8.0083569913154767E-002   0.0000000000000000     
   3.1363093074781370E-002   8.6367857802118114E-002   0.0000000000000000     
   3.2495345483102490E-002   9.2809190233093503E-002   0.0000000000000000     
   3.3583588240606220E-002   9.9407567206080988E-002   0.0000000000000000     
   3.4627821347292531E-002  0.10616298872108049        0.0000000000000000     
   2.5666091753339303E-002   7.9738412685405949E-002   0.0000000000000000     
   2.6673827901766332E-002   8.6035140738412674E-002   0.0000000000000000     
   2.7643028985619537E-002   9.2488385212080623E-002   0.0000000000000000     
   2.8573695004898914E-002   9.9098146106409699E-002   0.0000000000000000     
   2.9465825959604477E-002  0.10586442342140000        0.0000000000000000     
   2.1252755590133367E-002   7.9462355124598247E-002   0.0000000000000000     
   2.2093014968650387E-002   8.5770717547837189E-002   0.0000000000000000     
   2.2900346867294641E-002   9.2235723270585088E-002   0.0000000000000000     
   2.3674751286066126E-002   9.8857372292841972E-002   0.0000000000000000     
   2.4416228224964844E-002  0.10563566461460783        0.0000000000000000     
   1.6946822526025015E-002   7.9255397230731661E-002   0.0000000000000000     
   1.7620654275433537E-002   8.5574588230391574E-002   0.0000000000000000     
   1.8267299128127815E-002   9.2051204408606951E-002   0.0000000000000000     
   1.8886757084107843E-002   9.8685245765377752E-002   0.0000000000000000     
   1.9479028143373621E-002  0.10547671230070398        0.0000000000000000     
   3.9902214388029003E-002  0.10653136051364931        0.0000000000000000     
   4.1048173959703262E-002  0.11342226922364054        0.0000000000000000     
   4.2139837123647647E-002  0.12044531784646553        0.0000000000000000     
   4.3177203879862139E-002  0.12760050638212425        0.0000000000000000     
   4.4160274228346758E-002  0.13488783483061678        0.0000000000000000     
   3.4627821347292531E-002  0.10616298872108049        0.0000000000000000     
   3.5625483949571130E-002  0.11306211933294706        0.0000000000000000     
   3.6574015193851714E-002  0.12009162359653568        0.0000000000000000     
   3.7473415080134263E-002  0.12725150151184633        0.0000000000000000     
   3.8323683608418799E-002  0.13454175307887908        0.0000000000000000     
   2.9465825959604477E-002  0.10586442342140000        0.0000000000000000     
   3.0317407929784383E-002  0.11277396520043242        0.0000000000000000     
   3.1126426995486803E-002  0.11981351948688798        0.0000000000000000     
   3.1892883156711731E-002  0.12698308628076663        0.0000000000000000     
   3.2616776413459170E-002  0.13428266558206844        0.0000000000000000     
   2.4416228224964844E-002  0.10563566461460783        0.0000000000000000     
   2.5123945900343031E-002  0.11255780682609663        0.0000000000000000     
   2.5797072528552928E-002  0.11961100551752243        0.0000000000000000     
   2.6435608109594548E-002  0.12679526068888519        0.0000000000000000     
   2.7039552643467881E-002  0.13411057234018492        0.0000000000000000     
   1.9479028143373621E-002  0.10547671230070398        0.0000000000000000     
   2.0045097861247071E-002  0.11241364420993971        0.0000000000000000     
   2.0585951793050099E-002  0.11948408168843903        0.0000000000000000     
   2.1101589938782719E-002  0.12668802473620194        0.0000000000000000     
   2.1592012298444919E-002  0.13402547335322837        0.0000000000000000     
   4.4160274228346758E-002  0.13488783483061678        0.0000000000000000     
   4.5092000280488369E-002  0.14228343246605826        0.0000000000000000     
   4.5975334147673852E-002  0.14976342856256403        0.0000000000000000     
   4.6810275829903200E-002  0.15732782312013402        0.0000000000000000     
   4.7596825327176441E-002  0.16497661613876830        0.0000000000000000     
   3.8323683608418799E-002  0.13454175307887908        0.0000000000000000     
   3.9125303198778043E-002  0.14192002979074150        0.0000000000000000     
   3.9878756271284725E-002  0.14934398314054126        0.0000000000000000     
   4.0584042825938832E-002  0.15681361312827835        0.0000000000000000     
   4.1241162862740391E-002  0.16432891975395281        0.0000000000000000     
   3.2616776413459170E-002  0.13428266558206844        0.0000000000000000     
   3.3296272095372233E-002  0.14166240309800512        0.0000000000000000     
   3.3929535532093998E-002  0.14907244453578830        0.0000000000000000     
   3.4516566723624499E-002  0.15651278989541800        0.0000000000000000     
   3.5057365669963710E-002  0.16398343917689429        0.0000000000000000     
   2.7039552643467881E-002  0.13411057234018492        0.0000000000000000     
   2.7604906970270925E-002  0.14151055238784904        0.0000000000000000     
   2.8127671930101700E-002  0.14894881274830502        0.0000000000000000     
   2.8607847522960184E-002  0.15642535342155292        0.0000000000000000     
   2.9045433748846397E-002  0.16394017440759276        0.0000000000000000     
   2.1592012298444919E-002  0.13402547335322837        0.0000000000000000     
   2.2051207823474132E-002  0.14146447766027331        0.0000000000000000     
   2.2473165465307796E-002  0.14897308777809157        0.0000000000000000     
   2.2857885223945898E-002  0.15655130370668319        0.0000000000000000     
   2.3205367099388457E-002  0.16419912544604820        0.0000000000000000     
   0.0000000000000000        0.0000000000000000        0.0000000000000000     
   8.4138829902097952E-004   1.1104871890643417E-003   0.0000000000000000     
   1.7014855139236011E-003   2.5991342372420623E-003   0.0000000000000000     
   2.5802916447078654E-003   4.4659411445331617E-003   0.0000000000000000     
   3.4778066913737716E-003   6.7109079109376399E-003   0.0000000000000000     
   0.0000000000000000        0.0000000000000000        0.0000000000000000     
   6.3358694318959500E-004   1.0946045828473772E-003   0.0000000000000000     
   1.2775362997752349E-003   2.5632911289788316E-003   0.0000000000000000     
   1.9318480697569198E-003   4.4060596383943629E-003   0.0000000000000000     
   2.5965222531346491E-003   6.6229101110939718E-003   0.0000000000000000     
   0.0000000000000000        0.0000000000000000        0.0000000000000000     
   4.2408844141678028E-004   1.0832598641175133E-003   0.0000000000000000     
   8.5263897608867925E-004   2.5376889087843205E-003   0.0000000000000000     
   1.2856516040156971E-003   4.3632871340004223E-003   0.0000000000000000     
   1.7231263251978337E-003   6.5600545397658180E-003   0.0000000000000000     
   0.0000000000000000        0.0000000000000000        0.0000000000000000     
   2.1289279370253494E-004   1.0764530328747500E-003   0.0000000000000000     
   4.2679354286393400E-004   2.5223275766585295E-003   0.0000000000000000     
   6.4170224748419705E-004   4.3376236313513407E-003   0.0000000000000000     
   8.5761890756332428E-004   6.5223411969531795E-003   0.0000000000000000     
   0.0000000000000000        0.0000000000000000        0.0000000000000000     
   4.6859136579660565E-014   1.0741840891190873E-003   0.0000000000000000     
   1.0099912442843029E-013   2.5172071326014589E-003   0.0000000000000000     
   1.6241988223114623E-013   4.3290691304471163E-003   0.0000000000000000     
   2.3112146419791701E-013   6.5097700826560580E-003   0.0000000000000000     
   3.4778066913737716E-003   6.7109079109376399E-003   0.0000000000000000     
   4.3857547226371753E-003   9.2967570475495278E-003   0.0000000000000000     
   5.2958598072139311E-003   1.2186211065462853E-002   0.0000000000000000     
   6.2081219451040389E-003   1.5379269964677617E-002   0.0000000000000000     
   7.1225411363074996E-003   1.8875933745193821E-002   0.0000000000000000     
   2.5965222531346491E-003   6.6229101110939718E-003   0.0000000000000000     
   3.2685594171515493E-003   9.1809569726527245E-003   0.0000000000000000     
   3.9449601290507457E-003   1.2047314648645684E-002   0.0000000000000000     
   4.6257243888322376E-003   1.5221983139072850E-002   0.0000000000000000     
   5.3108521964960256E-003   1.8704962443934228E-002   0.0000000000000000     
   1.7231263251978337E-003   6.5600545397658180E-003   0.0000000000000000     
   2.1652018616016831E-003   9.0982426334273534E-003   0.0000000000000000     
   2.6120169351938412E-003   1.1948102922331866E-002   0.0000000000000000     
   3.0635715459743067E-003   1.5109635406479362E-002   0.0000000000000000     
   3.5198656939430801E-003   1.8582840085869839E-002   0.0000000000000000     
   8.5761890756332428E-004   6.5223411969531795E-003   0.0000000000000000     
   1.0756820559875773E-003   9.0486140298734127E-003   0.0000000000000000     
   1.2970302256432179E-003   1.1888575886521400E-002   0.0000000000000000     
   1.5216634165302458E-003   1.5042226766897145E-002   0.0000000000000000     
   1.7495816286486612E-003   1.8509566671000642E-002   0.0000000000000000     
   2.3112146419791701E-013   6.5097700826560580E-003   0.0000000000000000     
   3.0923093946588764E-013   9.0320711619909077E-003   0.0000000000000000     
   3.9887541105352101E-013   1.1868733541214288E-002   0.0000000000000000     
   5.0005500262762740E-013   1.5019757220326200E-002   0.0000000000000000     
   6.1276960068579189E-013   1.8485142199326645E-002   0.0000000000000000     
   7.1225411363074996E-003   1.8875933745193821E-002   0.0000000000000000     
   8.0326271338878406E-003   2.2650274181549537E-002   0.0000000000000000     
   8.9318896909085944E-003   2.6676363048282858E-002   0.0000000000000000     
   9.8203288073697558E-003   3.0954200345393774E-002   0.0000000000000000     
   1.0697944483271332E-002   3.5483786072882287E-002   0.0000000000000000     
   5.3108521964960256E-003   1.8704962443934228E-002   0.0000000000000000     
   5.9936876036482852E-003   2.2468736812137163E-002   0.0000000000000000     
   6.6675746618951870E-003   2.6485790492589010E-002   0.0000000000000000     
   7.3325133712367338E-003   3.0756123485289767E-002   0.0000000000000000     
   7.9885037316729229E-003   3.5279735790239436E-002   0.0000000000000000     
   3.5198656939430801E-003   1.8582840085869839E-002   0.0000000000000000     
   3.9752699047115826E-003   2.2339067262531126E-002   0.0000000000000000     
   4.4241547038912348E-003   2.6349667238491060E-002   0.0000000000000000     
   4.8665200914820381E-003   3.0614640013749642E-002   0.0000000000000000     
   5.3023660674839917E-003   3.5133985588306875E-002   0.0000000000000000     
   1.7495816286486612E-003   1.8509566671000642E-002   0.0000000000000000     
   1.9773740370777355E-003   2.2261265532731420E-002   0.0000000000000000     
   2.2016298168967387E-003   2.6267993285989010E-002   0.0000000000000000     
   2.4223489681056715E-003   3.0529749930773405E-002   0.0000000000000000     
   2.6395314907045326E-003   3.5046535467084604E-002   0.0000000000000000     
   6.1276960068579189E-013   1.8485142199326645E-002   0.0000000000000000     
   7.4674251157591520E-013   2.2235331622738053E-002   0.0000000000000000     
   9.1169633691448593E-013   2.6240768635082849E-002   0.0000000000000000     
   1.1076327707673986E-012   3.0501453236361040E-002   0.0000000000000000     
   1.3345500919637043E-012   3.5017385426572623E-002   0.0000000000000000     
   1.0697944483271332E-002   3.5483786072882287E-002   0.0000000000000000     
   1.1558923561189727E-002   4.0244180224341508E-002   0.0000000000000000     
   1.2397452883701355E-002   4.5214442793364541E-002   0.0000000000000000     
   1.3213532450806214E-002   5.0394573779951407E-002   0.0000000000000000     
   1.4007162262504305E-002   5.5784573184102085E-002   0.0000000000000000     
   7.9885037316729229E-003   3.5279735790239436E-002   0.0000000000000000     
   8.6326811454358679E-003   4.0037020925314519E-002   0.0000000000000000     
   9.2621810147576773E-003   4.5008372408391527E-002   0.0000000000000000     
   9.8770033396383527E-003   5.0193790239470466E-002   0.0000000000000000     
   1.0477148120077891E-002   5.5593274418551324E-002   0.0000000000000000     
   5.3023660674839917E-003   3.5133985588306875E-002   0.0000000000000000     
   5.7307797469217277E-003   3.9889049997387613E-002   0.0000000000000000     
   6.1508482448198818E-003   4.4861179276216724E-002   0.0000000000000000     
   6.5625715611784515E-003   5.0050373424794209E-002   0.0000000000000000     
   6.9659496959974393E-003   5.5456632443120067E-002   0.0000000000000000     
   2.6395314907045326E-003   3.5046535467084604E-002   0.0000000000000000     
   2.8532193656473043E-003   3.9800267440560790E-002   0.0000000000000000     
   3.0634545738879642E-003   4.4772863396840126E-002   0.0000000000000000     
   3.2702371154265139E-003   4.9964323335922635E-002   0.0000000000000000     
   3.4735669902629515E-003   5.5374647257808315E-002   0.0000000000000000     
   1.3345500919637043E-012   3.5017385426572623E-002   0.0000000000000000     
   1.6125987264276054E-012   3.9770673254834049E-002   0.0000000000000000     
   1.9619266064183072E-012   4.4743424770261747E-002   0.0000000000000000     
   2.3825364153361867E-012   4.9935639972855758E-002   0.0000000000000000     
   2.8744253071505410E-012   5.5347318862616048E-002   0.0000000000000000     
   1.4007162262504305E-002   5.5784573184102085E-002   0.0000000000000000     
   1.4777694729470379E-002   6.1372699896715871E-002   0.0000000000000000     
   1.5524482262379189E-002   6.7147212808692056E-002   0.0000000000000000     
   1.6247524861230732E-002   7.3108111920030666E-002   0.0000000000000000     
   1.6946822526025015E-002   7.9255397230731661E-002   0.0000000000000000     
   1.0477148120077891E-002   5.5593274418551324E-002   0.0000000000000000     
   1.1060585398887050E-002   6.1192616543326882E-002   0.0000000000000000     
   1.1625285218876581E-002   6.6977608211489917E-002   0.0000000000000000     
   1.2171247580046486E-002   7.2948249423040415E-002   0.0000000000000000     
   1.2698472482396764E-002   7.9104540177978369E-002   0.0000000000000000     
   6.9659496959974393E-003   5.5456632443120067E-002   0.0000000000000000     
   7.3585998343239437E-003   6.1063985576607006E-002   0.0000000000000000     
   7.7381391612050612E-003   6.6856462070667741E-002   0.0000000000000000     
   8.1045676766407920E-003   7.2834061925302285E-002   0.0000000000000000     
   8.4578853806311378E-003   7.8996785140510603E-002   0.0000000000000000     
   3.4735669902629515E-003   5.5374647257808315E-002   0.0000000000000000     
   3.6717380357810621E-003   6.0986806996556252E-002   0.0000000000000000     
   3.8630440893646298E-003   6.6783774386225556E-002   0.0000000000000000     
   4.0474851510136538E-003   7.2765549426816262E-002   0.0000000000000000     
   4.2250612207281341E-003   7.8932132118328321E-002   0.0000000000000000     
   2.8744253071505410E-012   5.5347318862616048E-002   0.0000000000000000     
   3.2584055896164865E-012   6.0961080803174590E-002   0.0000000000000000     
   3.3552870768241427E-012   6.6759545158163361E-002   0.0000000000000000     
   3.1650703379796502E-012   7.2742711927582360E-002   0.0000000000000000     
   2.6877556170284977E-012   7.8910581111431552E-002   0.0000000000000000     
   1.6946822526025015E-002   7.9255397230731661E-002   0.0000000000000000     
   1.7620654275433537E-002   8.5574588230391574E-002   0.0000000000000000     
   1.8267299128127815E-002   9.2051204408606951E-002   0.0000000000000000     
   1.8886757084107843E-002   9.8685245765377752E-002   0.0000000000000000     
   1.9479028143373621E-002  0.10547671230070398        0.0000000000000000     
   1.2698472482396764E-002   7.9104540177978369E-002   0.0000000000000000     
   1.3205762453379524E-002   8.5432853647263982E-002   0.0000000000000000     
   1.3691920020446870E-002   9.1919563001857413E-002   0.0000000000000000     
   1.4156945183598809E-002   9.8564668241758704E-002   0.0000000000000000     
   1.4600837942835333E-002  0.10536816936696780        0.0000000000000000     
   8.4578853806311378E-003   7.8996785140510603E-002   0.0000000000000000     
   8.7973561337520850E-003   8.5331614659642507E-002   0.0000000000000000     
   9.1222437965796255E-003   9.1825533426047809E-002   0.0000000000000000     
   9.4325483691137593E-003   9.8478541439726522E-002   0.0000000000000000     
   9.7282698513544846E-003  0.10529063870067863        0.0000000000000000     
   4.2250612207281341E-003   7.8932132118328321E-002   0.0000000000000000     
   4.3954353165512258E-003   8.5270871267527151E-002   0.0000000000000000     
   4.5582704565260788E-003   9.1769115681178112E-002   0.0000000000000000     
   4.7135666406526991E-003   9.8426865359281218E-002   0.0000000000000000     
   4.8613238689310806E-003  0.10524412030183648        0.0000000000000000     
   2.6877556170284977E-012   7.8910581111431552E-002   0.0000000000000000     
   1.7769438264564341E-012   8.5250623470917927E-002   0.0000000000000000     
   2.8623202983149576E-013   9.1750309767248323E-002   0.0000000000000000     
  -1.7843751514345571E-012   9.8409640000422793E-002   0.0000000000000000     
  -4.4348804142946285E-012  0.10522861417044131        0.0000000000000000     
   1.9479028143373621E-002  0.10547671230070398        0.0000000000000000     
   2.0045097861247071E-002  0.11241364420993971        0.0000000000000000     
   2.0585951793050099E-002  0.11948408168843903        0.0000000000000000     
   2.1101589938782719E-002  0.12668802473620194        0.0000000000000000     
   2.1592012298444919E-002  0.13402547335322837        0.0000000000000000     
   1.4600837942835333E-002  0.10536816936696780        0.0000000000000000     
   1.5026123461502370E-002  0.11231900006533169        0.0000000000000000     
   1.5435326902945851E-002  0.11940609402469736        0.0000000000000000     
   1.5828448267165778E-002  0.12662945124506478        0.0000000000000000     
   1.6205487554162141E-002  0.13398907172643393        0.0000000000000000     
   9.7282698513544846E-003  0.10529063870067863        0.0000000000000000     
   1.0012282350114808E-002  0.11225139710564261        0.0000000000000000     
   1.0287459972207733E-002  0.11935038855135689        0.0000000000000000     
   1.0553802717633265E-002  0.12658761303782157        0.0000000000000000     
   1.0811310586391398E-002  0.13396307056503656        0.0000000000000000     
   4.8613238689310806E-003  0.10524412030183648        0.0000000000000000     
   5.0035745270843798E-003  0.11221083533087245        0.0000000000000000     
   5.1423510008357471E-003  0.11931696526841774        0.0000000000000000     
   5.2776532901851834E-003  0.12656251011447237        0.0000000000000000     
   5.4094813951326860E-003  0.13394746986903630        0.0000000000000000     
  -4.4348804142946285E-012  0.10522861417044131        0.0000000000000000     
  -7.5889143059948427E-012  0.11219731474102122        0.0000000000000000     
  -1.1170112144270883E-011  0.11930582417587982        0.0000000000000000     
  -1.5178470025994928E-011  0.12655414247501712        0.0000000000000000     
  -1.9613991420613930E-011  0.13394226963843309        0.0000000000000000     
   2.1592012298444919E-002  0.13402547335322837        0.0000000000000000     
   2.2051207823474132E-002  0.14146447766027331        0.0000000000000000     
   2.2473165465307796E-002  0.14897308777809157        0.0000000000000000     
   2.2857885223945898E-002  0.15655130370668319        0.0000000000000000     
   2.3205367099388457E-002  0.16419912544604820        0.0000000000000000     
   1.6205487554162141E-002  0.13398907172643393        0.0000000000000000     
   1.6559357714767433E-002  0.14147043926618777        0.0000000000000000     
   1.6882971699814137E-002  0.14905903766170922        0.0000000000000000     
   1.7176329509302250E-002  0.15675486691299831        0.0000000000000000     
   1.7439431143231775E-002  0.16455792702005492        0.0000000000000000     
   1.0811310586391398E-002  0.13396307056503656        0.0000000000000000     
   1.1053539703936400E-002  0.14147469755650238        0.0000000000000000     
   1.1274046195722542E-002  0.14912043043571938        0.0000000000000000     
   1.1472830061749822E-002  0.15690026920268768        0.0000000000000000     
   1.1649891302018243E-002  0.16481421385740719        0.0000000000000000     
   5.4094813951326860E-003  0.13394746986903630        0.0000000000000000     
   5.5337537909810391E-003  0.14147725253121704        0.0000000000000000     
   5.6463889530330175E-003  0.14915726610012209        0.0000000000000000     
   5.7473868812886238E-003  0.15698751057575144        0.0000000000000000     
   5.8367475757478589E-003  0.16496798595810500        0.0000000000000000     
  -1.9613991420613930E-011  0.13394226963843309        0.0000000000000000     
  -2.4098654278700837E-011  0.14147810419033183        0.0000000000000000     
  -2.8254439803435116E-011  0.14916954465491725        0.0000000000000000     
  -3.2081347290085355E-011  0.15701659103218943        0.0000000000000000     
  -3.5579378852845789E-011  0.16501924332214835        0.0000000000000000     
   0.0000000000000000        0.0000000000000000        0.0000000000000000     
   4.6859136579660565E-014   1.0741840891190873E-003   0.0000000000000000     
   1.0099912442843029E-013   2.5172071326014589E-003   0.0000000000000000     
   1.6241988223114623E-013   4.3290691304471163E-003   0.0000000000000000     
   2.3112146419791701E-013   6.5097700826560580E-003   0.0000000000000000     
   0.0000000000000000        0.0000000000000000        0.0000000000000000     
  -2.1289279361073199E-004   1.0764530328522023E-003   0.0000000000000000     
  -4.2679354266625630E-004   2.5223275766162252E-003   0.0000000000000000     
  -6.4170224716657298E-004   4.3376236312920695E-003   0.0000000000000000     
  -8.5761890711168198E-004   6.5223411968797331E-003   0.0000000000000000     
   0.0000000000000000        0.0000000000000000        0.0000000000000000     
  -4.2408844133072336E-004   1.0832598640757734E-003   0.0000000000000000     
  -8.5263897590396351E-004   2.5376889087059462E-003   0.0000000000000000     
  -1.2856516037197203E-003   4.3632871338905197E-003   0.0000000000000000     
  -1.7231263247779937E-003   6.5600545396294913E-003   0.0000000000000000     
   0.0000000000000000        0.0000000000000000        0.0000000000000000     
  -6.3358694311311517E-004   1.0946045827897998E-003   0.0000000000000000     
  -1.2775362996121223E-003   2.5632911288706226E-003   0.0000000000000000     
  -1.9318480694970215E-003   4.4060596382424671E-003   0.0000000000000000     
  -2.5965222527678132E-003   6.6229101109053336E-003   0.0000000000000000     
   0.0000000000000000        0.0000000000000000        0.0000000000000000     
  -8.4138829895790692E-004   1.1104871889942825E-003   0.0000000000000000     
  -1.7014855137907328E-003   2.5991342371102528E-003   0.0000000000000000     
  -2.5802916444984773E-003   4.4659411443479123E-003   0.0000000000000000     
  -3.4778066910811402E-003   6.7109079107072582E-003   0.0000000000000000     
   2.3112146419791701E-013   6.5097700826560580E-003   0.0000000000000000     
   3.0923093946588764E-013   9.0320711619909077E-003   0.0000000000000000     
   3.9887541105352101E-013   1.1868733541214288E-002   0.0000000000000000     
   5.0005500262762740E-013   1.5019757220326200E-002   0.0000000000000000     
   6.1276960068579189E-013   1.8485142199326645E-002   0.0000000000000000     
  -8.5761890711168198E-004   6.5223411968797331E-003   0.0000000000000000     
  -1.0756820553838615E-003   9.0486140297863418E-003   0.0000000000000000     
  -1.2970302248653887E-003   1.1888575886419023E-002   0.0000000000000000     
  -1.5216634155562638E-003   1.5042226766777774E-002   0.0000000000000000     
  -1.7495816274564866E-003   1.8509566670862593E-002   0.0000000000000000     
  -1.7231263247779937E-003   6.5600545396294913E-003   0.0000000000000000     
  -2.1652018610422057E-003   9.0982426332662288E-003   0.0000000000000000     
  -2.6120169344757767E-003   1.1948102922144094E-002   0.0000000000000000     
  -3.0635715450787076E-003   1.5109635406263092E-002   0.0000000000000000     
  -3.5198656928509980E-003   1.8582840085623220E-002   0.0000000000000000     
  -2.5965222527678132E-003   6.6229101109053336E-003   0.0000000000000000     
  -3.2685594166658007E-003   9.1809569724305672E-003   0.0000000000000000     
  -3.9449601284322891E-003   1.2047314648389510E-002   0.0000000000000000     
  -4.6257243880672766E-003   1.5221983138782168E-002   0.0000000000000000     
  -5.3108521955707666E-003   1.8704962443608530E-002   0.0000000000000000     
  -3.4778066910811402E-003   6.7109079107072582E-003   0.0000000000000000     
  -4.3857547222546480E-003   9.2967570472793550E-003   0.0000000000000000     
  -5.2958598067349254E-003   1.2186211065155265E-002   0.0000000000000000     
  -6.2081219445219724E-003   1.5379269964334991E-002   0.0000000000000000     
  -7.1225411356157890E-003   1.8875933744818531E-002   0.0000000000000000     
   6.1276960068579189E-013   1.8485142199326645E-002   0.0000000000000000     
   7.4674251157591520E-013   2.2235331622738053E-002   0.0000000000000000     
   9.1169633691448593E-013   2.6240768635082849E-002   0.0000000000000000     
   1.1076327707673986E-012   3.0501453236361040E-002   0.0000000000000000     
   1.3345500919637043E-012   3.5017385426572623E-002   0.0000000000000000     
  -1.7495816274564866E-003   1.8509566670862593E-002   0.0000000000000000     
  -1.9773740356269650E-003   2.2261265532569643E-002   0.0000000000000000     
  -2.2016298151286053E-003   2.6267993285795078E-002   0.0000000000000000     
  -2.4223489659614089E-003   3.0529749930538898E-002   0.0000000000000000     
  -2.6395314881253748E-003   3.5046535466801108E-002   0.0000000000000000     
  -3.5198656928509980E-003   1.8582840085623220E-002   0.0000000000000000     
  -3.9752699033889557E-003   2.2339067262244806E-002   0.0000000000000000     
  -4.4241547022888838E-003   2.6349667238148165E-002   0.0000000000000000     
  -4.8665200895507861E-003   3.0614640013333319E-002   0.0000000000000000     
  -5.3023660651746601E-003   3.5133985587800239E-002   0.0000000000000000     
  -5.3108521955707666E-003   1.8704962443608530E-002   0.0000000000000000     
  -5.9936876025392279E-003   2.2468736811763541E-002   0.0000000000000000     
  -6.6675746605691392E-003   2.6485790492142124E-002   0.0000000000000000     
  -7.3325133696604981E-003   3.0756123484744283E-002   0.0000000000000000     
  -7.9885037298133062E-003   3.5279735789570013E-002   0.0000000000000000     
  -7.1225411356157890E-003   1.8875933744818531E-002   0.0000000000000000     
  -8.0326271330777854E-003   2.2650274181125855E-002   0.0000000000000000     
  -8.9318896899693700E-003   2.6676363047776947E-002   0.0000000000000000     
  -9.8203288062905444E-003   3.0954200344771809E-002   0.0000000000000000     
  -1.0697944482041311E-002   3.5483786072110432E-002   0.0000000000000000     
   1.3345500919637043E-012   3.5017385426572623E-002   0.0000000000000000     
   1.6125987264276054E-012   3.9770673254834049E-002   0.0000000000000000     
   1.9619266064183072E-012   4.4743424770261747E-002   0.0000000000000000     
   2.3825364153361867E-012   4.9935639972855758E-002   0.0000000000000000     
   2.8744253071505410E-012   5.5347318862616048E-002   0.0000000000000000     
  -2.6395314881253748E-003   3.5046535466801108E-002   0.0000000000000000     
  -2.8532193625354454E-003   3.9800267440240691E-002   0.0000000000000000     
  -3.0634545701065585E-003   4.4772863396516600E-002   0.0000000000000000     
  -3.2702371108387159E-003   4.9964323335628863E-002   0.0000000000000000     
  -3.4735669847319166E-003   5.5374647257577465E-002   0.0000000000000000     
  -5.3023660651746601E-003   3.5133985587800239E-002   0.0000000000000000     
  -5.7307797441498807E-003   3.9889049996814016E-002   0.0000000000000000     
  -6.1508482414658183E-003   4.4861179275639679E-002   0.0000000000000000     
  -6.5625715571224772E-003   5.0050373424277247E-002   0.0000000000000000     
  -6.9659496911198540E-003   5.5456632442726729E-002   0.0000000000000000     
  -7.9885037298133062E-003   3.5279735789570013E-002   0.0000000000000000     
  -8.6326811432307100E-003   4.0037020924554016E-002   0.0000000000000000     
  -9.2621810121158565E-003   4.5008372407630996E-002   0.0000000000000000     
  -9.8770033364687492E-003   5.0193790238800925E-002   0.0000000000000000     
  -1.0477148116289386E-002   5.5593274418063839E-002   0.0000000000000000     
  -1.0697944482041311E-002   3.5483786072110432E-002   0.0000000000000000     
  -1.1558923559777928E-002   4.0244180223460706E-002   0.0000000000000000     
  -1.2397452882056669E-002   4.5214442792490532E-002   0.0000000000000000     
  -1.3213532448877531E-002   5.0394573779199890E-002   0.0000000000000000     
  -1.4007162260240515E-002   5.5784573183588801E-002   0.0000000000000000     
   2.8744253071505410E-012   5.5347318862616048E-002   0.0000000000000000     
   3.2584055896164865E-012   6.0961080803174590E-002   0.0000000000000000     
   3.3552870768241427E-012   6.6759545158163361E-002   0.0000000000000000     
   3.1650703379796502E-012   7.2742711927582360E-002   0.0000000000000000     
   2.6877556170284977E-012   7.8910581111431552E-002   0.0000000000000000     
  -3.4735669847319166E-003   5.5374647257577465E-002   0.0000000000000000     
  -3.6717380295148566E-003   6.0986806996483178E-002   0.0000000000000000     
  -3.8630440829162289E-003   6.6783774386466765E-002   0.0000000000000000     
  -4.0474851449360336E-003   7.2765549427528262E-002   0.0000000000000000     
  -4.2250612155742715E-003   7.8932132119667639E-002   0.0000000000000000     
  -6.9659496911198540E-003   5.5456632442726729E-002   0.0000000000000000     
  -7.3585998288095552E-003   6.1063985576503110E-002   0.0000000000000000     
  -7.7381391555431805E-003   6.6856462071121434E-002   0.0000000000000000     
  -8.1045676713207403E-003   7.2834061926581664E-002   0.0000000000000000     
  -8.4578853761422216E-003   7.8996785142883830E-002   0.0000000000000000     
  -1.0477148116289386E-002   5.5593274418063839E-002   0.0000000000000000     
  -1.1060585394625686E-002   6.1192616543234407E-002   0.0000000000000000     
  -1.1625285214525575E-002   6.6977608212127324E-002   0.0000000000000000     
  -1.2171247575989043E-002   7.2948249424742581E-002   0.0000000000000000     
  -1.2698472479016095E-002   7.9104540181080221E-002   0.0000000000000000     
  -1.4007162260240515E-002   5.5784573183588801E-002   0.0000000000000000     
  -1.4777694726963254E-002   6.1372699896677055E-002   0.0000000000000000     
  -1.5524482259863399E-002   6.7147212809484449E-002   0.0000000000000000     
  -1.6247524858940949E-002   7.3108111922010999E-002   0.0000000000000000     
  -1.6946822524195892E-002   7.9255397234256716E-002   0.0000000000000000     
   2.6877556170284977E-012   7.8910581111431552E-002   0.0000000000000000     
   1.7769438264564341E-012   8.5250623470917927E-002   0.0000000000000000     
   2.8623202983149576E-013   9.1750309767248323E-002   0.0000000000000000     
  -1.7843751514345571E-012   9.8409640000422793E-002   0.0000000000000000     
  -4.4348804142946285E-012  0.10522861417044131        0.0000000000000000     
  -4.2250612155742715E-003   7.8932132119667639E-002   0.0000000000000000     
  -4.3954353131547691E-003   8.5270871269571114E-002   0.0000000000000000     
  -4.5582704560013483E-003   9.1769115683924887E-002   0.0000000000000000     
  -4.7135666441140119E-003   9.8426865362729016E-002   0.0000000000000000     
  -4.8613238774927597E-003  0.10524412030598349        0.0000000000000000     
  -8.4578853761422216E-003   7.8996785142883830E-002   0.0000000000000000     
  -8.7973561308279154E-003   8.5331614663243030E-002   0.0000000000000000     
  -9.1222437961980957E-003   9.1825533430874323E-002   0.0000000000000000     
  -9.4325483722527640E-003   9.8478541445777751E-002   0.0000000000000000     
  -9.7282698589919187E-003  0.10529063870795327        0.0000000000000000     
  -1.2698472479016095E-002   7.9104540181080221E-002   0.0000000000000000     
  -1.3205762451242498E-002   8.5432853651933691E-002   0.0000000000000000     
  -1.3691920020304007E-002   9.1919563008096616E-002   0.0000000000000000     
  -1.4156945186200628E-002   9.8564668249568929E-002   0.0000000000000000     
  -1.4600837948932360E-002  0.10536816937635070        0.0000000000000000     
  -1.6946822524195892E-002   7.9255397234256716E-002   0.0000000000000000     
  -1.7620654274398510E-002   8.5574588235643109E-002   0.0000000000000000     
  -1.8267299128319085E-002   9.2051204415591767E-002   0.0000000000000000     
  -1.8886757085957606E-002   9.8685245774102648E-002   0.0000000000000000     
  -1.9479028147314080E-002  0.10547671231117577        0.0000000000000000     
  -4.4348804142946285E-012  0.10522861417044131        0.0000000000000000     
  -7.5889143059948427E-012  0.11219731474102122        0.0000000000000000     
  -1.1170112144270883E-011  0.11930582417587982        0.0000000000000000     
  -1.5178470025994928E-011  0.12655414247501712        0.0000000000000000     
  -1.9613991420613930E-011  0.13394226963843309        0.0000000000000000     
  -4.8613238774927597E-003  0.10524412030598349        0.0000000000000000     
  -5.0035745417151556E-003  0.11221083533552145        0.0000000000000000     
  -5.1423510223587649E-003  0.11931696527317616        0.0000000000000000     
  -5.2776533194235885E-003  0.12656251011894756        0.0000000000000000     
  -5.4094814329096221E-003  0.13394746987283568        0.0000000000000000     
  -9.7282698589919187E-003  0.10529063870795327        0.0000000000000000     
  -1.0012282363104424E-002  0.11225139711380569        0.0000000000000000     
  -1.0287459991279141E-002  0.11935038855973973        0.0000000000000000     
  -1.0553802743516059E-002  0.12658761304575539        0.0000000000000000     
  -1.0811310619815192E-002  0.13396307057185272        0.0000000000000000     
  -1.4600837948932360E-002  0.10536816937635070        0.0000000000000000     
  -1.5026123471756725E-002  0.11231900007587388        0.0000000000000000     
  -1.5435326917931234E-002  0.11940609403557055        0.0000000000000000     
  -1.5828448287455891E-002  0.12662945125544064        0.0000000000000000     
  -1.6205487580330701E-002  0.13398907173548422        0.0000000000000000     
  -1.9479028147314080E-002  0.10547671231117577        0.0000000000000000     
  -2.0045097867672047E-002  0.11241364422172609        0.0000000000000000     
  -2.0585951802315049E-002  0.11948408170066860        0.0000000000000000     
  -2.1101589951243081E-002  0.12668802474800328        0.0000000000000000     
  -2.1592012314456153E-002  0.13402547336373016        0.0000000000000000     
  -1.9613991420613930E-011  0.13394226963843309        0.0000000000000000     
  -2.4098654278700837E-011  0.14147810419033183        0.0000000000000000     
  -2.8254439803435116E-011  0.14916954465491725        0.0000000000000000     
  -3.2081347290085355E-011  0.15701659103218943        0.0000000000000000     
  -3.5579378852845789E-011  0.16501924332214835        0.0000000000000000     
  -5.4094814329096221E-003  0.13394746987283568        0.0000000000000000     
  -5.5337538374034944E-003  0.14147725253363666        0.0000000000000000     
  -5.6463890074918291E-003  0.14915726610014671        0.0000000000000000     
  -5.7473869431746254E-003  0.15698751057236573        0.0000000000000000     
  -5.8367476444518866E-003  0.16496798595029380        0.0000000000000000     
  -1.0811310619815192E-002  0.13396307057185272        0.0000000000000000     
  -1.1053539745034299E-002  0.14147469756092165        0.0000000000000000     
  -1.1274046244031152E-002  0.14912043043585216        0.0000000000000000     
  -1.1472830116805747E-002  0.15690026919664432        0.0000000000000000     
  -1.1649891363358087E-002  0.16481421384329792        0.0000000000000000     
  -1.6205487580330701E-002  0.13398907173548422        0.0000000000000000     
  -1.6559357746991070E-002  0.14147043927218672        0.0000000000000000     
  -1.6882971737872402E-002  0.14905903766203363        0.0000000000000000     
  -1.7176329552974705E-002  0.15675486690502502        0.0000000000000000     
  -1.7439431192297974E-002  0.16455792700116076        0.0000000000000000     
  -2.1592012314456153E-002  0.13402547336373016        0.0000000000000000     
  -2.2051207843273808E-002  0.14146447766743189        0.0000000000000000     
  -2.2473165489015588E-002  0.14897308777869114        0.0000000000000000     
  -2.2857885251681503E-002  0.15655130369750794        0.0000000000000000     
  -2.3205367131271554E-002  0.16419912542388224        0.0000000000000000     
   0.0000000000000000        0.0000000000000000        0.0000000000000000     
  -8.4138829895790692E-004   1.1104871889942825E-003   0.0000000000000000     
  -1.7014855137907328E-003   2.5991342371102528E-003   0.0000000000000000     
  -2.5802916444984773E-003   4.4659411443479123E-003   0.0000000000000000     
  -3.4778066910811402E-003   6.7109079107072582E-003   0.0000000000000000     
   0.0000000000000000        0.0000000000000000        0.0000000000000000     
  -1.0563988467711580E-003   1.1344913465010356E-003   0.0000000000000000     
  -2.1390470179359156E-003   2.6510965719168098E-003   0.0000000000000000     
  -3.2479445134942718E-003   4.5498156762473234E-003   0.0000000000000000     
  -4.3830913334462268E-003   6.8306486594925751E-003   0.0000000000000000     
   0.0000000000000000        0.0000000000000000        0.0000000000000000     
  -1.2875249244589271E-003   1.1702007191218746E-003   0.0000000000000000     
  -2.6047812115437903E-003   2.7250564717822647E-003   0.0000000000000000     
  -3.9517688612545898E-003   4.6645672579811708E-003   0.0000000000000000     
  -5.3284878735913258E-003   6.9887330777185916E-003   0.0000000000000000     
   0.0000000000000000        0.0000000000000000        0.0000000000000000     
  -1.5347665320212141E-003   1.2176153068567995E-003   0.0000000000000000     
  -3.0986880946143585E-003   2.8210139367066175E-003   0.0000000000000000     
  -4.6917646877794308E-003   4.8101958895494547E-003   0.0000000000000000     
  -6.3139963115164356E-003   7.1851611653853094E-003   0.0000000000000000     
   0.0000000000000000        0.0000000000000000        0.0000000000000000     
  -1.7981236694580192E-003   1.2767351097058106E-003   0.0000000000000000     
  -3.6207676671476180E-003   2.9389689666898685E-003   0.0000000000000000     
  -5.4679319930687970E-003   4.9867015709521741E-003   0.0000000000000000     
  -7.3396166472215561E-003   7.4199329224927269E-003   0.0000000000000000     
  -3.4778066910811402E-003   6.7109079107072582E-003   0.0000000000000000     
  -4.3857547222546480E-003   9.2967570472793550E-003   0.0000000000000000     
  -5.2958598067349254E-003   1.2186211065155265E-002   0.0000000000000000     
  -6.2081219445219724E-003   1.5379269964334991E-002   0.0000000000000000     
  -7.1225411356157890E-003   1.8875933744818531E-002   0.0000000000000000     
  -4.3830913334462268E-003   6.8306486594925751E-003   0.0000000000000000     
  -5.5314928451528902E-003   9.4516124754729577E-003   0.0000000000000000     
  -6.6801544159753676E-003   1.2370724078008859E-002   0.0000000000000000     
  -7.8290760459136625E-003   1.5587983467100285E-002   0.0000000000000000     
  -8.9782577349677688E-003   1.9103390642747232E-002   0.0000000000000000     
  -5.3284878735913258E-003   6.9887330777185916E-003   0.0000000000000000     
  -6.7204788527046710E-003   9.6514928746717302E-003   0.0000000000000000     
  -8.1132824027453001E-003   1.2606785592517791E-002   0.0000000000000000     
  -9.5068985237132132E-003   1.5854611231256768E-002   0.0000000000000000     
  -1.0901327215608407E-002   1.9394969790888665E-002   0.0000000000000000     
  -6.3139963115164356E-003   7.1851611653853094E-003   0.0000000000000000     
  -7.9527127449099903E-003   9.8963982448756760E-003   0.0000000000000000     
  -9.5952437670447210E-003   1.2894395608682054E-002   0.0000000000000000     
  -1.1241589377920623E-002   1.6179153256804440E-002   0.0000000000000000     
  -1.2891749577537699E-002   1.9750671189242827E-002   0.0000000000000000     
  -7.3396166472215561E-003   7.4199329224927269E-003   0.0000000000000000     
  -9.2281945217688489E-003   1.0186328586084795E-002   0.0000000000000000     
  -1.1126038508873629E-002   1.3233554126501653E-002   0.0000000000000000     
  -1.3033148608535900E-002   1.6561609543743291E-002   0.0000000000000000     
  -1.4949524820755655E-002   2.0170494837809718E-002   0.0000000000000000     
  -7.1225411356157890E-003   1.8875933744818531E-002   0.0000000000000000     
  -8.0326271330777854E-003   2.2650274181125855E-002   0.0000000000000000     
  -8.9318896899693700E-003   2.6676363047776947E-002   0.0000000000000000     
  -9.8203288062905444E-003   3.0954200344771809E-002   0.0000000000000000     
  -1.0697944482041311E-002   3.5483786072110432E-002   0.0000000000000000     
  -8.9782577349677688E-003   1.9103390642747232E-002   0.0000000000000000     
  -1.0120577524384363E-002   2.2892205275780328E-002   0.0000000000000000     
  -1.1248913455410106E-002   2.6929687037030182E-002   0.0000000000000000     
  -1.2363265528045004E-002   3.1215835926496821E-002   0.0000000000000000     
  -1.3463633742289052E-002   3.5750651944180221E-002   0.0000000000000000     
  -1.0901327215608407E-002   1.9394969790888665E-002   0.0000000000000000     
  -1.2286027805838691E-002   2.3203056001175525E-002   0.0000000000000000     
  -1.3650459621811871E-002   2.7254064591879384E-002   0.0000000000000000     
  -1.4994622663527949E-002   3.1547995563000246E-002   0.0000000000000000     
  -1.6318516930986918E-002   3.6084848914538115E-002   0.0000000000000000     
  -1.2891749577537699E-002   1.9750671189242827E-002   0.0000000000000000     
  -1.4528977977440774E-002   2.3582826357311452E-002   0.0000000000000000     
  -1.6136528189174670E-002   2.7649495712324532E-002   0.0000000000000000     
  -1.7714400212739376E-002   3.1950679254282091E-002   0.0000000000000000     
  -1.9262594048134910E-002   3.6486376983184111E-002   0.0000000000000000     
  -1.4949524820755655E-002   2.0170494837809718E-002   0.0000000000000000     
  -1.6849428039190612E-002   2.4031516344188111E-002   0.0000000000000000     
  -1.8707119157498495E-002   2.8115980398365659E-002   0.0000000000000000     
  -2.0522598175679294E-002   3.2423887000342350E-002   0.0000000000000000     
  -2.2295865093733016E-002   3.6955236150118212E-002   0.0000000000000000     
  -1.0697944482041311E-002   3.5483786072110432E-002   0.0000000000000000     
  -1.1558923559777928E-002   4.0244180223460706E-002   0.0000000000000000     
  -1.2397452882056669E-002   4.5214442792490532E-002   0.0000000000000000     
  -1.3213532448877531E-002   5.0394573779199890E-002   0.0000000000000000     
  -1.4007162260240515E-002   5.5784573183588801E-002   0.0000000000000000     
  -1.3463633742289052E-002   3.5750651944180221E-002   0.0000000000000000     
  -1.4541866836713144E-002   4.0512824155437943E-002   0.0000000000000000     
  -1.5589813549888164E-002   4.5481041625627543E-002   0.0000000000000000     
  -1.6607473881814109E-002   5.0655304354749013E-002   0.0000000000000000     
  -1.7594847832490983E-002   5.6035612342802354E-002   0.0000000000000000     
  -1.6318516930986918E-002   3.6084848914538115E-002   0.0000000000000000     
  -1.7613870816957960E-002   4.0845248982389580E-002   0.0000000000000000     
  -1.8872412714210241E-002   4.5809820102451250E-002   0.0000000000000000     
  -2.0094142622743769E-002   5.0978562274723138E-002   0.0000000000000000     
  -2.1279060542558539E-002   5.6351475499205224E-002   0.0000000000000000     
  -1.9262594048134910E-002   3.6486376983184111E-002   0.0000000000000000     
  -2.0774935500512383E-002   4.1241454704315617E-002   0.0000000000000000     
  -2.2245250375022910E-002   4.6200778222961682E-002   0.0000000000000000     
  -2.3673538671666515E-002   5.1364347539122272E-002   0.0000000000000000     
  -2.5059800390443188E-002   5.6732162652797416E-002   0.0000000000000000     
  -2.2295865093733016E-002   3.6955236150118212E-002   0.0000000000000000     
  -2.4025060887376392E-002   4.1701441321216073E-002   0.0000000000000000     
  -2.5708326532326173E-002   4.6653915987158817E-002   0.0000000000000000     
  -2.7345662028582345E-002   5.1812660147946443E-002   0.0000000000000000     
  -2.8937067376144925E-002   5.7177673803578938E-002   0.0000000000000000     
  -1.4007162260240515E-002   5.5784573183588801E-002   0.0000000000000000     
  -1.4777694726963254E-002   6.1372699896677055E-002   0.0000000000000000     
  -1.5524482259863399E-002   6.7147212809484449E-002   0.0000000000000000     
  -1.6247524858940949E-002   7.3108111922010999E-002   0.0000000000000000     
  -1.6946822524195892E-002   7.9255397234256716E-002   0.0000000000000000     
  -1.7594847832490983E-002   5.6035612342802354E-002   0.0000000000000000     
  -1.8552640137376487E-002   6.1612281730030492E-002   0.0000000000000000     
  -1.9481555531928339E-002   6.7375628656676373E-002   0.0000000000000000     
  -2.0381594016146521E-002   7.3325653122739989E-002   0.0000000000000000     
  -2.1252755590031053E-002   7.9462355128221321E-002   0.0000000000000000     
  -2.1279060542558539E-002   5.6351475499205224E-002   0.0000000000000000     
  -2.2428133937419614E-002   6.1919408136494165E-002   0.0000000000000000     
  -2.3542330271092055E-002   6.7673208547186586E-002   0.0000000000000000     
  -2.4621649543575864E-002   7.3612876731282542E-002   0.0000000000000000     
  -2.5666091754871036E-002   7.9738412688781998E-002   0.0000000000000000     
  -2.5059800390443188E-002   5.6732162652797416E-002   0.0000000000000000     
  -2.6404176127092626E-002   6.2294079116068046E-002   0.0000000000000000     
  -2.7706806477354552E-002   6.8039952481015145E-002   0.0000000000000000     
  -2.8967691441228953E-002   7.3969782747638685E-002   0.0000000000000000     
  -3.0186831018715828E-002   8.0083569915938693E-002   0.0000000000000000     
  -2.8937067376144925E-002   5.7177673803578938E-002   0.0000000000000000     
  -3.0480766706395542E-002   6.2736294668752163E-002   0.0000000000000000     
  -3.1974984150715834E-002   6.8475860458161994E-002   0.0000000000000000     
  -3.3419719709105795E-002   7.4396371171808418E-002   0.0000000000000000     
  -3.4814973381565438E-002   8.0497826809691433E-002   0.0000000000000000     
  -1.6946822524195892E-002   7.9255397234256716E-002   0.0000000000000000     
  -1.7620654274398510E-002   8.5574588235643109E-002   0.0000000000000000     
  -1.8267299128319085E-002   9.2051204415591767E-002   0.0000000000000000     
  -1.8886757085957606E-002   9.8685245774102648E-002   0.0000000000000000     
  -1.9479028147314080E-002  0.10547671231117577        0.0000000000000000     
  -2.1252755590031053E-002   7.9462355128221321E-002   0.0000000000000000     
  -2.2093014968854074E-002   8.5770717553175321E-002   0.0000000000000000     
  -2.2900346867887746E-002   9.2235723277656889E-002   0.0000000000000000     
  -2.3674751287132045E-002   9.8857372301666024E-002   0.0000000000000000     
  -2.4416228226587001E-002  0.10563566462520274        0.0000000000000000     
  -2.5666091754871036E-002   7.9738412688781998E-002   0.0000000000000000     
  -2.6673827903167302E-002   8.6035140743334376E-002   0.0000000000000000     
  -2.7643028986654387E-002   9.2488385218589167E-002   0.0000000000000000     
  -2.8573695005332300E-002   9.9098146114546315E-002   0.0000000000000000     
  -2.9465825959201025E-002  0.10586442343120588        0.0000000000000000     
  -3.0186831018715828E-002   8.0083569915938693E-002   0.0000000000000000     
  -3.1363093077338193E-002   8.6367857806120274E-002   0.0000000000000000     
  -3.2495345484619034E-002   9.2809190238388545E-002   0.0000000000000000     
  -3.3583588240558356E-002   9.9407567212743547E-002   0.0000000000000000     
  -3.4627821345156164E-002  0.10616298872918520        0.0000000000000000     
  -3.4814973381565438E-002   8.0497826809691433E-002   0.0000000000000000     
  -3.6160810491366741E-002   8.6768868741532987E-002   0.0000000000000000     
  -3.7457296361781661E-002   9.3198138337055078E-002   0.0000000000000000     
  -3.8704430992810214E-002   9.9785635596257652E-002   0.0000000000000000     
  -3.9902214384452399E-002  0.10653136051914072        0.0000000000000000     
  -1.9479028147314080E-002  0.10547671231117577        0.0000000000000000     
  -2.0045097867672047E-002  0.11241364422172609        0.0000000000000000     
  -2.0585951802315049E-002  0.11948408170066860        0.0000000000000000     
  -2.1101589951243081E-002  0.12668802474800328        0.0000000000000000     
  -2.1592012314456153E-002  0.13402547336373016        0.0000000000000000     
  -2.4416228226587001E-002  0.10563566462520274        0.0000000000000000     
  -2.5123945902617913E-002  0.11255780683806474        0.0000000000000000     
  -2.5797072531590123E-002  0.11961100553004984        0.0000000000000000     
  -2.6435608113503622E-002  0.12679526070115807        0.0000000000000000     
  -2.7039552648358403E-002  0.13411057235138935        0.0000000000000000     
  -2.9465825959201025E-002  0.10586442343120588        0.0000000000000000     
  -3.0317407928361833E-002  0.11277396521159233        0.0000000000000000     
  -3.1126426992915984E-002  0.11981351949873027        0.0000000000000000     
  -3.1892883152863483E-002  0.12698308629261965        0.0000000000000000     
  -3.2616776408204325E-002  0.13428266559326049        0.0000000000000000     
  -3.4627821345156164E-002  0.10616298872918520        0.0000000000000000     
  -3.5625483944903800E-002  0.11306211934230888        0.0000000000000000     
  -3.6574015186292642E-002  0.12009162360670984        0.0000000000000000     
  -3.7473415069322683E-002  0.12725150152238812        0.0000000000000000     
  -3.8323683593993921E-002  0.13454175308934366        0.0000000000000000     
  -3.9902214384452399E-002  0.10653136051914072        0.0000000000000000     
  -4.1048173952243826E-002  0.11342226923021437        0.0000000000000000     
  -4.2139837111720091E-002  0.12044531785398860        0.0000000000000000     
  -4.3177203862881208E-002  0.12760050639046341        0.0000000000000000     
  -4.4160274205727171E-002  0.13488783483963884        0.0000000000000000     
  -2.1592012314456153E-002  0.13402547336373016        0.0000000000000000     
  -2.2051207843273808E-002  0.14146447766743189        0.0000000000000000     
  -2.2473165489015588E-002  0.14897308777869114        0.0000000000000000     
  -2.2857885251681503E-002  0.15655130369750794        0.0000000000000000     
  -2.3205367131271554E-002  0.16419912542388224        0.0000000000000000     
  -2.7039552648358403E-002  0.13411057235138935        0.0000000000000000     
  -2.7604906976412134E-002  0.14151055239584354        0.0000000000000000     
  -2.8127671937922462E-002  0.14894881274962041        0.0000000000000000     
  -2.8607847532889377E-002  0.15642535341271996        0.0000000000000000     
  -2.9045433761312890E-002  0.16394017438514227        0.0000000000000000     
  -3.2616776408204325E-002  0.13428266559326049        0.0000000000000000     
  -3.3296272088935687E-002  0.14166240310660796        0.0000000000000000     
  -3.3929535525054774E-002  0.14907244453861715        0.0000000000000000     
  -3.4516566716561552E-002  0.15651278988928807        0.0000000000000000     
  -3.5057365663456047E-002  0.16398343915862079        0.0000000000000000     
  -3.8323683593993921E-002  0.13454175308934366        0.0000000000000000     
  -3.9125303180844485E-002  0.14192002979972518        0.0000000000000000     
  -3.9878756250412518E-002  0.14934398314568137        0.0000000000000000     
  -4.0584042802698048E-002  0.15681361312721226        0.0000000000000000     
  -4.1241162837701024E-002  0.16432891974431774        0.0000000000000000     
  -4.4160274205727171E-002  0.13488783483963884        0.0000000000000000     
  -4.5092000252138505E-002  0.14228343247519523        0.0000000000000000     
  -4.5975334113995715E-002  0.14976342857081310        0.0000000000000000     
  -4.6810275791298823E-002  0.15732782312649241        0.0000000000000000     
  -4.7596825284047822E-002  0.16497661614223311        0.0000000000000000     
   0.0000000000000000        0.0000000000000000        0.0000000000000000     
  -1.7981236694580192E-003   1.2767351097058106E-003   0.0000000000000000     
  -3.6207676671476180E-003   2.9389689666898685E-003   0.0000000000000000     
  -5.4679319930687970E-003   4.9867015709521741E-003   0.0000000000000000     
  -7.3396166472215561E-003   7.4199329224927269E-003   0.0000000000000000     
   0.0000000000000000        0.0000000000000000        0.0000000000000000     
  -2.0693146944562504E-003   1.3546893297754433E-003   0.0000000000000000     
  -4.1636502380156416E-003   3.0934770174426336E-003   0.0000000000000000     
  -6.2830066306781727E-003   5.2163630630015709E-003   0.0000000000000000     
  -8.4273838724438464E-003   7.7233474664522555E-003   0.0000000000000000     
   0.0000000000000000        0.0000000000000000        0.0000000000000000     
  -2.3400579647028163E-003   1.4586071691722335E-003   0.0000000000000000     
  -4.7199661160904982E-003   3.2990935446755281E-003   0.0000000000000000     
  -7.1397244541630493E-003   5.5214591265098862E-003   0.0000000000000000     
  -9.5993329789204676E-003   8.1257039146753040E-003   0.0000000000000000     
   0.0000000000000000        0.0000000000000000        0.0000000000000000     
  -2.6103534801977164E-003   1.5884886278961809E-003   0.0000000000000000     
  -5.2897153013721915E-003   3.5558185483885534E-003   0.0000000000000000     
  -8.0380854635234249E-003   5.9019897614771173E-003   0.0000000000000000     
  -1.0855463966651416E-002   8.6270022671618742E-003   0.0000000000000000     
   0.0000000000000000        0.0000000000000000        0.0000000000000000     
  -2.8802012409409514E-003   1.7443337059472859E-003   0.0000000000000000     
  -5.8728977938607187E-003   3.8636520285817086E-003   0.0000000000000000     
  -8.9780896587593004E-003   6.3579549679032678E-003   0.0000000000000000     
  -1.2195776835636697E-002   9.2272425239119660E-003   0.0000000000000000     
  -7.3396166472215561E-003   7.4199329224927269E-003   0.0000000000000000     
  -9.2281945217688489E-003   1.0186328586084795E-002   0.0000000000000000     
  -1.1126038508873629E-002   1.3233554126501653E-002   0.0000000000000000     
  -1.3033148608535900E-002   1.6561609543743291E-002   0.0000000000000000     
  -1.4949524820755655E-002   2.0170494837809718E-002   0.0000000000000000     
  -8.4273838724438464E-003   7.7233474664522555E-003   0.0000000000000000     
  -1.0588525615815299E-002   1.0557105195887501E-002   0.0000000000000000     
  -1.2758175513295172E-002   1.3660311219400126E-002   0.0000000000000000     
  -1.4936333564883468E-002   1.7032965536990127E-002   0.0000000000000000     
  -1.7122999770580179E-002   2.0675068148657508E-002   0.0000000000000000     
  -9.5993329789204676E-003   8.1257039146753040E-003   0.0000000000000000     
  -1.2075307459583400E-002   1.1044549371872209E-002   0.0000000000000000     
  -1.4544163665372501E-002   1.4210716960801020E-002   0.0000000000000000     
  -1.7005901596287766E-002   1.7624206681461741E-002   0.0000000000000000     
  -1.9460521252329201E-002   2.1285018533854377E-002   0.0000000000000000     
  -1.0855463966651416E-002   8.6270022671618742E-003   0.0000000000000000     
  -1.3688540053073151E-002   1.1648661114038915E-002   0.0000000000000000     
  -1.6484002965105611E-002   1.4884771350704337E-002   0.0000000000000000     
  -1.9241852702748800E-002   1.8335332977158138E-002   0.0000000000000000     
  -2.1962089266002714E-002   2.2000345993400311E-002   0.0000000000000000     
  -1.2195776835636697E-002   9.2272425239119660E-003   0.0000000000000000     
  -1.5428223396284552E-002   1.2369440422387624E-002   0.0000000000000000     
  -1.8577693412494510E-002   1.5682474389110069E-002   0.0000000000000000     
  -2.1644186884266562E-002   1.9166344424079308E-002   0.0000000000000000     
  -2.4627703811600718E-002   2.2821050527295328E-002   0.0000000000000000     
  -1.4949524820755655E-002   2.0170494837809718E-002   0.0000000000000000     
  -1.6849428039190612E-002   2.4031516344188111E-002   0.0000000000000000     
  -1.8707119157498495E-002   2.8115980398365659E-002   0.0000000000000000     
  -2.0522598175679294E-002   3.2423887000342350E-002   0.0000000000000000     
  -2.2295865093733016E-002   3.6955236150118212E-002   0.0000000000000000     
  -1.7122999770580179E-002   2.0675068148657508E-002   0.0000000000000000     
  -1.9286511279933541E-002   2.4558752349782009E-002   0.0000000000000000     
  -2.1395205242491770E-002   2.8656151435743373E-002   0.0000000000000000     
  -2.3449081658254860E-002   3.2967265406541602E-002   0.0000000000000000     
  -2.5448140527222832E-002   3.7492094262176701E-002   0.0000000000000000     
  -1.9460521252329201E-002   2.1285018533854377E-002   0.0000000000000000     
  -2.1879360988514885E-002   2.5174160762069658E-002   0.0000000000000000     
  -2.4233759159862901E-002   2.9272641610198331E-002   0.0000000000000000     
  -2.6523715766373253E-002   3.3580461078240406E-002   0.0000000000000000     
  -2.8749230808045943E-002   3.8097619166195869E-002   0.0000000000000000     
  -2.1962089266002714E-002   2.2000345993400311E-002   0.0000000000000000     
  -2.4627977164934648E-002   2.5877741581051054E-002   0.0000000000000000     
  -2.7222780909611898E-002   2.9965450921730533E-002   0.0000000000000000     
  -2.9746500500034460E-002   3.4263474015438757E-002   0.0000000000000000     
  -3.2199135936202342E-002   3.8771810862175717E-002   0.0000000000000000     
  -2.4627703811600718E-002   2.2821050527295328E-002   0.0000000000000000     
  -2.7532359809192827E-002   2.6669494806726198E-002   0.0000000000000000     
  -3.0362270491738754E-002   3.0734579370339972E-002   0.0000000000000000     
  -3.3117435859238487E-002   3.5016304218136653E-002   0.0000000000000000     
  -3.5797855911692038E-002   3.9514669350116244E-002   0.0000000000000000     
  -2.2295865093733016E-002   3.6955236150118212E-002   0.0000000000000000     
  -2.4025060887376392E-002   4.1701441321216073E-002   0.0000000000000000     
  -2.5708326532326173E-002   4.6653915987158817E-002   0.0000000000000000     
  -2.7345662028582345E-002   5.1812660147946443E-002   0.0000000000000000     
  -2.8937067376144925E-002   5.7177673803578938E-002   0.0000000000000000     
  -2.5448140527222832E-002   3.7492094262176701E-002   0.0000000000000000     
  -2.7394721642678359E-002   4.2227834326640006E-002   0.0000000000000000     
  -2.9291164797904154E-002   4.7171681923922876E-002   0.0000000000000000     
  -3.1137469992900201E-002   5.2323637054025297E-002   0.0000000000000000     
  -3.2933637227666512E-002   5.7683699716947270E-002   0.0000000000000000     
  -2.8749230808045943E-002   3.8097619166195869E-002   0.0000000000000000     
  -3.0914392431546631E-002   4.2823259214136496E-002   0.0000000000000000     
  -3.3023288783540994E-002   4.7756524562134035E-002   0.0000000000000000     
  -3.5075919864029019E-002   5.2897415210188502E-002   0.0000000000000000     
  -3.7072285673010727E-002   5.8245931158299902E-002   0.0000000000000000     
  -3.2199135936202342E-002   3.8771810862175717E-002   0.0000000000000000     
  -3.4584073253981197E-002   4.3487715983705537E-002   0.0000000000000000     
  -3.6904698489236692E-002   4.8408443901792317E-002   0.0000000000000000     
  -3.9161011641968793E-002   5.3533994616436091E-002   0.0000000000000000     
  -4.1353012712177548E-002   5.8864368127636825E-002   0.0000000000000000     
  -3.5797855911692038E-002   3.9514669350116244E-002   0.0000000000000000     
  -3.8403764109982072E-002   4.4221204635347136E-002   0.0000000000000000     
  -4.0935393914991243E-002   4.9127439942897734E-002   0.0000000000000000     
  -4.3392745326719544E-002   5.4233375272768045E-002   0.0000000000000000     
  -4.5775818345166995E-002   5.9539010624958061E-002   0.0000000000000000     
  -2.8937067376144925E-002   5.7177673803578938E-002   0.0000000000000000     
  -3.0480766706395542E-002   6.2736294668752163E-002   0.0000000000000000     
  -3.1974984150715834E-002   6.8475860458161994E-002   0.0000000000000000     
  -3.3419719709105795E-002   7.4396371171808418E-002   0.0000000000000000     
  -3.4814973381565438E-002   8.0497826809691433E-002   0.0000000000000000     
  -3.2933637227666512E-002   5.7683699716947270E-002   0.0000000000000000     
  -3.4676153885206590E-002   6.3236855272747042E-002   0.0000000000000000     
  -3.6361507348523885E-002   6.8968089081482845E-002   0.0000000000000000     
  -3.7989697617618431E-002   7.4877401143154665E-002   0.0000000000000000     
  -3.9560724692490216E-002   8.0964791457762503E-002   0.0000000000000000     
  -3.7072285673010727E-002   5.8245931158299902E-002   0.0000000000000000     
  -3.9008585873403993E-002   6.3786561406253189E-002   0.0000000000000000     
  -4.0881020128126708E-002   6.9503794953833326E-002   0.0000000000000000     
  -4.2689588437178891E-002   7.5397631801040338E-002   0.0000000000000000     
  -4.4434290800560515E-002   8.1468071947874199E-002   0.0000000000000000     
  -4.1353012712177548E-002   5.8864368127636825E-002   0.0000000000000000     
  -4.3478062670987777E-002   6.4385413069270606E-002   0.0000000000000000     
  -4.5533522489524310E-002   7.0082978075213465E-002   0.0000000000000000     
  -4.7519392167787160E-002   7.5957063145465423E-002   0.0000000000000000     
  -4.9435671705776327E-002   8.2007668280026494E-002   0.0000000000000000     
  -4.5775818345166995E-002   5.9539010624958061E-002   0.0000000000000000     
  -4.8084584277957927E-002   6.5033410261799304E-002   0.0000000000000000     
  -5.0319014432716677E-002   7.0705638445623262E-002   0.0000000000000000     
  -5.2479108809443259E-002   7.6555695176429961E-002   0.0000000000000000     
  -5.4564867408137666E-002   8.2583580454219402E-002   0.0000000000000000     
  -3.4814973381565438E-002   8.0497826809691433E-002   0.0000000000000000     
  -3.6160810491366741E-002   8.6768868741532987E-002   0.0000000000000000     
  -3.7457296361781661E-002   9.3198138337055078E-002   0.0000000000000000     
  -3.8704430992810214E-002   9.9785635596257652E-002   0.0000000000000000     
  -3.9902214384452399E-002  0.10653136051914072        0.0000000000000000     
  -3.9560724692490216E-002   8.0964791457762503E-002   0.0000000000000000     
  -4.1075821349592888E-002   8.7220959947411997E-002   0.0000000000000000     
  -4.2536220365380073E-002   9.3636606534208786E-002   0.0000000000000000     
  -4.3941921739851786E-002  0.10021173121815284        0.0000000000000000     
  -4.5292925473008012E-002  0.10694633399924421        0.0000000000000000     
  -4.4434290800560515E-002   8.1468071947874199E-002   0.0000000000000000     
  -4.6116966856356578E-002   8.7706917821596730E-002   0.0000000000000000     
  -4.7739456242652044E-002   9.4105971849469769E-002   0.0000000000000000     
  -4.9301758959446933E-002  0.10066523403149333        0.0000000000000000     
  -5.0803875006741231E-002  0.10738470436766738        0.0000000000000000     
  -4.9435671705776327E-002   8.2007668280026494E-002   0.0000000000000000     
  -5.1284247011657812E-002   8.8226742364087174E-002   0.0000000000000000     
  -5.3067003993597595E-002   9.4606234282838028E-002   0.0000000000000000     
  -5.4783942651595689E-002  0.10114614403627906        0.0000000000000000     
  -5.6435062985652089E-002  0.10784647162441023        0.0000000000000000     
  -5.4564867408137666E-002   8.2583580454219402E-002   0.0000000000000000     
  -5.6577661815496588E-002   8.8780433574883327E-002   0.0000000000000000     
  -5.8518863618216704E-002   9.5137393834313549E-002   0.0000000000000000     
  -6.0388472816298035E-002  0.10165446123251005        0.0000000000000000     
  -6.2186489409740558E-002  0.10833163576947281        0.0000000000000000     
  -3.9902214384452399E-002  0.10653136051914072        0.0000000000000000     
  -4.1048173952243826E-002  0.11342226923021437        0.0000000000000000     
  -4.2139837111720091E-002  0.12044531785398860        0.0000000000000000     
  -4.3177203862881208E-002  0.12760050639046341        0.0000000000000000     
  -4.4160274205727171E-002  0.13488783483963884        0.0000000000000000     
  -4.5292925473008012E-002  0.10694633399924421        0.0000000000000000     
  -4.6587046841636399E-002  0.11382771364777325        0.0000000000000000     
  -4.7822101122524587E-002  0.12084316893403045        0.0000000000000000     
  -4.8998088315672601E-002  0.12799269985801578        0.0000000000000000     
  -5.0115008421080409E-002  0.13527630641972926        0.0000000000000000     
  -5.0803875006741231E-002  0.10738470436766738        0.0000000000000000     
  -5.2243671504336037E-002  0.11425175136745003        0.0000000000000000     
  -5.3619015572032420E-002  0.12125374354029940        0.0000000000000000     
  -5.4929907209830389E-002  0.12839068088621550        0.0000000000000000     
  -5.6176346417729943E-002  0.13566256340519828        0.0000000000000000     
  -5.6435062985652089E-002  0.10784647162441023        0.0000000000000000     
  -5.8018047940342744E-002  0.11469438238924466        0.0000000000000000     
  -5.9530580460243565E-002  0.12167704167279542        0.0000000000000000     
  -6.0972660545354579E-002  0.12879444947506249        0.0000000000000000     
  -6.2344288195675779E-002  0.13604660579604588        0.0000000000000000     
  -6.2186489409740558E-002  0.10833163576947281        0.0000000000000000     
  -6.3910176149656509E-002  0.11515560671315719        0.0000000000000000     
  -6.5556795787158020E-002  0.12211306333151853        0.0000000000000000     
  -6.7126348322245163E-002  0.12920400562455678        0.0000000000000000     
  -6.8618833754917910E-002  0.13642843359227205        0.0000000000000000     
  -4.4160274205727171E-002  0.13488783483963884        0.0000000000000000     
  -4.5092000252138505E-002  0.14228343247519523        0.0000000000000000     
  -4.5975334113995715E-002  0.14976342857081310        0.0000000000000000     
  -4.6810275791298823E-002  0.15732782312649241        0.0000000000000000     
  -4.7596825284047822E-002  0.16497661614223311        0.0000000000000000     
  -5.0115008421080409E-002  0.13527630641972926        0.0000000000000000     
  -5.1177185735688156E-002  0.14268878836462320        0.0000000000000000     
  -5.2188944556435968E-002  0.15022494543814985        0.0000000000000000     
  -5.3150284883323837E-002  0.15788477764030925        0.0000000000000000     
  -5.4061206716351784E-002  0.16566828497110142        0.0000000000000000     
  -5.6176346417729943E-002  0.13566256340519828        0.0000000000000000     
  -5.7361682064363845E-002  0.14307227469961409        0.0000000000000000     
  -5.8489263018364865E-002  0.15062269837182918        0.0000000000000000     
  -5.9559089279732982E-002  0.15831383442184357        0.0000000000000000     
  -6.0571160848468225E-002  0.16614568284965719        0.0000000000000000     
  -6.2344288195675779E-002  0.13604660579604588        0.0000000000000000     
  -6.3645489238165570E-002  0.14343389148016797        0.0000000000000000     
  -6.4876289499782427E-002  0.15095668737185108        0.0000000000000000     
  -6.6036688980526267E-002  0.15861499347109523        0.0000000000000000     
  -6.7126687680397173E-002  0.16640880977790040        0.0000000000000000     
  -6.8618833754917910E-002  0.13642843359227205        0.0000000000000000     
  -7.0028607257093353E-002  0.14377363870628476        0.0000000000000000     
  -7.1350024000688628E-002  0.15122691243821548        0.0000000000000000     
  -7.2583083985703706E-002  0.15878825478806430        0.0000000000000000     
  -7.3727787212138615E-002  0.16645766575583104        0.0000000000000000     
   0.0000000000000000        0.0000000000000000        0.0000000000000000     
  -2.8802012409409514E-003   1.7443337059472859E-003   0.0000000000000000     
  -5.8728977938607187E-003   3.8636520285817086E-003   0.0000000000000000     
  -8.9780896587593004E-003   6.3579549679032678E-003   0.0000000000000000     
  -1.2195776835636697E-002   9.2272425239119660E-003   0.0000000000000000     
   0.0000000000000000        0.0000000000000000        0.0000000000000000     
  -3.2834191415365781E-003   1.9988269834148105E-003   0.0000000000000000     
  -6.6774206454644361E-003   4.3299262640988075E-003   0.0000000000000000     
  -1.0182004511783575E-002   6.9932978420519905E-003   0.0000000000000000     
  -1.3797170740493995E-002   9.9889417172743591E-003   0.0000000000000000     
   0.0000000000000000        0.0000000000000000        0.0000000000000000     
  -3.9538250765886540E-003   2.4246530403880173E-003   0.0000000000000000     
  -7.9111909080917045E-003   5.0619735337836631E-003   0.0000000000000000     
  -1.1872097494509152E-002   7.9119614801869374E-003   0.0000000000000000     
  -1.5836544835840998E-002   1.0974616879597840E-002   0.0000000000000000     
   0.0000000000000000        0.0000000000000000        0.0000000000000000     
  -4.8914190460971792E-003   3.0218118768669052E-003   0.0000000000000000     
  -9.5742085817425212E-003   6.0597938376362745E-003   0.0000000000000000     
  -1.4048368606936028E-002   9.1139458823081103E-003   0.0000000000000000     
  -1.8313899121677697E-002   1.2184268010882409E-002   0.0000000000000000     
   0.0000000000000000        0.0000000000000000        0.0000000000000000     
  -6.0962010500621522E-003   3.7903034928514759E-003   0.0000000000000000     
  -1.1666473666416889E-002   7.3233871756566453E-003   0.0000000000000000     
  -1.6710817849064207E-002   1.0599251048415508E-002   0.0000000000000000     
  -2.1229233598004112E-002   1.3617895111128063E-002   0.0000000000000000     
  -1.2195776835636697E-002   9.2272425239119660E-003   0.0000000000000000     
  -1.5428223396284552E-002   1.2369440422387624E-002   0.0000000000000000     
  -1.8577693412494510E-002   1.5682474389110069E-002   0.0000000000000000     
  -2.1644186884266562E-002   1.9166344424079308E-002   0.0000000000000000     
  -2.4627703811600718E-002   2.2821050527295328E-002   0.0000000000000000     
  -1.3797170740493995E-002   9.9889417172743591E-003   0.0000000000000000     
  -1.7405821656389816E-002   1.3218822245783203E-002   0.0000000000000000     
  -2.0890859584265158E-002   1.6584903783595815E-002   0.0000000000000000     
  -2.4252284524120024E-002   2.0087186330712190E-002   0.0000000000000000     
  -2.7490096475954410E-002   2.3725669887132334E-002   0.0000000000000000     
  -1.5836544835840998E-002   1.0974616879597840E-002   0.0000000000000000     
  -1.9732799000561151E-002   1.4208741533090530E-002   0.0000000000000000     
  -2.3489126057143532E-002   1.7573137241739159E-002   0.0000000000000000     
  -2.7105526005588146E-002   2.1067804005543735E-002   0.0000000000000000     
  -3.0581998845894985E-002   2.4692741824504250E-002   0.0000000000000000     
  -1.8313899121677697E-002   1.2184268010882409E-002   0.0000000000000000     
  -2.2409155428798563E-002   1.5339198284309599E-002   0.0000000000000000     
  -2.6372492831129642E-002   1.8647174763540105E-002   0.0000000000000000     
  -3.0203911328670938E-002   2.2108197448573935E-002   0.0000000000000000     
  -3.3903410921422447E-002   2.5722266339411073E-002   0.0000000000000000     
  -2.1229233598004112E-002   1.3617895111128063E-002   0.0000000000000000     
  -2.5434890941102052E-002   1.6610192499440412E-002   0.0000000000000000     
  -2.9540959906223480E-002   1.9807016348998653E-002   0.0000000000000000     
  -3.3547440493368393E-002   2.3208366659802786E-002   0.0000000000000000     
  -3.7454332702536799E-002   2.6814243431852812E-002   0.0000000000000000     
  -2.4627703811600718E-002   2.2821050527295328E-002   0.0000000000000000     
  -2.7532359809192827E-002   2.6669494806726198E-002   0.0000000000000000     
  -3.0362270491738754E-002   3.0734579370339972E-002   0.0000000000000000     
  -3.3117435859238487E-002   3.5016304218136653E-002   0.0000000000000000     
  -3.5797855911692038E-002   3.9514669350116244E-002   0.0000000000000000     
  -2.7490096475954410E-002   2.3725669887132334E-002   0.0000000000000000     
  -3.0627388896796160E-002   2.7543269336679152E-002   0.0000000000000000     
  -3.3687255243673109E-002   3.1582899563175573E-002   0.0000000000000000     
  -3.6669695516585256E-002   3.5844560566621574E-002   0.0000000000000000     
  -3.9574709715532619E-002   4.0328252347017181E-002   0.0000000000000000     
  -3.0581998845894985E-002   2.4692741824504250E-002   0.0000000000000000     
  -3.3947944403251364E-002   2.8492914068493989E-002   0.0000000000000000     
  -3.7232762502844602E-002   3.2513284107386242E-002   0.0000000000000000     
  -4.0436453144674686E-002   3.6753851941180998E-002   0.0000000000000000     
  -4.3559016328741637E-002   4.1214617569878285E-002   0.0000000000000000     
  -3.3903410921422447E-002   2.5722266339411073E-002   0.0000000000000000     
  -3.7494026328558451E-002   2.9518429002170707E-002   0.0000000000000000     
  -4.0998792269253230E-002   3.3525733002971986E-002   0.0000000000000000     
  -4.4417708743506784E-002   3.7744178341814934E-002   0.0000000000000000     
  -4.7750775751319120E-002   4.2173765018699530E-002   0.0000000000000000     
  -3.7454332702536799E-002   2.6814243431852812E-002   0.0000000000000000     
  -4.1265634672717419E-002   3.0619814137709297E-002   0.0000000000000000     
  -4.4985344542899007E-002   3.4620246249932811E-002   0.0000000000000000     
  -4.8613462313081557E-002   3.8815539768523359E-002   0.0000000000000000     
  -5.2149987983265061E-002   4.3205694693480942E-002   0.0000000000000000     
  -3.5797855911692038E-002   3.9514669350116244E-002   0.0000000000000000     
  -3.8403764109982072E-002   4.4221204635347136E-002   0.0000000000000000     
  -4.0935393914991243E-002   4.9127439942897734E-002   0.0000000000000000     
  -4.3392745326719544E-002   5.4233375272768045E-002   0.0000000000000000     
  -4.5775818345166995E-002   5.9539010624958061E-002   0.0000000000000000     
  -3.9574709715532619E-002   4.0328252347017181E-002   0.0000000000000000     
  -4.2399226988762528E-002   4.5020702593660505E-002   0.0000000000000000     
  -4.5140176484522399E-002   4.9908638995849672E-002   0.0000000000000000     
  -4.7797558202812236E-002   5.4992061553584687E-002   0.0000000000000000     
  -5.0371372143632014E-002   6.0270970266865523E-002   0.0000000000000000     
  -4.3559016328741637E-002   4.1214617569878285E-002   0.0000000000000000     
  -4.6596223879535908E-002   4.5883187283244850E-002   0.0000000000000000     
  -4.9543847621547996E-002   5.0747167371047536E-002   0.0000000000000000     
  -5.2401887554777871E-002   5.5806557833286315E-002   0.0000000000000000     
  -5.5170343679225561E-002   6.1061358669961180E-002   0.0000000000000000     
  -4.7750775751319120E-002   4.2173765018699530E-002   0.0000000000000000     
  -5.0994754782302192E-002   4.6808658704100191E-002   0.0000000000000000     
  -5.4146407326067965E-002   5.1643025068491319E-002   0.0000000000000000     
  -5.7205733382616440E-002   5.6676864111872935E-002   0.0000000000000000     
  -6.0172732951947638E-002   6.1910175834245018E-002   0.0000000000000000     
  -5.2149987983265061E-002   4.3205694693480942E-002   0.0000000000000000     
  -5.5594819697061371E-002   4.7797116856226514E-002   0.0000000000000000     
  -5.8947855598082341E-002   5.2596212088181056E-002   0.0000000000000000     
  -6.2209095686327966E-002   5.7602980389344562E-002   0.0000000000000000     
  -6.5378539961798238E-002   6.2817421759717038E-002   0.0000000000000000     
  -4.5775818345166995E-002   5.9539010624958061E-002   0.0000000000000000     
  -4.8084584277957927E-002   6.5033410261799304E-002   0.0000000000000000     
  -5.0319014432716677E-002   7.0705638445623262E-002   0.0000000000000000     
  -5.2479108809443259E-002   7.6555695176429961E-002   0.0000000000000000     
  -5.4564867408137666E-002   8.2583580454219402E-002   0.0000000000000000     
  -5.0371372143632014E-002   6.0270970266865523E-002   0.0000000000000000     
  -5.2863887545807411E-002   6.5737112474096623E-002   0.0000000000000000     
  -5.5277373648164131E-002   7.1382235513682335E-002   0.0000000000000000     
  -5.7611830450702159E-002   7.7206339385622699E-002   0.0000000000000000     
  -5.9867257953421515E-002   8.3209424089917675E-002   0.0000000000000000     
  -5.5170343679225561E-002   6.1061358669961180E-002   0.0000000000000000     
  -5.7851709326029198E-002   6.6503079196419915E-002   0.0000000000000000     
  -6.0448477826326973E-002   7.2123228728010330E-002   0.0000000000000000     
  -6.2960649180118844E-002   7.7921807264732371E-002   0.0000000000000000     
  -6.5388223387404840E-002   8.3898814806586078E-002   0.0000000000000000     
  -6.0172732951947638E-002   6.1910175834245018E-002   0.0000000000000000     
  -6.3048049618623300E-002   6.7331310428769234E-002   0.0000000000000000     
  -6.5832326967205174E-002   7.2928618088607219E-002   0.0000000000000000     
  -6.8525564997693300E-002   7.8702098813759017E-002   0.0000000000000000     
  -7.1127763710087652E-002   8.4651752604224612E-002   0.0000000000000000     
  -6.5378539961798238E-002   6.2817421759717038E-002   0.0000000000000000     
  -6.8452908423589670E-002   6.8221806171144511E-002   0.0000000000000000     
  -7.1428921070798776E-002   7.3798403595473044E-002   0.0000000000000000     
  -7.4306577903425527E-002   7.9547214032702623E-002   0.0000000000000000     
  -7.7085878921469952E-002   8.5468237482833248E-002   0.0000000000000000     
  -5.4564867408137666E-002   8.2583580454219402E-002   0.0000000000000000     
  -5.6577661815496588E-002   8.8780433574883327E-002   0.0000000000000000     
  -5.8518863618216704E-002   9.5137393834313549E-002   0.0000000000000000     
  -6.0388472816298035E-002  0.10165446123251005        0.0000000000000000     
  -6.2186489409740558E-002  0.10833163576947281        0.0000000000000000     
  -5.9867257953421515E-002   8.3209424089917675E-002   0.0000000000000000     
  -6.2044526651143322E-002   8.9382039841922487E-002   0.0000000000000000     
  -6.4144507038688806E-002   9.5714736856992250E-002   0.0000000000000000     
  -6.6167199116057937E-002  0.10220751513512699        0.0000000000000000     
  -6.8112602883250717E-002  0.10886037467632673        0.0000000000000000     
  -6.5388223387404840E-002   8.3898814806586078E-002   0.0000000000000000     
  -6.7732156901868484E-002   9.0045609553141837E-002   0.0000000000000000     
  -6.9993406177193310E-002   9.6353549703969990E-002   0.0000000000000000     
  -7.2171971213379371E-002  0.10282263525907058        0.0000000000000000     
  -7.4267852010426599E-002  0.10945286621844362        0.0000000000000000     
  -7.1127763710087652E-002   8.4651752604224612E-002   0.0000000000000000     
  -7.3640552567672032E-002   9.0771142708541377E-002   0.0000000000000000     
  -7.6065561033730258E-002   9.7053832375246771E-002   0.0000000000000000     
  -7.8402789108262302E-002  0.10349982160434083        0.0000000000000000     
  -8.0652236791268192E-002  0.11010911039582347        0.0000000000000000     
  -7.7085878921469952E-002   8.5468237482833248E-002   0.0000000000000000     
  -7.9769713648553980E-002   9.1558639308121179E-002   0.0000000000000000     
  -8.2360971608299596E-002   9.7815584870822647E-002   0.0000000000000000     
  -8.4859652800706786E-002  0.10423907417093770        0.0000000000000000     
  -8.7265757225775537E-002  0.11082910720846630        0.0000000000000000     
  -6.2186489409740558E-002  0.10833163576947281        0.0000000000000000     
  -6.3910176149656509E-002  0.11515560671315719        0.0000000000000000     
  -6.5556795787158020E-002  0.12211306333151853        0.0000000000000000     
  -6.7126348322245163E-002  0.12920400562455678        0.0000000000000000     
  -6.8618833754917910E-002  0.13642843359227205        0.0000000000000000     
  -6.8112602883250717E-002  0.10886037467632673        0.0000000000000000     
  -6.9977721665710230E-002  0.11565900514182056        0.0000000000000000     
  -7.1759558788879546E-002  0.12258909619283759        0.0000000000000000     
  -7.3458114252758680E-002  0.12965064782937782        0.0000000000000000     
  -7.5073388057347631E-002  0.13684366005144130        0.0000000000000000     
  -7.4267852010426599E-002  0.10945286621844362        0.0000000000000000     
  -7.6278350021936808E-002  0.11622815847786769        0.0000000000000000     
  -7.8200766701511840E-002  0.12313242793312147        0.0000000000000000     
  -8.0035102049151652E-002  0.13016567458420497        0.0000000000000000     
  -8.1781356064856259E-002  0.13732789843111812        0.0000000000000000     
  -8.0652236791268192E-002  0.11010911039582347        0.0000000000000000     
  -8.2812061218336272E-002  0.11686306672129862        0.0000000000000000     
  -8.4880419525054887E-002  0.12374305855237018        0.0000000000000000     
  -8.6857311711424051E-002  0.13074908588903816        0.0000000000000000     
  -8.8742737777443764E-002  0.13788114873130253        0.0000000000000000     
  -8.7265757225775537E-002  0.11082910720846630        0.0000000000000000     
  -8.9578855254908621E-002  0.11756372987211335        0.0000000000000000     
  -9.1798517259508744E-002  0.12442098805058374        0.0000000000000000     
  -9.3924743239575947E-002  0.13140088174387748        0.0000000000000000     
  -9.5957533195110190E-002  0.13850341095199456        0.0000000000000000     
  -6.8618833754917910E-002  0.13642843359227205        0.0000000000000000     
  -7.0028607257093353E-002  0.14377363870628476        0.0000000000000000     
  -7.1350024000688628E-002  0.15122691243821548        0.0000000000000000     
  -7.2583083985703706E-002  0.15878825478806430        0.0000000000000000     
  -7.3727787212138615E-002  0.16645766575583104        0.0000000000000000     
  -7.5073388057347631E-002  0.13684366005144130        0.0000000000000000     
  -7.6597715334853808E-002  0.14414632712470235        0.0000000000000000     
  -7.8023431217484632E-002  0.15153684331483533        0.0000000000000000     
  -7.9350535705240088E-002  0.15901520862184032        0.0000000000000000     
  -8.0579028798120220E-002  0.16658142304571721        0.0000000000000000     
  -8.1781356064856259E-002  0.13732789843111812        0.0000000000000000     
  -8.3439492685153605E-002  0.14460676748215845        0.0000000000000000     
  -8.5009475846571592E-002  0.15198994974562341        0.0000000000000000     
  -8.6491305549110289E-002  0.15947744522151294        0.0000000000000000     
  -8.7884981792769629E-002  0.16706925390982705        0.0000000000000000     
  -8.8742737777443764E-002  0.13788114873130253        0.0000000000000000     
  -9.0553939307992687E-002  0.14515495977865311        0.0000000000000000     
  -9.2308157887949535E-002  0.15258623173057961        0.0000000000000000     
  -9.4005393517314254E-002  0.16017496458708208        0.0000000000000000     
  -9.5645646196086870E-002  0.16792115834816049        0.0000000000000000     
  -9.5957533195110190E-002  0.13850341095199456        0.0000000000000000     
  -9.7941055203371125E-002  0.14579090401418632        0.0000000000000000     
  -9.9919477341618393E-002  0.15332568926970408        0.0000000000000000     
 -0.10189279960985199       0.16110776671854785        0.0000000000000000     
 -0.10386102200807194       0.16913713636071762        0.0000000000000000     
 </DataArray>
 <DataArray  type="Float64" Name="stress" NumberOfComponents="3" format="ascii">
   13417139903.608721        4025141971.0826163        2893966816.8811908     
   11766834844.237890        1890067082.2970831        1715680664.5848508     
   10313911791.531349        412932215.72586775        810524298.53127801     
   9058370745.4891052       -406262628.63102913        178497718.72047395     
   8000211706.1111593       -567517450.77360535       -180399074.84756318     
   10540449338.858238        3162134801.6574712        2225521355.0216732     
   9668058140.6411533        1589393007.8642013        1446431211.3891630     
   8944378515.7820168        512356458.59741783        862837383.55701792     
   8369410464.2808266       -68974846.142881393        474739871.52523655     
   7943153986.1375780       -154600906.35669804        282138675.29382241     
   8338401123.2660112        2501520336.9798031        1711989647.1983488     
   8022113870.6529579        1424568663.5138824        1275313340.0389268     
   7805867758.0915022        681087456.88661265        956499878.23746622     
   7689662785.5816364        271076717.09799099        755549261.79396796     
   7673498953.1233692        194536444.14802170        672461490.70843196     
   6810995256.8320436        2043298577.0496130        1353371693.4112184     
   6829002034.2732973        1395594049.2461233        1202327050.5341423     
   6898379518.4597969        919125210.59345031        1091511782.5726244     
   7019127709.3915405        613892061.09159279        1020925889.5266669     
   7191246607.0685301        479894600.74055219        990569371.39626837     
   5958231739.5563354        1787469521.8669007        1149667493.6602819     
   6088722631.5021763        1502469165.0609262        1227472342.8748095     
   6221913796.8869085        1226469719.7179332        1267873096.5624936     
   6357805235.7105370        959471185.83792233        1270869754.7233341     
   6496396947.9730606        701473563.42089391        1236462317.3573310     
   8000211706.1111593       -567517450.77360535       -180399074.84756318     
   7919439338.6043472       -199393056.77155495       -78176813.823630705     
   7796996974.0485973        29831347.067364216       -8809953.5721604228     
   7632884612.4439039        120155760.74313974        27701505.906843882     
   7427102253.7902727        71580184.255792141        31357564.613385979     
   7943153986.1375780       -154600906.35669804        282138675.29382241     
   7741353936.8843546        17013253.435106277        280916238.32272619     
   7516053275.5953484        110292039.77429819        264799500.98306334     
   7267252002.2705584        125235452.66088009        233788463.27483353     
   6994950116.9099836        61843492.094845295        187883125.19803688     
   7673498953.1233692        194536444.14802170        672461490.70843196     
   7401988651.8491516        185035598.64720154        588991971.59099054     
   7125147123.5523062        157763996.40429544        508589252.50888020     
   6842974368.2328329        112721637.41929913        431253333.46209687     
   6555470385.8907375        49908521.692217827        356984214.45064461     
   7191246607.0685301        479894600.74055219        990569371.39626837     
   6901343483.4987345        304673978.86473489        846050385.98116601     
   6624278517.9194689        172247216.95735335        722559301.00528848     
   6360051710.3307333        82614315.018406391        620096116.46863735     
   6108663060.7325277        35775273.047896862        538660832.37121332     
   6496396947.9730606        701473563.42089391        1236462317.3573310     
   6239418431.8331051        375928394.08770514        1052091481.4932493     
   6013447458.6968365        153741701.43347406        906709646.47228944     
   5818484028.5642595        34913485.458204269        800316812.29445362     
   5654528141.4353666        19443746.161890030        732912978.95973957     
   7427102253.7902727        71580184.255792141        31357564.613385979     
   7223651549.8872652       -20399389.029341221        13757431.697078010     
   7032791616.7323389       -70409726.487528324        774858.90190085105     
   6854522454.3254986       -78450828.118766308       -7590153.7721376522     
   6688844062.6667385       -44522693.923070431       -11337606.325050149     
   6994950116.9099836        61843492.094845295        187883125.19803688     
   6812108652.6110811        1808529.4125757217        179363591.60069153     
   6637285737.6437426       -31497935.497835159        174707925.90010175     
   6470481372.0079584       -38075902.636385202        173916128.09626138     
   6311695555.7037296       -17925372.003080368        176988198.18917418     
   6555470385.8907375        49908521.692217827        356984214.45064461     
   6391084754.8405714        21172147.706196070        352211021.85298663     
   6230145451.7054386        3923533.4369456768        350548004.92769998     
   6072652476.4853354       -1837321.1155314445        351995163.67478228     
   5918605829.1802654        3889584.0487616062        356552498.09423864     
   6108663060.7325277        35775273.047896862        538660832.37121332     
   5960579856.5757256        37691465.851512909        532299722.45395917     
   5811370758.9174290        35854680.316814899        528295095.98469502     
   5661035767.7576370        30264916.443803310        526646952.96342111     
   5509574883.0963507        20922174.232479572        527355293.39013904     
   5654528141.4353666        19443746.161890030        732912978.95973957     
   5520593957.8165483        51366483.848531008        719629693.40360940     
   5380961659.2797127        64295505.141771078        707949199.07108939     
   5235631245.8248568        58230810.041610718        697871495.96217918     
   5084602717.4519815        33172398.548052311        689396584.07687831     
   6688844062.6667385       -44522693.923070431       -11337606.325050149     
   6525781138.9050541       -572572.77763319016       -4115611.1516225198     
   6356218002.5802937        21710173.157565355        1505878.7081916153     
   6180154653.6924706        22325543.882549524        5526863.2543916162     
   5997591092.2415810        1273539.3973021507        7947342.4869678747     
   6311695555.7037296       -17925372.003080368        176988198.18917418     
   6141312741.8507328        5021432.3675060272        173783716.34398991     
   5967048987.2388668        15031767.541868448        171395974.38252234     
   5788904291.8681297        12105633.519999266        169824972.30478582     
   5606878655.7385349       -3756969.6980834007        169070710.11077723     
   5918605829.1802654        3889584.0487616062        356552498.09423864     
   5747809540.0855083        7904996.0993728638        345977356.33533293     
   5575751582.0360804        7714844.9677605629        338636199.65749401     
   5402431955.0319843        3319130.6539185047        334529028.06072438     
   5227850659.0732250       -5282146.8421525955        333655841.54502416     
   5509574883.0963507        20922174.232479572        527355293.39013904     
   5345271533.6093769        8078118.4179716110        512465308.82241714     
   5182325786.9719353       -240594.56476044655        503226554.53310484     
   5020737643.1840277       -4033964.7157151699        499639030.52220470     
   4860507102.2456503       -3301992.0348956585        501702736.78970885     
   5084602717.4519815        33172398.548052311        689396584.07687831     
   4933698722.4223385        5540799.3232934475        673247573.80524087     
   4786771602.0464344       -8834551.0556819439        665167039.00935495     
   4643821356.3242550       -9953652.5888929367        665154979.68921876     
   4504847985.2558107        2183494.7236788273        673211395.84483457     
   5997591092.2415810        1273539.3973021507        7947342.4869678747     
   5799459494.1523657       -29687907.371384144       -13755428.715509584     
   5604373802.2798882       -50496333.417615891       -29732421.063051142     
   5412334016.6241398       -61151738.741414547       -39983634.555656478     
   5223340137.1851263       -61654123.342765331       -44509069.193323985     
   5606878655.7385349       -3756969.6980834007        169070710.11077723     
   5426611963.7005091       -21994306.901415825        154059011.64344111     
   5248312530.7426414       -33674113.837552309        144127436.76854086     
   5071980356.8649349       -38796390.506483078        139275985.48607588     
   4897615442.0673885       -37361136.908221960        139504657.79604426     
   5227850659.0732250       -5282146.8421525955        333655841.54502416     
   5063604143.7649555       -11348793.276549578        324076794.15349418     
   4900246240.4002647       -14453399.899013758        318932215.09189838     
   4737776948.9791584       -14595966.709528923        318222104.36022842     
   4576196269.5016394       -11776493.708101988        321946461.95849633     
   4860507102.2456503       -3301992.0348956585        501702736.78970885     
   4710436034.3456984        2248633.5032019615        496297918.81464434     
   4560174931.2527571        7165808.3979885578        494681913.90701258     
   4409723792.9668188        11449532.649458885        496854722.06681150     
   4259082619.4878874        15099806.257613897        502816343.29403400     
   4504847985.2558107        2183494.7236788273        673211395.84483457     
   4367107635.4427490        18797973.437846184        670722385.62689865     
   4228098603.3001127        31183511.053438187        671376533.21389294     
   4087820888.8279119        39340107.570477009        675173838.60581088     
   3946274492.0261369        43267762.988940239        682114301.80265844     
   5223340137.1851263       -61654123.342765331       -44509069.193323985     
   5046863150.0330029       -57419431.965675116       -48642530.759114459     
   4867987734.6591129       -61179501.327814579       -49344739.777995579     
   4686713891.0634527       -72934331.429196835       -46615696.249959029     
   4503041619.2460213       -92683922.269792795       -40455400.175024666     
   4897615442.0673885       -37361136.908221960        139504657.79604426     
   4730255891.4060230       -33431797.703303576        134593117.38435239     
   4561187857.2903147       -35197403.346202612        133334202.99684104     
   4390411339.7202587       -42657953.836930990        135727914.63350281     
   4217926338.6958594       -55813449.175454140        141774252.29434958     
   4576196269.5016394       -11776493.708101988        321946461.95849633     
   4418586650.9803734       -7962757.9805488586        317061778.26290232     
   4259958493.7721858       -7544151.2093887329        316051094.06875157     
   4100311797.8770747       -10520673.394654751        318914409.37604308     
   3939646563.2950444       -16892324.536304951        325651724.18477762     
   4259082619.4878874        15099806.257613897        502816343.29403400     
   4111855428.7560587        18987687.202614546        498763451.87652498     
   3964299644.1047297        21780255.082629681        498805933.43772882     
   3816415265.5338964        23477509.897632837        502943787.97764134     
   3668202293.0435715        24079451.647639990        511177015.49626762     
   3946274492.0261369        43267762.988940239        682114301.80265844     
   3810062224.7330761        47419537.846187353        679698138.22523081     
   3674211308.2879391        52775815.529843092        681598721.10377979     
   3538721742.6907253        59336596.039909363        687816050.43830299     
   3403593527.9414368        67101879.376396894        698350126.22881305     
   4503041619.2460213       -92683922.269792795       -40455400.175024666     
   4317505759.0522060       -113146230.36903214       -64537872.864454627     
   4134267025.4895778       -125951449.69762325       -87688065.923739836     
   3953325418.5581551       -131099580.25555277       -109905979.35288543     
   3774680938.2579165       -128590622.04284787       -131191613.15186833     
   4217926338.6958594       -55813449.175454140        141774252.29434958     
   4037814131.9361863       -70804299.184283733        123117387.68230799     
   3859708962.7299466       -79105024.014994383        106437640.36859216     
   3683610831.0771403       -80715623.667590380        91735010.353203714     
   3509519736.9777713       -75636098.142065287        79009497.636141658     
   3939646563.2950444       -16892324.536304951        325651724.18477762     
   3767943260.4500165       -25516141.310592651        312082030.39274395     
   3597956906.0806656       -28416796.499285936        301534291.56721735     
   3429687500.1869965       -25594290.102366209        294008507.70819873     
   3263135042.7690020       -17048622.119872808        289504678.81568104     
   3668202293.0435715        24079451.647639990        511177015.49626762     
   3507893144.5937023        22718243.252054691        502356055.26685947     
   3349010855.5417504        26113232.849545002        497601887.67213345     
   3191555425.8877268        34264420.440106511        496914512.71209538     
   3035526855.6316166        47171806.023736238        500293930.38674265     
   3403593527.9414368        67101879.376396894        698350126.22881305     
   3257663784.3672347        73898854.503667593        693939462.30464733     
   3112870811.1131992        84485064.031482697        694640428.68334091     
   2969214608.1793299        98860507.959857345        700453025.36490500     
   2826695175.5656199        117025186.28876197        711377252.34933400     
   3774680938.2579165       -128590622.04284787       -131191613.15186833     
   3749329604.3793173       -180455909.17003894       -82937632.940581158     
   3655508271.8257585       -460554525.21376157       -80645032.186296061     
   3493216940.5972586       -968886470.17398906       -124313810.88901623     
   3262455610.6937685       -1705451744.0507829       -213943969.04871413     
   3509519736.9777713       -75636098.142065287        79009497.636141658     
   3386562616.2937884       -120802285.27937078        75146022.047541440     
   3218355004.4162946       -316803443.06171155        40616605.298733518     
   3004896901.3453069       -663639571.48905063       -24578752.610259682     
   2746188307.0807924       -1161310670.5614438       -120440051.67945160     
   3263135042.7690020       -17048622.119872808        289504678.81568104     
   3086273387.5562119       -42405333.584319711        260613172.82221073     
   2887380748.6313720       -141198657.42229152        216351163.96535304     
   2666457125.9944763       -313428593.63377893        156718652.24511003     
   2423502519.6455092       -559095142.21881020        81715637.661463961     
   3035526855.6316166        47171806.023736238        500293930.38674265     
   2848461918.1666088        54734945.915131092        473463819.38343781     
   2662585504.4709911        66259831.704500437        446558643.81354451     
   2477897614.5447550        81746463.391820312        419578403.67706203     
   2294398248.3879256        101194840.97713983        392523098.97399223     
   2826695175.5656199        117025186.28876197        711377252.34933400     
   2673128208.1249576        170618553.21895778        713697961.73121631     
   2543969271.9351478        305572024.31863713        731239044.84331894     
   2439218366.9961705        521885599.58776152        764000501.68561816     
   2358875493.3080459        819559279.02640128        811982332.25815690     
   5958231739.5563354        1787469521.8669007        1149667493.6602819     
   6088722631.5021763        1502469165.0609262        1227472342.8748095     
   6221913796.8869085        1226469719.7179332        1267873096.5624936     
   6357805235.7105370        959471185.83792233        1270869754.7233341     
   6496396947.9730606        701473563.42089391        1236462317.3573310     
   5434758983.0329275        1630427694.9098783        1033157894.1564761     
   5489931260.0385923        1372681902.7265553        1113480100.5337081     
   5547285561.0196743        1122209523.7946234        1166979491.4170375     
   5606821885.9761734        879010558.11408341        1193656066.8064647     
   5668540234.9080906        643085005.68493533        1193509826.7019887     
   4895225398.8558588        1468567619.6567576        936123741.11073875     
   4905311289.5868931        1247146060.6957490        1018358680.2766186     
   4917060954.8298693        1031270416.7745426        1084352083.9815366     
   4930474394.5847855        820940687.89313757        1134103952.2254937     
   4945551608.8516417        616156874.05153358        1167614285.0084887     
   4339630987.0251265        1301889296.1075377        858565034.52306962     
   4334862720.1470785        1125861638.9685090        942108082.10354054     
   4331239978.3174944        953652398.65769100        1019990874.2559913     
   4328762761.5363741        785261575.17508411        1092213410.9804211     
   4327431069.8037167        620689168.52068901        1158775692.2768304     
   3767975747.5407343        1130392724.2622201        800481774.39346874     
   3778585551.7191491        1008828637.5448337        884728306.01447439     
   3789822631.4825497        889355469.44406796        973895862.24040079     
   3801686986.8309374        771973219.95992374        1067984443.0712476     
   3814178617.7643113        656681889.09240031        1166994048.5070145     
   6496396947.9730606        701473563.42089391        1236462317.3573310     
   6239418431.8331051        375928394.08770514        1052091481.4932493     
   6013447458.6968365        153741701.43347406        906709646.47228944     
   5818484028.5642595        34913485.458204269        800316812.29445362     
   5654528141.4353666        19443746.161890030        732912978.95973957     
   5668540234.9080906        643085005.68493533        1193509826.7019887     
   5518493204.2063046        383652552.86990309        1072561161.9271872     
   5392652751.8395805        204908694.50507641        979621704.37289727     
   5291018877.8079185        106853430.59045482        914691454.03911757     
   5213591582.1113167        89486761.126036644        877770410.92584729     
   4945551608.8516417        616156874.05153358        1167614285.0084887     
   4871065224.6662798        413425886.07813478        1102153332.5429044     
   4813984454.1473513        268713610.32618570        1053721793.6752180     
   4774309297.2948580        182020046.79568958        1022319668.4054322     
   4752039754.1088037        153345195.48664427        1007946956.7335445     
   4327431069.8037167        620689168.52068901        1158775692.2768304     
   4297134493.2130270        465248393.71239722        1140867993.3403988     
   4277442565.6201472        345156448.89680386        1129009914.3792548     
   4268355287.0250750        260413334.07390618        1123201455.3933976     
   4269872657.4278145        211019049.24370861        1123442616.3828261     
   3814178617.7643113        656681889.09240031        1166994048.5070145     
   3796701009.8465476        539120075.77269244        1188705144.3196714     
   3783027086.2579689        434237210.21692908        1205486066.4850035     
   3773156846.9985728        342033292.42511010        1217336815.0030119     
   3767090292.0683594        262508322.39723337        1224257389.8736951     
   5654528141.4353666        19443746.161890030        732912978.95973957     
   5520593957.8165483        51366483.848531008        719629693.40360940     
   5380961659.2797127        64295505.141771078        707949199.07108939     
   5235631245.8248568        58230810.041610718        697871495.96217918     
   5084602717.4519815        33172398.548052311        689396584.07687831     
   5213591582.1113167        89486761.126036644        877770410.92584729     
   5076492057.9475250        87426934.757988691        853700716.59868813     
   4937081677.4068174        77664253.800228596        833435483.87209499     
   4795360440.4891958        60198718.252759218        816974712.74606836     
   4651328347.1946659        35030328.115581512        804318403.22060597     
   4752039754.1088037        153345195.48664427        1007946956.7335445     
   4618065376.1913338        119189951.10129619        977042655.26664615     
   4485167400.4380589        88622713.929927111        952144485.77727115     
   4353345826.8489790        61643483.972541332        933252448.26541710     
   4222600655.4240913        38252261.229134083        920366542.73108935     
   4269872657.4278145        211019049.24370861        1123442616.3828261     
   4145313912.5479794        146655532.87845421        1089655509.4074817     
   4025218828.3734426        97170885.530870199        1064076204.7866149     
   3909587404.9042068        62565107.200956345        1046704702.5202287     
   3798419642.1402755        42838197.888713360        1037541002.6083225     
   3767090292.0683594        262508322.39723337        1224257389.8736951     
   3658237667.0174580        169823680.08946395        1191539279.0211947     
   3557235961.2129641        103308768.60305071        1169230640.9001291     
   3464085174.6548791        62963587.938004851        1157331475.5105007     
   3378785307.3432021        48788138.094314933        1155841782.8523078     
   5084602717.4519815        33172398.548052311        689396584.07687831     
   4933698722.4223385        5540799.3232934475        673247573.80524087     
   4786771602.0464344       -8834551.0556819439        665167039.00935495     
   4643821356.3242550       -9953652.5888929367        665154979.68921876     
   4504847985.2558107        2183494.7236788273        673211395.84483457     
   4651328347.1946659        35030328.115581512        804318403.22060597     
   4521683262.5268717        14477375.029183626        792834963.80752134     
   4394546397.6180315        2285154.4726278782        788002523.16510034     
   4269917752.4681406       -1546333.5540935993        789821081.29334903     
   4147797327.0772028        2982910.9490242004        798290638.19225657     
   4222600655.4240913        38252261.229134083        920366542.73108935     
   4110164547.6750498        23562974.248166084        911835243.46597803     
   3998768004.7901735        12338903.481099606        908537466.26644516     
   3888411026.7694745        4580048.9279391766        910473211.13249469     
   3779093613.6129417        286410.58868002892        917642478.06412101     
   3798419642.1402755        42838197.888713360        1037541002.6083225     
   3699142577.8668733        32797596.980241537        1030248412.7806083     
   3599436423.5628657        21326695.969738722        1026771868.3133867     
   3499301179.2282476        8425494.8572051525        1027111369.2066586     
   3398736844.8630166       -5906006.3573682308        1031266915.4604295     
   3378785307.3432021        48788138.094314933        1155841782.8523078     
   3288617353.1023488        42181243.225415468        1148074471.7514133     
   3196551653.9361010        29248531.938538671        1142705729.3059251     
   3102588209.8444653        9990004.2336997986        1139735555.5158467     
   3006727020.8274384       -15594339.889108777        1139163950.3811767     
   4504847985.2558107        2183494.7236788273        673211395.84483457     
   4367107635.4427490        18797973.437846184        670722385.62689865     
   4228098603.3001127        31183511.053438187        671376533.21389294     
   4087820888.8279119        39340107.570477009        675173838.60581088     
   3946274492.0261369        43267762.988940239        682114301.80265844     
   4147797327.0772028        2982910.9490242004        798290638.19225657     
   4015601005.4465947        7705400.9755120277        791118107.62060499     
   3883016913.1088552        11135321.978237867        787811361.38922334     
   3750045050.0639868        13272673.957192898        788370399.49811220     
   3616685416.3119879        14117456.912391663        792795221.94726968     
   3779093613.6129417        286410.58868002892        917642478.06412101     
   3654505967.4086170       -6263693.8993687630        906814157.36493671     
   3530411462.1196074       -11169995.336369276        900574247.54136145     
   3406810097.7459092       -14432493.722329140        898922748.59340060     
   3283701874.2875228       -16051189.057253599        901859660.52104974     
   3398736844.8630166       -5906006.3573682308        1031266915.4604295     
   3283822521.3288164       -23109311.186791420        1017810534.8598878     
   3170282250.3323684       -35732440.890374303        1009665191.6703037     
   3058116031.8736782       -43775395.468106151        1006830885.8916750     
   2947323865.9527378       -47238174.919990778        1009307617.5239944     
   3006727020.8274384       -15594339.889108777        1139163950.3811767     
   2903550667.2071943       -42831450.886767149        1124107240.1054640     
   2802629277.7471480       -62552014.683767438        1115084193.7760506     
   2703962852.4472952       -74756031.280120373        1112094811.3929319     
   2607551391.3076372       -79443500.675829172        1115139092.9561107     
   3946274492.0261369        43267762.988940239        682114301.80265844     
   3810062224.7330761        47419537.846187353        679698138.22523081     
   3674211308.2879391        52775815.529843092        681598721.10377979     
   3538721742.6907253        59336596.039909363        687816050.43830299     
   3403593527.9414368        67101879.376396894        698350126.22881305     
   3616685416.3119879        14117456.912391663        792795221.94726968     
   3491106001.1048665        16756673.919020176        789367770.09791422     
   3365558555.6079311        19502456.626266003        790151740.59344494     
   3240043079.8211823        22354805.034138083        795147133.43385887     
   3114559573.7446194        25313719.142623067        804353948.61916029     
   3283701874.2875228       -16051189.057253599        901859660.52104974     
   3168454385.1346493       -15014807.710746288        897036642.40573704     
   3052909484.5542226       -14969797.789415121        896319722.52421939     
   2937067172.5462484       -15916159.293254137        899708900.87649906     
   2820927449.1107144       -17853892.222272038        907204177.46257007     
   2947323865.9527378       -47238174.919990778        1009307617.5239944     
   2842107376.8224196       -47894907.043117881        1002704755.1487035     
   2736264095.1268110       -50640947.717216611        1000102666.8961112     
   2629794020.8659163       -55476296.942268133        1001501352.7662233     
   2522697154.0397248       -62400954.718294978        1006900812.7590359     
   2607551391.3076372       -79443500.675829172        1115139092.9561107     
   2512064976.1681805       -81883624.078094006        1106372108.3268075     
   2415622387.3256974       -87510993.157120824        1101500573.7091143     
   2318223624.7801847       -96325607.912904620        1100524489.1030319     
   2219868688.5316486       -108327468.34544051        1103443854.5085609     
   3403593527.9414368        67101879.376396894        698350126.22881305     
   3257663784.3672347        73898854.503667593        693939462.30464733     
   3112870811.1131992        84485064.031482697        694640428.68334091     
   2969214608.1793299        98860507.959857345        700453025.36490500     
   2826695175.5656199        117025186.28876197        711377252.34933400     
   3114559573.7446194        25313719.142623067        804353948.61916029     
   2979545540.9662294        26162522.189190984        799039534.59573376     
   2844993415.5866342        28551016.565073013        798382845.97715342     
   2710903197.6058469        32479202.270315409        802383882.76341903     
   2577274887.0238562        37947079.304884791        811042644.95452726     
   2820927449.1107144       -17853892.222272038        907204177.46257007     
   2695532255.9909430       -23342322.597569227        900198673.26495945     
   2569924107.3486004       -29540604.714754343        897396989.57417154     
   2444103003.1836958       -36448738.573813915        898799126.39021540     
   2318068943.4962301       -44066724.174751163        904405083.71308792     
   2522697154.0397248       -62400954.718294978        1006900812.7590359     
   2405623929.4413705       -74615679.856612444        997416878.31231022     
   2287662886.3990865       -89789799.808037400        991682859.47439766     
   2168814024.9128752       -107923314.57254720        989698756.24529636     
   2049077344.9827316       -129016224.15015543        991464568.62500012     
   2219868688.5316486       -108327468.34544051        1103443854.5085609     
   2109820561.3175201       -127657549.58794379        1090694149.7378018     
   1998209752.7380931       -152196568.71476912        1081240455.6778374     
   1885036262.7933786       -181944525.72589135        1075082772.3286605     
   1770300091.4833741       -216901420.62130737        1072221099.6902758     
   2826695175.5656199        117025186.28876197        711377252.34933400     
   2673128208.1249576        170618553.21895778        713697961.73121631     
   2543969271.9351478        305572024.31863713        731239044.84331894     
   2439218366.9961705        521885599.58776152        764000501.68561816     
   2358875493.3080459        819559279.02640128        811982332.25815690     
   2577274887.0238562        37947079.304884791        811042644.95452726     
   2449152118.4849133        61436183.660251737        828242359.13973272     
   2331360562.1347876        119362661.97834074        856741297.80560982     
   2223900217.9734731        211726514.25914747        896539460.95217919     
   2126771086.0009820        338527740.50267875        947636848.57942939     
   2318068943.4962301       -44066724.174751163        904405083.71308792     
   2204187090.2889071       -54042867.465237856        920060847.12923849     
   2086559630.2083778       -76504366.999766946        943094685.77653933     
   1965186563.2546344       -111451222.77832377        973506599.65498340     
   1840067889.4276781       -158883434.80092227        1011296588.7645930     
   2049077344.9827316       -129016224.15015543        991464568.62500012     
   1938233123.5369496       -175818600.15751195        989153425.69974041     
   1809566476.1559243       -282029062.61568630        990299208.75609946     
   1663077402.8396676       -447647611.52462935        994901917.79406619     
   1498765903.5881658       -672674246.88438582        1002961552.8136659     
   1770300091.4833741       -216901420.62130737        1072221099.6902758     
   1651290218.2290320       -303891014.41658425        1035520094.8512350     
   1500381099.9774218       -497211424.86942112        998354866.74427867     
   1317572736.7285528       -796862651.97978115        960725415.36940718     
   1102865128.4824152       -1202844695.7477145        922631740.72662723     
   3767975747.5407343        1130392724.2622201        800481774.39346874     
   3778585551.7191491        1008828637.5448337        884728306.01447439     
   3789822631.4825497        889355469.44406796        973895862.24040079     
   3801686986.8309374        771973219.95992374        1067984443.0712476     
   3814178617.7643113        656681889.09240031        1166994048.5070145     
   3207431771.6103272        962229531.48309815        756718999.71880496     
   3235229303.7028008        868295776.15160990        853076378.54623115     
   3262759814.3057461        773471949.18835771        951357831.61357522     
   3290023303.4191623        677758050.59334135        1051563358.9208372     
   3317019771.0430474        581154080.36655998        1153692960.4680181     
   2685171150.4415536        805551345.13246608        722121749.49594736     
   2721593695.1195087        736679106.58830297        829546628.94285905     
   2756854921.2334194        663935806.16399050        935898632.26468623     
   2790954828.7832851        587321443.85952830        1041177759.4614295     
   2823893417.7691069        506836019.67491668        1145384010.5330877     
   2201193884.0344129        660358165.21032381        696690023.72489595     
   2237678725.9692717        613978628.85491252        814139057.20435846     
   2272107952.2655697        560747040.37096620        927518264.19373381     
   2304481562.9233069        500663399.75848508        1036827644.6930226     
   2334799557.9424834        433727707.01746845        1142067198.7022247     
   1755499972.3889053        526649991.71667159        680423822.40565073     
   1783484396.2520888        500194342.95143831        806853663.33072889     
   1808518907.4021957        463905651.80928493        926216727.40071785     
   1830603505.8392272        417783918.29021132        1038513014.6156174     
   1849738191.5631819        361829142.39421707        1143742524.9754283     
   3814178617.7643113        656681889.09240031        1166994048.5070145     
   3796701009.8465476        539120075.77269244        1188705144.3196714     
   3783027086.2579689        434237210.21692908        1205486066.4850035     
   3773156846.9985728        342033292.42511010        1217336815.0030119     
   3767090292.0683594        262508322.39723337        1224257389.8736951     
   3317019771.0430474        581154080.36655998        1153692960.4680181     
   3292269090.5740609        474238444.27465570        1182099239.8146458     
   3271222230.6469579        379668876.65569496        1207384211.4858570     
   3253879191.2617393        297445377.50968289        1229547875.4816487     
   3240239972.4184036        227567946.83661437        1248590231.8020246     
   2823893417.7691069        506836019.67491668        1145384010.5330877     
   2797037853.2400570        412117017.35816169        1180368965.6618381     
   2773786245.4655924        329411204.22335541        1214041479.0870774     
   2754138594.4457130        258718580.27049696        1246401550.8088059     
   2738094900.1804161        200039145.49958634        1277449180.8270230     
   2334799557.9424834        433727707.01746845        1142067198.7022247     
   2311007297.8445349        352755795.02321351        1183514321.8612473     
   2290719130.7138710        283464192.91990888        1225457869.2886665     
   2273935056.5504932        225852900.70755291        1267897840.9844801     
   2260655075.3543997        179921918.38614845        1310834236.9486911     
   1849738191.5631819        361829142.39421707        1143742524.9754283     
   1834177424.3874960        296154777.26981014        1191535308.4128745     
   1822020886.3917959        241827842.74535549        1241633382.0906229     
   1813268577.5760813        198848338.82085299        1294036746.0086746     
   1807920497.9403532        167216265.49630356        1348745400.1670294     
   3767090292.0683594        262508322.39723337        1224257389.8736951     
   3658237667.0174580        169823680.08946395        1191539279.0211947     
   3557235961.2129641        103308768.60305071        1169230640.9001291     
   3464085174.6548791        62963587.938004851        1157331475.5105007     
   3378785307.3432021        48788138.094314933        1155841782.8523078     
   3240239972.4184036        227567946.83661437        1248590231.8020246     
   3160869107.9839802        152938803.31190217        1231541276.4183419     
   3087663289.4861455        98859812.909152985        1222594472.1351945     
   3020622516.9249015        65330975.628370166        1221749818.9525790     
   2959746790.3002439        52352291.469546437        1229007316.8704982     
   2738094900.1804161        200039145.49958634        1277449180.8270230     
   2681613448.8456063        141487796.50287414        1274102528.7173717     
   2629611170.1375656        97867022.928729415        1276550706.0773513     
   2582088064.0562959        69176824.777150869        1284793712.9069607     
   2539044130.6017962        55417202.048136711        1298831549.2062032     
   2260655075.3543997        179921918.38614845        1310834236.9486911     
   2220470689.6023378        135470659.66237760        1319223035.9182816     
   2183079603.1672277        100330398.66177678        1331099342.7266006     
   2148481816.0490670        74501135.384342432        1346463157.3736465     
   2116677328.2478571        57982869.830077648        1365314479.8594217     
   1807920497.9403532        167216265.49630356        1348745400.1670294     
   1777440830.2541735        134887392.79040986        1366902798.0210724     
   1748068588.5751271        106249940.10829341        1386240382.0829411     
   1719803772.9032125        81303907.449948490        1406758152.3526344     
   1692646383.2384284        60049294.815371633        1428456108.8301537     
   3378785307.3432021        48788138.094314933        1155841782.8523078     
   3288617353.1023488        42181243.225415468        1148074471.7514133     
   3196551653.9361010        29248531.938538671        1142705729.3059251     
   3102588209.8444653        9990004.2336997986        1139735555.5158467     
   3006727020.8274384       -15594339.889108777        1139163950.3811767     
   2959746790.3002439        52352291.469546437        1229007316.8704982     
   2875567779.9801168        40725689.368089437        1219647201.4600933     
   2790724647.1295624        26885345.498532176        1213653791.3100431     
   2705217391.7485723        10831259.860862970        1211027086.4203551     
   2619046013.8371530       -7436567.5449066162        1211767086.7910211     
   2539044130.6017962        55417202.048136711        1298831549.2062032     
   2463620168.7879691        39600724.089796901        1289317855.6137388     
   2388765706.8386693        25682579.013212800        1284139003.8865848     
   2314480744.7538991        13662766.818396211        1283294994.0247340     
   2240765282.5336580        3541287.5053375959        1286785826.0281916     
   2116677328.2478571        57982869.830077648        1365314479.8594217     
   2052774519.5258973        38806347.390524507        1357086434.2123542     
   1990674833.0634241        25640232.482591033        1354161367.0355439     
   1930378268.8604405        18484525.106290936        1356539278.3289888     
   1871884826.9169438        17339225.261616230        1364220168.0926893     
   1692646383.2384284        60049294.815371633        1428456108.8301537     
   1643030832.1939037        38342559.270271659        1422952937.2559359     
   1596452025.8038266        26758305.906664491        1423720880.7569237     
   1552909964.0681977        25296534.724551380        1430759939.3331146     
   1512404646.9870157        33957245.723927140        1444070112.9845114     
   3006727020.8274384       -15594339.889108777        1139163950.3811767     
   2903550667.2071943       -42831450.886767149        1124107240.1054640     
   2802629277.7471480       -62552014.683767438        1115084193.7760506     
   2703962852.4472952       -74756031.280120373        1112094811.3929319     
   2607551391.3076372       -79443500.675829172        1115139092.9561107     
   2619046013.8371530       -7436567.5449066162        1211767086.7910211     
   2533914858.7296128       -24036613.095109105        1201904145.7415588     
   2450341704.1839747       -35443323.438971877        1197433755.2677004     
   2368326550.2002397       -41656698.576487899        1198355915.3694379     
   2287869396.7784066       -42676738.507663012        1204670626.0467799     
   2240765282.5336580        3541287.5053375959        1286785826.0281916     
   2171847573.4511123       -2971218.3437298536        1281303530.0069740     
   2103790901.3321767       -6613600.9807648659        1280572671.1906605     
   2036595266.1768541       -7385860.4057576656        1284593249.5792489     
   1970260667.9851410       -5287996.6187140942        1293365265.1727433     
   1871884826.9169438        17339225.261616230        1364220168.0926893     
   1817348811.3716912        20364733.367375255        1362305392.9017067     
   1762976869.1917548        23937152.690857172        1364500941.5449317     
   1708769000.3771408        28056483.232081115        1370806814.0223641     
   1654725204.9278448        32722724.991028965        1381223010.3340034     
   1512404646.9870157        33957245.723927140        1444070112.9845114     
   1470418572.4913495        45971242.038201213        1444909734.4257588     
   1427899607.7627087        56208937.575891495        1449218566.3305151     
   1384847752.8010969        64670332.337016225        1456996608.6987841     
   1341263007.6065121        71355426.321557760        1468243861.5305617     
   2607551391.3076372       -79443500.675829172        1115139092.9561107     
   2512064976.1681805       -81883624.078094006        1106372108.3268075     
   2415622387.3256974       -87510993.157120824        1101500573.7091143     
   2318223624.7801847       -96325607.912904620        1100524489.1030319     
   2219868688.5316486       -108327468.34544051        1103443854.5085609     
   2287869396.7784066       -42676738.507663012        1204670626.0467799     
   2203143103.9621367       -43435949.330482244        1195804701.7881587     
   2117875230.9751863       -46000427.388906121        1190932441.7866616     
   2032065777.8175521       -50370172.682938218        1190053846.0422850     
   1945714744.4892364       -56545185.212578416        1193168914.5550337     
   1970260667.9851410       -5287996.6187140942        1293365265.1727433     
   1896575109.6220968       -4282111.2230703831        1284884093.7392082     
   1822762564.6207185       -3699514.6218786240        1280494800.8083062     
   1748823032.9809983       -3540206.8151549101        1280197386.3800445     
   1674756514.7029438       -3804187.8028818369        1283991850.4544153     
   1654725204.9278448        32722724.991028965        1381223010.3340034     
   1592360993.1480651        35577890.244144440        1373610284.1799531     
   1530284388.2622950        39391745.143960655        1370187650.7740533     
   1468495390.2705300        44164289.690460920        1370955110.1163061     
   1406993999.1727755        49895523.883659482        1375912662.2067058     
   1341263007.6065121        71355426.321557760        1468243861.5305617     
   1290500754.5400362        76144055.071160078        1461983273.1104004     
   1240440701.8999157        83273351.908615589        1460010991.6839046     
   1191082849.6861434        92743316.833895981        1462327017.2510693     
   1142427197.8987272        104553949.84702674        1468931349.8118997     
   2219868688.5316486       -108327468.34544051        1103443854.5085609     
   2109820561.3175201       -127657549.58794379        1090694149.7378018     
   1998209752.7380931       -152196568.71476912        1081240455.6778374     
   1885036262.7933786       -181944525.72589135        1075082772.3286605     
   1770300091.4833741       -216901420.62130737        1072221099.6902758     
   1945714744.4892364       -56545185.212578416        1193168914.5550337     
   1847950037.3767781       -67986851.066771746        1180751573.7364819     
   1749512041.5189815       -81672812.738758087        1172666603.3495834     
   1650400756.9158401       -97603070.228557944        1168914003.3943403     
   1550616183.5673590       -115777623.53616279        1169493773.8707466     
   1674756514.7029438       -3804187.8028818369        1283991850.4544153     
   1592236255.4660556       -6469129.9365780354        1272944498.3113410     
   1509932100.1037779       -8413725.8215852976        1267265876.3207862     
   1427844048.6161108       -9637975.4578887820        1266955984.4827447     
   1345972101.0030446       -10141878.845512927        1272014822.7972252     
   1406993999.1727755        49895523.883659482        1375912662.2067058     
   1342679215.5853517        56895613.802609801        1367272923.4623861     
   1279469928.4924858        67580692.036759675        1365038274.5914481     
   1217366137.8941815        81950758.586117327        1369208715.5938902     
   1156367843.7904341        100005813.45065391        1379784246.4697115     
   1142427197.8987272        104553949.84702674        1468931349.8118997     
   1099278917.7346625        122107380.15080562        1463736849.1896102     
   1058125526.6851099        146310440.83629283        1465983798.1615672     
   1018967024.7500679        177163131.90347803        1475672196.7277644     
   981803411.92952514        214665453.35232785        1492802044.8882079     
   1770300091.4833741       -216901420.62130737        1072221099.6902758     
   1651290218.2290320       -303891014.41658425        1035520094.8512350     
   1500381099.9774218       -497211424.86942112        998354866.74427867     
   1317572736.7285528       -796862651.97978115        960725415.36940718     
   1102865128.4824152       -1202844695.7477145        922631740.72662723     
   1550616183.5673590       -115777623.53616279        1169493773.8707466     
   1443970657.5296419       -162996996.07214725        1110093000.5708501     
   1320205101.4977446       -267283135.25539279        1051489743.4918187     
   1179319515.4716787       -428636041.08587348        993684002.63364923     
   1021313899.4514357       -647055713.56360495        936675777.99635243     
   1345972101.0030446       -10141878.845512927        1272014822.7972252     
   1255295892.1498928       -16509539.131816208        1207156698.5400755     
   1162278868.3056519       -30679916.055082142        1144357829.9925706     
   1066921029.4703261       -52653009.615292668        1083618217.1547167     
   969222375.64391840       -82428819.812456906        1024937860.0264958     
   1156367843.7904341        100005813.45065391        1379784246.4697115     
   1085265922.0897887        135571356.40441418        1326711188.7589169     
   1026602400.4011422        212598232.73151320        1276959126.2465463     
   980377278.72449625        331086442.43194330        1230528058.9325926     
   946590557.05985677        491035985.50572789        1187417986.8170664     
   981803411.92952514        214665453.35232785        1492802044.8882079     
   933880747.34931898        293245690.53652149        1468756471.2273695     
   913175697.78420258        462551311.10435045        1449293632.2537332     
   919688263.23418164        722582315.05582654        1434413527.9672976     
   953418443.69925308        1073338702.3909501        1424116158.3680656     
   1755499972.3889053        526649991.71667159        680423822.40565073     
   1783484396.2520888        500194342.95143831        806853663.33072889     
   1808518907.4021957        463905651.80928493        926216727.40071785     
   1830603505.8392272        417783918.29021132        1038513014.6156174     
   1849738191.5631819        361829142.39421707        1143742524.9754283     
   1325867048.4217796        397760114.52653390        670200813.19778860     
   1339113602.4170759        375595848.77616763        792366007.89217210     
   1350147721.8778045        346056801.24390972        909270837.30906975     
   1358969406.8039658        309142971.92976022        1020915301.4484820     
   1365578657.1955595        264854360.83371943        1127299400.3104084     
   890072745.04978478        267021823.51493543        662898663.76088572     
   893742605.11320376        250697293.56023905        781659603.43283463     
   895937508.82056403        229456242.41867971        896966589.40490150     
   896657456.17186522        203298670.09025753        1008819621.6770861     
   895902447.16710794        172224576.57497263        1117218700.2493885     
   448117062.27292043        134435118.68187612        658517374.09494281     
   447371404.34047246        125498677.30365266        774734449.95271707     
   445888268.23047411        114103975.33359486        889303983.68821263     
   443667653.94292575        100251012.77170317        1002225975.3014301     
   440709561.47782671        83939789.617976680        1113500424.7923687     
   9.1186845162650604E-002   2.7356053548795181E-002   657056944.19995928     
   9.8881720119651323E-002   6.4085355611941675E-003   771590547.45181906     
  0.10753487443453220       -1.1344761268226547E-002   886283020.15900409     
  0.11714636672569641       -2.5903403020311765E-002   1001134362.3215135     
  0.12771633567570756       -3.7267296048588125E-002   1116144573.9393485     
   1849738191.5631819        361829142.39421707        1143742524.9754283     
   1834177424.3874960        296154777.26981014        1191535308.4128745     
   1822020886.3917959        241827842.74535549        1241633382.0906229     
   1813268577.5760813        198848338.82085299        1294036746.0086746     
   1807920497.9403532        167216265.49630356        1348745400.1670294     
   1365578657.1955595        264854360.83371943        1127299400.3104084     
   1359701329.2442482        217336561.21598634        1182960619.0213733     
   1356377173.1777329        178329334.54757318        1239575370.2400146     
   1355606188.9960129        147832680.82847834        1297143653.9663308     
   1357388376.6990893        125846600.05870444        1355665470.2003238     
   895902447.16710794        172224576.57497263        1117218700.2493885     
   895846393.48980880        141704692.97880462        1179755454.0561509     
   897492454.40211535        116858524.68132344        1241893982.6379628     
   900840629.90402806        97686071.682528734        1303634285.9948227     
   905890919.99554682        84187333.982420683        1364976364.1267323     
   440709561.47782671        83939789.617976680        1113500424.7923687     
   442612617.12417740        69259172.558265761        1181919813.5172067     
   445366730.06494427        57415413.146608382        1248589219.2844667     
   448971900.30012703        48408511.383003831        1313508642.0941498     
   453428127.82972604        42238467.267453969        1376678081.9462547     
  0.12771633567570756       -3.7267296048588125E-002   1116144573.9393485     
  0.14735446150816689       -4.5631069893333064E-002   1189453697.4045408     
  0.16621907175982620       -5.6573445847845759E-002   1259661080.1795287     
  0.18430990300530059       -7.0094889999917254E-002   1326766722.2643123     
  0.20162713074237024       -8.6195359458033069E-002   1390770623.6588917     
   1807920497.9403532        167216265.49630356        1348745400.1670294     
   1777440830.2541735        134887392.79040986        1366902798.0210724     
   1748068588.5751271        106249940.10829341        1386240382.0829411     
   1719803772.9032125        81303907.449948490        1406758152.3526344     
   1692646383.2384284        60049294.815371633        1428456108.8301537     
   1357388376.6990893        125846600.05870444        1355665470.2003238     
   1332775795.7207589        101074096.45854992        1374819994.8843777     
   1308993784.2471132        79070157.874007404        1395563699.4960902     
   1286042342.2781513        59834784.305079877        1417896584.0354605     
   1263921469.8138738        43367975.751765966        1441818648.5024865     
   905890919.99554682        84187333.982420683        1364976364.1267323     
   888313979.21030164        67321765.533576190        1384805016.3879416     
   871290751.42729259        52301907.092184335        1406631842.2966409     
   854821236.64651859        39127758.658243924        1430456841.8528304     
   838905434.86798096        27799320.231756300        1456280015.0565093     
   453428127.82972604        42238467.267453969        1376678081.9462547     
   444055380.72280097        33630400.015490323        1396857862.5317638     
   434959490.11566335        25945187.762816206        1419444810.4845941     
   426140456.00831413        19182830.509437323        1444438925.8047469     
   417598278.40075040        13343328.255344048        1471840208.4922223     
  0.20162713074237024       -8.6195359458033069E-002   1390770623.6588917     
  0.25825715192757959       -9.5709944091017199E-002   1410978533.3158433     
  0.31222616067674758      -0.11409491712216807        1434002604.0599482     
  0.36353514635414214      -0.14134680719824419        1459842835.8912084     
  0.41218384017293919      -0.17746564291358863        1488499228.8096232     
   1692646383.2384284        60049294.815371633        1428456108.8301537     
   1643030832.1939037        38342559.270271659        1422952937.2559359     
   1596452025.8038266        26758305.906664491        1423720880.7569237     
   1552909964.0681977        25296534.724551380        1430759939.3331146     
   1512404646.9870157        33957245.723927140        1444070112.9845114     
   1263921469.8138738        43367975.751765966        1441818648.5024865     
   1231266688.3501568        28454988.629308760        1440181958.3572037     
   1200889465.3800106        21133863.152088583        1443753110.8705745     
   1172789800.9034417        21404599.320123911        1452532106.0425971     
   1146967694.9204431        29267197.133394420        1466518943.8732729     
   838905434.86798096        27799320.231756300        1456280015.0565093     
   820173501.79492307        18768705.174894542        1457624089.1524751     
   802959941.05456400        14799331.227028430        1463112733.4905417     
   787264752.64690471        15891198.388160437        1472745948.0707107     
   773087936.57194257        22044306.658285737        1486523732.8929796     
   417598278.40075040        13343328.255344048        1471840208.4922223     
   409751272.52820510        9283708.9070368707        1475279329.6417491     
   402663452.82748413        7754710.1314775199        1481799748.6168237     
   396334819.29858696        8756331.9286644459        1491401465.4174490     
   390765371.94151354        12288574.298596457        1504084480.0436244     
  0.41218384017293919      -0.17746564291358863        1488499228.8096232     
  0.55000255723429414      -0.17426368269647255        1493147679.8250253     
  0.69877016261178237      -0.13456612198163559        1499814156.2494216     
  0.85848786870554772       -5.8368225545875341E-002   1508498658.0828178     
   1.0291549663758832        5.4328336701176427E-002   1519201185.3252099     
   1512404646.9870157        33957245.723927140        1444070112.9845114     
   1470418572.4913495        45971242.038201213        1444909734.4257588     
   1427899607.7627087        56208937.575891495        1449218566.3305151     
   1384847752.8010969        64670332.337016225        1456996608.6987841     
   1341263007.6065121        71355426.321557760        1468243861.5305617     
   1146967694.9204431        29267197.133394420        1466518943.8732729     
   1113518561.1597676        37689821.043419421        1464088208.4155624     
   1079669759.7385211        44780219.418208063        1465583918.2299318     
   1045421290.6567023        50538392.257756352        1471006073.3163764     
   1010773153.9143132        54964339.562068164        1480354673.6749022     
   773087936.57194257        22044306.658285737        1486523732.8929796     
   749482128.71359611        27267473.714266539        1480978066.8707793     
   725609875.76707780        31602490.476344705        1479816080.9292240     
   701471177.73239195        35049356.944530040        1483037775.0683131     
   677066034.60953546        37608073.118813187        1490643149.2880516     
   390765371.94151354        12288574.298596457        1504084480.0436244     
   378309275.15282977        14704200.050728932        1495579309.7914011     
   365719955.84837973        16675750.750306457        1491915054.4283943     
   352997414.02816033        18203226.397319838        1493091713.9546003     
   340141649.69217521        19286626.991780981        1499109288.3700197     
   1.0291549663758832        5.4328336701176427E-002   1519201185.3252099     
  0.47747401270876411        5.2822032462326474E-002   1507891937.1774366     
  -1.7574289093588560E-002  0.24009019360527883        1501880838.7274437     
 -0.45598690803081576       0.61614465818803987        1501167889.9752326     
 -0.83776799600152274        1.1809705457145068        1505753090.9208033     
   1341263007.6065121        71355426.321557760        1468243861.5305617     
   1290500754.5400362        76144055.071160078        1461983273.1104004     
   1240440701.8999157        83273351.908615589        1460010991.6839046     
   1191082849.6861434        92743316.833895981        1462327017.2510693     
   1142427197.8987272        104553949.84702674        1468931349.8118997     
   1010773153.9143132        54964339.562068164        1480354673.6749022     
   971135437.53007889        58086003.339919746        1473867574.9652705     
   932024371.46537018        62963168.182858467        1472034189.3956401     
   893439955.72019184        69595834.090897560        1474854516.9660122     
   855382190.29454255        77984001.064032733        1482328557.6763899     
   677066034.60953546        37608073.118813187        1490643149.2880516     
   649596872.46850789        39375977.193195313        1483724731.8309882     
   622478810.54018283        42314215.309919238        1481825433.6602685     
   595711848.82456231        46422787.468992591        1484945254.7758873     
   569295987.32164729        51701693.670417175        1493084195.1778517     
   340141649.69217521        19286626.991780981        1499109288.3700197     
   325885059.35532105        20013976.630977765        1491554743.7075644     
   311804019.12434769        21326493.289777115        1489384724.4777896     
   297898528.99925828        23224176.968190178        1492599230.6806943     
   284168588.98004448        25707027.666188516        1501198262.3162837     
 -0.83776799600152274        1.1809705457145068        1505753090.9208033     
  -1.8094750514801956        1.6532907597899884        1497357610.5949924     
  -2.7821296319843425        2.1224515162798046        1494712061.8482032     
  -3.7557250693131730        2.5884762568263548        1497816444.6804304     
  -4.7302646232217906        3.0513546359963399        1506670759.0916810     
   1142427197.8987272        104553949.84702674        1468931349.8118997     
   1099278917.7346625        122107380.15080562        1463736849.1896102     
   1058125526.6851099        146310440.83629283        1465983798.1615672     
   1018967024.7500679        177163131.90347803        1475672196.7277644     
   981803411.92952514        214665453.35232785        1492802044.8882079     
   855382190.29454255        77984001.064032733        1482328557.6763899     
   828991467.76761532        92940220.205049068        1478809531.0513055     
   804096912.04089713        112883662.01343000        1481338840.2057953     
   780698523.11439252        137814326.48918760        1489916485.1398649     
   758796300.98809361        167732213.63229707        1504542465.8535080     
   569295987.32164729        51701693.670417175        1493084195.1778517     
   555682497.24709272        62866604.093241617        1490658799.8499541     
   543066451.65845108        77356329.469110489        1492888626.4869661     
   531447850.55571896        95170869.798011065        1499773675.0888870     
   520826693.93889362        116310225.07993415        1511313945.6557152     
   284168588.98004448        25707027.666188516        1501198262.3162837     
   279352006.17309886        31886531.815398641        1499284655.5855587     
   275034145.53776646        39728443.203319438        1500633157.0050726     
   271215007.07404023        49232761.829926290        1505243766.5748267     
   267894590.78192806        60399487.695249051        1513116484.2948229     
  -4.7302646232217906        3.0513546359963399        1506670759.0916810     
  -5.4543695567447656        3.3715082923293482        1504687098.2581122     
  -6.3211608566530035        3.2160414212675397        1504572431.7601154     
  -7.3306400556032880        2.5849475261761823        1506326759.5976944     
  -8.4828098757770753        1.4782189208958756        1509950081.7708423     
   981803411.92952514        214665453.35232785        1492802044.8882079     
   933880747.34931898        293245690.53652149        1468756471.2273695     
   913175697.78420258        462551311.10435045        1449293632.2537332     
   919688263.23418164        722582315.05582654        1434413527.9672976     
   953418443.69925308        1073338702.3909501        1424116158.3680656     
   758796300.98809361        167732213.63229707        1504542465.8535080     
   717942977.95592022        225193993.76668555        1503617655.0415645     
   697502866.09916306        350699811.15246296        1508421554.6677809     
   697475965.41782463        544249665.78962970        1518954164.7321651     
   717862275.91190171        805843557.67819262        1535215485.2347124     
   520826693.93889362        116310225.07993415        1511313945.6557152     
   490316928.88607484        153635813.09391570        1525571426.5463762     
   473415971.16899228        236324092.22702241        1546703593.6261616     
   470123820.78765619        364375062.47928262        1574710446.8950725     
   480440477.74206197        537788723.85068202        1609591986.3531115     
   267894590.78192806        60399487.695249051        1513116484.2948229     
   251002600.13977724        78571148.518196777        1534617785.7418060     
   240915012.99369511        119424154.32804081        1564139749.1288719     
   237631829.34368685        182958505.12480193        1601682374.4560351     
   241153049.18974063        269174200.90843022        1647245661.7232757     
  -8.4828098757770753        1.4782189208958756        1509950081.7708423     
  -8.2829589798715730        3.9572946567996592E-002   1530756732.6278517     
  -8.4267279509586910       -2.5444718905125527        1560730021.1759186     
  -8.9140934103035825       -6.2738369673402303        1599869947.4150295     
  -9.7450670243981943       -11.148567417226044        1648176511.3451912     
   9.1186845162650604E-002   2.7356053548795181E-002   657056944.19995928     
   9.8881720119651323E-002   6.4085355611941675E-003   771590547.45181906     
  0.10753487443453220       -1.1344761268226547E-002   886283020.15900409     
  0.11714636672569641       -2.5903403020311765E-002   1001134362.3215135     
  0.12771633567570756       -3.7267296048588125E-002   1116144573.9393485     
  -448117062.09407121       -134435118.62822136        658517374.07726192     
  -447371404.14514327       -125498677.28512415        774734449.93426812     
  -445888268.01704937       -114103975.34480676        889303983.66827214     
  -443667653.70978969       -100251012.80726936        1002225975.2792742     
  -440709561.22336370       -83939789.672511876        1113500424.7672739     
  -890072744.88150871       -267021823.46445262        662898663.72817743     
  -893742604.92942512       -250697293.53873378        781659603.39823866     
  -895937508.61996770       -229456242.42176938        896966589.36697090     
  -896657455.95313656       -203298670.11355883        1008819621.6343740     
  -895902446.92893183       -172224576.61410290        1117218700.2004480     
  -1325867048.2711258       -397760114.48133779        670200813.15270567     
  -1339113602.2539637       -375595848.75442046        792366007.84373152     
  -1350147721.7012198       -346056801.24223179        909270837.25510061     
  -1358969406.6128948       -309142971.94477177        1020915301.3868141     
  -1365578656.9889882       -264854360.86204040        1127299400.2388709     
  -1755499972.2629223       -526649991.67887670        680423822.35084677     
  -1783484396.1187587       -500194342.93218416        806853663.27074564     
  -1808518907.2608056       -463905651.80619466        926216727.33266091     
  -1830603505.6890638       -417783918.30090773        1038513014.5365933     
  -1849738191.4035327       -361829142.41632438        1143742524.8825426     
  0.12771633567570756       -3.7267296048588125E-002   1116144573.9393485     
  0.14735446150816689       -4.5631069893333064E-002   1189453697.4045408     
  0.16621907175982620       -5.6573445847845759E-002   1259661080.1795287     
  0.18430990300530059       -7.0094889999917254E-002   1326766722.2643123     
  0.20162713074237024       -8.6195359458033069E-002   1390770623.6588917     
  -440709561.22336370       -83939789.672511876        1113500424.7672739     
  -442612616.83106059       -69259172.625008911        1181919813.4847455     
  -445366729.73375982       -57415413.227512345        1248589219.2431178     
  -448971899.93146080       -48408511.480022803        1313508642.0423901     
  -453428127.42416316       -42238467.382537693        1376678081.8825626     
  -895902446.92893183       -172224576.61410290        1117218700.2004480     
  -895846393.21795046       -141704693.02692965        1179755453.9935989     
  -897492454.09619927       -116858524.73718986        1241893982.5587556     
  -900840629.56367803       -97686071.744884282        1303634285.8959172     
  -905890919.62038684       -84187334.050012171        1364976364.0050840     
  -1365578656.9889882       -264854360.86204040        1127299400.2388709     
  -1359701329.0133142       -217336561.25139189        1182960618.9311020     
  -1356377172.9210992       -178329334.58560541        1239575370.1264431     
  -1355606188.7123413       -147832680.86467892        1297143653.8248949     
  -1357388376.3870430       -125846600.08861572        1355665470.0264561     
  -1849738191.4035327       -361829142.41632438        1143742524.8825426     
  -1834177424.2171526       -296154777.29839724        1191535308.2972538     
  -1822020886.2084587       -241827842.77275890        1241633381.9461801     
  -1813268577.3774519       -198848338.83940876        1294036745.8293214     
  -1807920497.7241318       -167216265.49834824        1348745399.9466774     
  0.20162713074237024       -8.6195359458033069E-002   1390770623.6588917     
  0.25825715192757959       -9.5709944091017199E-002   1410978533.3158433     
  0.31222616067674758      -0.11409491712216807        1434002604.0599482     
  0.36353514635414214      -0.14134680719824419        1459842835.8912084     
  0.41218384017293919      -0.17746564291358863        1488499228.8096232     
  -453428127.42416316       -42238467.382537693        1376678081.8825626     
  -444055380.20581359       -33630400.135263816        1396857862.4480445     
  -434959489.49258888       -25945187.905074477        1419444810.3761275     
  -426140455.28448868       -19182830.691964924        1444438925.6668124     
  -417598277.58151346       -13343328.495940149        1471840208.3200982     
  -905890919.62038684       -84187334.050012171        1364976364.0050840     
  -888313978.73904073       -67321765.595566392        1384805016.2262208     
  -871290750.86528349       -52301907.166418850        1406631842.0854063     
  -854821235.99911535       -39127758.762567252        1430456841.5826416     
  -838905434.14053643       -27799320.384013206        1456280014.7179234     
  -1357388376.3870430       -125846600.08861572        1355665470.0264561     
  -1332775795.3414233       -101074096.47661459        1374819994.6503737     
  -1308993783.8058567       -79070157.898127198        1395563699.1877859     
  -1286042341.7803431       -59834784.353148222        1417896583.6386938     
  -1263921469.2648842       -43367975.841683328        1441818648.0030980     
  -1807920497.7241318       -167216265.49834824        1348745399.9466774     
  -1777440830.0129614       -134887392.77840984        1366902797.7205005     
  -1748068588.3143089       -106249940.10019648        1386240381.6832659     
  -1719803772.6281748       -81303907.463710904        1406758151.8349733     
  -1692646382.9545572       -60049294.868950129        1428456108.1756232     
  0.41218384017293919      -0.17746564291358863        1488499228.8096232     
  0.55000255723429414      -0.17426368269647255        1493147679.8250253     
  0.69877016261178237      -0.13456612198163559        1499814156.2494216     
  0.85848786870554772       -5.8368225545875341E-002   1508498658.0828178     
   1.0291549663758832        5.4328336701176427E-002   1519201185.3252099     
  -417598277.58151346       -13343328.495940149        1471840208.3200982     
  -409751271.44143450       -9283709.1316629052        1475279329.4595740     
  -402663451.45307440       -7754710.2731148154        1481799748.4161592     
  -396334817.61643273       -8756331.9202939123        1491401465.1898503     
  -390765369.93150949       -12288574.073201954        1504084479.7806513     
  -838905434.14053643       -27799320.384013206        1456280014.7179234     
  -820173500.83216810       -18768705.308851570        1457624088.7916970     
  -802959939.83818614       -14799331.281643659        1463112733.0906880     
  -787264751.15859151       -15891198.302394420        1472745947.6148970     
  -773087934.79338205       -22044306.371093839        1486523732.3643255     
  -1263921469.2648842       -43367975.841683328        1441818648.0030980     
  -1231266687.6221974       -28454988.705828547        1440181957.8213887     
  -1200889464.4565647       -21133863.160153389        1443753110.2730081     
  -1172789799.7679882       -21404599.204665482        1452532105.3579559     
  -1146967693.5564635       -29267196.839348853        1466518943.0762310     
  -1692646382.9545572       -60049294.868950129        1428456108.1756232     
  -1643030831.8115237       -38342559.322595298        1422952936.5486519     
  -1596452025.3082104       -26758305.908642173        1423720879.9631200     
  -1552909963.4446216       -25296534.627105117        1430759938.4190271     
  -1512404646.2207527       -33957245.477966130        1444070111.9163721     
   1.0291549663758832        5.4328336701176427E-002   1519201185.3252099     
  0.47747401270876411        5.2822032462326474E-002   1507891937.1774366     
  -1.7574289093588560E-002  0.24009019360527883        1501880838.7274437     
 -0.45598690803081576       0.61614465818803987        1501167889.9752326     
 -0.83776799600152274        1.1809705457145068        1505753090.9208033     
  -390765369.93150949       -12288574.073201954        1504084479.7806513     
  -378309274.21794039       -14704199.870003596        1495579309.5955765     
  -365719955.90374351       -16675750.331377432        1491915054.3310564     
  -352997414.98891902       -18203225.457325369        1493091713.9870911     
  -340141651.47346884       -19286625.247857362        1499109288.5636828     
  -773087934.79338205       -22044306.371093839        1486523732.3643255     
  -749482127.89235294       -27267473.486525744        1480978066.4432747     
  -725609875.84670222       -31602490.119885474        1479816080.6655562     
  -701471178.65642917       -35049356.271170557        1483037775.0311642     
  -677066036.32153487       -37608071.940384835        1490643149.5401001     
  -1146967693.5564635       -29267196.839348853        1466518943.0762310     
  -1113518560.5457630       -37689820.796747029        1464088207.7205360     
  -1079669759.8464496       -44780219.125429928        1465583917.7309415     
  -1045421291.4585168       -50538391.825384796        1471006073.1074486     
  -1010773155.3819699       -54964338.896626353        1480354673.8500617     
  -1512404646.2207527       -33957245.477966130        1444070111.9163721     
  -1470418572.1781735       -45971241.800671637        1444909733.4273543     
  -1427899607.9029846       -56208937.348009884        1449218565.5272131     
  -1384847753.3951840       -64670332.119977653        1456996608.2159474     
  -1341263008.6547747       -71355426.116582155        1468243861.4935579     
 -0.83776799600152274        1.1809705457145068        1505753090.9208033     
  -1.8094750514801956        1.6532907597899884        1497357610.5949924     
  -2.7821296319843425        2.1224515162798046        1494712061.8482032     
  -3.7557250693131730        2.5884762568263548        1497816444.6804304     
  -4.7302646232217906        3.0513546359963399        1506670759.0916810     
  -340141651.47346884       -19286625.247857362        1499109288.5636828     
  -325885063.09929365       -20013974.297669455        1491554743.9947388     
  -311804024.83140874       -21326490.368448690        1489384724.9256349     
  -297898536.66980845       -23224173.460177556        1492599231.3563795     
  -284168598.61449593       -25707023.572864465        1501198263.2869618     
  -677066036.32153487       -37608071.940384835        1490643149.5401001     
  -649596875.97055769       -39375975.723068327        1483724732.2717881     
  -622478815.83120704       -42314213.544507563        1481825434.4241440     
  -595711855.90348649       -46422785.404712975        1484945255.9971673     
  -569295996.18739533       -51701691.303685650        1493084196.9908569     
  -1010773155.3819699       -54964338.896626353        1480354673.8500617     
  -971135440.42326081       -58086002.622886389        1473867575.4261470     
  -932024375.78152251       -62963167.405716807        1472034190.3437243     
  -893439961.45675933       -69595833.245130211        1474854518.6027939     
  -855382197.44896483       -77984000.141107082        1482328560.2033522     
  -1341263008.6547747       -71355426.116582155        1468243861.4935579     
  -1290500756.4574137       -76144054.997157693        1461983273.4578111     
  -1240440704.6823573       -83273351.952085972        1460010992.6843793     
  -1191082853.3296227       -92743316.981417358        1462327019.1732631     
  -1142427202.3992009       -104553950.08512509        1468931352.9244599     
  -4.7302646232217906        3.0513546359963399        1506670759.0916810     
  -5.4543695567447656        3.3715082923293482        1504687098.2581122     
  -6.3211608566530035        3.2160414212675397        1504572431.7601154     
  -7.3306400556032880        2.5849475261761823        1506326759.5976944     
  -8.4828098757770753        1.4782189208958756        1509950081.7708423     
  -284168598.61449593       -25707023.572864465        1501198263.2869618     
  -279352017.26312149       -31886527.305854864        1499284656.6192567     
  -275034158.29499024       -39728438.982988074        1500633158.1478431     
  -271215021.71010584       -49232758.604277894        1505243767.8727195     
  -267894607.50846556       -60399486.169713750        1513116485.7938883     
  -569295996.18739533       -51701691.303685650        1493084196.9908569     
  -555682507.44420862       -62866601.494927734        1490658801.8750322     
  -543066463.32482195       -77356327.098837793        1492888628.8162174     
  -531447863.82923514       -95170868.115415618        1499773677.8144102     
  -520826708.95744658       -116310224.54465067        1511313948.8696139     
  -855382197.44896483       -77984000.141107082        1482328560.2033522     
  -828991475.99762583       -92940219.195693403        1478809534.0254316     
  -804096921.41064656       -112883661.13147566        1481338843.7652352     
  -780698533.68801904       -137814325.94843310        1489916489.4227633     
  -758796312.82975006       -167732213.64658436        1504542470.9980197     
  -1142427202.3992009       -104553950.08512509        1468931352.9244599     
  -1099278922.9233775       -122107380.40816262        1463736853.0704570     
  -1058125532.5524677       -146310441.08091497        1465983802.9948983     
  -1018967031.2864679       -177163132.10336563        1475672202.6977828     
  -981803419.12537777       -214665453.47551531        1492802052.1791105     
  -8.4828098757770753        1.4782189208958756        1509950081.7708423     
  -8.2829589798715730        3.9572946567996592E-002   1530756732.6278517     
  -8.4267279509586910       -2.5444718905125527        1560730021.1759186     
  -8.9140934103035825       -6.2738369673402303        1599869947.4150295     
  -9.7450670243981943       -11.148567417226044        1648176511.3451912     
  -267894607.50846556       -60399486.169713750        1513116485.7938883     
  -251002616.33960974       -78571149.135635197        1534617786.9693651     
  -240915029.26487467       -119424159.08195890        1564139750.0131769     
  -237631846.28424820       -182958516.00864255        1601682374.9253080     
  -241153067.39773664       -269174219.91571093        1647245661.7057583     
  -520826708.95744658       -116310224.54465067        1511313948.8696139     
  -490316943.45594347       -153635814.02874488        1525571429.3213050     
  -473415985.79906631       -236324096.32825607        1546703595.8185983     
  -470123835.98680776       -364375071.44316626        1574710448.3614891     
  -480440494.01917374       -537788739.37348473        1609591986.9499750     
  -758796312.82975006       -167732213.64658436        1504542470.9980197     
  -717942989.63196039       -225193994.63975784        1503617659.6836665     
  -697502878.02930248       -350699814.28337157        1508421558.5921845     
  -697475978.02177429       -544249672.57741368        1518954167.7235730     
  -717862289.60937321       -805843569.52188718        1535215487.0778372     
  -981803419.12537777       -214665453.47551531        1492802052.1791105     
  -933880754.86765909       -293245690.96866876        1468756478.0564518     
  -913175705.95558190       -462551312.94729346        1449293638.3339343     
  -919688272.38914490       -722582319.41138077        1434413533.0115681     
  -953418454.16834044       -1073338710.3609200        1424116162.0893402     
  -1755499972.2629223       -526649991.67887670        680423822.35084677     
  -1783484396.1187587       -500194342.93218416        806853663.27074564     
  -1808518907.2608056       -463905651.80619466        926216727.33266091     
  -1830603505.6890638       -417783918.30090773        1038513014.5365933     
  -1849738191.4035327       -361829142.41632438        1143742524.8825426     
  -2201193883.9371080       -660358165.18113244        696690023.66301501     
  -2237678725.8700356       -613978628.83852208        814139057.13813770     
  -2272107952.1633511       -560747040.36387384        927518264.12057710     
  -2304481562.8170562       -500663399.75718820        1036827644.6103337     
  -2334799557.8311496       -433727707.01846415        1142067198.6074057     
  -2685171150.3738918       -805551345.11216748        722121749.42962480     
  -2721593695.0544820       -736679106.57481110        829546628.87343097     
  -2756854921.1696391       -663935806.15267622        935898632.18985367     
  -2790954828.7193623       -587321443.84576273        1041177759.3788928     
  -2823893417.7036529       -506836019.65407121        1145384010.4405482     
  -3207431771.5732727       -962229531.47198188        756718999.65067589     
  -3235229303.6720996       -868295776.14105129        853076378.47662473     
  -3262759814.2796693       -773471949.17260122        951357831.54049003     
  -3290023303.3959832       -677758050.56663179        1051563358.8422714     
  -3317019771.0210419       -581154080.32314277        1153692960.3819687     
  -3767975747.5352526       -1130392724.2605758        800481774.32616878     
  -3778585551.7228856       -1008828637.5372421        884728305.94771957     
  -3789822631.4934416       -889355469.42364883        973895862.17248654     
  -3801686986.8469181       -771973219.91979480        1067984443.0004693     
  -3814178617.7833180       -656681889.02568126        1166994048.4316680     
  -1849738191.4035327       -361829142.41632438        1143742524.8825426     
  -1834177424.2171526       -296154777.29839724        1191535308.2972538     
  -1822020886.2084587       -241827842.77275890        1241633381.9461801     
  -1813268577.3774519       -198848338.83940876        1294036745.8293214     
  -1807920497.7241318       -167216265.49834824        1348745399.9466774     
  -2334799557.8311496       -433727707.01846415        1142067198.6074057     
  -2311007297.7351327       -352755795.02386069        1183514321.7475431     
  -2290719130.6043224       -283464192.91327530        1225457869.1508753     
  -2273935056.4387183       -225852900.68671089        1267897840.8174024     
  -2260655075.2383194       -179921918.34416521        1310834236.7471249     
  -2823893417.7036529       -506836019.65407121        1145384010.4405482     
  -2797037853.1866283       -412117017.32937765        1180368965.5540049     
  -2773786245.4223285       -329411204.18043411        1214041478.9596376     
  -2754138594.4107552       -258718580.20724297        1246401550.6574447     
  -2738094900.1519065       -200039145.40980196        1277449180.6474271     
  -3317019771.0210419       -581154080.32314277        1153692960.3819687     
  -3292269090.5716381       -474238444.21494865        1182099239.7166398     
  -3271222230.6624789       -379668876.57423759        1207384211.3724661     
  -3253879191.2935643       -297445377.40100646        1229547875.3494470     
  -3240239972.4648943       -227567946.69525957        1248590231.6475844     
  -3814178617.7833180       -656681889.02568126        1166994048.4316680     
  -3796701009.8901620       -539120075.68057585        1188705144.2354474     
  -3783027086.3247719       -434237210.09468162        1205486066.3893616     
  -3773156847.0871458       -342033292.26800370        1217336814.8934114     
  -3767090292.1772814       -262508322.20053554        1224257389.7475963     
  -1807920497.7241318       -167216265.49834824        1348745399.9466774     
  -1777440830.0129614       -134887392.77840984        1366902797.7205005     
  -1748068588.3143089       -106249940.10019648        1386240381.6832659     
  -1719803772.6281748       -81303907.463710904        1406758151.8349733     
  -1692646382.9545572       -60049294.868950129        1428456108.1756232     
  -2260655075.2383194       -179921918.34416521        1310834236.7471249     
  -2220470689.5058670       -135470659.60407865        1319223035.6389098     
  -2183079603.0908961       -100330398.58893049        1331099342.3534746     
  -2148481815.9934068       -74501135.298721194        1346463156.8908186     
  -2116677328.2133965       -57982869.733443618        1365314479.2509401     
  -2738094900.1519065       -200039145.40980196        1277449180.6474271     
  -2681613448.8729243       -141487796.39199460        1274102528.4680512     
  -2629611170.2163868       -97867022.782335639        1276550705.7452910     
  -2582088064.1822953       -69176824.580826402        1284793712.4791460     
  -2539044130.7706451       -55417201.787460446        1298831548.6696181     
  -3240239972.4648943       -227567946.69525957        1248590231.6475844     
  -3160869108.1141353       -152938803.14215696        1231541276.2079227     
  -3087663289.6907825       -98859812.680413246        1222594471.8587139     
  -3020622517.1948371       -65330975.310025930        1221749818.5999589     
  -2959746790.6262999       -52352291.030997872        1229007316.4316547     
  -3767090292.1772814       -262508322.20053554        1224257389.7475963     
  -3658237667.2294955       -169823679.85456276        1191539278.8585265     
  -3557235961.5140815       -103308768.28316009        1169230640.6937456     
  -3464085175.0310392       -62963587.486328483        1157331475.2532554     
  -3378785307.7803636       -48788137.464058995        1155841782.5370536     
  -1692646382.9545572       -60049294.868950129        1428456108.1756232     
  -1643030831.8115237       -38342559.322595298        1422952936.5486519     
  -1596452025.3082104       -26758305.908642173        1423720879.9631200     
  -1552909963.4446216       -25296534.627105117        1430759938.4190271     
  -1512404646.2207527       -33957245.477966130        1444070111.9163721     
  -2116677328.2133965       -57982869.733443618        1365314479.2509401     
  -2052774519.4765153       -38806347.271235108        1357086433.5756130     
  -1990674832.9980617       -25640232.337120533        1354161366.3350718     
  -1930378268.7780361       -18484524.931098461        1356539277.5293179     
  -1871884826.8164377       -17339225.053168654        1364220167.1583488     
  -2539044130.7706451       -55417201.787460446        1298831548.6696181     
  -2463620169.0303497       -39600723.786528707        1289317855.0574436     
  -2388765707.1671906       -25682578.709377289        1284139003.2734029     
  -2314480745.1811652       -13662766.556007147        1283294993.3174961     
  -2240765283.0722728       -3541287.3264160156        1286785825.1897211     
  -2959746790.6262999       -52352291.030997872        1229007316.4316547     
  -2875567780.4730306       -40725688.868476629        1219647200.9941444     
  -2790724647.8156009       -26885345.025421023        1213653790.7781136     
  -2705217392.6540117       -10831259.501830339        1211027085.7835646     
  -2619046014.9882636        7436567.7022905350        1211767086.0104952     
  -3378785307.7803636       -48788137.464058995        1155841782.5370536     
  -3288617353.8045540       -42181242.517075062        1148074471.3857145     
  -3196551654.9432907       -29248531.285247803        1142705728.8492043     
  -3102588211.1965718       -9990003.7685652971        1139735554.9275198     
  -3006727022.5644021        15594340.032952785        1139163949.6206672     
  -1512404646.2207527       -33957245.477966130        1444070111.9163721     
  -1470418572.1781735       -45971241.800671637        1444909733.4273543     
  -1427899607.9029846       -56208937.348009884        1449218565.5272131     
  -1384847753.3951840       -64670332.119977653        1456996608.2159474     
  -1341263008.6547747       -71355426.116582155        1468243861.4935579     
  -1871884826.8164377       -17339225.053168654        1364220167.1583488     
  -1817348811.4203687       -20364733.201690316        1362305392.0311372     
  -1762976869.4077141       -23937152.628260374        1364500940.8544641     
  -1708769000.7784739       -28056483.332877338        1370806813.6283259     
  -1654725205.5326443       -32722725.315536022        1381223010.3527224     
  -2240765283.0722728       -3541287.3264160156        1286785825.1897211     
  -2171847573.8608317        2971218.4378056526        1281303529.2056262     
  -2103790901.6488259        6613600.8705723286        1280572670.5337248     
  -2036595266.4362588        7385859.9718776941        1284593249.1740179     
  -1970260668.2231317        5287995.7417246103        1293365265.1265101     
  -2619046014.9882636        7436567.7022905350        1211767086.0104952     
  -2533914859.4995613        24036613.117826581        1201904144.9508176     
  -2450341704.6263218        35443323.148489237        1197433754.5649958     
  -2368326550.3685446        41656697.794278979        1198355914.8530283     
  -2287869396.7262287        42676737.055197477        1204670625.8149161     
  -3006727022.5644021        15594340.032952785        1139163949.6206672     
  -2903550668.3365588        42831450.838362098        1124107239.2667136     
  -2802629278.3401976        62552014.205498457        1115084192.9482744     
  -2703962852.5753255        74756030.134336114        1112094810.6653509     
  -2607551391.0419374        79443498.624893308        1115139092.4179413     
  -1341263008.6547747       -71355426.116582155        1468243861.4935579     
  -1290500756.4574137       -76144054.997157693        1461983273.4578111     
  -1240440704.6823573       -83273351.952085972        1460010992.6843793     
  -1191082853.3296227       -92743316.981417358        1462327019.1732631     
  -1142427202.3992009       -104553950.08512509        1468931352.9244599     
  -1654725205.5326443       -32722725.315536022        1381223010.3527224     
  -1592360993.9860830       -35577890.812215269        1373610284.5538862     
  -1530284389.3226371       -39391745.919282138        1370187651.7496827     
  -1468495391.5423138       -44164290.636754215        1370955111.9401107     
  -1406994000.6451056       -49895524.964619637        1375912665.1251743     
  -1970260668.2231317        5287995.7417246103        1293365265.1265101     
  -1896575109.5207467        4282109.9709112644        1284884094.0269766     
  -1822762564.1622849        3699513.0537018776        1280494801.6543956     
  -1748823032.1477447        3540204.9900771379        1280197388.0087669     
  -1674756513.4771276        3804185.7800489664        1283991853.0900862     
  -2287869396.7262287        42676737.055197477        1204670625.8149161     
  -2203143103.0613966        43435947.352252603        1195804701.8770814     
  -2117875229.2012904        46000424.966888189        1190932442.3985183     
  -2032065775.1459148        50370169.899091721        1190053847.3792257     
  -1945714740.8952591        56545182.148888826        1193168916.8192036     
  -2607551391.0419374        79443498.624893308        1115139092.4179413     
  -2512064974.6080375        81883621.331789851        1106372108.1042027     
  -2415622384.4396667        87510989.820250869        1101500573.9820542     
  -2318223620.5368233        96325604.090285659        1100524490.0514927     
  -2219868682.8995128        108327464.14188552        1103443856.3125219     
  -1142427202.3992009       -104553950.08512509        1468931352.9244599     
  -1099278922.9233775       -122107380.40816262        1463736853.0704570     
  -1058125532.5524677       -146310441.08091497        1465983802.9948983     
  -1018967031.2864679       -177163132.10336563        1475672202.6977828     
  -981803419.12537777       -214665453.47551531        1492802052.1791105     
  -1406994000.6451056       -49895524.964619637        1375912665.1251743     
  -1342679217.2763872       -56895614.911302328        1367272927.0734816     
  -1279469930.3390236       -67580692.962493241        1365038279.0741048     
  -1217366139.8330073       -81950759.118183374        1369208721.1270442     
  -1156367845.7583418       -100005813.37837374        1379784253.2322981     
  -1674756513.4771276        3804185.7800489664        1283991853.0900862     
  -1592236254.0044513        6469127.8730450273        1272944501.6265283     
  -1509932098.2895641        8413724.1067360640        1267265880.4891536     
  -1427844046.3324680        9637974.4811257720        1266955989.6779690     
  -1345972098.1331635        10141878.996213734        1272014829.1929717     
  -1945714740.8952591        56545182.148888826        1193168916.8192036     
  -1847950033.1075625        67986847.944874883        1180751576.7295938     
  -1749512036.4040942        81672810.126763701        1172666607.2400436     
  -1650400750.7848568        97603068.694548130        1168914008.3505576     
  -1550616176.2498486        115777623.64824063        1169493780.0611289     
  -2219868682.8995128        108327464.14188552        1103443856.3125219     
  -2109820554.5857253        127657545.30419767        1090694152.3826823     
  -1998209744.6826096        152196565.09760082        1081240459.3267767     
  -1885036253.1901646        181944523.52210295        1075082777.1448040     
  -1770300080.1083887        216901420.57771111        1072221105.8367655     
  -981803419.12537777       -214665453.47551531        1492802052.1791105     
  -933880754.86765909       -293245690.96866876        1468756478.0564518     
  -913175705.95558190       -462551312.94729346        1449293638.3339343     
  -919688272.38914490       -722582319.41138077        1434413533.0115681     
  -953418454.16834044       -1073338710.3609200        1424116162.0893402     
  -1156367845.7583418       -100005813.37837374        1379784253.2322981     
  -1085265924.7239377       -135571355.80815879        1326711194.7947714     
  -1026602403.6917193       -212598231.57855183        1276959131.3860781     
  -980377282.66167903       -331086440.68955266        1230528063.0062156     
  -946590561.63381982       -491035983.14114594        1187417989.6551886     
  -1345972098.1331635        10141878.996213734        1272014829.1929717     
  -1255295889.9543991        16509540.740096390        1207156704.3412750     
  -1162278866.4343553        30679920.288236976        1144357835.1471028     
  -1066921027.5730377        52653017.640631437        1083618221.6104562     
  -969222373.37043726        82428832.797286630        1024937863.7313246     
  -1550616176.2498486        115777623.64824063        1169493780.0611289     
  -1443970650.5590339        162996998.67610270        1110093006.6959639     
  -1320205094.1834898        267283142.65307444        1051489749.6170164     
  -1179319507.1232095        428636055.57916325        993684008.82426953     
  -1021313889.3781897        647055737.45437884        936675784.31774235     
  -1770300080.1083887        216901420.57771111        1072221105.8367655     
  -1651290206.5378525        303891017.99985075        1035520101.8588359     
  -1500381086.9391184        497211435.51597381        998354874.79580677     
  -1317572721.3122003        796862673.12606359        960725424.64767540     
  -1102865109.6570842        1202844730.8301284        922631751.41444206     
  -3767975747.5352526       -1130392724.2605758        800481774.32616878     
  -3778585551.7228856       -1008828637.5372421        884728305.94771957     
  -3789822631.4934416       -889355469.42364883        973895862.17248654     
  -3801686986.8469181       -771973219.91979480        1067984443.0004693     
  -3814178617.7833180       -656681889.02568126        1166994048.4316680     
  -4339630987.0516319       -1301889296.1154897        858565034.45875931     
  -4334862720.1853695       -1125861638.9678450        942108082.04227793     
  -4331239978.3661280       -953652398.64360476        1019990874.1968908     
  -4328762761.5939074       -785261575.14276981        1092213410.9225976     
  -4327431069.8687086       -620689168.46533847        1158775692.2193985     
  -4895225398.9142141       -1468567619.6742642        936123741.05110359     
  -4905311289.6572590       -1247146060.7012696        1018358680.2218074     
  -4917060954.9114285       -1031270416.7653451        1084352083.9314837     
  -4930474394.6767159       -820940687.86649001        1134103952.1801319     
  -4945551608.9531240       -616156874.00470304        1167614284.9677520     
  -5434758983.1229973       -1630427694.9368992        1033157894.1032013     
  -5489931260.1385593       -1372681902.7375174        1113480100.4863083     
  -5547285561.1293402       -1122209523.7888691        1166979491.3762653     
  -5606821886.0953436       -879010558.09095585        1193656066.7730722     
  -5668540235.0365658       -643085005.64377499        1193509826.6767282     
  -5958231739.6779823       -1787469521.9033949        1149667493.6150527     
  -6088722631.6292667       -1502469165.0765872        1227472342.8357799     
  -6221913797.0198679       -1226469719.7141776        1267873096.5312350     
  -6357805235.8497906       -959471185.81616819        1270869754.7014179     
  -6496396948.1190310       -701473563.38255477        1236462317.3463290     
  -3814178617.7833180       -656681889.02568126        1166994048.4316680     
  -3796701009.8901620       -539120075.68057585        1188705144.2354474     
  -3783027086.3247719       -434237210.09468162        1205486066.3893616     
  -3773156847.0871458       -342033292.26800370        1217336814.8934114     
  -3767090292.1772814       -262508322.20053554        1224257389.7475963     
  -4327431069.8687086       -620689168.46533847        1158775692.2193985     
  -4297134493.3082409       -465248393.63655686        1140867993.2799942     
  -4277442565.7441988       -345156448.79586422        1129009914.3152318     
  -4268355287.1765866       -260413333.94326115        1123201455.3251114     
  -4269872657.6053967       -211019049.07874870        1123442616.3096337     
  -4945551608.9531240       -616156874.00470304        1167614284.9677520     
  -4871065224.7981834       -413425886.01409721        1102153332.5050576     
  -4813984454.3083286       -268713610.24045730        1053721793.6415117     
  -4774309297.4835663       -182020046.68378234        1022319668.3771143     
  -4752039754.3238926       -153345195.34407401        1007946956.7118661     
  -5668540235.0365658       -643085005.64377499        1193509826.6767282     
  -5518493204.3599854       -383652552.81319642        1072561161.9106381     
  -5392652752.0171585       -204908694.42846036        979621704.36820221     
  -5291018878.0080833       -106853430.48956323        914691454.04942131     
  -5213591582.3327637       -89486760.996511459        877770410.95429587     
  -6496396948.1190310       -701473563.38255477        1236462317.3463290     
  -6239418431.9936523       -375928394.03385353        1052091481.4967339     
  -6013447458.8706923       -153741701.35987520        906709646.49530113     
  -5818484028.7501440       -34913485.360607624        800316812.34203100     
  -5654528141.6320124       -19443746.036064386        732912979.03692281     
  -3767090292.1772814       -262508322.20053554        1224257389.7475963     
  -3658237667.2294955       -169823679.85456276        1191539278.8585265     
  -3557235961.5140815       -103308768.28316009        1169230640.6937456     
  -3464085175.0310392       -62963587.486328483        1157331475.2532554     
  -3378785307.7803636       -48788137.464058995        1155841782.5370536     
  -4269872657.6053967       -211019049.07874870        1123442616.3096337     
  -4145313912.8409204       -146655532.68599105        1089655509.3273594     
  -4025218828.7699575       -97170885.271619797        1064076204.6997622     
  -3909587405.3925095       -62565106.835628510        1046704702.4268436     
  -3798419642.7085762       -42838197.378018856        1037541002.5086020     
  -4752039754.3238926       -153345195.34407401        1007946956.7118661     
  -4618065376.5130415       -119189950.93563151        977042655.26505268     
  -4485167400.8568506       -88622713.709384203        952144485.80330491     
  -4353345827.3553190       -61643483.665333271        933252448.32662308     
  -4222600656.0084438       -38252260.803477287        920366542.83500803     
  -5213591582.3327637       -89486760.996511459        877770410.95429587     
  -5076492058.2458601       -87426934.603479147        853700716.67160881     
  -4937081677.7747583       -77664253.596450567        833435484.00437629     
  -4795360440.9194603       -60198717.975437164        816974712.95259559     
  -4651328347.6799641       -35030327.740432501        804318403.51627004     
  -5654528141.6320124       -19443746.036064386        732912979.03692281     
  -5520593958.0393734       -51366483.689534903        719629693.54702628     
  -5380961659.5236826       -64295504.932827234        707949199.30297220     
  -5235631246.0849409       -58230809.765944004        697871496.30476117     
  -5084602717.7231417       -33172398.188882113        689396584.55239129     
  -3378785307.7803636       -48788137.464058995        1155841782.5370536     
  -3288617353.8045540       -42181242.517075062        1148074471.3857145     
  -3196551654.9432907       -29248531.285247803        1142705728.8492043     
  -3102588211.1965718       -9990003.7685652971        1139735554.9275198     
  -3006727022.5644021        15594340.032952785        1139163949.6206672     
  -3798419642.7085762       -42838197.378018856        1037541002.5086020     
  -3699142578.7835035       -32797596.431451082        1030248412.6434219     
  -3599436424.8572602       -21326695.480967522        1026771868.1244802     
  -3499301180.9298382       -8425494.5265665054        1027111368.9517769     
  -3398736847.0012426        5906006.4317541122        1031266915.1253104     
  -4222600656.0084438       -38252260.803477287        920366542.83500803     
  -4110164548.6157985       -23562973.801830769        911835243.55766201     
  -3998768006.1062565       -12338903.077198029        908537466.35796416     
  -3888411028.4798188       -4580048.6295773983        910473211.23591328     
  -3779093615.7364850       -286410.45896720886        917642478.19151092     
  -4651328347.6799641       -35030327.740432501        804318403.51627004     
  -4521683263.3014336       -14477374.628216982        792834964.12843513     
  -4394546398.6902819       -2285154.0739386082        788002523.54965425     
  -4269917753.8465123        1546333.9224007130        789821081.77993393     
  -4147797328.7701254       -2982910.6392047405        798290638.81926632     
  -5084602717.7231417       -33172398.188882113        689396584.55239129     
  -4933698722.8404064       -5540798.9105966091        673247574.35573769     
  -4786771602.6093349        8834551.5288162231        665167039.69955146     
  -4643821357.0299244        9953653.1293516159        665154980.58383107     
  -4504847986.1021729       -2183494.1089701653        673211397.00857985     
  -3006727022.5644021        15594340.032952785        1139163949.6206672     
  -2903550668.3365588        42831450.838362098        1124107239.2667136     
  -2802629278.3401976        62552014.205498457        1115084192.9482744     
  -2703962852.5753255        74756030.134336114        1112094810.6653509     
  -2607551391.0419374        79443498.624893308        1115139092.4179413     
  -3398736847.0012426        5906006.4317541122        1031266915.1253104     
  -3283822522.6623969        23109311.202257395        1017810534.4715493     
  -3170282250.9472890        35732440.560293674        1009665191.2603314     
  -3058116031.8559198        43775394.505860567        1006830885.4916600     
  -2947323865.3882980        47238173.038958669        1009307617.1655301     
  -3779093615.7364850       -286410.45896720886        917642478.19151092     
  -3654505968.6951199        6263694.0540852547        906814157.44697785     
  -3530411462.6697512        11169995.180484533        900574247.55201864     
  -3406810097.6603813        14432492.920230150        898922748.50663257     
  -3283701873.6670060        16051187.273321629        901859660.31081796     
  -4147797328.7701254       -2982910.6392047405        798290638.81926632     
  -4015601006.4347367       -7705400.6061539650        791118108.19299889     
  -3883016913.5075965       -11135321.933939457        787811361.82333112     
  -3750045049.9887047       -13272674.622558117        788370399.71026623     
  -3616685415.8780708       -14117458.672022343        792795221.85380375     
  -4504847986.1021729       -2183494.1089701653        673211397.00857985     
  -4367107635.8812399       -18797972.778460979        670722386.70960951     
  -4228098603.4608154       -31183510.782977104        671376534.07427299     
  -4087820888.8408976       -39340108.122513771        675173839.10256529     
  -3946274492.0214858       -43267764.797070742        682114301.79449058     
  -2607551391.0419374        79443498.624893308        1115139092.4179413     
  -2512064974.6080375        81883621.331789851        1106372108.1042027     
  -2415622384.4396667        87510989.820250869        1101500573.9820542     
  -2318223620.5368233        96325604.090285659        1100524490.0514927     
  -2219868682.8995128        108327464.14188552        1103443856.3125219     
  -2947323865.3882980        47238173.038958669        1009307617.1655301     
  -2842107374.6328659        47894904.471320868        1002704754.9993002     
  -2736264091.2891264        50640944.531378508        1000102667.0290930     
  -2629794015.3570848        55476293.219117880        1001501353.2549003     
  -2522697146.8367319        62400950.534548879        1006900813.6767291     
  -3283701873.6670060        16051187.273321629        901859660.31081796     
  -3168454382.8631058        15014805.149230123        897036642.28824437     
  -3052909480.6170630        14969794.498949409        896319722.46611702     
  -2937067166.9288759        15916155.322484255        899708900.84443736     
  -2820927441.7985435        17853887.619834661        907204177.42320573     
  -3616685415.8780708       -14117458.672022343        792795221.85380375     
  -3491105999.2987595       -16756676.634485722        789367769.97102690     
  -3365558552.4234695       -19502460.277017117        790151740.29312575     
  -3240043075.2521977       -22354809.599605203        795147132.82010591     
  -3114559567.7849417       -25313724.602257252        804353947.55195773     
  -3946274492.0214858       -43267764.797070742        682114301.79449058     
  -3810062223.9398270       -47419540.879827261        679698138.04765487     
  -3674211306.7083464       -52775819.796520710        681598720.51012194     
  -3538721740.3270488       -59336601.547157288        687816049.18189836     
  -3403593524.7959347       -67101886.131727695        698350124.06298006     
  -2219868682.8995128        108327464.14188552        1103443856.3125219     
  -2109820554.5857253        127657545.30419767        1090694152.3826823     
  -1998209744.6826096        152196565.09760082        1081240459.3267767     
  -1885036253.1901646        181944523.52210295        1075082777.1448040     
  -1770300080.1083887        216901420.57771111        1072221105.8367655     
  -2522697146.8367319        62400950.534548879        1006900813.6767291     
  -2405623920.8923674        74615675.478526592        997416879.76395237     
  -2287662876.2826819        89789795.973568082        991682861.51269138     
  -2168814013.0076737        107923312.01968658        989698758.92294383     
  -2049077331.0673444        129016223.61687756        991464571.99470329     
  -2820927441.7985435        17853887.619834661        907204177.42320573     
  -2695532247.4019456        23342317.591968656        900198673.44948566     
  -2569924097.2640319        29540600.035156250        897396989.92485750     
  -2444102991.3848085        36448734.949382782        898799126.84932184     
  -2318068929.7642632        44066722.334668398        904405084.22287500     
  -3114559567.7849417       -25313724.602257252        804353947.55195773     
  -2979545534.1144547       -26162528.355455518        799039533.43928194     
  -2844993407.6266599       -28551022.717637777        798382844.56327927     
  -2710903188.3215590       -32479207.688795924        802383880.92394590     
  -2577274876.1991525       -37947083.268931746        811042642.52128518     
  -3403593524.7959347       -67101886.131727695        698350124.06298006     
  -3257663781.0299025       -73898862.363774538        693939459.73334134     
  -3112870807.3705697       -84485072.284819603        694640425.42795205     
  -2969214603.8179402       -98860515.894876122        700453021.14681590     
  -2826695170.3720145       -117025193.19393384        711377246.88992536     
  -1770300080.1083887        216901420.57771111        1072221105.8367655     
  -1651290206.5378525        303891017.99985075        1035520101.8588359     
  -1500381086.9391184        497211435.51597381        998354874.79580677     
  -1317572721.3122003        796862673.12606359        960725424.64767540     
  -1102865109.6570842        1202844730.8301284        922631751.41444206     
  -2049077331.0673444        129016223.61687756        991464571.99470329     
  -1938233109.1304455        175818602.70295513        989153429.97978306     
  -1809566460.4809060        282029070.83116674        990299214.02471662     
  -1663077385.1187282        447647628.00149536        994901924.12950861     
  -1498765883.0439191        672674274.21395528        1002961560.2941500     
  -2318068929.7642632        44066722.334668398        904405084.22287500     
  -2204187076.1897011        54042868.066059113        920060848.30281770     
  -2086559615.2180564        76504371.787737489        943094687.58756971     
  -1965186546.8493130        111451233.49970829        973506602.07714105     
  -1840067871.0835040        158883453.20195735        1011296591.7715198     
  -2577274876.1991525       -37947083.268931746        811042642.52128518     
  -2449152107.7156210       -61436185.910828590        828242356.82794189     
  -2331360551.1505570       -119362661.61428356        856741295.48437011     
  -2223900206.5039549       -211726510.37929159        896539458.49057269     
  -2126771073.7758300       -338527732.20586282        947636845.84653080     
  -2826695170.3720145       -117025193.19393384        711377246.88992536     
  -2673128203.7082047       -170618559.22771871        713697955.55515671     
  -2543969268.2784176       -305572029.37492657        731239037.71511006     
  -2439218364.0826516       -521885603.63551652        764000493.36979294     
  -2358875491.1208992       -819559282.00950623        811982322.51920366     
  -5958231739.6779823       -1787469521.9033949        1149667493.6150527     
  -6088722631.6292667       -1502469165.0765872        1227472342.8357799     
  -6221913797.0198679       -1226469719.7141776        1267873096.5312350     
  -6357805235.8497906       -959471185.81616819        1270869754.7014179     
  -6496396948.1190310       -701473563.38255477        1236462317.3463290     
  -6810995256.9830770       -2043298577.0949233        1353371693.3761604     
  -6829002034.4251957       -1395594049.2644567        1202327050.5050232     
  -6898379518.6142359       -919125210.59039474        1091511782.5499790     
  -7019127709.5501966       -613892061.07273674        1020925889.5110279     
  -7191246607.2330780       -479894600.71148300        990569371.38816953     
  -8338401123.4421902       -2501520337.0326571        1711989647.1760266     
  -8022113870.8283873       -1424568663.5345049        1275313340.0208232     
  -7805867758.2691078       -681087456.88476276        956499878.22307789     
  -7689662785.7643490       -271076717.08342886        755549261.78279054     
  -7673498953.3141136       -194536444.13050699        672461490.69996059     
  -10540449339.055323       -3162134801.7165971        2225521355.0146513     
  -9668058140.8388405       -1589393007.8867311        1446431211.3831792     
  -8944378515.9844780       -512356458.59728003        862837383.55053091     
  -8369410464.4922447        68974846.151755810        474739871.51670545     
  -7943153986.3621349        154600906.36037445        282138675.28170335     
  -13417139903.822474       -4025141971.1467423        2893966816.8920341     
  -11766834844.456554       -1890067082.3211362        1715680664.5920918     
  -10313911791.760359       -412932215.72795057        810524298.53233790     
  -9058370745.7338924        406262628.63281393        178497718.71277273     
  -8000211706.3771515        567517450.76115513       -180399074.86660373     
  -6496396948.1190310       -701473563.38255477        1236462317.3463290     
  -6239418431.9936523       -375928394.03385353        1052091481.4967339     
  -6013447458.8706923       -153741701.35987520        906709646.49530113     
  -5818484028.7501440       -34913485.360607624        800316812.34203100     
  -5654528141.6320124       -19443746.036064386        732912979.03692281     
  -7191246607.2330780       -479894600.71148300        990569371.38816953     
  -6901343483.6680002       -304673978.82561111        846050385.98579276     
  -6624278518.0921106       -172247216.90370536        722559301.02644575     
  -6360051710.5054140       -82614314.945772409        620096116.51012850     
  -6108663060.9079094       -35775272.951807976        538660832.43684220     
  -7673498953.3141136       -194536444.13050699        672461490.69996059     
  -7401988652.0382814       -185035598.62614584        588991971.59356499     
  -7125147123.7384157       -157763996.37500620        508589252.52506530     
  -6842974368.4145184       -112721637.37708521        431253333.49446338     
  -6555470386.0665827       -49908521.632381678        356984214.50175923     
  -7943153986.3621349        154600906.36037445        282138675.28170335     
  -7741353937.1045017       -17013253.435461998        280916238.32004815     
  -7516053275.8096104       -110292039.77377176        264799500.99115992     
  -7267252002.4774599       -125235452.65454960        233788463.29503581     
  -6994950117.1080484       -61843492.077796459        187883125.23167846     
  -8000211706.3771515        567517450.76115513       -180399074.86660373     
  -7919439338.8666639        199393056.74643517       -78176813.834754169     
  -7796996974.3056889       -29831347.100000381       -8809953.5752712358     
  -7632884612.6942329       -120155760.77816248        27701505.911844388     
  -7427102254.0322943       -71580184.288042068        31357564.626595926     
  -5654528141.6320124       -19443746.036064386        732912979.03692281     
  -5520593958.0393734       -51366483.689534903        719629693.54702628     
  -5380961659.5236826       -64295504.932827234        707949199.30297220     
  -5235631246.0849409       -58230809.765944004        697871496.30476117     
  -5084602717.7231417       -33172398.188882113        689396584.55239129     
  -6108663060.9079094       -35775272.951807976        538660832.43684220     
  -5960579856.7261820       -37691465.720770359        532299722.57896382     
  -5811370759.0419884       -35854680.148174524        528295096.18581122     
  -5661035767.8553276       -30264916.234019995        526646953.25737995     
  -5509574883.1661978       -20922173.978300095        527355293.79367399     
  -6555470386.0665827       -49908521.632381678        356984214.50175923     
  -6391084754.9561138       -21172147.614946127        352211021.95188832     
  -6230145451.7637615       -3923533.3245668411        350548005.08561957     
  -6072652476.4895248        1837321.2387616634        351995163.90295422     
  -5918605829.1334047       -3889583.9249649048        356552498.40389234     
  -6994950117.1080484       -61843492.077796459        187883125.23167846     
  -6812108652.7291737       -1808529.3720617294        179363591.66579488     
  -6637285737.6890001        31497935.538008213        174707926.00239486     
  -6470481371.9875298        38075902.652399063        173916128.24147946     
  -6311695555.6247587        17925371.971127272        176988198.38304946     
  -7427102254.0322943       -71580184.288042068        31357564.626595926     
  -7223651550.0453568        20399389.007890224        13757431.720684446     
  -7032791616.8177061        70409726.439535618        774858.93614028930     
  -6854522454.3493385        78450828.006899834       -7590153.7270417940     
  -6688844062.6402588        44522693.709978104       -11337606.268857919     
  -5084602717.7231417       -33172398.188882113        689396584.55239129     
  -4933698722.8404064       -5540798.9105966091        673247574.35573769     
  -4786771602.6093349        8834551.5288162231        665167039.69955146     
  -4643821357.0299244        9953653.1293516159        665154980.58383107     
  -4504847986.1021729       -2183494.1089701653        673211397.00857985     
  -5509574883.1661978       -20922173.978300095        527355293.79367399     
  -5345271533.6655684       -8078118.1178581715        512465309.27211231     
  -5182325787.0116177        240594.92031741142        503226555.08950782     
  -5020737643.2043467        4033965.1362276077        499639031.24585783     
  -4860507102.2437592        3301992.5298700333        501702737.74116391     
  -5918605829.1334047       -3889583.9249649048        356552498.40389234     
  -5747809539.8763371       -7904995.9408004284        345977356.66323751     
  -5575751581.6609707       -7714844.7622973919        338636200.06002384     
  -5402431954.4873066       -3319130.3894629478        334529028.59425527     
  -5227850658.3553352        5282147.1777074337        333655842.26592940     
  -6311695555.6247587        17925371.971127272        176988198.38304946     
  -6141312741.4727154       -5021432.3794193268        173783716.52910694     
  -5967048986.5573959       -15031767.519031286        171395974.61109850     
  -5788904290.8787937       -12105633.447712183        169824972.62902349     
  -5606878654.4369116        3756969.8345496655        169070710.58287585     
  -6688844062.6402588        44522693.709978104       -11337606.268857919     
  -6525781138.4547091        572572.56626558304       -4115611.1302710096     
  -6356218001.7008953       -21710173.349901438        1505878.7427296930     
  -6180154652.3788185       -22325544.038525581        5526863.3501602812     
  -5997591090.4884787       -1273539.4996056557        7947342.6920038629     
  -4504847986.1021729       -2183494.1089701653        673211397.00857985     
  -4367107635.8812399       -18797972.778460979        670722386.70960951     
  -4228098603.4608154       -31183510.782977104        671376534.07427299     
  -4087820888.8408976       -39340108.122513771        675173839.10256529     
  -3946274492.0214858       -43267764.797070742        682114301.79449058     
  -4860507102.2437592        3301992.5298700333        501702737.74116391     
  -4710436034.2638426       -2248633.0433485508        496297919.53681368     
  -4560174931.1774521       -7165808.2616515160        494681914.30737120     
  -4409723792.9845953       -11449533.125066519        496854722.05283600     
  -4259082619.6852651       -15099807.633567333        502816342.77320784     
  -5227850658.3553352        5282147.1777074337        333655842.26592940     
  -5063604143.1556463        11348793.539011240        324076794.54767197     
  -4900246239.9425135        14453399.945136070        318932215.11559761     
  -4737776948.7159233        14595966.396097898        318222103.96970707     
  -4576196269.4758978        11776492.891875267        321946461.10999972     
  -5606878654.4369116        3756969.8345496655        169070710.58287585     
  -5426611962.5566597        21994306.968602419        154059011.74218291     
  -5248312529.7559805        33674113.837418795        144127436.49895090     
  -5071980356.0348787        38796390.440967560        139275984.85317716     
  -4897615441.3933592        37361136.779263258        139504656.80486187     
  -5997591090.4884787       -1273539.4996056557        7947342.6920038629     
  -5799459492.4668741        29687907.245441914       -13755428.879650721     
  -5604373800.6178722        50496333.415159225       -29732421.542569488     
  -5412334014.9414654        61151739.009555340       -39983635.296756282     
  -5223340135.4376574        61654124.028616667       -44509070.142202146     
  -3946274492.0214858       -43267764.797070742        682114301.79449058     
  -3810062223.9398270       -47419540.879827261        679698138.04765487     
  -3674211306.7083464       -52775819.796520710        681598720.51012194     
  -3538721740.3270488       -59336601.547157288        687816049.18189836     
  -3403593524.7959347       -67101886.131727695        698350124.06298006     
  -4259082619.6852651       -15099807.633567333        502816342.77320784     
  -4111855428.7012811       -18987689.482240438        498763451.33636928     
  -3964299643.7988625       -21780258.269487381        498805932.63799441     
  -3816415264.9780145       -23477513.995287657        502943786.67808795     
  -3668202292.2387342       -24079456.659660101        511177013.45664161     
  -4576196269.4758978        11776492.891875267        321946461.10999972     
  -4418586651.2205486        7962756.5880029202        317061777.54653817     
  -4259958494.2781696        7544149.2409150600        316051093.25069970     
  -4100311798.6487403        10520670.850650311        318914408.22248870     
  -3939646564.3322740        16892321.417187214        325651722.46190190     
  -4897615441.3933592        37361136.779263258        139504656.80486187     
  -4730255891.4976377        33431797.330883265        134593116.67815697     
  -4561187858.1462612        35197402.734678745        133334202.34824307     
  -4390411341.3392296        42657952.990661144        135727913.81510749     
  -4217926341.0765481        55813448.098809958        141774251.07875520     
  -5223340135.4376574        61654124.028616667       -44509070.142202146     
  -5046863149.5325251        57419432.746453762       -48642531.268761910     
  -4867987735.4031429        61179502.211801767       -49344740.069384612     
  -4686713893.0494795        72934332.424746513       -46615696.544059753     
  -4503041622.4715567        92683923.385225773       -40455400.692795105     
  -3403593524.7959347       -67101886.131727695        698350124.06298006     
  -3257663781.0299025       -73898862.363774538        693939459.73334134     
  -3112870807.3705697       -84485072.284819603        694640425.42795205     
  -2969214603.8179402       -98860515.894876122        700453021.14681590     
  -2826695170.3720145       -117025193.19393384        711377246.88992536     
  -3668202292.2387342       -24079456.659660101        511177013.45664161     
  -3507893144.1396232       -22718249.119804144        502356053.25435537     
  -3349010855.2800794       -26113239.045196295        497601885.49051899     
  -3191555425.6601095       -34264426.435816765        496914510.16513515     
  -3035526855.2797060       -47171811.291673064        500293927.27820373     
  -3939646564.3322740        16892321.417187214        325651722.46190190     
  -3767943262.1452174        25516137.655390978        312082029.06528240     
  -3597956908.3306012        28416792.652123451        301534290.52131921     
  -3429687502.8884206        25594286.407396555        294008506.83001018     
  -3263135045.8186836        17048618.921200275        289504677.99135870     
  -4217926341.0765481        55813448.098809958        141774251.07875520     
  -4037814135.0466943        70804297.961804867        123117387.16612914     
  -3859708966.5221372        79105022.807125807        106437640.52035995     
  -3683610835.5028868        80715622.634765387        91735011.141446099     
  -3509519741.9889545        75636097.444679737        79009499.029388800     
  -4503041622.4715567        92683923.385225773       -40455400.692795105     
  -4317505762.8440208        113146231.79950690       -64537872.443114743     
  -4134267029.8546734        125951451.41985631       -87688064.512368813     
  -3953325423.5034971        131099582.24628425       -109905976.90057431     
  -3774680943.7905006        128590624.27878332       -131191609.60771105     
  -2826695170.3720145       -117025193.19393384        711377246.88992536     
  -2673128203.7082047       -170618559.22771871        713697955.55515671     
  -2543969268.2784176       -305572029.37492657        731239037.71511006     
  -2439218364.0826516       -521885603.63551652        764000493.36979294     
  -2358875491.1208992       -819559282.00950623        811982322.51920366     
  -3035526855.2797060       -47171811.291673064        500293927.27820373     
  -2848461918.9889021       -54734950.857939363        473463816.12325317     
  -2662585506.6344757       -66259836.878778934        446558640.46337861     
  -2477897618.2164330       -81746469.354231238        419578400.29857254     
  -2294398253.7347603       -101194848.28426838        392523095.62882894     
  -3263135045.8186836        17048618.921200275        289504677.99135870     
  -3086273391.3284721        42405330.394203424        260613172.19681516     
  -2887380753.4769998        141198653.07140613        216351163.89768744     
  -2666457132.2642627        313428586.95283663        156718653.09396988     
  -2423502527.6902571        559095132.03847861        81715639.785673738     
  -3509519741.9889545        75636097.444679737        79009499.029388800     
  -3386562620.7269306        120802284.52865052        75146023.775829703     
  -3218355008.8059959        316803440.47565460        40616608.018038221     
  -3004896906.2261581        663639565.28567600       -24578748.244012076     
  -2746188312.9874058        1161310658.9587302       -120440045.01028799     
  -3774680943.7905006        128590624.27878332       -131191609.60771105     
  -3749329607.1842508        180455911.54545879       -82937629.139693350     
  -3655508272.6214509        460554525.33398008       -80645027.175579220     
  -3493216940.1021018        968886465.64431477       -124313803.71535985     
  -3262455609.6262093        1705451732.4764853       -213943958.75904244     
 </DataArray>
 <DataArray  type="Float64" Name="VM" NumberOfComponents="1" format="ascii">
   12936021410.546049     
   11341134381.256777     
   10210739048.909454     
   9273337678.6946087     
   8304417777.9811592     
   10130581572.365517     
   9322428014.4041786     
   8826957070.5277042     
   8444240740.5841780     
   8036443379.3573732     
   7982517332.1080389     
   7735303946.2816057     
   7669657685.4377184     
   7670232842.6194420     
   7667089981.2530203     
   6491738855.5428839     
   6587048500.0808163     
   6757673454.6943579     
   6961529968.5165033     
   7171957139.4992161     
   5657792957.7813282     
   5890832192.8614416     
   6116204457.4769182     
   6331466752.9143238     
   6536413767.2010021     
   8304417777.9811592     
   8022137688.2488642     
   7782139143.2960539     
   7573673611.7117176     
   7391771651.8976145     
   8036443379.3573732     
   7748153741.9767590     
   7475601424.3651381     
   7216819876.2117367     
   6971833318.3974686     
   7667089981.2530203     
   7382057802.6246567     
   7102429753.8905373     
   6828293447.7873049     
   6559864495.0160265     
   7171957139.4992161     
   6911303212.7706985     
   6658528161.5432577     
   6409774500.6025505     
   6161896757.3107700     
   6536413767.2010021     
   6328252478.3823042     
   6142233824.4733057     
   5964423927.3149939     
   5785810717.2534513     
   7391771651.8976145     
   7233912062.5164309     
   7068259629.4534607     
   6894095183.8140697     
   6711244902.8327866     
   6971833318.3974686     
   6818285822.7616987     
   6659968728.0971231     
   6496590554.8549595     
   6328106831.0002947     
   6559864495.0160265     
   6409622252.8871336     
   6257710066.0545282     
   6104094582.6785812     
   5948804772.9723263     
   6161896757.3107700     
   6012927645.0551672     
   5865342099.1671171     
   5719176705.9340849     
   5574485775.4388018     
   5785810717.2534513     
   5634680412.3445711     
   5487849018.3298597     
   5345224428.9273357     
   5206862748.8108692     
   6711244902.8327866     
   6526071337.3458395     
   6345391306.8851128     
   6169029607.4987917     
   5996970222.0247097     
   6328106831.0002947     
   6146178614.5229511     
   5966936736.4637194     
   5790337007.1687040     
   5616397596.6147738     
   5948804772.9723263     
   5775036067.3641996     
   5602684409.4176836     
   5431765797.5760612     
   5262322999.5211277     
   5574485775.4388018     
   5414487544.1565638     
   5255231522.5096388     
   5096763062.5250187     
   4939200993.9033480     
   5206862748.8108692     
   5066938329.6474371     
   4927767340.9886274     
   4789435487.6263790     
   4652253709.3963203     
   5996970222.0247097     
   5814409105.6514111     
   5630027351.0946150     
   5443608063.7313156     
   5255004000.8029385     
   5616397596.6147738     
   5444185729.7748165     
   5271144922.4999180     
   5097200980.0777502     
   4922336640.5217848     
   5262322999.5211277     
   5100270465.5783453     
   4938481609.6966467     
   4776996108.2522640     
   4615901981.4639034     
   4939200993.9033480     
   4787123929.7090263     
   4636453385.9899349     
   4487304267.6013355     
   4339835741.8955536     
   4652253709.3963203     
   4509932953.5769796     
   4370146748.0062799     
   4233035682.1930122     
   4098786132.3190684     
   5255004000.8029385     
   5076515630.7262220     
   4899609503.6525021     
   4724293378.5957241     
   4550631122.3537931     
   4922336640.5217848     
   4752780803.1790314     
   4584708226.7590590     
   4418153867.5850801     
   4253202860.5445800     
   4615901981.4639034     
   4456539021.2091885     
   4298733061.7390242     
   4142574654.3838329     
   3988207281.3495750     
   4339835741.8955536     
   4192366386.3426518     
   4046754831.7121735     
   3903182561.3077598     
   3761896517.2433538     
   4098786132.3190684     
   3965365059.6591959     
   3834375434.9649782     
   3706125936.7430625     
   3581011412.9549861     
   4550631122.3537931     
   4376604044.3739748     
   4201405969.6422110     
   4024982762.8003983     
   3847307372.9133034     
   4253202860.5445800     
   4079255383.7856045     
   3904218252.8454576     
   3728012157.7974315     
   3550580725.0344830     
   3988207281.3495750     
   3819211494.6941857     
   3649809941.4247532     
   3480016500.1447082     
   3309896040.1048908     
   3761896517.2433538     
   3603223845.5989237     
   3445565995.1631370     
   3289166366.8599472     
   3134380199.7964544     
   3581011412.9549861     
   3438277574.9905615     
   3298740259.3127041     
   3162969182.1580744     
   3031712183.8608003     
   3847307372.9133034     
   3845420842.0976925     
   3908698368.5462475     
   4070896459.9977722     
   4387876358.7703800     
   3550580725.0344830     
   3451006349.3691273     
   3388614529.3112221     
   3386119269.2783284     
   3481793775.3458028     
   3309896040.1048908     
   3140304724.8843861     
   2984128417.4857707     
   2849150259.8044491     
   2749718651.6050897     
   3134380199.7964544     
   2938251992.1397190     
   2741454601.7735252     
   2544059318.5506053     
   2346176805.3253288     
   3031712183.8608003     
   2871712761.0669370     
   2718808507.5041437     
   2588483760.9478827     
   2506128214.9676919     
   5657792957.7813282     
   5890832192.8614416     
   6116204457.4769182     
   6331466752.9143238     
   6536413767.2010021     
   5151326413.0379705     
   5311043716.7291164     
   5467361157.1920090     
   5617392634.0047579     
   5759683203.9114914     
   4643267817.3286819     
   4755099967.2191000     
   4868022794.9280224     
   4979404547.8274994     
   5087323829.3972511     
   4133883823.6361036     
   4223842622.6491847     
   4319692049.6087723     
   4419773990.5795670     
   4522632909.0817575     
   3624699958.3844070     
   3719103548.4365821     
   3824739036.2039604     
   3941540100.7217946     
   4069411866.5202103     
   6536413767.2010021     
   6328252478.3823042     
   6142233824.4733057     
   5964423927.3149939     
   5785810717.2534513     
   5759683203.9114914     
   5651100322.8247147     
   5558476939.8409395     
   5472743029.8537378     
   5388361562.0940371     
   5087323829.3972511     
   5052583382.2794943     
   5028325669.8246174     
   5009346571.6784563     
   4992450832.1385021     
   4522632909.0817575     
   4537325791.1202812     
   4556671060.1473742     
   4578196135.7859879     
   4600183367.8829079     
   4069411866.5202103     
   4110689849.4720287     
   4149302921.1489439     
   4184361464.9608288     
   4215140069.4419131     
   5785810717.2534513     
   5634680412.3445711     
   5487849018.3298597     
   5345224428.9273357     
   5206862748.8108692     
   5388361562.0940371     
   5246046862.5374660     
   5106977244.7710419     
   4971194437.1157055     
   4838794192.8136444     
   4992450832.1385021     
   4863552624.1093960     
   4737808591.8816872     
   4615186323.4473619     
   4495722325.3083420     
   4600183367.8829079     
   4489905282.4798813     
   4383773400.6284590     
   4281466631.5363498     
   4182891754.8726358     
   4215140069.4419131     
   4129114322.4426117     
   4049494733.1108823     
   3975422960.1103535     
   3906614451.4570293     
   5206862748.8108692     
   5066938329.6474371     
   4927767340.9886274     
   4789435487.6263790     
   4652253709.3963203     
   4838794192.8136444     
   4718699911.6446924     
   4600526597.5686512     
   4484445867.9362030     
   4370773716.7784662     
   4495722325.3083420     
   4392207947.6053562     
   4291535666.2910123     
   4193904693.9297309     
   4099593809.4764433     
   4182891754.8726358     
   4092388530.2381558     
   4005298330.6669655     
   3921806940.9499397     
   3842141894.2723985     
   3906614451.4570293     
   3825217688.1873360     
   3747350085.2101612     
   3673166201.0069389     
   3602863028.4637680     
   4652253709.3963203     
   4509932953.5769796     
   4370146748.0062799     
   4233035682.1930122     
   4098786132.3190684     
   4370773716.7784662     
   4239312747.7055621     
   4110552994.7578096     
   3984698806.2491674     
   3862010757.9407763     
   4099593809.4764433     
   3980612962.1469307     
   3864772498.6385326     
   3752321738.3566089     
   3643585528.1970282     
   3842141894.2723985     
   3737342120.1427045     
   3636415773.1249800     
   3539630699.1959019     
   3447358585.4514742     
   3602863028.4637680     
   3513923101.0078611     
   3429896792.6730461     
   3351030544.7409372     
   3277711721.4216022     
   4098786132.3190684     
   3965365059.6591959     
   3834375434.9649782     
   3706125936.7430625     
   3581011412.9549861     
   3862010757.9407763     
   3741511325.8684721     
   3624189205.4326930     
   3510373948.2394013     
   3400475975.5740170     
   3643585528.1970282     
   3535664941.9760242     
   3431668542.9012270     
   3331935180.6567140     
   3236877079.5434375     
   3447358585.4514742     
   3351453596.5938749     
   3260197654.1071553     
   3173925065.9838891     
   3093034312.9735093     
   3277711721.4216022     
   3192968850.8975186     
   3113550023.3534741     
   3039770739.7944083     
   2972000943.8032537     
   3581011412.9549861     
   3438277574.9905615     
   3298740259.3127041     
   3162969182.1580744     
   3031712183.8608003     
   3400475975.5740170     
   3273502133.1092343     
   3150527058.6671691     
   3032072353.6939116     
   2918793635.2862844     
   3236877079.5434375     
   3124169000.6539893     
   3016167062.3078680     
   2913343797.2414346     
   2816270738.7732735     
   3093034312.9735093     
   2992760020.7806220     
   2897788322.8216257     
   2808554467.8869224     
   2725570279.1109633     
   2972000943.8032537     
   2881981082.2886796     
   2797743635.2154493     
   2719714406.5823035     
   2648388850.7553854     
   3031712183.8608003     
   2871712761.0669370     
   2718808507.5041437     
   2588483760.9478827     
   2506128214.9676919     
   2918793635.2862844     
   2812402915.8708382     
   2715369048.0524340     
   2632688866.9693537     
   2571348296.7863302     
   2816270738.7732735     
   2742265092.6870165     
   2680950893.1201191     
   2633732588.4821773     
   2602232207.4397645     
   2725570279.1109633     
   2657764239.8483977     
   2608926815.6441545     
   2584603825.9648871     
   2593215519.5624003     
   2648388850.7553854     
   2556917478.8205347     
   2496899395.3727932     
   2487949452.6751447     
   2558020779.9429383     
   3624699958.3844070     
   3719103548.4365821     
   3824739036.2039604     
   3941540100.7217946     
   4069411866.5202103     
   3137688576.5702152     
   3254954406.1374559     
   3381634581.0927954     
   3517261153.9559879     
   3661377198.9675326     
   2694511701.2075715     
   2830065363.9717207     
   2972945318.4433122     
   3122073204.6717968     
   3276540779.6433558     
   2298669622.7189078     
   2449235826.6925635     
   2604554543.8012724     
   2762709581.9387684     
   2922275466.1472106     
   1955386420.9426055     
   2119424607.9392619     
   2284863065.4843817     
   2448751464.9399467     
   2609138442.5548472     
   4069411866.5202103     
   4110689849.4720287     
   4149302921.1489439     
   4184361464.9608288     
   4215140069.4419131     
   3661377198.9675326     
   3700634152.8771949     
   3738501300.1221442     
   3774084810.0985470     
   3806638962.7016859     
   3276540779.6433558     
   3319693807.6020741     
   3363090208.1949577     
   3405909328.1743717     
   3447474786.9686065     
   2922275466.1472106     
   2975245975.5639744     
   3030453794.9120426     
   3087217218.0046077     
   3145004142.8819747     
   2609138442.5548472     
   2677308955.5042725     
   2750015600.3461337     
   2826749272.9019494     
   2907157814.0436034     
   4215140069.4419131     
   4129114322.4426117     
   4049494733.1108823     
   3975422960.1103535     
   3906614451.4570293     
   3806638962.7016859     
   3752485310.1819925     
   3704376299.2723055     
   3661844640.4000444     
   3624812995.6228805     
   3447474786.9686065     
   3420769747.9794269     
   3399386085.6289101     
   3383109251.0052943     
   3371943003.8883719     
   3145004142.8819747     
   3141509511.2737412     
   3142029579.1710520     
   3146482051.5796070     
   3154870010.9287477     
   2907157814.0436034     
   2922842098.3812556     
   2940457081.4836135     
   2959968593.3310766     
   2981354732.2274904     
   3906614451.4570293     
   3825217688.1873360     
   3747350085.2101612     
   3673166201.0069389     
   3602863028.4637680     
   3624812995.6228805     
   3551908929.9921865     
   3483203103.0437160     
   3418885396.2059464     
   3359177348.0434523     
   3371943003.8883719     
   3310657488.9671531     
   3254619866.7327909     
   3204048018.2699018     
   3159202381.0178852     
   3154870010.9287477     
   3108179410.7263241     
   3068169058.3981161     
   3035064456.3056068     
   3009167064.5528092     
   2981354732.2274904     
   2951678784.2278490     
   2930460742.7614813     
   2917894453.5988107     
   2914305970.2403631     
   3602863028.4637680     
   3513923101.0078611     
   3429896792.6730461     
   3351030544.7409372     
   3277711721.4216022     
   3359177348.0434523     
   3288758082.8919702     
   3223945059.2031717     
   3165048703.2358313     
   3112474969.6167297     
   3159202381.0178852     
   3106219559.4997711     
   3059328787.2367544     
   3018833597.2823405     
   2985088762.8232880     
   3009167064.5528092     
   2972169165.9741278     
   2941436424.6923356     
   2917202526.0864382     
   2899718982.1715722     
   2914305970.2403631     
   2891356011.8469529     
   2874456361.3988218     
   2863729096.6836028     
   2859299174.5336175     
   3277711721.4216022     
   3192968850.8975186     
   3113550023.3534741     
   3039770739.7944083     
   2972000943.8032537     
   3112474969.6167297     
   3039945474.0040421     
   2973196081.9594827     
   2912536429.5138397     
   2858317722.2752614     
   2985088762.8232880     
   2925391979.1215982     
   2871971656.3438568     
   2825119780.3370924     
   2785157115.8178639     
   2899718982.1715722     
   2853181051.4836302     
   2813411459.5852737     
   2780670401.4979343     
   2755236094.4906640     
   2859299174.5336175     
   2825793946.2444553     
   2799504995.2608452     
   2780650215.2692962     
   2769459168.5661297     
   2972000943.8032537     
   2881981082.2886796     
   2797743635.2154493     
   2719714406.5823035     
   2648388850.7553854     
   2858317722.2752614     
   2779874222.5453863     
   2708466593.6551819     
   2644525106.8430214     
   2588530224.8515759     
   2785157115.8178639     
   2721529278.4448195     
   2666563011.8687916     
   2620710866.0604954     
   2584465044.9581342     
   2755236094.4906640     
   2708862818.6795058     
   2673037870.6527486     
   2648231425.4274621     
   2634949325.2106376     
   2769459168.5661297     
   2741654787.4577818     
   2726453200.1242132     
   2724331565.7255821     
   2735805869.8822088     
   2648388850.7553854     
   2556917478.8205347     
   2496899395.3727932     
   2487949452.6751447     
   2558020779.9429383     
   2588530224.8515759     
   2458434780.4808578     
   2341824584.6191330     
   2245494581.3444548     
   2180526246.3233953     
   2584465044.9581342     
   2443040438.2397604     
   2305679199.7732778     
   2172545683.6208825     
   2043910768.8673074     
   2634949325.2106376     
   2515857403.8175988     
   2402650717.7156997     
   2299731751.0980992     
   2214096750.5893354     
   2735805869.8822088     
   2675071306.7074633     
   2631883175.9071226     
   2622218094.8257303     
   2668715474.0090766     
   1955386420.9426055     
   2119424607.9392619     
   2284863065.4843817     
   2448751464.9399467     
   2609138442.5548472     
   1654166527.2289155     
   1820676699.2186472     
   1988905916.6992836     
   2156166863.3796921     
   2320707920.6228399     
   1394333250.5242302     
   1571795575.7247620     
   1750263671.6239533     
   1927741362.7986801     
   2102983345.7641559     
   1208128481.6358671     
   1400138198.8035834     
   1591710767.4398530     
   1782072904.7325356     
   1970768207.0767138     
   1138056010.8202782     
   1336434030.8264353     
   1535087220.8009865     
   1734015580.7439306     
   1933219110.6552689     
   2609138442.5548472     
   2677308955.5042725     
   2750015600.3461337     
   2826749272.9019494     
   2907157814.0436034     
   2320707920.6228399     
   2408048494.7104588     
   2497863055.5549879     
   2589761518.2046480     
   2683468736.7393970     
   2102983345.7641559     
   2207066862.7662768     
   2311097351.6281219     
   2414838272.3493109     
   2518122862.0887504     
   1970768207.0767138     
   2088265096.9043047     
   2202953075.9068127     
   2314756995.5516176     
   2423624696.6109362     
   1933219110.6552689     
   2060194237.1553218     
   2181796991.1880369     
   2298027372.7534142     
   2408885381.8514543     
   2907157814.0436034     
   2922842098.3812556     
   2940457081.4836135     
   2959968593.3310766     
   2981354732.2274904     
   2683468736.7393970     
   2705954219.9197226     
   2731118560.2131820     
   2758954006.5840130     
   2789460089.8795547     
   2518122862.0887504     
   2546936567.8371391     
   2579176673.7401514     
   2614846729.4062905     
   2653953386.3252554     
   2423624696.6109362     
   2457034409.4500914     
   2494603879.4174099     
   2536336042.4502940     
   2582234500.1234722     
   2408885381.8514543     
   2443886508.0920563     
   2483765368.4179063     
   2528521962.8290076     
   2578156291.3253589     
   2981354732.2274904     
   2951678784.2278490     
   2930460742.7614813     
   2917894453.5988107     
   2914305970.2403631     
   2789460089.8795547     
   2775637563.5400915     
   2769561671.1053171     
   2771342551.0848980     
   2781160975.3129764     
   2653953386.3252554     
   2651725324.8641319     
   2656158321.6592927     
   2667296313.3581867     
   2685212681.8827090     
   2582234500.1234722     
   2587184875.9715142     
   2597357683.9583731     
   2612761473.2792897     
   2633411666.4480624     
   2578156291.3253589     
   2586207644.6605306     
   2597754320.5350451     
   2612796318.9489121     
   2631333639.9021254     
   2914305970.2403631     
   2891356011.8469529     
   2874456361.3988218     
   2863729096.6836028     
   2859299174.5336175     
   2781160975.3129764     
   2762252457.5830212     
   2750118701.7158518     
   2744850177.3301764     
   2746539067.2733550     
   2685212681.8827090     
   2668692300.6964931     
   2659726344.9755006     
   2658365528.6200895     
   2664661447.3527274     
   2633411666.4480624     
   2616876726.4682665     
   2608708895.3792682     
   2608923425.2381339     
   2617535884.4046154     
   2631333639.9021254     
   2611745447.5147781     
   2601333919.5900917     
   2600099056.1280689     
   2608040857.1287107     
   2859299174.5336175     
   2825793946.2444553     
   2799504995.2608452     
   2780650215.2692962     
   2769459168.5661297     
   2746539067.2733550     
   2721566741.9971309     
   2704552559.3988705     
   2695642107.9803553     
   2694985701.0689054     
   2664661447.3527274     
   2646179376.4230175     
   2636351741.9913988     
   2635253366.6651297     
   2642960208.0308166     
   2617535884.4046154     
   2602745864.5897217     
   2597273079.9551859     
   2601138565.7256961     
   2614363436.2497993     
   2608040857.1287107     
   2593499458.6504612     
   2588917233.8071218     
   2594294182.5986838     
   2609630305.0251594     
   2769459168.5661297     
   2741654787.4577818     
   2726453200.1242132     
   2724331565.7255821     
   2735805869.8822088     
   2694985701.0689054     
   2679449752.4651189     
   2674254931.6707172     
   2679635223.2158647     
   2695844104.0409098     
   2642960208.0308166     
   2635145602.9622579     
   2635345309.1673098     
   2643648839.6906295     
   2660154238.1181831     
   2614363436.2497993     
   2610308442.1298833     
   2611894918.9602003     
   2619142067.8322721     
   2632071313.4295363     
   2609630305.0251594     
   2606194503.6764340     
   2605995895.4759774     
   2609034480.4237967     
   2615310258.5198798     
   2735805869.8822088     
   2675071306.7074633     
   2631883175.9071226     
   2622218094.8257303     
   2668715474.0090766     
   2695844104.0409098     
   2680872276.9987092     
   2681584091.9312482     
   2706426541.3353209     
   2767107723.7069054     
   2660154238.1181831     
   2677832882.4365449     
   2710160175.7646666     
   2760728739.1443768     
   2834435284.2037716     
   2632071313.4295363     
   2667322517.6246710     
   2717191668.7723393     
   2782557317.0336137     
   2864603318.8653502     
   2615310258.5198798     
   2651348434.9395666     
   2703263693.5747409     
   2771056034.4253793     
   2854725457.4914932     
   1138056010.8202782     
   1336434030.8264353     
   1535087220.8009865     
   1734015580.7439306     
   1933219110.6552689     
   1208128481.5545475     
   1400138198.7206004     
   1591710767.3535264     
   1782072904.6412437     
   1970768206.9789178     
   1394333250.3927183     
   1571795575.5859890     
   1750263671.4757185     
   1927741362.6384578     
   2102983345.5893121     
   1654166527.0787225     
   1820676699.0557687     
   1988905916.5210314     
   2156166863.1827884     
   2320707920.4037247     
   1955386420.7960420     
   2119424607.7778499     
   2284863065.3046522     
   2448751464.7377839     
   2609138442.3258114     
   1933219110.6552689     
   2060194237.1553218     
   2181796991.1880369     
   2298027372.7534142     
   2408885381.8514543     
   1970768206.9789178     
   2088265096.7870622     
   2202953075.7677970     
   2314756995.3884726     
   2423624696.4212990     
   2102983345.5893121     
   2207066862.5576715     
   2311097351.3813453     
   2414838272.0599408     
   2518122861.7523379     
   2320707920.4037247     
   2408048494.4506454     
   2497863055.2481012     
   2589761517.8443246     
   2683468736.3191986     
   2609138442.3258114     
   2677308955.2359939     
   2750015600.0304084     
   2826749272.5305610     
   2907157813.6081486     
   2408885381.8514543     
   2443886508.0920563     
   2483765368.4179063     
   2528521962.8290076     
   2578156291.3253589     
   2423624696.4212990     
   2457034409.2082248     
   2494603879.1159339     
   2536336042.0818048     
   2582234499.6805654     
   2518122861.7523379     
   2546936567.4060407     
   2579176673.1993504     
   2614846728.7405782     
   2653953385.5192857     
   2683468736.3191986     
   2705954219.3795242     
   2731118559.5303812     
   2758954005.7354798     
   2789460088.8417258     
   2907157813.6081486     
   2922842097.8215322     
   2940457080.7701216     
   2959968592.4333587     
   2981354731.1142373     
   2578156291.3253589     
   2586207644.6605306     
   2597754320.5350451     
   2612796318.9489121     
   2631333639.9021254     
   2582234499.6805654     
   2587184875.4727197     
   2597357683.3933573     
   2612761472.6377969     
   2633411665.7195687     
   2653953385.5192857     
   2651725323.9550457     
   2656158320.6262541     
   2667296312.1804523     
   2685212680.5389533     
   2789460088.8417258     
   2775637562.3706670     
   2769561669.7722235     
   2771342549.5558004     
   2781160973.5543275     
   2981354731.1142373     
   2951678782.9806929     
   2930460741.3362494     
   2917894451.9500904     
   2914305968.3203011     
   2631333639.9021254     
   2611745447.5147781     
   2601333919.5900917     
   2600099056.1280689     
   2608040857.1287107     
   2633411665.7195687     
   2616876726.0120392     
   2608708895.2465382     
   2608923425.4775939     
   2617535885.0627294     
   2685212680.5389533     
   2668692299.7879767     
   2659726344.6010404     
   2658365528.8756161     
   2664661448.3317280     
   2781160973.5543275     
   2762252456.2808828     
   2750118701.0122876     
   2744850177.3666530     
   2746539068.1911492     
   2914305968.3203011     
   2891356010.2499862     
   2874456360.3042722     
   2863729096.2747941     
   2859299174.9982214     
   2608040857.1287107     
   2593499458.6504612     
   2588917233.8071218     
   2594294182.5986838     
   2609630305.0251594     
   2617535885.0627294     
   2602745865.6659484     
   2597273081.5386968     
   2601138567.9026666     
   2614363439.1039863     
   2664661448.3317280     
   2646179378.1567082     
   2636351744.6663690     
   2635253370.4645052     
   2642960213.1350465     
   2746539068.1911492     
   2721566743.8600197     
   2704552562.4999170     
   2695642112.6125212     
   2694985707.5256810     
   2859299174.9982214     
   2825793947.6483860     
   2799504998.0093217     
   2780650219.7751436     
   2769459175.2502842     
   2609630305.0251594     
   2606194503.6764340     
   2605995895.4759774     
   2609034480.4237967     
   2615310258.5198798     
   2614363439.1039863     
   2610308445.2163815     
   2611894922.3342252     
   2619142071.5544009     
   2632071317.5680232     
   2642960213.1350465     
   2635145608.6395545     
   2635345315.5332956     
   2643648846.8672752     
   2660154246.2370443     
   2694985707.5256810     
   2679449759.9141188     
   2674254940.3006277     
   2679635233.2195616     
   2695844115.6178684     
   2769459175.2502842     
   2741654795.5983553     
   2726453210.0060253     
   2724331577.6346741     
   2735805884.1047664     
   2615310258.5198798     
   2651348434.9395666     
   2703263693.5747409     
   2771056034.4253793     
   2854725457.4914932     
   2632071317.5680232     
   2667322521.0184507     
   2717191671.3827562     
   2782557318.9846621     
   2864603320.4984641     
   2660154246.2370443     
   2677832889.3970704     
   2710160181.4355364     
   2760728743.6587939     
   2834435288.0650616     
   2695844115.6178684     
   2680872287.4024448     
   2681584100.8791022     
   2706426548.8432393     
   2767107730.2465005     
   2735805884.1047664     
   2675071320.1405959     
   2631883188.0729532     
   2622218105.4896736     
   2668715483.3831306     
   1955386420.7960420     
   2119424607.7778499     
   2284863065.3046522     
   2448751464.7377839     
   2609138442.3258114     
   2298669622.5890312     
   2449235826.5516796     
   2604554543.6465149     
   2762709581.7669759     
   2922275465.9551005     
   2694511701.1009812     
   2830065363.8595729     
   2972945318.3233361     
   3122073204.5416541     
   3276540779.5007172     
   3137688576.4909987     
   3254954406.0587378     
   3381634581.0129313     
   3517261153.8734179     
   3661377198.8807764     
   3624699958.3353176     
   3719103548.3940277     
   3824739036.1669760     
   3941540100.6896029     
   4069411866.4921708     
   2609138442.3258114     
   2677308955.2359939     
   2750015600.0304084     
   2826749272.5305610     
   2907157813.6081486     
   2922275465.9551005     
   2975245975.3496175     
   3030453794.6690845     
   3087217217.7266645     
   3145004142.5625052     
   3276540779.5007172     
   3319693807.4539018     
   3363090208.0368762     
   3405909328.0020285     
   3447474786.7775893     
   3661377198.8807764     
   3700634152.8001833     
   3738501300.0524406     
   3774084810.0338063     
   3806638962.6396093     
   4069411866.4921708     
   4110689849.4668446     
   4149302921.1659293     
   4184361464.9994125     
   4215140069.5016370     
   2907157813.6081486     
   2922842097.8215322     
   2940457080.7701216     
   2959968592.4333587     
   2981354731.1142373     
   3145004142.5625052     
   3141509510.8737712     
   3142029578.6679988     
   3146482050.9496198     
   3154870010.1465979     
   3447474786.7775893     
   3420769747.7605648     
   3399386085.3670654     
   3383109250.6836686     
   3371943003.4879274     
   3806638962.6396093     
   3752485310.1463742     
   3704376299.2556190     
   3661844640.3929763     
   3624812995.6130924     
   4215140069.5016370     
   4129114322.5796804     
   4049494733.3251262     
   3975422960.4001184     
   3906614451.8172545     
   2981354731.1142373     
   2951678782.9806929     
   2930460741.3362494     
   2917894451.9500904     
   2914305968.3203011     
   3154870010.1465979     
   3108179409.8978834     
   3068169057.4744802     
   3035064455.2358403     
   3009167063.2834473     
   3371943003.4879274     
   3310657488.6053429     
   3254619866.3559122     
   3204048017.8214869     
   3159202380.4383044     
   3624812995.6130924     
   3551908930.1049366     
   3483203103.2205734     
   3418885396.3851676     
   3359177348.1592288     
   3906614451.8172545     
   3825217688.7545662     
   3747350085.9211020     
   3673166201.7947001     
   3602863029.2563539     
   2914305968.3203011     
   2891356010.2499862     
   2874456360.3042722     
   2863729096.2747941     
   2859299174.9982214     
   3009167063.2834473     
   2972169164.8561578     
   2941436423.8782420     
   2917202525.7355590     
   2899718982.4511099     
   3159202380.4383044     
   3106219558.8277602     
   3059328786.5917792     
   3018833596.7929349     
   2985088762.6295104     
   3359177348.1592288     
   3288758082.6299810     
   3223945058.6452298     
   3165048702.4733567     
   3112474968.7550488     
   3602863029.2563539     
   3513923101.1223974     
   3429896792.1515741     
   3351030543.6334643     
   3277711719.7922111     
   2859299174.9982214     
   2825793947.6483860     
   2799504998.0093217     
   2780650219.7751436     
   2769459175.2502842     
   2899718982.4511099     
   2853181052.3347354     
   2813411461.3800473     
   2780670404.6222048     
   2755236099.3450518     
   2985088762.6295104     
   2925391979.0272670     
   2871971656.6846561     
   2825119781.4677491     
   2785157118.1142130     
   3112474968.7550488     
   3039945472.7046413     
   2973196080.5173206     
   2912536428.2462721     
   2858317721.5253015     
   3277711719.7922111     
   3192968848.2679186     
   3113550019.9752622     
   3039770735.9424477     
   2972000939.7800450     
   2769459175.2502842     
   2741654795.5983553     
   2726453210.0060253     
   2724331577.6346741     
   2735805884.1047664     
   2755236099.3450518     
   2708862824.7164454     
   2673037878.1825805     
   2648231434.7652745     
   2634949336.6736727     
   2785157118.1142130     
   2721529281.6312761     
   2666563016.2906771     
   2620710872.0771542     
   2584465052.9412436     
   2858317721.5253015     
   2779874222.3551402     
   2708466594.4050608     
   2644525108.9404883     
   2588530228.7334929     
   2972000939.7800450     
   2881981078.4565535     
   2797743631.9850383     
   2719714404.4052911     
   2648388850.1332636     
   2735805884.1047664     
   2675071320.1405959     
   2631883188.0729532     
   2622218105.4896736     
   2668715483.3831306     
   2634949336.6736727     
   2515857414.5282273     
   2402650727.3150744     
   2299731759.1527300     
   2214096756.5849371     
   2584465052.9412436     
   2443040446.1277752     
   2305679207.6157131     
   2172545691.4985147     
   2043910776.9192080     
   2588530228.7334929     
   2458434785.3902192     
   2341824591.2585917     
   2245494590.9540424     
   2180526260.9414301     
   2648388850.1332636     
   2556917480.6723785     
   2496899401.2166638     
   2487949465.1627960     
   2558020803.0245562     
   3624699958.3353176     
   3719103548.3940277     
   3824739036.1669760     
   3941540100.6896029     
   4069411866.4921708     
   4133883823.6180153     
   4223842622.6425495     
   4319692049.6142540     
   4419773990.5980196     
   4522632909.1142244     
   4643267817.3412161     
   4755099967.2458458     
   4868022794.9710140     
   4979404547.8887529     
   5087323829.4788017     
   5151326413.0809860     
   5311043716.7868862     
   5467361157.2676535     
   5617392634.1010160     
   5759683204.0307169     
   5657792957.8549604     
   5890832192.9480972     
   6116204457.5805626     
   6331466753.0380335     
   6536413767.3469410     
   4069411866.4921708     
   4110689849.4668446     
   4149302921.1659293     
   4184361464.9994125     
   4215140069.5016370     
   4522632909.1142244     
   4537325791.1881456     
   4556671060.2512674     
   4578196135.9261475     
   4600183368.0590315     
   5087323829.4788017     
   5052583382.4021235     
   5028325669.9896975     
   5009346571.8868065     
   4992450832.3902731     
   5759683204.0307169     
   5651100322.9839878     
   5558476940.0418053     
   5472743030.0972691     
   5388361562.3808765     
   6536413767.3469410     
   6328252478.5609159     
   6142233824.6857157     
   5964423927.5619707     
   5785810717.5356989     
   4215140069.5016370     
   4129114322.5796804     
   4049494733.3251262     
   3975422960.4001184     
   3906614451.8172545     
   4600183368.0590315     
   4489905282.7697802     
   4383773401.0381784     
   4281466632.0716410     
   4182891755.5382323     
   4992450832.3902731     
   4863552624.4845552     
   4737808592.3901920     
   4615186324.0995102     
   4495722326.1148081     
   5388361562.3808765     
   5246046862.9314556     
   5106977245.2841072     
   4971194437.7603674     
   4838794193.6034145     
   5785810717.5356989     
   5634680412.6932564     
   5487849018.7573795     
   5345224429.4468575     
   5206862749.4367552     
   3906614451.8172545     
   3825217688.7545662     
   3747350085.9211020     
   3673166201.7947001     
   3602863029.2563539     
   4182891755.5382323     
   4092388531.2030535     
   4005298331.8984900     
   3921806942.4129262     
   3842141895.9286723     
   4495722326.1148081     
   4392207948.7467155     
   4291535667.7605577     
   4193904695.7198987     
   4099593811.5792179     
   4838794193.6034145     
   4718699912.7383690     
   4600526598.9804535     
   4484445869.6814432     
   4370773718.8747978     
   5206862749.4367552     
   5066938330.4741879     
   4927767342.0460682     
   4789435488.9471941     
   4652253711.0181980     
   3602863029.2563539     
   3513923101.1223974     
   3429896792.1515741     
   3351030543.6334643     
   3277711719.7922111     
   3842141895.9286723     
   3737342121.0081959     
   3636415773.1754789     
   3539630698.4115291     
   3447358583.8203173     
   4099593811.5792179     
   3980612963.4563837     
   3864772499.0776758     
   3752321737.8492260     
   3643585526.6686015     
   4370773718.8747978     
   4239312749.1353741     
   4110552995.4043398     
   3984698805.9934921     
   3862010756.6601610     
   4652253711.0181980     
   4509932954.8002396     
   4370146748.6866264     
   4233035682.1817713     
   4098786131.4591985     
   3277711719.7922111     
   3192968848.2679186     
   3113550019.9752622     
   3039770735.9424477     
   2972000939.7800450     
   3447358583.8203173     
   3351453593.4601178     
   3260197649.5923724     
   3173925060.2264214     
   3093034306.1317291     
   3643585526.6686015     
   3535664938.6875324     
   3431668537.8665042     
   3331935173.8966036     
   3236877071.0867505     
   3862010756.6601610     
   3741511322.8522716     
   3624189200.6121545     
   3510373941.5418806     
   3400475966.9206576     
   4098786131.4591985     
   3965365057.3893070     
   3834375431.1601491     
   3706125931.2644787     
   3581011405.6439486     
   2972000939.7800450     
   2881981078.4565535     
   2797743631.9850383     
   2719714404.4052911     
   2648388850.1332636     
   3093034306.1317291     
   2992760013.3848929     
   2897788315.1387467     
   2808554460.2117100     
   2725570271.7716913     
   3236877071.0867505     
   3124168991.1740108     
   3016167051.9394908     
   2913343786.1283841     
   2816270727.0681305     
   3400475966.9206576     
   3273502123.2962866     
   3150527047.7181368     
   3032072341.6182022     
   2918793622.0715652     
   3581011405.6439486     
   3438277566.7528534     
   3298740250.0895772     
   3162969171.8532119     
   3031712172.3230047     
   2648388850.1332636     
   2556917480.6723785     
   2496899401.2166638     
   2487949465.1627960     
   2558020803.0245562     
   2725570271.7716913     
   2657764234.7409449     
   2608926813.6614857     
   2584603828.4986415     
   2593215528.6905723     
   2816270727.0681305     
   2742265082.6499329     
   2680950885.1504850     
   2633732583.0336051     
   2602232205.0433841     
   2918793622.0715652     
   2812402903.6369123     
   2715369036.8061414     
   2632688856.5538020     
   2571348286.7969413     
   3031712172.3230047     
   2871712750.0424471     
   2718808496.7392640     
   2588483750.0416732     
   2506128203.3720813     
   5657792957.8549604     
   5890832192.9480972     
   6116204457.5805626     
   6331466753.0380335     
   6536413767.3469410     
   6491738855.6461430     
   6587048500.2006388     
   6757673454.8316803     
   6961529968.6704397     
   7171957139.6679745     
   7982517332.2390633     
   7735303946.4315357     
   7669657685.6059856     
   7670232842.8028698     
   7667089981.4475956     
   10130581572.522886     
   9322428014.5817165     
   8826957070.7251434     
   8444240740.7976170     
   8036443379.5820942     
   12936021410.728472     
   11341134381.460243     
   10210739049.135431     
   9273337678.9395885     
   8304417778.2408886     
   6536413767.3469410     
   6328252478.5609159     
   6142233824.6857157     
   5964423927.5619707     
   5785810717.5356989     
   7171957139.6679745     
   6911303212.9554977     
   6658528161.7449646     
   6409774500.8218918     
   6161896757.5484104     
   7667089981.4475956     
   7382057802.8225718     
   7102429754.0926924     
   6828293447.9944696     
   6559864495.2288733     
   8036443379.5820942     
   7748153742.1960020     
   7475601424.5800962     
   7216819876.4233303     
   6971833318.6064329     
   8304417778.2408886     
   8022137688.4983835     
   7782139143.5369291     
   7573673611.9449806     
   7391771652.1238976     
   5785810717.5356989     
   5634680412.6932564     
   5487849018.7573795     
   5345224429.4468575     
   5206862749.4367552     
   6161896757.5484104     
   6012927645.3010225     
   5865342099.4270067     
   5719176706.2144461     
   5574485775.7468863     
   6559864495.2288733     
   6409622253.0636463     
   6257710066.1949863     
   6104094582.7835569     
   5948804773.0429010     
   6971833318.6064329     
   6818285822.9050350     
   6659968728.1705923     
   6496590554.8542843     
   6328106830.9216576     
   7391771652.1238976     
   7233912062.6638851     
   7068259629.5144825     
   6894095183.7808733     
   6711244902.6984177     
   5206862749.4367552     
   5066938330.4741879     
   4927767342.0460682     
   4789435488.9471941     
   4652253711.0181980     
   5574485775.7468863     
   5414487544.4873724     
   5255231522.8839388     
   5096763062.9653158     
   4939200994.4352961     
   5948804773.0429010     
   5775036067.2937860     
   5602684409.2195797     
   5431765797.2644205     
   5262322999.1117220     
   6328106830.9216576     
   6146178614.1551485     
   5966936735.8141527     
   5790337006.2451601     
   5616397595.4257641     
   6711244902.6984177     
   6526071336.7897568     
   6345391305.9100685     
   6169029606.1078405     
   5996970220.2212915     
   4652253711.0181980     
   4509932954.8002396     
   4370146748.6866264     
   4233035682.1817713     
   4098786131.4591985     
   4939200994.4352961     
   4787123930.0791368     
   4636453386.1109104     
   4487304267.3816595     
   4339835741.2374983     
   5262322999.1117220     
   5100270465.1787491     
   4938481609.2693796     
   4776996107.7563581     
   4615901980.8541241     
   5616397595.4257641     
   5444185728.6744871     
   5271144921.4921980     
   5097200979.1636686     
   4922336639.6991749     
   5996970220.2212915     
   5814409103.9036627     
   5630027349.4390707     
   5443608062.2014999     
   5255003999.4287653     
   4098786131.4591985     
   3965365057.3893070     
   3834375431.1601491     
   3706125931.2644787     
   3581011405.6439486     
   4339835741.2374983     
   4192366384.9886651     
   4046754829.5738249     
   3903182558.2849107     
   3761896513.2181735     
   4615901980.8541241     
   4456539020.6018038     
   4298733061.0816402     
   4142574653.6167016     
   3988207280.4005532     
   4922336639.6991749     
   4752780803.0225916     
   4584708227.2484226     
   4418153868.6976261     
   4253202862.2515974     
   5255003999.4287653     
   5076515630.6374273     
   4899609504.8553572     
   4724293381.0991735     
   4550631126.1668558     
   3581011405.6439486     
   3438277566.7528534     
   3298740250.0895772     
   3162969171.8532119     
   3031712172.3230047     
   3761896513.2181735     
   3603223841.4972920     
   3445565991.0005374     
   3289166362.6394854     
   3134380195.4981666     
   3988207280.4005532     
   3819211494.2193899     
   3649809941.4660516     
   3480016500.7464757     
   3309896041.3098235     
   4253202862.2515974     
   4079255386.2185221     
   3904218256.0237236     
   3728012161.7439423     
   3550580729.7745829     
   4550631126.1668558     
   4376604048.8875237     
   4201405974.8135958     
   4024982768.5798345     
   3847307379.2429409     
   3031712172.3230047     
   2871712750.0424471     
   2718808496.7392640     
   2588483750.0416732     
   2506128203.3720813     
   3134380195.4981666     
   2938251989.0494027     
   2741454599.8238368     
   2544059317.6841278     
   2346176805.5021195     
   3309896041.3098235     
   3140304726.8508148     
   2984128419.9634390     
   2849150262.2959132     
   2749718653.1464462     
   3550580729.7745829     
   3451006353.5153480     
   3388614532.3135123     
   3386119270.0246143     
   3481793771.8518286     
   3847307379.2429409     
   3845420845.9219208     
   3908698369.0975094     
   4070896455.8352423     
   4387876347.4625950     
 </DataArray>
 <DataArray  type="Float64" Name="strain" NumberOfComponents="3" format="ascii">
  0.20349328853806561        0.0000000000000000       0.12540522873151827     
  0.18666357865914607       -2.7333056182904727E-002   7.4346162132010202E-002
  0.16983386878022647       -4.4687355362225616E-002   3.5122719603022046E-002
  0.15300415890130689       -5.2062897537962671E-002   7.7349011445538712E-003
  0.13617444902238734       -4.9459682710115888E-002  -7.8172932433944048E-003
  0.15986348163934994        0.0000000000000000        9.6439258717605836E-002
  0.15318733730469822       -2.1850407238802407E-002   6.2678685826863728E-002
  0.14651119297004653       -3.6182618268953123E-002   3.7389619954137442E-002
  0.13983504863539484       -4.2996633090452152E-002   2.0572061099426917E-002
  0.13315890430074312       -4.2292451703299525E-002   1.2226009262732304E-002
  0.12646575036953450        0.0000000000000000        7.4186218045261779E-002
  0.12657905452664656       -1.6367758294700083E-002   5.5263578068353497E-002
  0.12669235868375864       -2.7677881175680635E-002   4.1448328056956869E-002
  0.12680566284087066       -3.3930368642941668E-002   3.2740468011071944E-002
  0.12691896699798272       -3.5125220696483148E-002   2.9139997930698720E-002
  0.10330009472861933        0.0000000000000000        5.8646106714486133E-002
  0.10683873032499101       -1.0885109350597763E-002   5.2100838856479495E-002
  0.11037736592136270       -1.9173144082408146E-002   4.7298843911480391E-002
  0.11391600151773437       -2.4864104195431152E-002   4.4240121879488899E-002
  0.11745463711410607       -2.7957989689666778E-002   4.2924672760504962E-002
   9.0366514716604424E-002   0.0000000000000000        4.9818924725278879E-002
   9.3966364699731630E-002  -5.4024604064954410E-003   5.3190468191241742E-002
   9.7566214682858809E-002  -1.0668406989135654E-002   5.4941167517708056E-002
  0.10116606466598602       -1.5797839747920650E-002   5.5071022704677806E-002
  0.10476591464911321       -2.0790758682850408E-002   5.3580033752151007E-002
  0.13617444902238734       -4.9459682710115888E-002  -7.8172932433944048E-003
  0.13298762092726357       -4.2920414305880991E-002  -3.3876619323573304E-003
  0.12980079283213980       -3.8487795752453577E-002  -3.8176465479361835E-004
  0.12661396473701603       -3.6161827049833853E-002   1.2003985892965682E-003
  0.12342713664189225       -3.5942508198021500E-002   1.3588277999133924E-003
  0.13315890430074312       -4.2292451703299525E-002   1.2226009262732304E-002
  0.12893749934756371       -3.8423215460503340E-002   1.2173036993984802E-002
  0.12471609439438430       -3.5742065715071769E-002   1.1474645042599412E-002
  0.12049468944120491       -3.4249002467004790E-002   1.0130833408576120E-002
  0.11627328448802551       -3.3944025716302506E-002   8.1416020919149318E-003
  0.12691896699798272       -3.5125220696483148E-002   2.9139997930698720E-002
  0.12244129953758318       -3.3926016615125724E-002   2.5522985435609592E-002
  0.11796363207718362       -3.2996335677689941E-002   2.2038867608718142E-002
  0.11348596461678405       -3.2336177884175844E-002   1.8687644450024198E-002
  0.10900829715638453       -3.1945543234583387E-002   1.5469315959527934E-002
  0.11745463711410607       -2.7957989689666778E-002   4.2924672760504962E-002
  0.11349902149732190       -2.9428817769748091E-002   3.6662183392517193E-002
  0.10954340588053771       -3.0250605640308122E-002   3.1310903043562502E-002
  0.10558779026375353       -3.0423353301346896E-002   2.6870831713640953E-002
  0.10163217464696932       -2.9947060752864359E-002   2.3341969402752578E-002
  0.10476591464911321       -2.0790758682850408E-002   5.3580033752151007E-002
  0.10211066522677990       -2.4931618924370444E-002   4.5590630864707472E-002
   9.9455415804446584E-002  -2.7504875602926283E-002   3.9290751347132544E-002
   9.6800166382113306E-002  -2.8510528718517891E-002   3.4680395199426325E-002
   9.4144916959779987E-002  -2.7948578271145330E-002   3.1759562421588713E-002
  0.12342713664189225       -3.5942508198021500E-002   1.3588277999133924E-003
  0.12049618944326779       -3.6458247566592009E-002   5.9615537354004711E-004
  0.11756524224464329       -3.6337453525120501E-002   3.3577219082370213E-005
  0.11463429504601881       -3.5580126073606937E-002  -3.2890666345929825E-004
  0.11170334784739433       -3.4186265212051536E-002  -4.9129627408550647E-004
  0.11627328448802551       -3.3944025716302506E-002   8.1416020919149318E-003
  0.11352610156312182       -3.4030401106179151E-002   7.7724223026966327E-003
  0.11077891863821822       -3.3711394279849302E-002   7.5706767890044088E-003
  0.10803173571331456       -3.2987005237312877E-002   7.5363655508379930E-003
  0.10528455278841090       -3.1857233978569988E-002   7.6694885881975483E-003
  0.10900829715638453       -3.1945543234583387E-002   1.5469315959527934E-002
  0.10641221850881188       -3.1602554645766258E-002   1.5262477613629422E-002
  0.10381613986123925       -3.1085335034578099E-002   1.5190413546866999E-002
  0.10122006121366657       -3.0393884401018863E-002   1.5253123759240565E-002
   9.8623982566093948E-002  -2.9528202745088633E-002   1.5450608250750342E-002
  0.10163217464696932       -2.9947060752864359E-002   2.3341969402752578E-002
   9.9154540280337850E-002  -2.9174708185353410E-002   2.3066321306338230E-002
   9.6676905913706410E-002  -2.8459275789306897E-002   2.2892787492670118E-002
   9.4199271547074942E-002  -2.7800763564724801E-002   2.2821367961748249E-002
   9.1721637180443460E-002  -2.7199171511607098E-002   2.2852062713572693E-002
   9.4144916959779987E-002  -2.7948578271145330E-002   3.1759562421588713E-002
   9.1753066877699824E-002  -2.6746861724940563E-002   3.1183953380823075E-002
   8.9361216795619702E-002  -2.5833216544035718E-002   3.0677798626413871E-002
   8.6969366713539567E-002  -2.5207642728430776E-002   3.0241098158361096E-002
   8.4577516631459432E-002  -2.4870140278125702E-002   2.9873851976664728E-002
  0.11170334784739433       -3.4186265212051536E-002  -4.9129627408550647E-004
  0.10876588184563907       -3.2638448574152490E-002  -1.7834314990364253E-004
  0.10582841584388375       -3.1419253793608715E-002   6.5254744021636668E-005
  0.10289094984212843       -3.0528680870419864E-002   2.3949740769030337E-004
   9.9953483840373170E-002  -2.9966729804586201E-002   3.4438484110194123E-004
  0.10528455278841090       -3.1857233978569988E-002   7.6694885881975483E-003
  0.10233010520234134       -3.0622873169795228E-002   7.5306277082395623E-003
   9.9375657616271776E-002  -2.9584715477163195E-002   7.4271588899093022E-003
   9.6421210030202154E-002  -2.8742760900673989E-002   7.3590821332073855E-003
   9.3466762444132656E-002  -2.8097009440327392E-002   7.3263974381336805E-003
   9.8623982566093948E-002  -2.9528202745088633E-002   1.5450608250750342E-002
   9.5757300687594943E-002  -2.8607297765437995E-002   1.4992352107864426E-002
   9.2890618809095882E-002  -2.7750177160717732E-002   1.4674235318491408E-002
   9.0023936930596821E-002  -2.6956840930927949E-002   1.4496257882631390E-002
   8.7157255052097843E-002  -2.6227289076068666E-002   1.4458419800284381E-002
   9.1721637180443460E-002  -2.7199171511607098E-002   2.2852062713572693E-002
   8.9047468301399757E-002  -2.6591722361080691E-002   2.2206830048971411E-002
   8.6373299422356054E-002  -2.5915638844272351E-002   2.1806484029767877E-002
   8.3699130543312378E-002  -2.5170920961182060E-002   2.1651024655962203E-002
   8.1024961664268647E-002  -2.4357568711809843E-002   2.1740451927554052E-002
   8.4577516631459432E-002  -2.4870140278125702E-002   2.9873851976664728E-002
   8.2200608043755855E-002  -2.4576146956723471E-002   2.9174061531560436E-002
   7.9823699456052305E-002  -2.4081100527826867E-002   2.8823905023738716E-002
   7.7446790868348714E-002  -2.3385000991436158E-002   2.8823382453199480E-002
   7.5069882280645123E-002  -2.2487848347551076E-002   2.9172493819942830E-002
   9.9953483840373170E-002  -2.9966729804586201E-002   3.4438484110194123E-004
   9.6806097772729693E-002  -2.9492095926951567E-002  -5.9606857767208199E-004
   9.3658711705086217E-002  -2.8863474568359707E-002  -1.2884049127322161E-003
   9.0511325637442741E-002  -2.8080865728810942E-002  -1.7326241640784473E-003
   8.7363939569799265E-002  -2.7144269408305055E-002  -1.9287263317107062E-003
   9.3466762444132656E-002  -2.8097009440327392E-002   7.3263974381336805E-003
   9.0553504262848888E-002  -2.7499631600192809E-002   6.6758905045491146E-003
   8.7640246081565121E-002  -2.6802797884339077E-002   6.2455222599701044E-003
   8.4726987900281325E-002  -2.6006508292766056E-002   6.0352927043966220E-003
   8.1813729718997585E-002  -2.5110762825473976E-002   6.0452018378285843E-003
   8.7157255052097843E-002  -2.6227289076068666E-002   1.4458419800284381E-002
   8.4450146362465339E-002  -2.5507167273433939E-002   1.4043327746651416E-002
   8.1743037672832808E-002  -2.4742121200318219E-002   1.3820395987315597E-002
   7.9035928983200290E-002  -2.3932150856721277E-002   1.3789624522276566E-002
   7.6328820293567828E-002  -2.3077256242643229E-002   1.3951013351534841E-002
   8.1024961664268647E-002  -2.4357568711809843E-002   2.1740451927554052E-002
   7.8496024071578963E-002  -2.3514702946675126E-002   2.1506243148634589E-002
   7.5967086478889348E-002  -2.2681444516297309E-002   2.1436216269303879E-002
   7.3438148886199678E-002  -2.1857793420676445E-002   2.1530371289561832E-002
   7.0909211293510049E-002  -2.1043749659812538E-002   2.1788708209408141E-002
   7.5069882280645123E-002  -2.2487848347551076E-002   2.9172493819942830E-002
   7.2691137390189925E-002  -2.1522238619916312E-002   2.9064636710498942E-002
   7.0312392499734686E-002  -2.0620767832276593E-002   2.9092983105935361E-002
   6.7933647609279474E-002  -1.9783435984631607E-002   2.9257533006251807E-002
   6.5554902718824248E-002  -1.9010243076981681E-002   2.9558286411448531E-002
   8.7363939569799265E-002  -2.7144269408305055E-002  -1.9287263317107062E-003
   8.4401482993711752E-002  -2.6191306282926263E-002  -2.1078429995616266E-003
   8.1439026417624294E-002  -2.5359597028759145E-002  -2.1382720570464753E-003
   7.8476569841536864E-002  -2.4649141645803875E-002  -2.0200135041648914E-003
   7.5514113265449323E-002  -2.4059940134059987E-002  -1.7530673409177355E-003
   8.1813729718997585E-002  -2.5110762825473976E-002   6.0452018378285843E-003
   7.9004757178616908E-002  -2.4208476085418512E-002   5.8323684199886039E-003
   7.6195784638236258E-002  -2.3392562675554951E-002   5.7778154631964451E-003
   7.3386812097855622E-002  -2.2663022595883472E-002   5.8815429674517888E-003
   7.0577839557474931E-002  -2.2019855846403535E-002   6.1435509327551485E-003
   7.6328820293567828E-002  -2.3077256242643229E-002   1.3951013351534841E-002
   7.3682924639575625E-002  -2.2225645887911011E-002   1.3739343724725767E-002
   7.1037028985583381E-002  -2.1425528322350743E-002   1.3695547409645903E-002
   6.8391133331591192E-002  -2.0676903545962955E-002   1.3819624406295201E-002
   6.5745237677598933E-002  -1.9979771558746973E-002   1.4111574714673697E-002
   7.0909211293510049E-002  -2.1043749659812538E-002   2.1788708209408141E-002
   6.8435985376587904E-002  -2.0242815690403385E-002   2.1613082914649417E-002
   6.5962759459665676E-002  -1.9458493969146486E-002   2.1614923782301582E-002
   6.3489533542743448E-002  -1.8690784496042272E-002   2.1794230812364458E-002
   6.1016307625821317E-002  -1.7939687271090521E-002   2.2151004004838264E-002
   6.5554902718824248E-002  -1.9010243076981681E-002   2.9558286411448531E-002
   6.3263939389653662E-002  -1.8259985492895592E-002   2.9453585989760001E-002
   6.0972976060483103E-002  -1.7491459615942312E-002   2.9535944581163792E-002
   5.8682012731312544E-002  -1.6704665446121807E-002   2.9805362185659795E-002
   5.6391049402141957E-002  -1.5899602983433903E-002   3.0261838803248564E-002
   7.5514113265449323E-002  -2.4059940134059987E-002  -1.7530673409177355E-003
   7.2524160469381926E-002  -2.3473299301411565E-002  -2.7966411574597005E-003
   6.9534207673314419E-002  -2.2770525955741611E-002  -3.7998161900287264E-003
   6.6544254877247022E-002  -2.1951620097049991E-002  -4.7625924386250351E-003
   6.3554302081179515E-002  -2.1016581725337047E-002  -5.6849699032476275E-003
   7.0577839557474931E-002  -2.2019855846403535E-002   6.1435509327551485E-003
   6.7650923694857867E-002  -2.1369142312752332E-002   5.3350867995666795E-003
   6.4724007832240749E-002  -2.0616961880566304E-002   4.6122977493056605E-003
   6.1797091969623630E-002  -1.9763314549845541E-002   3.9751837819721608E-003
   5.8870176107006511E-002  -1.8808200320589941E-002   3.4237448975661389E-003
   6.5745237677598933E-002  -1.9979771558746973E-002   1.4111574714673697E-002
   6.2926635047386575E-002  -1.9264985324093292E-002   1.3523554650352237E-002
   6.0108032417174190E-002  -1.8463397805391427E-002   1.3066485967912753E-002
   5.7289429786961776E-002  -1.7575009002641088E-002   1.2740368667355277E-002
   5.4470827156749391E-002  -1.6599818915842890E-002   1.2545202748679513E-002
   6.1016307625821317E-002  -1.7939687271090521E-002   2.2151004004838264E-002
   5.8351294526968099E-002  -1.7160828335434267E-002   2.1768762394897244E-002
   5.5686281428114784E-002  -1.6309833730216335E-002   2.1562748465792449E-002
   5.3021268329261580E-002  -1.5386703455436858E-002   2.1532962217524133E-002
   5.0356255230408264E-002  -1.4391437511095811E-002   2.1679403650092181E-002
   5.6391049402141957E-002  -1.5899602983433903E-002   3.0261838803248564E-002
   5.3924902133602237E-002  -1.5056671346775047E-002   3.0070710033201387E-002
   5.1458754865062573E-002  -1.4156269655041284E-002   3.0101085242944775E-002
   4.8992607596522880E-002  -1.3198397908232361E-002   3.0352964432479215E-002
   4.6526460327983188E-002  -1.2183056106348733E-002   3.0826347601804471E-002
   6.3554302081179515E-002  -2.1016581725337047E-002  -5.6849699032476275E-003
   6.3391106285505483E-002  -2.1754246508063901E-002  -3.5939640940918505E-003
   6.3227910489831451E-002  -2.5953450112691484E-002  -3.4946180614061628E-003
   6.3064714694157586E-002  -3.3614192539219441E-002  -5.3869318051907034E-003
   6.2901518898483388E-002  -4.4736473787648556E-002  -9.2709053254442786E-003
   5.8870176107006511E-002  -1.8808200320589941E-002   3.4237448975661389E-003
   5.7046721697959990E-002  -1.8946184502791785E-002   3.2563276220601289E-003
   5.5223267288913469E-002  -2.1371832406443331E-002   1.7600528962784523E-003
   5.3399812879867031E-002  -2.6085144031544043E-002  -1.0650792797779196E-003
   5.1576358470820427E-002  -3.3086119378094692E-002  -5.2190689061095696E-003
   5.4470827156749391E-002  -1.6599818915842890E-002   1.2545202748679513E-002
   5.1649916460525136E-002  -1.6138122497519725E-002   1.1293237488962465E-002
   4.8829005764300992E-002  -1.6790214700195052E-002   9.3752171051652983E-003
   4.6008095068076835E-002  -1.8556095523868697E-002   6.7911415972881015E-003
   4.3187184371852538E-002  -2.1435764968541049E-002   3.5410109653301047E-003
   5.0356255230408264E-002  -1.4391437511095811E-002   2.1679403650092181E-002
   4.7200690573201157E-002  -1.3330060492247525E-002   2.0516765506615638E-002
   4.4045125915994014E-002  -1.2208596993946615E-002   1.9350874565253594E-002
   4.0889561258786816E-002  -1.1027047016193435E-002   1.8181730826006021E-002
   3.7733996601579722E-002  -9.7854105589872953E-003   1.7009334288872996E-002
   4.6526460327983188E-002  -1.2183056106348733E-002   3.0826347601804471E-002
   4.3699044035987844E-002  -1.0521998486975492E-002   3.0926911675019375E-002
   4.0871627743992611E-002  -7.6269792876984543E-003   3.1687025276543823E-002
   3.8044211451997365E-002  -3.4979985085181603E-003   3.3106688406376789E-002
   3.5216795160002090E-002   1.8649438505664584E-003   3.5185901064520131E-002
   9.0366514716604424E-002   0.0000000000000000        4.9818924725278879E-002
   9.3966364699731630E-002  -5.4024604064954410E-003   5.3190468191241742E-002
   9.7566214682858809E-002  -1.0668406989135654E-002   5.4941167517708056E-002
  0.10116606466598602       -1.5797839747920650E-002   5.5071022704677806E-002
  0.10476591464911321       -2.0790758682850408E-002   5.3580033752151007E-002
   8.2427177909332738E-002   0.0000000000000000        4.4770175413447300E-002
   8.4635444820343769E-002  -4.5716245880837083E-003   4.8250804356460689E-002
   8.6843711731354786E-002  -9.0329357418546460E-003   5.0569111294738296E-002
   8.9051978642365803E-002  -1.3383933461312808E-002   5.1725096228280136E-002
   9.1260245553376834E-002  -1.7624617746458196E-002   5.1718759157086180E-002
   7.4244251882647189E-002   0.0000000000000000        4.0565362114798678E-002
   7.5519457856302805E-002  -3.7407887696719799E-003   4.4128876145320142E-002
   7.6794663829958448E-002  -7.3974644945736367E-003   4.6988590305866593E-002
   7.8069869803614078E-002  -1.0970027174704969E-002   4.9144504596438064E-002
   7.9345075777269694E-002  -1.4458476810065981E-002   5.0596619017034508E-002
   6.5817736636547747E-002   0.0000000000000000        3.7204484829333015E-002
   6.6618403807608778E-002  -2.9099529512602498E-003   4.0824683557820089E-002
   6.7419070978669796E-002  -5.7619932472926265E-003   4.4199604551092959E-002
   6.8219738149730813E-002  -8.5561208880971344E-003   4.7329247809151584E-002
   6.9020405320791831E-002  -1.1292335873673766E-002   5.0213613331995990E-002
   5.7147632171034468E-002   0.0000000000000000        3.4687543557050310E-002
   5.7932282674261648E-002  -2.0791171328485188E-003   3.8338226593960557E-002
   5.8716933177488821E-002  -4.1265220000116180E-003   4.2202154030417369E-002
   5.9501583680716001E-002  -6.1422146014892907E-003   4.6279325866420730E-002
   6.0286234183943188E-002  -8.1261949372815525E-003   5.0569742101970627E-002
  0.10476591464911321       -2.0790758682850408E-002   5.3580033752151007E-002
  0.10211066522677990       -2.4931618924370444E-002   4.5590630864707472E-002
   9.9455415804446584E-002  -2.7504875602926283E-002   3.9290751347132544E-002
   9.6800166382113306E-002  -2.8510528718517891E-002   3.4680395199426325E-002
   9.4144916959779987E-002  -2.7948578271145330E-002   3.1759562421588713E-002
   9.1260245553376834E-002  -1.7624617746458196E-002   5.1718759157086180E-002
   9.0056623972422228E-002  -2.1198256806533138E-002   4.6477650350178111E-002
   8.8853002391467636E-002  -2.3548118850779967E-002   4.2450273856158884E-002
   8.7649380810513045E-002  -2.4674203879198681E-002   3.9636629675028429E-002
   8.6445759229558439E-002  -2.4576511891789311E-002   3.8036717806786718E-002
   7.9345075777269694E-002  -1.4458476810065981E-002   5.0596619017034508E-002
   7.9117290980713989E-002  -1.7464894688695817E-002   4.7759977743525854E-002
   7.8889506184158256E-002  -1.9591362098633661E-002   4.5661277725926111E-002
   7.8661721387602523E-002  -2.0837879039879464E-002   4.4300518964235397E-002
   7.8433936591046832E-002  -2.1204445512433279E-002   4.3677701458453594E-002
   6.9020405320791831E-002  -1.1292335873673766E-002   5.0213613331995990E-002
   6.9292666251655130E-002  -1.3731532570858514E-002   4.9437613044750618E-002
   6.9564927182518430E-002  -1.5634605346487338E-002   4.8923762956434372E-002
   6.9837188113381715E-002  -1.7001554200560268E-002   4.8672063067047230E-002
   7.0109449044245029E-002  -1.7832379133077260E-002   4.8682513376589132E-002
   6.0286234183943188E-002  -8.1261949372815525E-003   5.0569742101970627E-002
   6.0582749785245665E-002  -9.9981704530211976E-003   5.1510556253852424E-002
   6.0879265386548170E-002  -1.1677848594341025E-002   5.2237729547683485E-002
   6.1175780987850668E-002  -1.3165229361241031E-002   5.2751261983463853E-002
   6.1472296589153153E-002  -1.4460312753721241E-002   5.3051153561193456E-002
   9.4144916959779987E-002  -2.7948578271145330E-002   3.1759562421588713E-002
   9.1753066877699824E-002  -2.6746861724940563E-002   3.1183953380823075E-002
   8.9361216795619702E-002  -2.5833216544035718E-002   3.0677798626413871E-002
   8.6969366713539567E-002  -2.5207642728430776E-002   3.0241098158361096E-002
   8.4577516631459432E-002  -2.4870140278125702E-002   2.9873851976664728E-002
   8.6445759229558439E-002  -2.4576511891789311E-002   3.8036717806786718E-002
   8.4171066292002134E-002  -2.3925344710437814E-002   3.6993697719276485E-002
   8.1896373354445814E-002  -2.3391004157030278E-002   3.6115537634457448E-002
   7.9621680416889468E-002  -2.2973490231566657E-002   3.5402237552329630E-002
   7.7346987479333190E-002  -2.2672802934046971E-002   3.4853797472892925E-002
   7.8433936591046832E-002  -2.1204445512433279E-002   4.3677701458453594E-002
   7.6371806514349078E-002  -2.1103827695935065E-002   4.2338515061554664E-002
   7.4309676437651337E-002  -2.0948791770024840E-002   4.1259594383681750E-002
   7.2247546360953610E-002  -2.0739337734702538E-002   4.0440939424834739E-002
   7.0185416284255855E-002  -2.0475465589968225E-002   3.9882550185013875E-002
   7.0109449044245029E-002  -1.7832379133077260E-002   4.8682513376589132E-002
   6.8355287544740712E-002  -1.8282310681432323E-002   4.7218405407657545E-002
   6.6601126045236353E-002  -1.8506579383019375E-002   4.6109968874086645E-002
   6.4846964545731994E-002  -1.8505185237838426E-002   4.5357203775876577E-002
   6.3092803046227691E-002  -1.8278128245889487E-002   4.4960110113027307E-002
   6.1472296589153153E-002  -1.4460312753721241E-002   5.3051153561193456E-002
   6.0121509383176980E-002  -1.5460793666929557E-002   5.1633368757585105E-002
   5.8770722177200814E-002  -1.6064366996013976E-002   5.0666661105672264E-002
   5.7419934971224634E-002  -1.6271032740974318E-002   5.0151030605455033E-002
   5.6069147765248462E-002  -1.6080790901810763E-002   5.0086477256933340E-002
   8.4577516631459432E-002  -2.4870140278125702E-002   2.9873851976664728E-002
   8.2200608043755855E-002  -2.4576146956723471E-002   2.9174061531560436E-002
   7.9823699456052305E-002  -2.4081100527826867E-002   2.8823905023738716E-002
   7.7446790868348714E-002  -2.3385000991436158E-002   2.8823382453199480E-002
   7.5069882280645123E-002  -2.2487848347551076E-002   2.9172493819942830E-002
   7.7346987479333190E-002  -2.2672802934046971E-002   3.4853797472892925E-002
   7.5289000833635267E-002  -2.2367126728814628E-002   3.4356181764992590E-002
   7.3231014187937385E-002  -2.1934646080213026E-002   3.4146776003821017E-002
   7.1173027542239475E-002  -2.1375360988242262E-002   3.4225580189378456E-002
   6.9115040896541594E-002  -2.0689271452902280E-002   3.4592594321664449E-002
   7.0185416284255855E-002  -2.0475465589968225E-002   3.9882550185013875E-002
   6.8384927590009997E-002  -2.0158106500905812E-002   3.9512860550192382E-002
   6.6584438895764070E-002  -1.9788191632599209E-002   3.9369956871545958E-002
   6.4783950201518212E-002  -1.9365720985048386E-002   3.9453839149074771E-002
   6.2983461507272298E-002  -1.8890694558253374E-002   3.9764507382778577E-002
   6.3092803046227691E-002  -1.8278128245889487E-002   4.4960110113027307E-002
   6.1488388312880018E-002  -1.7949086272997010E-002   4.4644097887159694E-002
   5.9883973579532401E-002  -1.7641737184985351E-002   4.4493447626913422E-002
   5.8279558846184770E-002  -1.7356080981854486E-002   4.4508159332288542E-002
   5.6675144112837118E-002  -1.7092117663604550E-002   4.4688233003285283E-002
   5.6069147765248462E-002  -1.6080790901810763E-002   5.0086477256933340E-002
   5.4599383002245400E-002  -1.5740066045088152E-002   4.9749893775894574E-002
   5.3129618239242324E-002  -1.5495282737371528E-002   4.9517248269923424E-002
   5.1659853476239255E-002  -1.5346440978660662E-002   4.9388540739020020E-002
   5.0190088713236186E-002  -1.5293540768955671E-002   4.9363771183184330E-002
   7.5069882280645123E-002  -2.2487848347551076E-002   2.9172493819942830E-002
   7.2691137390189925E-002  -2.1522238619916312E-002   2.9064636710498942E-002
   7.0312392499734686E-002  -2.0620767832276593E-002   2.9092983105935361E-002
   6.7933647609279474E-002  -1.9783435984631607E-002   2.9257533006251807E-002
   6.5554902718824248E-002  -1.9010243076981681E-002   2.9558286411448531E-002
   6.9115040896541594E-002  -2.0689271452902280E-002   3.4592594321664449E-002
   6.6888156419232347E-002  -1.9949581677641104E-002   3.4281784663559550E-002
   6.4661271941923060E-002  -1.9229495865906977E-002   3.4138492326866346E-002
   6.2434387464613814E-002  -1.8529014017700053E-002   3.4162717311584864E-002
   6.0207502987304512E-002  -1.7848136133020082E-002   3.4354459617715022E-002
   6.2983461507272298E-002  -1.8890694558253374E-002   3.9764507382778577E-002
   6.0939751259640462E-002  -1.8376924735365896E-002   3.9295280152480593E-002
   5.8896041012008640E-002  -1.7838223899537528E-002   3.9024884060125664E-002
   5.6852330764376798E-002  -1.7274592050768364E-002   3.8953319105714028E-002
   5.4808620516744982E-002  -1.6686029189058510E-002   3.9080585289245490E-002
   5.6675144112837118E-002  -1.7092117663604550E-002   4.4688233003285283E-002
   5.4845921911414228E-002  -1.6804267793090605E-002   4.4105123177261805E-002
   5.3016699709991344E-002  -1.6446951933168079E-002   4.3752158305713162E-002
   5.1187477508568502E-002  -1.6020170083836827E-002   4.3629338388639249E-002
   4.9358255307145583E-002  -1.5523922245096869E-002   4.3736663426039761E-002
   5.0190088713236186E-002  -1.5293540768955671E-002   4.9363771183184330E-002
   4.8606668374553741E-002  -1.5231610850815425E-002   4.8711313737903439E-002
   4.7023248035871310E-002  -1.5055679966798532E-002   4.8320315063628855E-002
   4.5439827697188857E-002  -1.4765748116905151E-002   4.8190775160360383E-002
   4.3856407358506433E-002  -1.4361815301135339E-002   4.8322694028098134E-002
   6.5554902718824248E-002  -1.9010243076981681E-002   2.9558286411448531E-002
   6.3263939389653662E-002  -1.8259985492895592E-002   2.9453585989760001E-002
   6.0972976060483103E-002  -1.7491459615942312E-002   2.9535944581163792E-002
   5.8682012731312544E-002  -1.6704665446121807E-002   2.9805362185659795E-002
   5.6391049402141957E-002  -1.5899602983433903E-002   3.0261838803248564E-002
   6.0207502987304512E-002  -1.7848136133020082E-002   3.4354459617715022E-002
   5.8101316648819346E-002  -1.7176252106873999E-002   3.4205936704242948E-002
   5.5995130310334193E-002  -1.6502751834268560E-002   3.4239908759049281E-002
   5.3888943971849020E-002  -1.5827635315203613E-002   3.4456375782133883E-002
   5.1782757633363874E-002  -1.5150902549679379E-002   3.4855337773496947E-002
   5.4808620516744982E-002  -1.6686029189058510E-002   3.9080585289245490E-002
   5.2882647124131217E-002  -1.6092518720852350E-002   3.8871587837581940E-002
   5.0956673731517452E-002  -1.5514044052594697E-002   3.8840521309382842E-002
   4.9030700338903742E-002  -1.4950605184285478E-002   3.8987385704648291E-002
   4.7104726946289935E-002  -1.4402202115924773E-002   3.9312181023378037E-002
   4.9358255307145583E-002  -1.5523922245096869E-002   4.3736663426039761E-002
   4.7607930815589249E-002  -1.5008785334830729E-002   4.3450539389777151E-002
   4.5857606324032935E-002  -1.4525336270921001E-002   4.3337782232164820E-002
   4.4107281832476607E-002  -1.4073575053367383E-002   4.3398391953203011E-002
   4.2356957340920223E-002  -1.3653501682170208E-002   4.3632368552891557E-002
   4.3856407358506433E-002  -1.4361815301135339E-002   4.8322694028098134E-002
   4.2277167723193482E-002  -1.3925051948809136E-002   4.7942791360828324E-002
   4.0697928087880558E-002  -1.3536628489247166E-002   4.7731691527394954E-002
   3.9118688452567607E-002  -1.3196544922449337E-002   4.7689394527798051E-002
   3.7539448817254684E-002  -1.2904801248415587E-002   4.7815900362037644E-002
   5.6391049402141957E-002  -1.5899602983433903E-002   3.0261838803248564E-002
   5.3924902133602237E-002  -1.5056671346775047E-002   3.0070710033201387E-002
   5.1458754865062573E-002  -1.4156269655041284E-002   3.0101085242944775E-002
   4.8992607596522880E-002  -1.3198397908232361E-002   3.0352964432479215E-002
   4.6526460327983188E-002  -1.2183056106348733E-002   3.0826347601804471E-002
   5.1782757633363874E-002  -1.5150902549679379E-002   3.4855337773496947E-002
   4.9528279738491207E-002  -1.4461685668344632E-002   3.4625046499148465E-002
   4.7273801843618540E-002  -1.3749116801848621E-002   3.4596589992343316E-002
   4.5019323948745874E-002  -1.3013195950190647E-002   3.4769968253081492E-002
   4.2764846053873179E-002  -1.2253923113371201E-002   3.5145181281362847E-002
   4.7104726946289935E-002  -1.4402202115924773E-002   3.9312181023378037E-002
   4.5042249212836893E-002  -1.3866699989914202E-002   3.9008609174814912E-002
   4.2979771479383783E-002  -1.3341963948655576E-002   3.8887202881547435E-002
   4.0917293745930665E-002  -1.2827993992148711E-002   3.8947962143576001E-002
   3.8854816012477589E-002  -1.2324790120393669E-002   3.9190886960900478E-002
   4.2356957340920223E-002  -1.3653501682170208E-002   4.3632368552891557E-002
   4.0466810556639234E-002  -1.3271714311483725E-002   4.3221398060200110E-002
   3.8576663772358293E-002  -1.2934811095462722E-002   4.2972923910557230E-002
   3.6686516988077331E-002  -1.2642792034106832E-002   4.2886946103962841E-002
   3.4796370203796306E-002  -1.2395657127416249E-002   4.2963464640416671E-002
   3.7539448817254684E-002  -1.2904801248415587E-002   4.7815900362037644E-002
   3.5801963769898387E-002  -1.2676728633053330E-002   4.7263413155304745E-002
   3.4064478722542063E-002  -1.2527658242269951E-002   4.6853753079372951E-002
   3.2326993675185767E-002  -1.2457590076065082E-002   4.6586920134241955E-002
   3.0589508627829443E-002  -1.2466524134438661E-002   4.6462914319911952E-002
   4.6526460327983188E-002  -1.2183056106348733E-002   3.0826347601804471E-002
   4.3699044035987844E-002  -1.0521998486975492E-002   3.0926911675019375E-002
   4.0871627743992611E-002  -7.6269792876984543E-003   3.1687025276543823E-002
   3.8044211451997365E-002  -3.4979985085181603E-003   3.3106688406376789E-002
   3.5216795160002090E-002   1.8649438505664584E-003   3.5185901064520131E-002
   4.2764846053873179E-002  -1.2253923113371201E-002   3.5145181281362847E-002
   4.0512021056447300E-002  -1.1221824198087038E-002   3.5890502229388416E-002
   3.8259196059021422E-002  -9.6674251110349246E-003   3.7125456238243093E-002
   3.6006371061595474E-002  -7.5907258522149058E-003   3.8850043307927767E-002
   3.3753546064169637E-002  -4.9917264216269297E-003   4.1064263438441939E-002
   3.8854816012477589E-002  -1.2324790120393669E-002   3.9190886960900478E-002
   3.7006665842141309E-002  -1.1921649909198501E-002   3.9869303375600337E-002
   3.5158515671805134E-002  -1.1707870934371339E-002   4.0867436383650035E-002
   3.3310365501468861E-002  -1.1683453195911901E-002   4.2185285985049281E-002
   3.1462215331132581E-002  -1.1848396693820429E-002   4.3822852179799032E-002
   3.4796370203796306E-002  -1.2395657127416249E-002   4.2963464640416671E-002
   3.3182978393070058E-002  -1.2621475620309949E-002   4.2863315113655417E-002
   3.1569586582343837E-002  -1.3748316757707726E-002   4.2912965712764310E-002
   2.9956194771617605E-002  -1.5776180539608827E-002   4.3112416437742870E-002
   2.8342802960891360E-002  -1.8705066966013928E-002   4.3461667288592187E-002
   3.0589508627829443E-002  -1.2466524134438661E-002   4.6462914319911952E-002
   2.9040958709233455E-002  -1.3321301331421564E-002   4.4872537443553517E-002
   2.7492408790637468E-002  -1.5788762581044127E-002   4.3262044225585411E-002
   2.5943858872041453E-002  -1.9868907883305784E-002   4.1631434666007647E-002
   2.4395308953445494E-002  -2.5561737238207316E-002   3.9980708764820516E-002
   5.7147632171034468E-002   0.0000000000000000        3.4687543557050310E-002
   5.7932282674261648E-002  -2.0791171328485188E-003   3.8338226593960557E-002
   5.8716933177488821E-002  -4.1265220000116180E-003   4.2202154030417369E-002
   5.9501583680716001E-002  -6.1422146014892907E-003   4.6279325866420730E-002
   6.0286234183943188E-002  -8.1261949372815525E-003   5.0569742101970627E-002
   4.8646048536089961E-002   0.0000000000000000        3.2791156654481547E-002
   4.9579009514288633E-002  -1.7045502493205061E-003   3.6966643070336681E-002
   5.0511970492487318E-002  -3.4225999183894375E-003   4.1225506036588262E-002
   5.1444931470685996E-002  -5.1541490072067875E-003   4.5567745553236276E-002
   5.2377892448884661E-002  -6.8991975157725715E-003   4.9993361620280778E-002
   4.0725095781696898E-002   0.0000000000000000        3.1291942478157718E-002
   4.1676499385716964E-002  -1.3299833657924942E-003   3.5947020587523894E-002
   4.2627902989737045E-002  -2.7186778367672580E-003   4.0555607398136406E-002
   4.3579306593757111E-002  -4.1660834129242869E-003   4.5117702909995276E-002
   4.4530710197777192E-002  -5.6722000942635879E-003   4.9633307123100469E-002
   3.3384773907855263E-002   0.0000000000000000        3.0189901028078826E-002
   3.4224752288546635E-002  -9.5541648226448242E-004   3.5279359145522202E-002
   3.5064730669237994E-002  -2.0147557551450771E-003   4.0192458115061801E-002
   3.5904709049929359E-002  -3.1780178186417850E-003   4.4929197936697647E-002
   3.6744687430620711E-002  -4.4452026727546078E-003   4.9489578610429741E-002
   2.6625082914565064E-002   0.0000000000000000        2.9485032304244867E-002
   2.7223768222777618E-002  -5.8084959873647059E-004   3.4963658744331584E-002
   2.7822453530990172E-002  -1.3108336735228980E-003   4.0136058187364439E-002
   2.8421138839202727E-002  -2.1899522243592796E-003   4.5002230633343424E-002
   2.9019824147415281E-002  -3.2182052512456250E-003   4.9562176082268559E-002
   6.0286234183943188E-002  -8.1261949372815525E-003   5.0569742101970627E-002
   6.0582749785245665E-002  -9.9981704530211976E-003   5.1510556253852424E-002
   6.0879265386548170E-002  -1.1677848594341025E-002   5.2237729547683485E-002
   6.1175780987850668E-002  -1.3165229361241031E-002   5.2751261983463853E-002
   6.1472296589153153E-002  -1.4460312753721241E-002   5.3051153561193456E-002
   5.2377892448884661E-002  -6.8991975157725715E-003   4.9993361620280778E-002
   5.2499959288194405E-002  -8.5573713816260444E-003   5.1224300391967979E-002
   5.2622026127504155E-002  -1.0028296542306539E-002   5.2319982497720470E-002
   5.2744092966813906E-002  -1.1311972997813982E-002   5.3280407937538111E-002
   5.2866159806123657E-002  -1.2408400748148446E-002   5.4105576711421063E-002
   4.4530710197777192E-002  -5.6722000942635879E-003   4.9633307123100469E-002
   4.4556712467210137E-002  -7.1165723102309224E-003   5.1149321845346318E-002
   4.4582714736643096E-002  -8.3787444902720387E-003   5.2608464093773351E-002
   4.4608717006076062E-002  -9.4587166343869482E-003   5.4010733868381587E-002
   4.4634719275509008E-002  -1.0356488742575644E-002   5.5356131169171000E-002
   3.6744687430620711E-002  -4.4452026727546078E-003   4.9489578610429741E-002
   3.6753009322292848E-002  -5.6757732388357830E-003   5.1285620613987386E-002
   3.6761331213964979E-002  -6.7291924382375419E-003   5.3103174335842218E-002
   3.6769653105637123E-002  -7.6054602709599173E-003   5.4942239775994141E-002
   3.6777974997309254E-002  -8.3045767370028591E-003   5.6802816934443279E-002
   2.9019824147415281E-002  -3.2182052512456250E-003   4.9562176082268559E-002
   2.9088849853442549E-002  -4.2349741674406454E-003   5.1633196697891230E-002
   2.9157875559469821E-002  -5.0796403862030555E-003   5.3804113223926989E-002
   2.9226901265497089E-002  -5.7522039075328562E-003   5.6074925660375897E-002
   2.9295926971524368E-002  -6.2526647314300396E-003   5.8445634007237936E-002
   6.1472296589153153E-002  -1.4460312753721241E-002   5.3051153561193456E-002
   6.0121509383176980E-002  -1.5460793666929557E-002   5.1633368757585105E-002
   5.8770722177200814E-002  -1.6064366996013976E-002   5.0666661105672264E-002
   5.7419934971224634E-002  -1.6271032740974318E-002   5.0151030605455033E-002
   5.6069147765248462E-002  -1.6080790901810763E-002   5.0086477256933340E-002
   5.2866159806123657E-002  -1.2408400748148446E-002   5.4105576711421063E-002
   5.1916457783173491E-002  -1.3255365484721532E-002   5.3366788644794813E-002
   5.0966755760223331E-002  -1.3790652898944846E-002   5.2979093792525099E-002
   5.0017053737273172E-002  -1.4014262990818337E-002   5.2942492154611762E-002
   4.9067351714322999E-002  -1.3926195760342111E-002   5.3256983731054919E-002
   4.4634719275509008E-002  -1.0356488742575644E-002   5.5356131169171000E-002
   4.3986118498245734E-002  -1.1049937302513463E-002   5.5211109577752771E-002
   4.3337517720982453E-002  -1.1516938801875674E-002   5.5317197263351894E-002
   4.2688916943719180E-002  -1.1757493240662298E-002   5.5674394225968302E-002
   4.2040316166455920E-002  -1.1771600618873369E-002   5.6282700465602145E-002
   3.6777974997309254E-002  -8.3045767370028591E-003   5.6802816934443279E-002
   3.6330491528393738E-002  -8.8445091203053945E-003   5.7166331556458873E-002
   3.5883008059478243E-002  -9.2432247048065234E-003   5.7680971518152692E-002
   3.5435524590562734E-002  -9.5007234905062944E-003   5.8346736819524680E-002
   3.4988041121647231E-002  -9.6170054774046589E-003   5.9163627460574943E-002
   2.9295926971524368E-002  -6.2526647314300396E-003   5.8445634007237936E-002
   2.8949576873617509E-002  -6.6390809380973692E-003   5.9232454580913134E-002
   2.8603226775710654E-002  -6.9695106077374124E-003   6.0070416556927450E-002
   2.8256876677803799E-002  -7.2439537403502542E-003   6.0959519935280829E-002
   2.7910526579896948E-002  -7.4624103359359484E-003   6.1899764715973332E-002
   5.6069147765248462E-002  -1.6080790901810763E-002   5.0086477256933340E-002
   5.4599383002245400E-002  -1.5740066045088152E-002   4.9749893775894574E-002
   5.3129618239242324E-002  -1.5495282737371528E-002   4.9517248269923424E-002
   5.1659853476239255E-002  -1.5346440978660662E-002   4.9388540739020020E-002
   5.0190088713236186E-002  -1.5293540768955671E-002   4.9363771183184330E-002
   4.9067351714322999E-002  -1.3926195760342111E-002   5.3256983731054919E-002
   4.7722501219494833E-002  -1.3699077410432428E-002   5.2851378729937379E-002
   4.6377650724666715E-002  -1.3505534144005609E-002   5.2591664290101869E-002
   4.5032800229838563E-002  -1.3345565961061814E-002   5.2477840411548723E-002
   4.3687949735010417E-002  -1.3219172861600875E-002   5.2509907094277580E-002
   4.2040316166455920E-002  -1.1771600618873369E-002   5.6282700465602145E-002
   4.0862332526017169E-002  -1.1658088775776565E-002   5.5870440409928682E-002
   3.9684348885578424E-002  -1.1515785550639800E-002   5.5646023501752004E-002
   3.8506365245139673E-002  -1.1344690943462892E-002   5.5609449741071813E-002
   3.7328381604700943E-002  -1.1144804954245996E-002   5.5760719127888297E-002
   3.4988041121647231E-002  -9.6170054774046589E-003   5.9163627460574943E-002
   3.4018876921812331E-002  -9.6171001411207435E-003   5.8807078815868684E-002
   3.3049712721977445E-002  -9.5260369572739353E-003   5.8680325904873570E-002
   3.2080548522142552E-002  -9.3438159258640210E-003   5.8783368727589512E-002
   3.1111384322307652E-002  -9.0704370468911166E-003   5.9116207284016536E-002
   2.7910526579896948E-002  -7.4624103359359484E-003   6.1899764715973332E-002
   2.7192134406880369E-002  -7.5761115064649914E-003   6.1661293947757226E-002
   2.6473742233863787E-002  -7.5362883639080586E-003   6.1694571499466694E-002
   2.5755350060847206E-002  -7.3429409082651324E-003   6.1999597371101639E-002
   2.5036957887830627E-002  -6.9960691395362928E-003   6.2576371562662159E-002
   5.0190088713236186E-002  -1.5293540768955671E-002   4.9363771183184330E-002
   4.8606668374553741E-002  -1.5231610850815425E-002   4.8711313737903439E-002
   4.7023248035871310E-002  -1.5055679966798532E-002   4.8320315063628855E-002
   4.5439827697188857E-002  -1.4765748116905151E-002   4.8190775160360383E-002
   4.3856407358506433E-002  -1.4361815301135339E-002   4.8322694028098134E-002
   4.3687949735010417E-002  -1.3219172861600875E-002   5.2509907094277580E-002
   4.2352097377635761E-002  -1.3070184511899882E-002   5.2082512982134219E-002
   4.1016245020261105E-002  -1.2842430578236072E-002   5.1888796061600351E-002
   3.9680392662886435E-002  -1.2535911060609330E-002   5.1928756332675644E-002
   3.8344540305511765E-002  -1.2150625959019751E-002   5.2202393795360458E-002
   3.7328381604700943E-002  -1.1144804954245996E-002   5.5760719127888297E-002
   3.6212315649237194E-002  -1.0908758172984395E-002   5.5523152966968872E-002
   3.5096249693773438E-002  -1.0629181189673632E-002   5.5491482418261955E-002
   3.3980183738309688E-002  -1.0306074004313564E-002   5.5665707481767454E-002
   3.2864117782845925E-002  -9.9394366169042736E-003   5.6045828157485544E-002
   3.1111384322307652E-002  -9.0704370468911166E-003   5.9116207284016536E-002
   3.0187323189357976E-002  -8.7473318340688666E-003   5.9033233692407289E-002
   2.9263262056408293E-002  -8.4159318011111546E-003   5.9128374133613701E-002
   2.8339200923458610E-002  -8.0762369480176857E-003   5.9401628607635780E-002
   2.7415139790508934E-002  -7.7282472747887410E-003   5.9852997114473484E-002
   2.5036957887830627E-002  -6.9960691395362928E-003   6.2576371562662159E-002
   2.4277119997998149E-002  -6.5859054951533935E-003   6.2612755158449551E-002
   2.3517282108165685E-002  -6.2026824125486837E-003   6.2799471207655652E-002
   2.2757444218333200E-002  -5.8463998917218808E-003   6.3136519710280642E-002
   2.1997606328500743E-002  -5.5170579326732638E-003   6.3623900666324340E-002
   4.3856407358506433E-002  -1.4361815301135339E-002   4.8322694028098134E-002
   4.2277167723193482E-002  -1.3925051948809136E-002   4.7942791360828324E-002
   4.0697928087880558E-002  -1.3536628489247166E-002   4.7731691527394954E-002
   3.9118688452567607E-002  -1.3196544922449337E-002   4.7689394527798051E-002
   3.7539448817254684E-002  -1.2904801248415587E-002   4.7815900362037644E-002
   3.8344540305511765E-002  -1.2150625959019751E-002   5.2202393795360458E-002
   3.6936231479354695E-002  -1.1739648008652057E-002   5.1818203744153538E-002
   3.5527922653197638E-002  -1.1356049944691034E-002   5.1607072477422009E-002
   3.4119613827040561E-002  -1.0999831767136732E-002   5.1568999995165683E-002
   3.2711305000883498E-002  -1.0670993475989154E-002   5.1703986297384791E-002
   3.2864117782845925E-002  -9.9394366169042736E-003   5.6045828157485544E-002
   3.1630995716483631E-002  -9.5542440684949909E-003   5.5678310728699019E-002
   3.0397873650121365E-002  -9.1754714001349019E-003   5.5488108035026601E-002
   2.9164751583759078E-002  -8.8031186118242392E-003   5.5475220076468594E-002
   2.7931629517396805E-002  -8.4371857035627496E-003   5.5639646853024666E-002
   2.7415139790508934E-002  -7.7282472747887410E-003   5.9852997114473484E-002
   2.6361460434580361E-002  -7.3688401283379182E-003   5.9523112314464638E-002
   2.5307781078651781E-002  -6.9948928555787979E-003   5.9374798200208981E-002
   2.4254101722723194E-002  -6.6064054565116350E-003   5.9408054771706596E-002
   2.3200422366794628E-002  -6.2033779311362197E-003   5.9622882028957248E-002
   2.1997606328500743E-002  -5.5170579326732638E-003   6.3623900666324340E-002
   2.1127625633644800E-002  -5.1834361881808455E-003   6.3352608501450691E-002
   2.0257644938788850E-002  -4.8143143110226522E-003   6.3267142972969204E-002
   1.9387664243932911E-002  -4.4096923011991175E-003   6.3367504080879669E-002
   1.8517683549076985E-002  -3.9695701587098564E-003   6.3653691825182324E-002
   3.7539448817254684E-002  -1.2904801248415587E-002   4.7815900362037644E-002
   3.5801963769898387E-002  -1.2676728633053330E-002   4.7263413155304745E-002
   3.4064478722542063E-002  -1.2527658242269951E-002   4.6853753079372951E-002
   3.2326993675185767E-002  -1.2457590076065082E-002   4.6586920134241955E-002
   3.0589508627829443E-002  -1.2466524134438661E-002   4.6462914319911952E-002
   3.2711305000883498E-002  -1.0670993475989154E-002   5.1703986297384791E-002
   3.1139101544946826E-002  -1.0372864371330087E-002   5.1165901528580887E-002
   2.9566898089010148E-002  -1.0108773753240874E-002   5.0815552811815282E-002
   2.7994694633073459E-002  -9.8787216217218338E-003   5.0652940147088078E-002
   2.6422491177136798E-002  -9.6827079767728419E-003   5.0678063534399020E-002
   2.7931629517396805E-002  -8.4371857035627496E-003   5.5639646853024666E-002
   2.6569616574117154E-002  -8.0690001096065805E-003   5.5160928260158115E-002
   2.5207603630837558E-002  -7.6898892642119770E-003   5.4914854640567404E-002
   2.3845590687557955E-002  -7.2998531673786997E-003   5.4901425994252274E-002
   2.2483577744278310E-002  -6.8988918191071058E-003   5.5120642321213095E-002
   2.3200422366794628E-002  -6.2033779311362197E-003   5.9622882028957248E-002
   2.2093508857409478E-002  -5.7651358478832612E-003   5.9248493350036735E-002
   2.0986595348024297E-002  -5.2710047751831010E-003   5.9151658565629414E-002
   1.9879681838639106E-002  -4.7209847130356194E-003   5.9332377675735244E-002
   1.8772768329253967E-002  -4.1150756614412726E-003   5.9790650680354163E-002
   1.8517683549076985E-002  -3.9695701587098564E-003   6.3653691825182324E-002
   1.7710778394823684E-002  -3.4612715861598864E-003   6.3428596798216441E-002
   1.6903873240570369E-002  -2.8521202861540029E-003   6.3525964587001243E-002
   1.6096968086317075E-002  -2.1421162586923725E-003   6.3945795191536453E-002
   1.5290062932063780E-002  -1.3312595037754948E-003   6.4688088611822347E-002
   3.0589508627829443E-002  -1.2466524134438661E-002   4.6462914319911952E-002
   2.9040958709233455E-002  -1.3321301331421564E-002   4.4872537443553517E-002
   2.7492408790637468E-002  -1.5788762581044127E-002   4.3262044225585411E-002
   2.5943858872041453E-002  -1.9868907883305784E-002   4.1631434666007647E-002
   2.4395308953445494E-002  -2.5561737238207316E-002   3.9980708764820516E-002
   2.6422491177136798E-002  -9.6827079767728419E-003   5.0678063534399020E-002
   2.4881162605854767E-002  -9.9364698888506631E-003   4.8104030024736844E-002
   2.3339834034572710E-002  -1.1055744428411937E-002   4.5564555551312141E-002
   2.1798505463290679E-002  -1.3040531595456286E-002   4.3059640114124803E-002
   2.0257176892008621E-002  -1.5890831389983928E-002   4.0589283713175273E-002
   2.2483577744278310E-002  -6.8988918191071058E-003   5.5120642321213095E-002
   2.1004145898157293E-002  -6.5516384462797339E-003   5.2310123603403272E-002
   1.9524714052036277E-002  -6.3227262757796290E-003   4.9588839299678063E-002
   1.8045282205915232E-002  -6.2121553076065084E-003   4.6956789410037725E-002
   1.6565850359794257E-002  -6.2199255417605404E-003   4.4413973934481488E-002
   1.8772768329253967E-002  -4.1150756614412726E-003   5.9790650680354163E-002
   1.7409908586141075E-002  -3.1668070037087076E-003   5.7490818179553066E-002
   1.6047048843028138E-002  -1.5897081231471578E-003   5.5334895470683668E-002
   1.4684189099915220E-002   6.1622098024324053E-004   5.3322882553745683E-002
   1.3321329356802306E-002   3.4509803064628475E-003   5.1454779428739550E-002
   1.5290062932063780E-002  -1.3312595037754948E-003   6.4688088611822347E-002
   1.4098450669806042E-002   2.1802443886209666E-004   6.3646113753186018E-002
   1.2906838407548291E-002   3.1433100294848276E-003   6.2802724064328436E-002
   1.1715226145290560E-002   7.4445972680928681E-003   6.2157919545249560E-002
   1.0523613883032801E-002   1.3121886154686235E-002   6.1711700195949515E-002
   2.6625082914565064E-002   0.0000000000000000        2.9485032304244867E-002
   2.7223768222777618E-002  -5.8084959873647059E-004   3.4963658744331584E-002
   2.7822453530990172E-002  -1.3108336735228980E-003   4.0136058187364439E-002
   2.8421138839202727E-002  -2.1899522243592796E-003   4.5002230633343424E-002
   2.9019824147415281E-002  -3.2182052512456250E-003   4.9562176082268559E-002
   2.0108983567730325E-002   0.0000000000000000        2.9042035238570837E-002
   2.0440580796403759E-002  -4.3563719914925178E-004   3.4335860341994123E-002
   2.0772178025077193E-002  -9.8312525532385977E-004   3.9401736283393024E-002
   2.1103775253750626E-002  -1.6424641685238240E-003   4.4239663062767554E-002
   2.1435372482424064E-002  -2.4136539387491409E-003   4.8849640680117698E-002
   1.3499436633255070E-002   0.0000000000000000        2.8725608762971717E-002
   1.3642223617418868E-002  -2.9042479956203513E-004   3.3871916148756169E-002
   1.3785010601582669E-002  -6.5541683712482500E-004   3.8868552207545731E-002
   1.3927797585746467E-002  -1.0949761126883683E-003   4.3715516939340400E-002
   1.4070584569910271E-002  -1.6091026262526629E-003   4.8412810344140168E-002
   6.7964421111392928E-003   0.0000000000000000        2.8535752877447522E-002
   6.8286966858229440E-003  -1.4521239997481784E-004   3.3571826164617742E-002
   6.8609512605065943E-003  -3.2770841892578936E-004   3.8536505959822547E-002
   6.8932058351902472E-003  -5.4748805685290915E-004   4.3429792263061970E-002
   6.9254604098738948E-003  -8.0455131375618870E-004   4.8251685074335977E-002
   1.3830004849668676E-012   0.0000000000000000        2.8472467581998236E-002
   1.6159859908548846E-012  -3.8759967457835387E-013   3.3435590389578829E-002
   1.8489717135833361E-012  -7.2675372664310345E-013   3.8405597540223511E-002
   2.0819564605298324E-012  -1.0174552173003448E-012   4.3382489033932256E-002
   2.3149420748380667E-012  -1.2597032791883400E-012   4.8366264870705097E-002
   2.9019824147415281E-002  -3.2182052512456250E-003   4.9562176082268559E-002
   2.9088849853442549E-002  -4.2349741674406454E-003   5.1633196697891230E-002
   2.9157875559469821E-002  -5.0796403862030555E-003   5.3804113223926989E-002
   2.9226901265497089E-002  -5.7522039075328562E-003   5.6074925660375897E-002
   2.9295926971524368E-002  -6.2526647314300396E-003   5.8445634007237936E-002
   2.1435372482424064E-002  -2.4136539387491409E-003   4.8849640680117698E-002
   2.1575006014657540E-002  -3.1762306259548027E-003   5.1261626824259512E-002
   2.1714639546891016E-002  -3.8097302900957776E-003   5.3714932710400627E-002
   2.1854273079124492E-002  -4.3141529311720925E-003   5.6209558338541001E-002
   2.1993906611357965E-002  -4.6894985491837057E-003   5.8745503708680702E-002
   1.4070584569910271E-002  -1.6091026262526629E-003   4.8412810344140168E-002
   1.4222249759936124E-002  -2.1174870844689669E-003   5.1122736342433209E-002
   1.4373914949961972E-002  -2.5398201939885196E-003   5.3815405914311727E-002
   1.4525580139987825E-002  -2.8761019548113284E-003   5.6490819059775654E-002
   1.4677245330013676E-002  -3.1263323669373892E-003   5.9148975778825066E-002
   6.9254604098738948E-003  -8.0455131375618870E-004   4.8251685074335977E-002
   7.0305810892782950E-003  -1.0587435429831242E-003   5.1216525252412291E-002
   7.1357017686826960E-003  -1.2699100978812482E-003   5.4105532835660226E-002
   7.2408224480870987E-003  -1.4380509784505714E-003   5.6918707824079824E-002
   7.3459431274914971E-003  -1.5631661846910640E-003   5.9656050217671036E-002
   2.3149420748380667E-012  -1.2597032791883400E-012   4.8366264870705097E-002
   2.6840630412694466E-012  -1.4972901390963855E-012   5.1542993554196767E-002
   3.0531850919029990E-012  -1.7739861229298937E-012   5.4585313474446243E-002
   3.4223061667545962E-012  -2.0897976816917907E-012   5.7493224631453531E-002
   3.7914289763296694E-012  -2.4447249780124025E-012   6.0266727025218639E-002
   2.9295926971524368E-002  -6.2526647314300396E-003   5.8445634007237936E-002
   2.8949576873617509E-002  -6.6390809380973692E-003   5.9232454580913134E-002
   2.8603226775710654E-002  -6.9695106077374124E-003   6.0070416556927450E-002
   2.8256876677803799E-002  -7.2439537403502542E-003   6.0959519935280829E-002
   2.7910526579896948E-002  -7.4624103359359484E-003   6.1899764715973332E-002
   2.1993906611357965E-002  -4.6894985491837057E-003   5.8745503708680702E-002
   2.1707559446386568E-002  -4.9793107042946302E-003   5.9575533111656372E-002
   2.1421212281415181E-002  -5.2271329566687761E-003   6.0474426978163909E-002
   2.1134865116443788E-002  -5.4329653063060913E-003   6.1442185308203286E-002
   2.0848517951472401E-002  -5.5968077532066035E-003   6.2478808101774419E-002
   1.4677245330013676E-002  -3.1263323669373892E-003   5.9148975778825066E-002
   1.4468624159170480E-002  -3.3195404704919051E-003   6.0008217376810800E-002
   1.4260002988327289E-002  -3.4847553056000574E-003   6.0954046499521110E-002
   1.4051381817484089E-002  -3.6219768722618607E-003   6.1986463146955981E-002
   1.3842760646640901E-002  -3.7312051704773003E-003   6.3105467319115399E-002
   7.3459431274914971E-003  -1.5631661846910640E-003   5.9656050217671036E-002
   7.2327710119692318E-003  -1.6597702366891662E-003   6.0530507376376427E-002
   7.1195988964469752E-003  -1.7423776545313799E-003   6.1509275120999074E-002
   7.0064267809247151E-003  -1.8109884382176153E-003   6.2592353451539032E-002
   6.8932546654024533E-003  -1.8656025877480178E-003   6.3779742367996300E-002
   3.7914289763296694E-012  -2.4447249780124025E-012   6.0266727025218639E-002
   4.7828355859147464E-012  -2.8864514944881847E-012   6.1142403110353211E-002
   5.7742439302232995E-012  -3.4627127554198722E-012   6.2140112842597760E-002
   6.7656531418935906E-012  -4.1734558517414477E-012   6.3259856221952362E-002
   7.7570588841169297E-012  -5.0186799160911733E-012   6.4501633248417012E-002
   2.7910526579896948E-002  -7.4624103359359484E-003   6.1899764715973332E-002
   2.7192134406880369E-002  -7.5761115064649914E-003   6.1661293947757226E-002
   2.6473742233863787E-002  -7.5362883639080586E-003   6.1694571499466694E-002
   2.5755350060847206E-002  -7.3429409082651324E-003   6.1999597371101639E-002
   2.5036957887830627E-002  -6.9960691395362928E-003   6.2576371562662159E-002
   2.0848517951472401E-002  -5.5968077532066035E-003   6.2478808101774419E-002
   2.0378836529356067E-002  -5.6820836312623038E-003   6.2407884862145498E-002
   1.9909155107239736E-002  -5.6522162743652439E-003   6.2562634804391559E-002
   1.9439473685123408E-002  -5.5072056825151436E-003   6.2943057928512541E-002
   1.8969792263007081E-002  -5.2470518557123091E-003   6.3549154234508493E-002
   1.3842760646640901E-002  -3.7312051704773003E-003   6.3105467319115399E-002
   1.3575714837374245E-002  -3.7880557560597064E-003   6.3163710529940589E-002
   1.3308669028107591E-002  -3.7681441848223460E-003   6.3401551784590143E-002
   1.3041623218840942E-002  -3.6714704567651826E-003   6.3818991083064130E-002
   1.2774577409574280E-002  -3.4980345718882838E-003   6.4416028425362454E-002
   6.8932546654024533E-003  -1.8656025877480178E-003   6.3779742367996300E-002
   6.7827693309349011E-003  -1.8940278808570778E-003   6.3928770951142466E-002
   6.6722839964673481E-003  -1.8840720952794619E-003   6.4211322440062363E-002
   6.5617986619997933E-003  -1.8357352310151938E-003   6.4627396834756129E-002
   6.4513133275322428E-003  -1.7490172880642932E-003   6.5176994135223723E-002
   7.7570588841169297E-012  -5.0186799160911733E-012   6.4501633248417012E-002
   1.0038027700720598E-011  -5.6544074977793457E-012   6.4703066125751094E-002
   1.2318999986771217E-011  -5.7366195127528385E-012   6.4991946770808273E-002
   1.4599972272821837E-011  -5.2652431026256608E-012   6.5368275183588773E-002
   1.6880941089425505E-011  -4.2403025535264760E-012   6.5832051364092425E-002
   2.5036957887830627E-002  -6.9960691395362928E-003   6.2576371562662159E-002
   2.4277119997998149E-002  -6.5859054951533935E-003   6.2612755158449551E-002
   2.3517282108165685E-002  -6.2026824125486837E-003   6.2799471207655652E-002
   2.2757444218333200E-002  -5.8463998917218808E-003   6.3136519710280642E-002
   2.1997606328500743E-002  -5.5170579326732638E-003   6.3623900666324340E-002
   1.8969792263007081E-002  -5.2470518557123091E-003   6.3549154234508493E-002
   1.8370193580779029E-002  -4.9394291217418479E-003   6.3443822364674371E-002
   1.7770594898550981E-002  -4.6520118083891379E-003   6.3508636456630380E-002
   1.7170996216322926E-002  -4.3847999156542399E-003   6.3743596510376310E-002
   1.6571397534094881E-002  -4.1377934435370967E-003   6.4148702525912427E-002
   1.2774577409574280E-002  -3.4980345718882838E-003   6.4416028425362454E-002
   1.2355031443321935E-002  -3.2929527483302051E-003   6.4175716231067104E-002
   1.1935485477069574E-002  -3.1013412042296441E-003   6.4125363506933042E-002
   1.1515939510817216E-002  -2.9231999395864594E-003   6.4264970252960241E-002
   1.1096393544564858E-002  -2.7585289544007907E-003   6.4594536469148908E-002
   6.4513133275322428E-003  -1.7490172880642932E-003   6.5176994135223723E-002
   6.2316335856268511E-003  -1.6464763749186664E-003   6.4808436757627388E-002
   6.0119538437214638E-003  -1.5506706000701243E-003   6.4649652358563750E-002
   5.7922741018160730E-003  -1.4615999635188043E-003   6.4700640938032683E-002
   5.5725943599106821E-003  -1.3792644652645264E-003   6.4961402496034187E-002
   1.6880941089425505E-011  -4.2403025535264760E-012   6.5832051364092425E-002
   7.6937900495011036E-012  -1.5070028558383797E-012   6.5341983944355586E-002
  -1.4933557862528701E-012   4.0893746722225899E-012   6.5081503011522560E-002
  -1.0680505091453796E-011   1.2549012176621410E-011   6.5050608565593415E-002
  -1.9867652661931245E-011   2.3871682408582728E-011   6.5249300606568139E-002
   2.1997606328500743E-002  -5.5170579326732638E-003   6.3623900666324340E-002
   2.1127625633644800E-002  -5.1834361881808455E-003   6.3352608501450691E-002
   2.0257644938788850E-002  -4.8143143110226522E-003   6.3267142972969204E-002
   1.9387664243932911E-002  -4.4096923011991175E-003   6.3367504080879669E-002
   1.8517683549076985E-002  -3.9695701587098564E-003   6.3653691825182324E-002
   1.6571397534094881E-002  -4.1377934435370967E-003   6.4148702525912427E-002
   1.5895160608801716E-002  -3.8875771319850649E-003   6.3867594915161724E-002
   1.5218923683508544E-002  -3.6107357209458762E-003   6.3788148207144402E-002
   1.4542686758215375E-002  -3.3072692104193328E-003   6.3910362401860529E-002
   1.3866449832922213E-002  -2.9771776004055006E-003   6.4234237499310232E-002
   1.1096393544564858E-002  -2.7585289544007907E-003   6.4594536469148908E-002
   1.0629734655175822E-002  -2.5917180757892844E-003   6.4294738379342825E-002
   1.0163075765786784E-002  -2.4071571308689269E-003   6.4212435458611633E-002
   9.6964168763977419E-003  -2.2048461196396019E-003   6.4347627706955110E-002
   9.2297579870087021E-003  -1.9847850421012836E-003   6.4700315124373575E-002
   5.5725943599106821E-003  -1.3792644652645264E-003   6.4961402496034187E-002
   5.3313477727671291E-003  -1.2958590195936426E-003   6.4634038893994453E-002
   5.0901011856235752E-003  -1.2035785407921197E-003   6.4540004727370884E-002
   4.8488545984800213E-003  -1.1024230288597886E-003   6.4679299996163425E-002
   4.6076080113364656E-003  -9.9239248379708045E-004   6.5051924700372299E-002
  -1.9867652661931245E-011   2.3871682408582728E-011   6.5249300606568139E-002
  -3.8424371323619866E-011   3.6602221253900780E-011   6.4885496459116343E-002
  -5.6981084781138058E-011   4.9284840097918448E-011   6.4770856013422140E-002
  -7.5537799106017989E-011   6.1919896293671783E-011   6.4905379269485322E-002
  -9.4094516900344871E-011   7.4507233716047949E-011   6.5289066227306181E-002
   1.8517683549076985E-002  -3.9695701587098564E-003   6.3653691825182324E-002
   1.7710778394823684E-002  -3.4612715861598864E-003   6.3428596798216441E-002
   1.6903873240570369E-002  -2.8521202861540029E-003   6.3525964587001243E-002
   1.6096968086317075E-002  -2.1421162586923725E-003   6.3945795191536453E-002
   1.5290062932063780E-002  -1.3312595037754948E-003   6.4688088611822347E-002
   1.3866449832922213E-002  -2.9771776004055006E-003   6.4234237499310232E-002
   1.3351823361768343E-002  -2.5959536687539253E-003   6.4081746345556578E-002
   1.2837196890614470E-002  -2.1390901933139861E-003   6.4191349742251130E-002
   1.2322570419460605E-002  -1.6065871740855026E-003   6.4563047689394151E-002
   1.1807943948306740E-002  -9.9844461106884941E-004   6.5196840186985350E-002
   9.2297579870087021E-003  -1.9847850421012836E-003   6.4700315124373575E-002
   8.9470419336520023E-003  -1.7306357513481030E-003   6.4595214660164685E-002
   8.6643258802952990E-003  -1.4260601004737472E-003   6.4691840481101867E-002
   8.3816098269385939E-003  -1.0710580894784105E-003   6.4990192587185108E-002
   8.0988937735818889E-003  -6.6562971836223173E-004   6.5490270978414325E-002
   4.6076080113364656E-003  -9.9239248379708045E-004   6.5051924700372299E-002
   4.4964341104746543E-003  -8.6531783394218353E-004   6.4969001742040872E-002
   4.3852602096128438E-003  -7.1303000763350832E-004   6.5027436803553149E-002
   4.2740863087510385E-003  -5.3552900487142951E-004   6.5227229884909158E-002
   4.1629124078892219E-003  -3.3281482565548914E-004   6.5568380986108996E-002
  -9.4094516900344871E-011   7.4507233716047949E-011   6.5289066227306181E-002
  -1.0776370074072616E-010   8.3463652655879628E-011   6.5203107591184861E-002
  -1.2143288805055441E-010   8.5206494637724006E-011   6.5198138709605002E-002
  -1.3510207189093570E-010   7.9735659047619478E-011   6.5274159582566757E-002
  -1.4877125920076395E-010   6.7051031393816629E-011   6.5431170210069833E-002
   1.5290062932063780E-002  -1.3312595037754948E-003   6.4688088611822347E-002
   1.4098450669806042E-002   2.1802443886209666E-004   6.3646113753186018E-002
   1.2906838407548291E-002   3.1433100294848276E-003   6.2802724064328436E-002
   1.1715226145290560E-002   7.4445972680928681E-003   6.2157919545249560E-002
   1.0523613883032801E-002   1.3121886154686235E-002   6.1711700195949515E-002
   1.1807943948306740E-002  -9.9844461106884941E-004   6.5196840186985350E-002
   1.0839746330431908E-002   1.6351833966515850E-004   6.5156765051801124E-002
   9.8715487125570697E-003   2.3574825220452345E-003   6.5364934035603839E-002
   8.9033510946822624E-003   5.5834479360713715E-003   6.5821347138393826E-002
   7.9351534768073995E-003   9.8414145817437015E-003   6.6526004360170865E-002
   8.0988937735818889E-003  -6.6562971836223173E-004   6.5490270978414325E-002
   7.4037697492983362E-003   1.0901224046822033E-004   6.6108095150342966E-002
   6.7086457250147592E-003   1.5716550146054123E-003   6.7023822390467003E-002
   6.0135217007311909E-003   3.7222986040497622E-003   6.8237452698786477E-002
   5.3183976764476226E-003   6.5609430088010567E-003   6.9748986075301500E-002
   4.1629124078892219E-003  -3.3281482565548914E-004   6.5568380986108996E-002
   3.7905209264053035E-003   5.4506141271060127E-005   6.6500104048811598E-002
   3.4181294449213808E-003   7.8582750716553809E-004   6.7779389128917789E-002
   3.0457379634374377E-003   1.8611492720282648E-003   6.9406236226428192E-002
   2.6733464819535258E-003   3.2804714358584675E-003   7.1380645341341947E-002
  -1.4877125920076395E-010   6.7051031393816629E-011   6.5431170210069833E-002
  -1.3824718106403289E-010   4.2074344008824482E-011   6.6332791747206910E-002
  -1.2772310639674878E-010  -2.7422508708241367E-013   6.7631634250956474E-002
  -1.1719903866835857E-010  -5.9993482404152587E-011   6.9327697721317944E-002
  -1.0667494665383970E-010  -1.3708412183177643E-010   7.1420982158291624E-002
   1.3830004849668676E-012   0.0000000000000000        2.8472467581998236E-002
   1.6159859908548846E-012  -3.8759967457835387E-013   3.3435590389578829E-002
   1.8489717135833361E-012  -7.2675372664310345E-013   3.8405597540223511E-002
   2.0819564605298324E-012  -1.0174552173003448E-012   4.3382489033932256E-002
   2.3149420748380667E-012  -1.2597032791883400E-012   4.8366264870705097E-002
  -6.7964421084267465E-003   0.0000000000000000        2.8535752876681350E-002
  -6.8286966826601007E-003   1.4521239930698031E-004   3.3571826163818284E-002
  -6.8609512568934558E-003   3.2770841767180113E-004   3.8536505958958460E-002
  -6.8932058311268144E-003   5.4748805509445900E-004   4.3429792262101884E-002
  -6.9254604053601686E-003   8.0455131157495391E-004   4.8251685073248535E-002
  -1.3499436630702882E-002   0.0000000000000000        2.8725608761554354E-002
  -1.3642223614463416E-002   2.9042479900156203E-004   3.3871916147257007E-002
  -1.3785010598223950E-002   6.5541683607034992E-004   3.8868552205902074E-002
  -1.3927797581984482E-002   1.0949761112063689E-003   4.3715516937489540E-002
  -1.4070584565745016E-002   1.6091026244096107E-003   4.8412810342019420E-002
  -2.0108983565445410E-002   0.0000000000000000        2.9042035236617247E-002
  -2.0440580793793958E-002   4.3563719869614374E-004   3.4335860339895032E-002
  -2.0772178022142505E-002   9.8312525446890260E-004   3.9401736281054360E-002
  -2.1103775250491053E-002   1.6424641673182775E-003   4.4239663060095281E-002
  -2.1435372478839601E-002   2.4136539372442674E-003   4.8849640677017740E-002
  -2.6625082912654321E-002   0.0000000000000000        2.9485032301870027E-002
  -2.7223768220651725E-002   5.8084959839072459E-004   3.4963658741732309E-002
  -2.7822453528649121E-002   1.3108336728674518E-003   4.0136058184415305E-002
  -2.8421138836646525E-002   2.1899522234301895E-003   4.5002230629919045E-002
  -2.9019824144643925E-002   3.2182052500789246E-003   4.9562176078243515E-002
   2.3149420748380667E-012  -1.2597032791883400E-012   4.8366264870705097E-002
   2.6840630412694466E-012  -1.4972901390963855E-012   5.1542993554196767E-002
   3.0531850919029990E-012  -1.7739861229298937E-012   5.4585313474446243E-002
   3.4223061667545962E-012  -2.0897976816917907E-012   5.7493224631453531E-002
   3.7914289763296694E-012  -2.4447249780124025E-012   6.0266727025218639E-002
  -6.9254604053601686E-003   8.0455131157495391E-004   4.8251685073248535E-002
  -7.0305810840592987E-003   1.0587435404051542E-003   5.1216525251005639E-002
  -7.1357017627584349E-003   1.2699100948769266E-003   5.4105532833868437E-002
  -7.2408224414575659E-003   1.4380509749902571E-003   5.6918707821836903E-002
  -7.3459431201566977E-003   1.5631661807451874E-003   5.9656050214911049E-002
  -1.4070584565745016E-002   1.6091026244096107E-003   4.8412810342019420E-002
  -1.4222249755164526E-002   2.1174870823075917E-003   5.1122736339722620E-002
  -1.4373914944584039E-002   2.5398201915278321E-003   5.3815405910879410E-002
  -1.4525580134003546E-002   2.8761019520703187E-003   5.6490819055489742E-002
  -1.4677245323423054E-002   3.1263323639350651E-003   5.9148975773553644E-002
  -2.1435372478839601E-002   2.4136539372442674E-003   4.8849640677017740E-002
  -2.1575006010631611E-002   3.1762306242100395E-003   5.1261626820347760E-002
  -2.1714639542423624E-002   3.8097302881787381E-003   5.3714932705479203E-002
  -2.1854273074215627E-002   4.3141529291503911E-003   5.6209558332412111E-002
  -2.1993906606007637E-002   4.6894985471249533E-003   5.8745503701146430E-002
  -2.9019824144643925E-002   3.2182052500789246E-003   4.9562176078243515E-002
  -2.9088849850460556E-002   4.2349741661124752E-003   5.1633196692881002E-002
  -2.9157875556277184E-002   5.0796403848296454E-003   5.3804113217667801E-002
  -2.9226901262093822E-002   5.7522039062304475E-003   5.6074925652603927E-002
  -2.9295926967910457E-002   6.2526647303148553E-003   5.8445633997689359E-002
   3.7914289763296694E-012  -2.4447249780124025E-012   6.0266727025218639E-002
   4.7828355859147464E-012  -2.8864514944881847E-012   6.1142403110353211E-002
   5.7742439302232995E-012  -3.4627127554198722E-012   6.2140112842597760E-002
   6.7656531418935906E-012  -4.1734558517414477E-012   6.3259856221952362E-002
   7.7570588841169297E-012  -5.0186799160911733E-012   6.4501633248417012E-002
  -7.3459431201566977E-003   1.5631661807451874E-003   5.9656050214911049E-002
  -7.2327710027539072E-003   1.6597702321080043E-003   6.0530507372748593E-002
  -7.1195988853511088E-003   1.7423776490450363E-003   6.1509275116298855E-002
  -7.0064267679483209E-003   1.8109884315563613E-003   6.2592353445561869E-002
  -6.8932546505455234E-003   1.8656025796418979E-003   6.3779742360537586E-002
  -1.4677245323423054E-002   3.1263323639350651E-003   5.9148975773553644E-002
  -1.4468624151006181E-002   3.3195404671024307E-003   6.0008217369802906E-002
  -1.4260002978589297E-002   3.4847553015527697E-003   6.0954046490367612E-002
  -1.4051381806172420E-002   3.6219768672861225E-003   6.1986463135247805E-002
  -1.3842760633755540E-002   3.7312051643024619E-003   6.3105467304443344E-002
  -2.1993906606007637E-002   4.6894985471249533E-003   5.8745503701146430E-002
  -2.1707559439973979E-002   4.9793107020968718E-003   5.9575533101516191E-002
  -2.1421212273940310E-002   5.2271329540604971E-003   6.0474426964804054E-002
  -2.1134865107906645E-002   5.4329653030159115E-003   6.1442185291010067E-002
  -2.0848517941872986E-002   5.5968077489630327E-003   6.2478808080134243E-002
  -2.9295926967910457E-002   6.2526647303148553E-003   5.8445633997689359E-002
  -2.8949576869657309E-002   6.6390809370913094E-003   5.9232454567888351E-002
  -2.8603226771404165E-002   6.9695106065682695E-003   6.0070416539608186E-002
  -2.8256876673151025E-002   7.2439537387456914E-003   6.0959519912848842E-002
  -2.7910526574897867E-002   7.4624103336236175E-003   6.1899764687610340E-002
   7.7570588841169297E-012  -5.0186799160911733E-012   6.4501633248417012E-002
   1.0038027700720598E-011  -5.6544074977793457E-012   6.4703066125751094E-002
   1.2318999986771217E-011  -5.7366195127528385E-012   6.4991946770808273E-002
   1.4599972272821837E-011  -5.2652431026256608E-012   6.5368275183588773E-002
   1.6880941089425505E-011  -4.2403025535264760E-012   6.5832051364092425E-002
  -6.8932546505455234E-003   1.8656025796418979E-003   6.3779742360537586E-002
  -6.7827693116989272E-003   1.8940278716794573E-003   6.3928770943248212E-002
  -6.6722839728523328E-003   1.8840720860467917E-003   6.4211322431366902E-002
  -6.5617986340057426E-003   1.8357352227439316E-003   6.4627396824893518E-002
  -6.4513132951591490E-003   1.7490172817708483E-003   6.5176994123828227E-002
  -1.3842760633755540E-002   3.7312051643024619E-003   6.3105467304443344E-002
  -1.3575714820658545E-002   3.7880557490133152E-003   6.3163710514306873E-002
  -1.3308669007561551E-002   3.7681441778302030E-003   6.3401551767263142E-002
  -1.3041623194464554E-002   3.6714704507530508E-003   6.3818991063312208E-002
  -1.2774577381367565E-002   3.4980345677820129E-003   6.4416028402454112E-002
  -2.0848517941872986E-002   5.5968077489630327E-003   6.2478808080134243E-002
  -2.0378836516840811E-002   5.6820836263471765E-003   6.2407884838926848E-002
  -1.9909155091808645E-002   5.6522162696136004E-003   6.2562634778497023E-002
  -1.9439473666776477E-002   5.5072056787621839E-003   6.2943057898844759E-002
  -1.8969792241744315E-002   5.2470518537931707E-003   6.3549154199970009E-002
  -2.7910526574897867E-002   7.4624103336236175E-003   6.1899764687610340E-002
  -2.7192134400245753E-002   7.5761115036810309E-003   6.1661293917108256E-002
  -2.6473742225593629E-002   7.5362883613970151E-003   6.1694571465068536E-002
  -2.5755350050941501E-002   7.3429409067713560E-003   6.1999597331491171E-002
  -2.5036957876289383E-002   6.9960691398043284E-003   6.2576371516376128E-002
   1.6880941089425505E-011  -4.2403025535264760E-012   6.5832051364092425E-002
   7.6937900495011036E-012  -1.5070028558383797E-012   6.5341983944355586E-002
  -1.4933557862528701E-012   4.0893746722225899E-012   6.5081503011522560E-002
  -1.0680505091453796E-011   1.2549012176621410E-011   6.5050608565593415E-002
  -1.9867652661931245E-011   2.3871682408582728E-011   6.5249300606568139E-002
  -6.4513132951591490E-003   1.7490172817708483E-003   6.5176994123828227E-002
  -6.2316335709489881E-003   1.6464763732563087E-003   6.4808436749141649E-002
  -6.0119538467388383E-003   1.5506706073290938E-003   6.4649652354345777E-002
  -5.7922741225286904E-003   1.4615999839891723E-003   6.4700640939440612E-002
  -5.5725943983185276E-003   1.3792645032363882E-003   6.4961402504426252E-002
  -1.2774577381367565E-002   3.4980345677820129E-003   6.4416028402454112E-002
  -1.2355031430773253E-002   3.2929527480196688E-003   6.4175716212541908E-002
  -1.1935485480178944E-002   3.1013412105687539E-003   6.4125363495507431E-002
  -1.1515939529584634E-002   2.9231999554293038E-003   6.4264970251350445E-002
  -1.1096393578990324E-002   2.7585289826012604E-003   6.4594536480071005E-002
  -1.8969792241744315E-002   5.2470518537931707E-003   6.3549154199970009E-002
  -1.8370193571778985E-002   4.9394291227830324E-003   6.3443822334556560E-002
  -1.7770594901813676E-002   4.6520118138084158E-003   6.3508636435007468E-002
  -1.7170996231848357E-002   4.3847999268695047E-003   6.3743596501322775E-002
  -1.6571397561883035E-002   4.1377934619660772E-003   6.4148702533502674E-002
  -2.5036957876289383E-002   6.9960691398043284E-003   6.2576371516376128E-002
  -2.4277119993966201E-002   6.5859054975463405E-003   6.2612755115185353E-002
  -2.3517282111643029E-002   6.2026824170480915E-003   6.2799471172845900E-002
  -2.2757444229319846E-002   5.8463998983096267E-003   6.3136519689357726E-002
  -2.1997606346996670E-002   5.5170579413308385E-003   6.3623900664720845E-002
  -1.9867652661931245E-011   2.3871682408582728E-011   6.5249300606568139E-002
  -3.8424371323619866E-011   3.6602221253900780E-011   6.4885496459116343E-002
  -5.6981084781138058E-011   4.9284840097918448E-011   6.4770856013422140E-002
  -7.5537799106017989E-011   6.1919896293671783E-011   6.4905379269485322E-002
  -9.4094516900344871E-011   7.4507233716047949E-011   6.5289066227306181E-002
  -5.5725943983185276E-003   1.3792645032363882E-003   6.4961402504426252E-002
  -5.3313478468332140E-003   1.2958590772019773E-003   6.4634038906438679E-002
  -5.0901012953479020E-003   1.2035786180162322E-003   6.4540004746777513E-002
  -4.8488547438625866E-003   1.1024231256794165E-003   6.4679300025443115E-002
  -4.6076081923772765E-003   9.9239260019140518E-004   6.5051924742435013E-002
  -1.1096393578990324E-002   2.7585289826012604E-003   6.4594536480071005E-002
  -1.0629734720893954E-002   2.5917181178016502E-003   6.4294738398444157E-002
  -1.0163075862797579E-002   2.4071571867475758E-003   6.4212435491712905E-002
  -9.6964170047012105E-003   2.2048461894388829E-003   6.4347627759877249E-002
  -9.2297581466048266E-003   1.9847851258755489E-003   6.4700315202937134E-002
  -1.6571397561883035E-002   4.1377934619660772E-003   6.4148702533502674E-002
  -1.5895160660606582E-002   3.8875771584015312E-003   6.3867594935133040E-002
  -1.5218923759330124E-002   3.6107357554789991E-003   6.3788148248228052E-002
  -1.4542686858053671E-002   3.3072692531982929E-003   6.3910362472787738E-002
  -1.3866449956777212E-002   2.9771776515597065E-003   6.4234237608811931E-002
  -2.1997606346996670E-002   5.5170579413308385E-003   6.3623900664720845E-002
  -2.1127625665971105E-002   5.1834361990011069E-003   6.3352608516505149E-002
  -2.0257644984945526E-002   4.8143143242103531E-003   6.3267143016323107E-002
  -1.9387664303919961E-002   4.4096923169578243E-003   6.3367504164174734E-002
  -1.8517683622894389E-002   3.9695701772439196E-003   6.3653691960059933E-002
  -9.4094516900344871E-011   7.4507233716047949E-011   6.5289066227306181E-002
  -1.0776370074072616E-010   8.3463652655879628E-011   6.5203107591184861E-002
  -1.2143288805055441E-010   8.5206494637724006E-011   6.5198138709605002E-002
  -1.3510207189093570E-010   7.9735659047619478E-011   6.5274159582566757E-002
  -1.4877125920076395E-010   6.7051031393816629E-011   6.5431170210069833E-002
  -4.6076081923772765E-003   9.9239260019140518E-004   6.5051924742435013E-002
  -4.4964343178560840E-003   8.6531796455135979E-004   6.4969001786834457E-002
  -4.3852604433348968E-003   7.1303014175848334E-004   6.5027436853073203E-002
  -4.2740865688137078E-003   5.3552913181256420E-004   6.5227229941151182E-002
  -4.1629126942925240E-003   3.3281493471376544E-004   6.5568381051068492E-002
  -9.2297581466048266E-003   1.9847851258755489E-003   6.4700315202937134E-002
  -8.9470421165955046E-003   1.7306358456389143E-003   6.4595214747918059E-002
  -8.6643260865861757E-003   1.4260601983101459E-003   6.4691840582036086E-002
  -8.3816100565768416E-003   1.0710581838892490E-003   6.4990192705291105E-002
  -8.0988940265675231E-003   6.6562980237638847E-004   6.5490271117683269E-002
  -1.3866449956777212E-002   2.9771776515597065E-003   6.4234237608811931E-002
  -1.3351823503981964E-002   2.5959537267265728E-003   6.4081746474435375E-002
  -1.2837197051186730E-002   2.1390902548619715E-003   6.4191349896493527E-002
  -1.2322570598391485E-002   1.6065872359662106E-003   6.4563047874986415E-002
  -1.1807944145596248E-002   9.9844467003901149E-004   6.5196840409914192E-002
  -1.8517683622894389E-002   3.9695701772439196E-003   6.3653691960059933E-002
  -1.7710778480015475E-002   3.4612716078141759E-003   6.3428596966386475E-002
  -1.6903873337136555E-002   2.8521203114137555E-003   6.3525964796445594E-002
  -1.6096968194257637E-002   2.1421162880429119E-003   6.3945795450237250E-002
  -1.5290063051378720E-002   1.3312595377016345E-003   6.4688088927761456E-002
  -1.4877125920076395E-010   6.7051031393816629E-011   6.5431170210069833E-002
  -1.3824718106403289E-010   4.2074344008824482E-011   6.6332791747206910E-002
  -1.2772310639674878E-010  -2.7422508708241367E-013   6.7631634250956474E-002
  -1.1719903866835857E-010  -5.9993482404152587E-011   6.9327697721317944E-002
  -1.0667494665383970E-010  -1.3708412183177643E-010   7.1420982158291624E-002
  -4.1629126942925240E-003   3.3281493471376544E-004   6.5568381051068492E-002
  -3.7905211933153202E-003  -5.4506070562537756E-005   6.6500104102005825E-002
  -3.4181296923381163E-003  -7.8582750504160859E-004   6.7779389167237664E-002
  -3.0457381913609237E-003  -1.8611493687228017E-003   6.9406236246763342E-002
  -2.6733466903837225E-003  -3.2804716616064988E-003   7.1380645340582860E-002
  -8.0988940265675231E-003   6.6562980237638847E-004   6.5490271117683269E-002
  -7.4037699874553338E-003  -1.0901218319936401E-004   6.6108095270589889E-002
  -6.7086459483431575E-003  -1.5716550098089366E-003   6.7023822485472589E-002
  -6.0135219092309648E-003  -3.7222986774520656E-003   6.8237452762331188E-002
  -5.3183978701188059E-003  -6.5609431861288758E-003   6.9748986101165589E-002
  -1.1807944145596248E-002   9.9844467003901149E-004   6.5196840409914192E-002
  -1.0839746520667217E-002  -1.6351829583616251E-004   6.5156765252958881E-002
  -9.8715488957381824E-003  -2.3574825145763478E-003   6.5364934205661335E-002
  -8.9033512708091688E-003  -5.5834479861813571E-003   6.5821347268021496E-002
  -7.9351536458801188E-003  -9.8414147106512528E-003   6.6526004440039616E-002
  -1.5290063051378720E-002   1.3312595377016345E-003   6.4688088927761456E-002
  -1.4098450792950974E-002  -2.1802440847284998E-004   6.3646114049112912E-002
  -1.2906838534523232E-002  -3.1433100193436481E-003   6.2802724327803816E-002
  -1.1715226276095511E-002  -7.4445972949106209E-003   6.2157919763834613E-002
  -1.0523614017667743E-002  -1.3121886235173630E-002   6.1711700357204746E-002
  -2.6625082912654321E-002   0.0000000000000000        2.9485032301870027E-002
  -2.7223768220651725E-002   5.8084959839072459E-004   3.4963658741732309E-002
  -2.7822453528649121E-002   1.3108336728674518E-003   4.0136058184415305E-002
  -2.8421138836646525E-002   2.1899522234301895E-003   4.5002230629919045E-002
  -2.9019824144643925E-002   3.2182052500789246E-003   4.9562176078243515E-002
  -3.3384773906379471E-002   0.0000000000000000        3.0189901025397318E-002
  -3.4224752286974650E-002   9.5541648204147591E-004   3.5279359142652636E-002
  -3.5064730667569814E-002   2.0147557547521896E-003   4.0192458111891677E-002
  -3.5904709048164993E-002   3.1780178181321436E-003   4.4929197933114458E-002
  -3.6744687428760171E-002   4.4452026721813458E-003   4.9489578606320916E-002
  -4.0725095780670691E-002   0.0000000000000000        3.1291942475283739E-002
  -4.1676499384700645E-002   1.3299833656922264E-003   3.5947020584515342E-002
  -4.2627902988730607E-002   2.7186778366369247E-003   4.0555607394893660E-002
  -4.3579306592760554E-002   4.1660834128340995E-003   4.5117702906418686E-002
  -4.4530710196790529E-002   5.6722000942837462E-003   4.9633307119090420E-002
  -4.8646048535527973E-002   0.0000000000000000        3.2791156651529291E-002
  -4.9579009513829736E-002   1.7045502493429768E-003   3.6966643067320407E-002
  -5.0511970492131485E-002   3.4225999185216612E-003   4.1225506033421233E-002
  -5.1444931470433233E-002   5.1541490075360545E-003   4.5567745549831763E-002
  -5.2377892448734989E-002   6.8991975163861640E-003   4.9993361616551976E-002
  -5.7147632170951333E-002   0.0000000000000000        3.4687543554133983E-002
  -5.7932282674361887E-002   2.0791171329937281E-003   3.8338226591067850E-002
  -5.8716933177772448E-002   4.1265220004063959E-003   4.2202154027474417E-002
  -5.9501583681182996E-002   6.1422146022380112E-003   4.6279325863353669E-002
  -6.0286234184593557E-002   8.1261949384885662E-003   5.0569742098705621E-002
  -2.9019824144643925E-002   3.2182052500789246E-003   4.9562176078243515E-002
  -2.9088849850460556E-002   4.2349741661124752E-003   5.1633196692881002E-002
  -2.9157875556277184E-002   5.0796403848296454E-003   5.3804113217667801E-002
  -2.9226901262093822E-002   5.7522039062304475E-003   5.6074925652603927E-002
  -2.9295926967910457E-002   6.2526647303148553E-003   5.8445633997689359E-002
  -3.6744687428760171E-002   4.4452026721813458E-003   4.9489578606320916E-002
  -3.6753009320466247E-002   5.6757732382779879E-003   5.1285620609060202E-002
  -3.6761331212172330E-002   6.7291924378003569E-003   5.3103174329871265E-002
  -3.6769653103878419E-002   7.6054602707484103E-003   5.4942239768754099E-002
  -3.6777974995584495E-002   8.3045767371221768E-003   5.6802816925708752E-002
  -4.4530710196790529E-002   5.6722000942837462E-003   4.9633307119090420E-002
  -4.4556712466463581E-002   7.1165723104435136E-003   5.1149321840673549E-002
  -4.4582714736136640E-002   8.3787444907710736E-003   5.2608464088250963E-002
  -4.4608717005809706E-002   9.4587166352663940E-003   5.4010733861822605E-002
  -4.4634719275482765E-002   1.0356488743929498E-002   5.5356131161388503E-002
  -5.2377892448734989E-002   6.8991975163861640E-003   4.9993361616551976E-002
  -5.2499959288452559E-002   8.5573713826090463E-003   5.1224300387721057E-002
  -5.2622026128170130E-002   1.0028296543741768E-002   5.2319982492806866E-002
  -5.2744092967887707E-002   1.1311972999784380E-002   5.3280407931809368E-002
  -5.2866159807605277E-002   1.2408400750736813E-002   5.4105576704728660E-002
  -6.0286234184593557E-002   8.1261949384885662E-003   5.0569742098705621E-002
  -6.0582749786433160E-002   9.9981704547745485E-003   5.1510556250202719E-002
  -6.0879265388272791E-002   1.1677848596712498E-002   5.2237729543539009E-002
  -6.1175780990112408E-002   1.3165229364302334E-002   5.2751261978714492E-002
  -6.1472296591952018E-002   1.4460312757544148E-002   5.3051153555729168E-002
  -2.9295926967910457E-002   6.2526647303148553E-003   5.8445633997689359E-002
  -2.8949576869657309E-002   6.6390809370913094E-003   5.9232454567888351E-002
  -2.8603226771404165E-002   6.9695106065682695E-003   6.0070416539608186E-002
  -2.8256876673151025E-002   7.2439537387456914E-003   6.0959519912848842E-002
  -2.7910526574897867E-002   7.4624103336236175E-003   6.1899764687610340E-002
  -3.6777974995584495E-002   8.3045767371221768E-003   5.6802816925708752E-002
  -3.6330491527077388E-002   8.8445091207946906E-003   5.7166331544352758E-002
  -3.5883008058570282E-002   9.2432247056389721E-003   5.7680971501983896E-002
  -3.5435524590063168E-002   9.5007234916550110E-003   5.8346736798602139E-002
  -3.4988041121556054E-002   9.6170054788429216E-003   5.9163627434207409E-002
  -4.4634719275482765E-002   1.0356488743929498E-002   5.5356131161388503E-002
  -4.3986118499255433E-002   1.1049937304498046E-002   5.5211109566948885E-002
  -4.3337517723028102E-002   1.1516938804709673E-002   5.5317197248962606E-002
  -4.2688916946800791E-002   1.1757493244564371E-002   5.5674394207429666E-002
  -4.2040316170573452E-002   1.1771600624062219E-002   5.6282700442350120E-002
  -5.2866159807605277E-002   1.2408400750736813E-002   5.4105576704728660E-002
  -5.1916457786191472E-002   1.3255365488201394E-002   5.3366788635676655E-002
  -5.0966755764777646E-002   1.3790652903780360E-002   5.2979093780544266E-002
  -5.0017053743363821E-002   1.4014262997473754E-002   5.2942492139331554E-002
  -4.9067351721950009E-002   1.3926195769281533E-002   5.3256983712038374E-002
  -6.1472296591952018E-002   1.4460312757544148E-002   5.3051153555729168E-002
  -6.0121509387885450E-002   1.5460793671904768E-002   5.1633368750536146E-002
  -5.8770722183818888E-002   1.6064367002851070E-002   5.0666661096728974E-002
  -5.7419934979752348E-002   1.6271032750383056E-002   5.0151030594307734E-002
  -5.6069147775685765E-002   1.6080790914500834E-002   5.0086477243272323E-002
  -2.7910526574897867E-002   7.4624103336236175E-003   6.1899764687610340E-002
  -2.7192134400245753E-002   7.5761115036810309E-003   6.1661293917108256E-002
  -2.6473742225593629E-002   7.5362883613970151E-003   6.1694571465068536E-002
  -2.5755350050941501E-002   7.3429409067713560E-003   6.1999597331491171E-002
  -2.5036957876289383E-002   6.9960691398043284E-003   6.2576371516376128E-002
  -3.4988041121556054E-002   9.6170054788429216E-003   5.9163627434207409E-002
  -3.4018876921585742E-002   9.6171001428619896E-003   5.8807078788276568E-002
  -3.3049712721615422E-002   9.5260369593716324E-003   5.8680325874519781E-002
  -3.2080548521645109E-002   9.3438159283718725E-003   5.8783368692937106E-002
  -3.1111384321674786E-002   9.0704370498627118E-003   5.9116207243528451E-002
  -4.2040316170573452E-002   1.1771600624062219E-002   5.6282700442350120E-002
  -4.0862332531573189E-002   1.1658088782042938E-002   5.5870440385822555E-002
  -3.9684348892572954E-002   1.1515785557346331E-002   5.5646023475180793E-002
  -3.8506365253572719E-002   1.1344690949972374E-002   5.5609449710424828E-002
  -3.7328381614572463E-002   1.1144804959921095E-002   5.5760719091554584E-002
  -4.9067351721950009E-002   1.3926195769281533E-002   5.3256983712038374E-002
  -4.7722501230208131E-002   1.3699077421223877E-002   5.2851378709746259E-002
  -4.6377650738466246E-002   1.3505534155320988E-002   5.2591664267051592E-002
  -4.5032800246724375E-002   1.3345565971572885E-002   5.2477840383954463E-002
  -4.3687949754982511E-002   1.3219172869979492E-002   5.2509907060454789E-002
  -5.6069147775685765E-002   1.6080790914500834E-002   5.0086477243272323E-002
  -5.4599383017490524E-002   1.5740066060404852E-002   4.9749893760047625E-002
  -5.3129618259295276E-002   1.5495282753295658E-002   4.9517248250132186E-002
  -5.1659853501100042E-002   1.5346440993173439E-002   4.9388540713525858E-002
  -5.0190088742904801E-002   1.5293540780037890E-002   4.9363771150228913E-002
  -2.5036957876289383E-002   6.9960691398043284E-003   6.2576371516376128E-002
  -2.4277119993966201E-002   6.5859054975463405E-003   6.2612755115185353E-002
  -2.3517282111643029E-002   6.2026824170480915E-003   6.2799471172845900E-002
  -2.2757444229319846E-002   5.8463998983096267E-003   6.3136519689357726E-002
  -2.1997606346996670E-002   5.5170579413308385E-003   6.3623900664720845E-002
  -3.1111384321674786E-002   9.0704370498627118E-003   5.9116207243528451E-002
  -3.0187323190997692E-002   8.7473318370736713E-003   5.9033233654682618E-002
  -2.9263262060320601E-002   8.4159318032342306E-003   5.9128374103693440E-002
  -2.8339200929643513E-002   8.0762369483444139E-003   5.9401628590560793E-002
  -2.7415139798966391E-002   7.7282472724042872E-003   5.9852997115284634E-002
  -3.7328381614572463E-002   1.1144804959921095E-002   5.5760719091554584E-002
  -3.6212315656536223E-002   1.0908758176600919E-002   5.5523152932243802E-002
  -3.5096249698499962E-002   1.0629181189420335E-002   5.5491482389794740E-002
  -3.3980183740463701E-002   1.0306073998379255E-002   5.5665707464207445E-002
  -3.2864117782427482E-002   9.9394366034777359E-003   5.6045828155482105E-002
  -4.3687949754982511E-002   1.3219172869979492E-002   5.2509907060454789E-002
  -4.2352097390581822E-002   1.3070184516128250E-002   5.2082512947868767E-002
  -4.1016245026181140E-002   1.2842430575606429E-002   5.1888796031149820E-002
  -3.9680392661780473E-002   1.2535911048414040E-002   5.1928756310297898E-002
  -3.8344540297379798E-002   1.2150625934551101E-002   5.2202393785313037E-002
  -5.0190088742904801E-002   1.5293540780037890E-002   4.9363771150228913E-002
  -4.8606668393134461E-002   1.5231610855655497E-002   4.8711313701557596E-002
  -4.7023248043364115E-002   1.5055679961792627E-002   4.8320315027758562E-002
  -4.5439827693593768E-002   1.4765748098448895E-002   4.8190775128831874E-002
  -4.3856407343823428E-002   1.4361815265624578E-002   4.8322694004777456E-002
  -2.1997606346996670E-002   5.5170579413308385E-003   6.3623900664720845E-002
  -2.1127625665971105E-002   5.1834361990011069E-003   6.3352608516505149E-002
  -2.0257644984945526E-002   4.8143143242103531E-003   6.3267143016323107E-002
  -1.9387664303919961E-002   4.4096923169578243E-003   6.3367504164174734E-002
  -1.8517683622894389E-002   3.9695701772439196E-003   6.3653691960059933E-002
  -2.7415139798966391E-002   7.7282472724042872E-003   5.9852997115284634E-002
  -2.6361460445706975E-002   7.3688401230601608E-003   5.9523112330668398E-002
  -2.5307781092447541E-002   6.9948928479584838E-003   5.9374798242486246E-002
  -2.4254101739188128E-002   6.6064054470989994E-003   5.9408054850738128E-002
  -2.3200422385928662E-002   6.2033779204818673E-003   5.9622882155424217E-002
  -3.2864117782427482E-002   9.9394366034777359E-003   5.6045828155482105E-002
  -3.1630995708533671E-002   9.5542440471189233E-003   5.5678310741168982E-002
  -3.0397873634639923E-002   9.1754713717064548E-003   5.5488108071690474E-002
  -2.9164751560746129E-002   8.8031185772400097E-003   5.5475220147046561E-002
  -2.7931629486852370E-002   8.4371856637197873E-003   5.5639646967237069E-002
  -3.8344540297379798E-002   1.2150625934551101E-002   5.2202393785313037E-002
  -3.6936231454451206E-002   1.1739647971177859E-002   5.1818203748006865E-002
  -3.5527922611522614E-002   1.1356049895454589E-002   5.1607072503935793E-002
  -3.4119613768594043E-002   1.0999831707381103E-002   5.1569000053099778E-002
  -3.2711304925665430E-002   1.0670993406957777E-002   5.1703986395498822E-002
  -4.3856407343823428E-002   1.4361815265624578E-002   4.8322694004777456E-002
  -4.2277167683459571E-002   1.3925051895236684E-002   4.7942791351182124E-002
  -4.0697928023095700E-002   1.3536628419202515E-002   4.7731691539222354E-002
  -3.9118688362731822E-002   1.3196544837522212E-002   4.7689394568898022E-002
  -3.7539448702367972E-002   1.2904801150195655E-002   4.7815900440209280E-002
  -1.8517683622894389E-002   3.9695701772439196E-003   6.3653691960059933E-002
  -1.7710778480015475E-002   3.4612716078141759E-003   6.3428596966386475E-002
  -1.6903873337136555E-002   2.8521203114137555E-003   6.3525964796445594E-002
  -1.6096968194257637E-002   2.1421162880429119E-003   6.3945795450237250E-002
  -1.5290063051378720E-002   1.3312595377016345E-003   6.4688088927761456E-002
  -2.3200422385928662E-002   6.2033779204818673E-003   5.9622882155424217E-002
  -2.2093508880049940E-002   5.7651358378602302E-003   5.9248493506517536E-002
  -2.0986595374171260E-002   5.2710047689868977E-003   5.9151658759877879E-002
  -1.9879681868292542E-002   4.7209847138619809E-003   5.9332377915505247E-002
  -1.8772768362413830E-002   4.1150756724854798E-003   5.9790650973399584E-002
  -2.7931629486852370E-002   8.4371856637197873E-003   5.5639646967237069E-002
  -2.6569616539439414E-002   8.0690000679063401E-003   5.5160928403816228E-002
  -2.5207603592026416E-002   7.6898892265600885E-003   5.4914854821196658E-002
  -2.3845590644613432E-002   7.2998531396811037E-003   5.4901426219378657E-002
  -2.2483577697200462E-002   6.8988918072693806E-003   5.5120642598362107E-002
  -3.2711304925665430E-002   1.0670993406957777E-002   5.1703986395498822E-002
  -3.1139101458183750E-002   1.0372864297952394E-002   5.1165901658282401E-002
  -2.9566897990702057E-002   1.0108773684133199E-002   5.0815552980401892E-002
  -2.7994694523220356E-002   9.8787215655000878E-003   5.0652940361857496E-002
  -2.6422491055738680E-002   9.6827079420532536E-003   5.0678063802648915E-002
  -3.7539448702367972E-002   1.2904801150195655E-002   4.7815900440209280E-002
  -3.5801963636283074E-002   1.2676728527998588E-002   4.7263413269916232E-002
  -3.4064478570198162E-002   1.2527658141706394E-002   4.6853753237493662E-002
  -3.2326993504113256E-002   1.2457589991319205E-002   4.6586920342941512E-002
  -3.0589508438028365E-002   1.2466524076837127E-002   4.6462914586259840E-002
  -1.5290063051378720E-002   1.3312595377016345E-003   6.4688088927761456E-002
  -1.4098450792950974E-002  -2.1802440847284998E-004   6.3646114049112912E-002
  -1.2906838534523232E-002  -3.1433100193436481E-003   6.2802724327803816E-002
  -1.1715226276095511E-002  -7.4445972949106209E-003   6.2157919763834613E-002
  -1.0523614017667743E-002  -1.3121886235173630E-002   6.1711700357204746E-002
  -1.8772768362413830E-002   4.1150756724854798E-003   5.9790650973399584E-002
  -1.7409908633024836E-002   3.1668070268170423E-003   5.7490818441106761E-002
  -1.6047048903635897E-002   1.5897081588160666E-003   5.5334895693396724E-002
  -1.4684189174246888E-002  -6.1622093151748186E-004   5.3322882730269347E-002
  -1.3321329444857935E-002  -3.4509802441833326E-003   5.1454779551724839E-002
  -2.2483577697200462E-002   6.8988918072693806E-003   5.5120642598362107E-002
  -2.1004145869607131E-002   6.5516384621069346E-003   5.2310123854788587E-002
  -1.9524714042013773E-002   6.3227263369757258E-003   4.9588839523041120E-002
  -1.8045282214420453E-002   6.2121554318757127E-003   4.6956789603119775E-002
  -1.6565850386827057E-002   6.2199257468069646E-003   4.4413974095024067E-002
  -2.6422491055738680E-002   9.6827079420532536E-003   5.0678063802648915E-002
  -2.4881162502697746E-002   9.9364698973968824E-003   4.8104030290158438E-002
  -2.3339833949656871E-002   1.1055744515135357E-002   4.5564555816737379E-002
  -2.1798505396615975E-002   1.3040531795268769E-002   4.3059640382385016E-002
  -2.0257176843575055E-002   1.5890831737797262E-002   4.0589283987102168E-002
  -3.0589508438028365E-002   1.2466524076837127E-002   4.6462914586259840E-002
  -2.9040958532296796E-002   1.3321301332686775E-002   4.4872537747216223E-002
  -2.7492408626565178E-002   1.5788762693295155E-002   4.3262044574484959E-002
  -2.5943858720833653E-002   1.9868908158662060E-002   4.1631435068065936E-002
  -2.4395308815102046E-002   2.5561737728787559E-002   3.9980709227959155E-002
  -5.7147632170951333E-002   0.0000000000000000        3.4687543554133983E-002
  -5.7932282674361887E-002   2.0791171329937281E-003   3.8338226591067850E-002
  -5.8716933177772448E-002   4.1265220004063959E-003   4.2202154027474417E-002
  -5.9501583681182996E-002   6.1422146022380112E-003   4.6279325863353669E-002
  -6.0286234184593557E-002   8.1261949384885662E-003   5.0569742098705621E-002
  -6.5817736636949759E-002   0.0000000000000000        3.7204484826546237E-002
  -6.6618403808250265E-002   2.9099529514627640E-003   4.0824683555165379E-002
  -6.7419070979550771E-002   5.7619932477705575E-003   4.4199604548531939E-002
  -6.8219738150851278E-002   8.5561208889233763E-003   4.7329247806645901E-002
  -6.9020405322151784E-002   1.1292335874921237E-002   5.0213613329507266E-002
  -7.4244251883532245E-002   0.0000000000000000        4.0565362112214488E-002
  -7.5519457857447972E-002   3.7407887699318011E-003   4.4128876142944987E-002
  -7.6794663831363741E-002   7.3974644951347208E-003   4.6988590303697633E-002
  -7.8069869805279482E-002   1.0970027175608747E-002   4.9144504594472380E-002
  -7.9345075779195223E-002   1.4458476811353906E-002   5.0596619015269254E-002
  -8.2427177910698798E-002   0.0000000000000000        4.4770175411138723E-002
  -8.4635444821955064E-002   4.5716245884008374E-003   4.8250804354406693E-002
  -8.6843711733211329E-002   9.0329357424988824E-003   5.0569111292971494E-002
  -8.9051978644467608E-002   1.3383933462294119E-002   5.1725096226833134E-002
  -9.1260245555723887E-002   1.7624617747786578E-002   5.1718759155991556E-002
  -9.0366514718449406E-002   0.0000000000000000        4.9818924723318954E-002
  -9.3966364701771499E-002   5.4024604068698742E-003   5.3190468189550463E-002
  -9.7566214685093577E-002   1.0668406989863044E-002   5.4941167516353522E-002
 -0.10116606466841567        1.5797839748979484E-002   5.5071022703728115E-002
 -0.10476591465173775        2.0790758684219243E-002   5.3580033751674257E-002
  -6.0286234184593557E-002   8.1261949384885662E-003   5.0569742098705621E-002
  -6.0582749786433160E-002   9.9981704547745485E-003   5.1510556250202719E-002
  -6.0879265388272791E-002   1.1677848596712498E-002   5.2237729543539009E-002
  -6.1175780990112408E-002   1.3165229364302334E-002   5.2751261978714492E-002
  -6.1472296591952018E-002   1.4460312757544148E-002   5.3051153555729168E-002
  -6.9020405322151784E-002   1.1292335874921237E-002   5.0213613329507266E-002
  -6.9292666253621238E-002   1.3731532572598593E-002   4.9437613042133080E-002
  -6.9564927185090664E-002   1.5634605348789923E-002   4.8923762953660049E-002
  -6.9837188116560145E-002   1.7001554203495247E-002   4.8672063064088160E-002
  -7.0109449048029543E-002   1.7832379136714510E-002   4.8682513373417460E-002
  -7.9345075779195223E-002   1.4458476811353906E-002   5.0596619015269254E-002
  -7.9117290983232572E-002   1.7464894690422630E-002   4.7759977741885833E-002
  -7.8889506187269864E-002   1.9591362100867354E-002   4.5661277724465509E-002
  -7.8661721391307199E-002   2.0837879042688131E-002   4.4300518963008288E-002
  -7.8433936595344506E-002   2.1204445515884896E-002   4.3677701457514199E-002
  -9.1260245555723887E-002   1.7624617747786578E-002   5.1718759155991556E-002
  -9.0056623975267105E-002   2.1198256808246652E-002   4.6477650349460983E-002
  -8.8853002394810351E-002   2.3548118852944788E-002   4.2450273855955428E-002
  -8.7649380814353584E-002   2.4674203881881032E-002   3.9636629675474926E-002
  -8.6445759233896843E-002   2.4576511895055296E-002   3.8036717808019489E-002
 -0.10476591465173775        2.0790758684219243E-002   5.3580033751674257E-002
 -0.10211066522972495        2.4931618926070705E-002   4.5590630864858470E-002
  -9.9455415807712166E-002   2.7504875605022211E-002   3.9290751348129718E-002
  -9.6800166385699354E-002   2.8510528721073923E-002   3.4680395201488010E-002
  -9.4144916963686542E-002   2.7948578274225651E-002   3.1759562424933323E-002
  -6.1472296591952018E-002   1.4460312757544148E-002   5.3051153555729168E-002
  -6.0121509387885450E-002   1.5460793671904768E-002   5.1633368750536146E-002
  -5.8770722183818888E-002   1.6064367002851070E-002   5.0666661096728974E-002
  -5.7419934979752348E-002   1.6271032750383056E-002   5.0151030594307734E-002
  -5.6069147775685765E-002   1.6080790914500834E-002   5.0086477243272323E-002
  -7.0109449048029543E-002   1.7832379136714510E-002   4.8682513373417460E-002
  -6.8355287550585384E-002   1.8282310686104749E-002   4.7218405404185579E-002
  -6.6601126053141196E-002   1.8506579389322791E-002   4.6109968870323030E-002
  -6.4846964555697009E-002   1.8505185246368735E-002   4.5357203771829890E-002
  -6.3092803058252836E-002   1.8278128257242565E-002   4.4960110108706090E-002
  -7.8433936595344506E-002   2.1204445515884896E-002   4.3677701457514199E-002
  -7.6371806520539209E-002   2.1103827700304688E-002   4.2338515061485615E-002
  -7.4309676445733927E-002   2.0948791775794517E-002   4.1259594384809882E-002
  -7.2247546370928645E-002   2.0739337742354372E-002   4.0440939427486999E-002
  -7.0185416296123335E-002   2.0475465599984262E-002   3.9882550189517016E-002
  -8.6445759233896843E-002   2.4576511895055296E-002   3.8036717808019489E-002
  -8.4171066297746941E-002   2.3925344714504648E-002   3.6993697722436381E-002
  -8.1896373361597052E-002   2.3391004162266280E-002   3.6115537640189641E-002
  -7.9621680425447150E-002   2.2973490238340014E-002   3.5402237561279144E-002
  -7.7346987489297248E-002   2.2672802942725948E-002   3.4853797485705038E-002
  -9.4144916963686542E-002   2.7948578274225651E-002   3.1759562424933323E-002
  -9.1753066882208550E-002   2.6746861728704621E-002   3.1183953387037805E-002
  -8.9361216800730572E-002   2.5833216548737957E-002   3.0677798636462129E-002
  -8.6969366719252622E-002   2.5207642734325634E-002   3.0241098173206318E-002
  -8.4577516637774616E-002   2.4870140285467676E-002   2.9873851997270287E-002
  -5.6069147775685765E-002   1.6080790914500834E-002   5.0086477243272323E-002
  -5.4599383017490524E-002   1.5740066060404852E-002   4.9749893760047625E-002
  -5.3129618259295276E-002   1.5495282753295658E-002   4.9517248250132186E-002
  -5.1659853501100042E-002   1.5346440993173439E-002   4.9388540713525858E-002
  -5.0190088742904801E-002   1.5293540780037890E-002   4.9363771150228913E-002
  -6.3092803058252836E-002   1.8278128257242565E-002   4.4960110108706090E-002
  -6.1488388330901138E-002   1.7949086286726666E-002   4.4644097881214949E-002
  -5.9883973603549502E-002   1.7641737199603512E-002   4.4493447618727477E-002
  -5.8279558876197804E-002   1.7356080995873081E-002   4.4508159321243662E-002
  -5.6675144148846147E-002   1.7092117675535451E-002   4.4688232988763454E-002
  -7.0185416296123335E-002   2.0475465599984262E-002   3.9882550189517016E-002
  -6.8384927607920823E-002   2.0158106513048477E-002   3.9512860554165356E-002
  -6.6584438919718283E-002   1.9788191645911314E-002   3.9369956875511779E-002
  -6.4783950231515758E-002   1.9365720998572804E-002   3.9453839153556242E-002
  -6.2983461543313246E-002   1.8890694571032970E-002   3.9764507388298807E-002
  -7.7346987489297248E-002   2.2672802942725948E-002   3.4853797485705038E-002
  -7.5289000848549475E-002   2.2367126739370219E-002   3.4356181778898855E-002
  -7.3231014207801676E-002   2.1934646092219099E-002   3.4146776020485020E-002
  -7.1173027567053876E-002   2.1375361001272571E-002   3.4225580210463805E-002
  -6.9115040926306076E-002   2.0689271466530552E-002   3.4592594348834875E-002
  -8.4577516637774616E-002   2.4870140285467676E-002   2.9873851997270287E-002
  -8.2200608052787116E-002   2.4576146965692089E-002   2.9174061555415298E-002
  -7.9823699467799658E-002   2.4081100538526943E-002   2.8823905053647229E-002
  -7.7446790882812172E-002   2.3385001003972151E-002   2.8823382491966015E-002
  -7.5069882297824686E-002   2.2487848362028023E-002   2.9172493870371796E-002
  -5.0190088742904801E-002   1.5293540780037890E-002   4.9363771150228913E-002
  -4.8606668393134461E-002   1.5231610855655497E-002   4.8711313701557596E-002
  -4.7023248043364115E-002   1.5055679961792627E-002   4.8320315027758562E-002
  -4.5439827693593768E-002   1.4765748098448895E-002   4.8190775128831874E-002
  -4.3856407343823428E-002   1.4361815265624578E-002   4.8322694004777456E-002
  -5.6675144148846147E-002   1.7092117675535451E-002   4.4688232988763454E-002
  -5.4845921933717900E-002   1.6804267800016273E-002   4.4105123160433801E-002
  -5.3016699718589619E-002   1.6446951930741339E-002   4.3752158287947693E-002
  -5.1187477503461296E-002   1.6020170067710608E-002   4.3629338371305268E-002
  -4.9358255288333097E-002   1.5523922210924135E-002   4.3736663410506305E-002
  -6.2983461543313246E-002   1.8890694571032970E-002   3.9764507388298807E-002
  -6.0939751281855761E-002   1.8376924744377021E-002   3.9295280156035707E-002
  -5.8896041020398276E-002   1.7838223899690166E-002   3.9024884060587475E-002
  -5.6852330758940847E-002   1.7274592036972410E-002   3.8953319101954077E-002
  -5.4808620497483369E-002   1.6686029156223720E-002   3.9080585280135444E-002
  -6.9115040926306076E-002   2.0689271466530552E-002   3.4592594348834875E-002
  -6.6888156437548182E-002   1.9949581688737783E-002   3.4281784688363286E-002
  -6.4661271948790247E-002   1.9229495868638993E-002   3.4138492345677680E-002
  -6.2434387460032291E-002   1.8529014006234221E-002   3.4162717320778205E-002
  -6.0207502971274404E-002   1.7848136101523318E-002   3.4354459613664831E-002
  -7.5069882297824686E-002   2.2487848362028023E-002   2.9172493870371796E-002
  -7.2691137400795025E-002   2.1522238633098517E-002   2.9064636757416412E-002
  -7.0312392503765378E-002   2.0620767837587796E-002   2.9092983143218495E-002
  -6.7933647606735731E-002   1.9783435975495929E-002   2.9257533027777831E-002
  -6.5554902709706070E-002   1.9010243046822917E-002   2.9558286411094592E-002
  -4.3856407343823428E-002   1.4361815265624578E-002   4.8322694004777456E-002
  -4.2277167683459571E-002   1.3925051895236684E-002   4.7942791351182124E-002
  -4.0697928023095700E-002   1.3536628419202515E-002   4.7731691539222354E-002
  -3.9118688362731822E-002   1.3196544837522212E-002   4.7689394568898022E-002
  -3.7539448702367972E-002   1.2904801150195655E-002   4.7815900440209280E-002
  -4.9358255288333097E-002   1.5523922210924135E-002   4.3736663410506305E-002
  -4.7607930766237698E-002   1.5008785281019676E-002   4.3450539383303011E-002
  -4.5857606244142333E-002   1.4525336198635275E-002   4.3337782237927364E-002
  -4.4107281722047004E-002   1.4073574963770721E-002   4.3398391974379016E-002
  -4.2356957199951611E-002   1.3653501576426141E-002   4.3632368592658261E-002
  -5.4808620497483369E-002   1.6686029156223720E-002   3.9080585280135444E-002
  -5.2882647073464580E-002   1.6092518666802696E-002   3.8871587832490589E-002
  -5.0956673649445797E-002   1.5514043978067805E-002   3.8840521306865071E-002
  -4.9030700225427021E-002   1.4950605090019118E-002   3.8987385703258950E-002
  -4.7104726801408231E-002   1.4402202002656628E-002   3.9312181021672249E-002
  -6.0207502971274404E-002   1.7848136101523318E-002   3.4354459613664831E-002
  -5.8101316605140230E-002   1.7176252052585703E-002   3.4205936698744499E-002
  -5.5995130239006076E-002   1.6502751757500395E-002   3.4239908746035448E-002
  -5.3888943872871936E-002   1.5827635216267569E-002   3.4456375755537921E-002
  -5.1782757506737741E-002   1.5150902428887086E-002   3.4855337727251502E-002
  -6.5554902709706070E-002   1.9010243046822917E-002   2.9558286411094592E-002
  -6.3263939361264648E-002   1.8259985438368681E-002   2.9453585982065045E-002
  -6.0972976012823171E-002   1.7491459536933054E-002   2.9535944555438620E-002
  -5.8682012664381694E-002   1.6704665342515957E-002   2.9805362131215596E-002
  -5.6391049315940273E-002   1.5899602855117545E-002   3.0261838709395805E-002
  -3.7539448702367972E-002   1.2904801150195655E-002   4.7815900440209280E-002
  -3.5801963636283074E-002   1.2676728527998588E-002   4.7263413269916232E-002
  -3.4064478570198162E-002   1.2527658141706394E-002   4.6853753237493662E-002
  -3.2326993504113256E-002   1.2457589991319205E-002   4.6586920342941512E-002
  -3.0589508438028365E-002   1.2466524076837127E-002   4.6462914586259840E-002
  -4.2356957199951611E-002   1.3653501576426141E-002   4.3632368592658261E-002
  -4.0466810392265420E-002   1.3271714195770612E-002   4.3221398123104604E-002
  -3.8576663584579209E-002   1.2934810980972877E-002   4.2972923998883292E-002
  -3.6686516776892997E-002   1.2642791932033146E-002   4.2886946219994233E-002
  -3.4796369969206792E-002   1.2395657048951347E-002   4.2963464786437144E-002
  -4.7104726801408231E-002   1.4402202002656628E-002   3.9312181021672249E-002
  -4.5042249044658936E-002   1.3866699863542539E-002   3.9008609182811044E-002
  -4.2979771287909647E-002   1.3341963820239430E-002   3.8887202896743828E-002
  -4.0917293531160387E-002   1.2827993872747089E-002   3.8947962163470615E-002
  -3.8854815774411064E-002   1.2324790021065790E-002   3.9190886982991252E-002
  -5.1782757506737741E-002   1.5150902428887086E-002   3.4855337727251502E-002
  -4.9528279593463634E-002   1.4461685531314682E-002   3.4625046449035551E-002
  -4.7273801680189478E-002   1.3749116659506004E-002   3.4596589931075436E-002
  -4.5019323766915337E-002   1.3013195813461198E-002   3.4769968173370989E-002
  -4.2764845853641216E-002   1.2253922993180233E-002   3.5145181175922358E-002
  -5.6391049315940273E-002   1.5899602855117545E-002   3.0261838709395805E-002
  -5.3924902038679501E-002   1.5056671199086602E-002   3.0070709921778127E-002
  -5.1458754761418729E-002   1.4156269498772522E-002   3.0101085101877922E-002
  -4.8992607484157957E-002   1.3198397754175098E-002   3.0352964249695358E-002
  -4.6526460206897241E-002   1.2183055965294509E-002   3.0826347365230100E-002
  -3.0589508438028365E-002   1.2466524076837127E-002   4.6462914586259840E-002
  -2.9040958532296796E-002   1.3321301332686775E-002   4.4872537747216223E-002
  -2.7492408626565178E-002   1.5788762693295155E-002   4.3262044574484959E-002
  -2.5943858720833653E-002   1.9868908158662060E-002   4.1631435068065936E-002
  -2.4395308815102046E-002   2.5561737728787559E-002   3.9980709227959155E-002
  -3.4796369969206792E-002   1.2395657048951347E-002   4.2963464786437144E-002
  -3.3182978165688867E-002   1.2621475590701481E-002   4.2863315299123933E-002
  -3.1569586362170936E-002   1.3748316816257308E-002   4.2912965941071052E-002
  -2.9956194558652945E-002   1.5776180725618563E-002   4.3112416712278709E-002
  -2.8342802755135094E-002   1.8705067318785518E-002   4.3461667612746502E-002
  -3.8854815774411064E-002   1.2324790021065790E-002   3.9190886982991252E-002
  -3.7006665610158654E-002   1.1921649848716159E-002   3.9869303426455435E-002
  -3.5158515445906292E-002   1.1707870939219239E-002   4.0867436462128023E-002
  -3.3310365281653757E-002   1.1683453292575037E-002   4.2185286090009447E-002
  -3.1462215117401521E-002   1.1848396908783476E-002   4.3822852310099192E-002
  -4.2764845853641216E-002   1.2253922993180233E-002   3.5145181175922358E-002
  -4.0512020865706211E-002   1.1221824106730963E-002   3.5890502129210813E-002
  -3.8259195877771199E-002   9.6674250621813923E-003   3.7125456137656040E-002
  -3.6006370889836124E-002   7.5907258595315809E-003   3.8850043201258150E-002
  -3.3753545901901182E-002   4.9917264987814347E-003   4.1064263320016337E-002
  -4.6526460206897241E-002   1.2183055965294509E-002   3.0826347365230100E-002
  -4.3699043932331483E-002   1.0521998364745710E-002   3.0926911407390123E-002
  -4.0871627657765655E-002   7.6269791851433094E-003   3.1687024967654770E-002
  -3.8044211383199945E-002   3.4979984264879825E-003   3.3106688046024360E-002
  -3.5216795108634125E-002  -1.8649439112206068E-003   3.5185900642498824E-002
  -9.0366514718449406E-002   0.0000000000000000        4.9818924723318954E-002
  -9.3966364701771499E-002   5.4024604068698742E-003   5.3190468189550463E-002
  -9.7566214685093577E-002   1.0668406989863044E-002   5.4941167516353522E-002
 -0.10116606466841567        1.5797839748979484E-002   5.5071022703728115E-002
 -0.10476591465173775        2.0790758684219243E-002   5.3580033751674257E-002
 -0.10330009473091001        0.0000000000000000        5.8646106712966946E-002
 -0.10683873032743098        1.0885109351051697E-002   5.2100838855217678E-002
 -0.11037736592395196        1.9173144083231265E-002   4.7298843910499093E-002
 -0.11391600152047293        2.4864104196538703E-002   4.4240121878811212E-002
 -0.11745463711699389        2.7957989690974006E-002   4.2924672760154013E-002
 -0.12646575037220656        0.0000000000000000        7.4186218044294483E-002
 -0.12657905452946727        1.6367758295233521E-002   5.5263578067569007E-002
 -0.12669235868672798        2.7677881176599490E-002   4.1448328056333375E-002
 -0.12680566284398867        3.3930368644097930E-002   3.2740468010587588E-002
 -0.12691896700124936        3.5125220697728790E-002   2.9139997930331625E-002
 -0.15986348164233907        0.0000000000000000        9.6439258717301551E-002
 -0.15318733730788034        2.1850407239415347E-002   6.2678685826604436E-002
 -0.14651119297342158        3.6182618269967722E-002   3.7389619953856340E-002
 -0.13983504863896287        4.2996633091657160E-002   2.0572061099057237E-002
 -0.13315890430450411        4.2292451704483584E-002   1.2226009262207146E-002
 -0.20349328854130752        0.0000000000000000       0.12540522873198814     
 -0.18666357866267022        2.7333056183597167E-002   7.4346162132323979E-002
 -0.16983386878403289        4.4687355363335950E-002   3.5122719603067974E-002
 -0.15300415890539559        5.2062897539216356E-002   7.7349011442201521E-003
 -0.13617444902675829        4.9459682711238337E-002  -7.8172932442194948E-003
 -0.10476591465173775        2.0790758684219243E-002   5.3580033751674257E-002
 -0.10211066522972495        2.4931618926070705E-002   4.5590630864858470E-002
  -9.9455415807712166E-002   2.7504875605022211E-002   3.9290751348129718E-002
  -9.6800166385699354E-002   2.8510528721073923E-002   3.4680395201488010E-002
  -9.4144916963686542E-002   2.7948578274225651E-002   3.1759562424933323E-002
 -0.11745463711699389        2.7957989690974006E-002   4.2924672760154013E-002
 -0.11349902150033861        2.9428817771246479E-002   3.6662183392717686E-002
 -0.10954340588368332        3.0250605642065463E-002   3.1310903044479317E-002
 -0.10558779026702804        3.0423353303430864E-002   2.6870831715438900E-002
 -0.10163217465037278        2.9947060755342744E-002   2.3341969405596498E-002
 -0.12691896700124936        3.5125220697728790E-002   2.9139997930331625E-002
 -0.12244129954084064        3.3926016616422312E-002   2.5522985435721152E-002
 -0.11796363208043191        3.2996335679108646E-002   2.2038867609419498E-002
 -0.11348596462002321        3.2336177885787833E-002   1.8687644451426746E-002
 -0.10900829715961446        3.1945543236459886E-002   1.5469315961742900E-002
 -0.13315890430450411        4.2292451704483584E-002   1.2226009262207146E-002
 -0.12893749935123106        3.8423215461598145E-002   1.2173036993868755E-002
 -0.12471609439795799        3.5742065716151863E-002   1.1474645042950263E-002
 -0.12049468944468493        3.4249002468144815E-002   1.0130833409451551E-002
 -0.11627328449141182        3.3944025717576966E-002   8.1416020933727327E-003
 -0.13617444902675829        4.9459682711238337E-002  -7.8172932442194948E-003
 -0.13298762093150990        4.2920414306773902E-002  -3.3876619328393476E-003
 -0.12980079283626147        3.8487795753195102E-002  -3.8176465492842024E-004
 -0.12661396474101308        3.6161827050501791E-002   1.2003985895132569E-003
 -0.12342713664576468        3.5942508198694101E-002   1.3588278004858234E-003
  -9.4144916963686542E-002   2.7948578274225651E-002   3.1759562424933323E-002
  -9.1753066882208550E-002   2.6746861728704621E-002   3.1183953387037805E-002
  -8.9361216800730572E-002   2.5833216548737957E-002   3.0677798636462129E-002
  -8.6969366719252622E-002   2.5207642734325634E-002   3.0241098173206318E-002
  -8.4577516637774616E-002   2.4870140285467676E-002   2.9873851997270287E-002
 -0.10163217465037278        2.9947060755342744E-002   2.3341969405596498E-002
  -9.9154540283499182E-002   2.9174708188284739E-002   2.3066321311755098E-002
  -9.6676905916625602E-002   2.8459275792740366E-002   2.2892787501385153E-002
  -9.4199271549752023E-002   2.7800763568709638E-002   2.2821367974486466E-002
  -9.1721637182878457E-002   2.7199171516192652E-002   2.2852062731059206E-002
 -0.10900829715961446        3.1945543236459886E-002   1.5469315961742900E-002
 -0.10641221851119384        3.1602554647864801E-002   1.5262477617915160E-002
 -0.10381613986277320        3.1085335036742694E-002   1.5190413553710182E-002
 -0.10122006121435256        3.0393884403093655E-002   1.5253123769128017E-002
  -9.8623982565931925E-002   2.9528202746917608E-002   1.5450608264168667E-002
 -0.11627328449141182        3.3944025717576966E-002   8.1416020933727327E-003
 -0.11352610156529258        3.4030401107444833E-002   7.7724223055177788E-003
 -0.11077891863917338        3.3711394280745141E-002   7.5706767934371104E-003
 -0.10803173571305417        3.2987005237477642E-002   7.5363655571307761E-003
 -0.10528455278693494        3.1857233977642577E-002   7.6694885965988098E-003
 -0.12342713664576468        3.5942508198694101E-002   1.3588278004858234E-003
 -0.12049618944579540        3.6458247567024954E-002   5.9615537456299272E-004
 -0.11756524224582611        3.6337453524747459E-002   3.3577220566079202E-005
 -0.11463429504585682        3.5580126071861694E-002  -3.2890666150514440E-004
 -0.11170334784588754        3.4186265208367594E-002  -4.9129627165050982E-004
  -8.4577516637774616E-002   2.4870140285467676E-002   2.9873851997270287E-002
  -8.2200608052787116E-002   2.4576146965692089E-002   2.9174061555415298E-002
  -7.9823699467799658E-002   2.4081100538526943E-002   2.8823905053647229E-002
  -7.7446790882812172E-002   2.3385001003972151E-002   2.8823382491966015E-002
  -7.5069882297824686E-002   2.2487848362028023E-002   2.9172493870371796E-002
  -9.1721637182878457E-002   2.7199171516192652E-002   2.2852062731059206E-002
  -8.9047468303836849E-002   2.6591722366363542E-002   2.2206830068458201E-002
  -8.6373299424795213E-002   2.5915638850396713E-002   2.1806484053878673E-002
  -8.3699130545753592E-002   2.5170920968292196E-002   2.1651024687320507E-002
  -8.1024961666711998E-002   2.4357568720049960E-002   2.1740451968783769E-002
  -9.8623982565931925E-002   2.9528202746917608E-002   1.5450608264168667E-002
  -9.5757300684901625E-002   2.8607297767035016E-002   1.4992352122073626E-002
  -9.2890618803871353E-002   2.7750177162266562E-002   1.4674235335934366E-002
  -9.0023936922841136E-002   2.6956840932612153E-002   1.4496257905751063E-002
  -8.7157255041810794E-002   2.6227289078071800E-002   1.4458419831523607E-002
 -0.10528455278693494        3.1857233977642577E-002   7.6694885965988098E-003
 -0.10233010519598150        3.0622873167706590E-002   7.5306277162613009E-003
  -9.9375657605028103E-002   2.9584715474136457E-002   7.4271588998142679E-003
  -9.6421210014074679E-002   2.8742760896932101E-002   7.3590821472576846E-003
  -9.3466762423121269E-002   2.8097009436093716E-002   7.3263974585912866E-003
 -0.11170334784588754        3.4186265208367594E-002  -4.9129627165050982E-004
 -0.10876588183707647        3.2638448568377970E-002  -1.7834314897841042E-004
 -0.10582841582826541        3.1419253786006116E-002   6.5254745518286694E-005
 -0.10289094981945435        3.0528680861251999E-002   2.3949741184027887E-004
  -9.9953483810643284E-002   2.9966729794115632E-002   3.4438484998683405E-004
  -7.5069882297824686E-002   2.2487848362028023E-002   2.9172493870371796E-002
  -7.2691137400795025E-002   2.1522238633098517E-002   2.9064636757416412E-002
  -7.0312392503765378E-002   2.0620767837587796E-002   2.9092983143218495E-002
  -6.7933647606735731E-002   1.9783435975495929E-002   2.9257533027777831E-002
  -6.5554902709706070E-002   1.9010243046822917E-002   2.9558286411094592E-002
  -8.1024961666711998E-002   2.4357568720049960E-002   2.1740451968783769E-002
  -7.8496024072513965E-002   2.3514702953930072E-002   2.1506243179928594E-002
  -7.5967086478315946E-002   2.2681444518193067E-002   2.1436216286652751E-002
  -7.3438148884117926E-002   2.1857793412838535E-002   2.1530371288956227E-002
  -7.0909211289919907E-002   2.1043749637866871E-002   2.1788708186839006E-002
  -8.7157255041810794E-002   2.6227289078071800E-002   1.4458419831523607E-002
  -8.4450146353622496E-002   2.5507167274761752E-002   1.4043327763732454E-002
  -8.1743037665434240E-002   2.4742121198798168E-002   1.3820395988342563E-002
  -7.9035928977245887E-002   2.3932150850181248E-002   1.3789624505353973E-002
  -7.6328820289057672E-002   2.3077256228910742E-002   1.3951013314766655E-002
  -9.3466762423121269E-002   2.8097009436093716E-002   7.3263974585912866E-003
  -9.0553504244120675E-002   2.7499631595593342E-002   6.6758905088279263E-003
  -8.7640246065120095E-002   2.6802797879403546E-002   6.2455222482878719E-003
  -8.4726987886119487E-002   2.6006508287523853E-002   6.0352926769710099E-003
  -8.1813729707118962E-002   2.5110762819954516E-002   6.0452017948773480E-003
  -9.9953483810643284E-002   2.9966729794115632E-002   3.4438484998683405E-004
  -9.6806097744008446E-002   2.9492095916425071E-002  -5.9606858478486457E-004
  -9.3658711677373663E-002   2.8863474560008678E-002  -1.2884049335113446E-003
  -9.0511325610738880E-002   2.8080865724866587E-002  -1.7326241961927724E-003
  -8.7363939544104041E-002   2.7144269410998567E-002  -1.9287263728287596E-003
  -6.5554902709706070E-002   1.9010243046822917E-002   2.9558286411094592E-002
  -6.3263939361264648E-002   1.8259985438368681E-002   2.9453585982065045E-002
  -6.0972976012823171E-002   1.7491459536933054E-002   2.9535944555438620E-002
  -5.8682012664381694E-002   1.6704665342515957E-002   2.9805362131215596E-002
  -5.6391049315940273E-002   1.5899602855117545E-002   3.0261838709395805E-002
  -7.0909211289919907E-002   2.1043749637866871E-002   2.1788708186839006E-002
  -6.8435985364276822E-002   2.0242815652135732E-002   2.1613082891242669E-002
  -6.5962759438633611E-002   1.9458493914502856E-002   2.1614923747646425E-002
  -6.3489533512990470E-002   1.8690784424968611E-002   2.1794230756050477E-002
  -6.1016307587347274E-002   1.7939687183532671E-002   2.2151003916454470E-002
  -7.6328820289057672E-002   2.3077256228910742E-002   1.3951013314766655E-002
  -7.3682924636615840E-002   2.2225645865902796E-002   1.3739343693683320E-002
  -7.1037028984174064E-002   2.1425528292072761E-002   1.3695547374196988E-002
  -6.8391133331732260E-002   2.0676903507421206E-002   1.3819624356307843E-002
  -6.5745237679290511E-002   1.9979771511947825E-002   1.4111574640015750E-002
  -8.1813729707118962E-002   2.5110762819954516E-002   6.0452017948773480E-003
  -7.9004757178281718E-002   2.4208476079669576E-002   5.8323683893868015E-003
  -7.6195784649444404E-002   2.3392562669642614E-002   5.7778154350905334E-003
  -7.3386812120607131E-002   2.2663022589873832E-002   5.8815429319879911E-003
  -7.0577839591769859E-002   2.2019855840362909E-002   6.1435508800793924E-003
  -8.7363939544104041E-002   2.7144269410998567E-002  -1.9287263728287596E-003
  -8.4401482989274357E-002   2.6191306293436856E-002  -2.1078430216463495E-003
  -8.1439026434444728E-002   2.5359597047212412E-002  -2.1382720696733332E-003
  -7.8476569879615043E-002   2.4649141672326499E-002  -2.0200135169092560E-003
  -7.5514113324785415E-002   2.4059940168778216E-002  -1.7530673633544547E-003
  -5.6391049315940273E-002   1.5899602855117545E-002   3.0261838709395805E-002
  -5.3924902038679501E-002   1.5056671199086602E-002   3.0070709921778127E-002
  -5.1458754761418729E-002   1.4156269498772522E-002   3.0101085101877922E-002
  -4.8992607484157957E-002   1.3198397754175098E-002   3.0352964249695358E-002
  -4.6526460206897241E-002   1.2183055965294509E-002   3.0826347365230100E-002
  -6.1016307587347274E-002   1.7939687183532671E-002   2.2151003916454470E-002
  -5.8351294490061364E-002   1.7160828235368047E-002   2.1768762307688733E-002
  -5.5686281392775344E-002   1.6309833625647127E-002   2.1562748371255824E-002
  -5.3021268295489407E-002   1.5386703354370267E-002   2.1532962107155856E-002
  -5.0356255198203401E-002   1.4391437421537312E-002   2.1679403515388829E-002
  -6.5745237679290511E-002   1.9979771511947825E-002   1.4111574640015750E-002
  -6.2926635057363914E-002   1.9264985271649271E-002   1.3523554592828904E-002
  -6.0108032435437310E-002   1.8463397752521732E-002   1.3066485922590500E-002
  -5.7289429813510664E-002   1.7575008954565381E-002   1.2740368629300440E-002
  -5.4470827191584061E-002   1.6599818877780087E-002   1.2545202712958878E-002
  -7.0577839591769859E-002   2.2019855840362909E-002   6.1435508800793924E-003
  -6.7650923740587260E-002   2.1369142307930217E-002   5.3350867771989295E-003
  -6.4724007889404578E-002   2.0616961879396115E-002   4.6122977558822643E-003
  -6.1797092038221944E-002   1.9763314554760523E-002   3.9751838161293310E-003
  -5.8870176187039304E-002   1.8808200334022765E-002   3.4237449579401814E-003
  -7.5514113324785415E-002   2.4059940168778216E-002  -1.7530673633544547E-003
  -7.2524160539731208E-002   2.3473299344211884E-002  -2.7966411392016388E-003
  -6.9534207754677169E-002   2.2770526006270969E-002  -3.7998161288693155E-003
  -6.6544254969623046E-002   2.1951620154955560E-002  -4.7625923323582203E-003
  -6.3554302184568923E-002   2.1016581790265554E-002  -5.6849697496674789E-003
  -4.6526460206897241E-002   1.2183055965294509E-002   3.0826347365230100E-002
  -4.3699043932331483E-002   1.0521998364745710E-002   3.0926911407390123E-002
  -4.0871627657765655E-002   7.6269791851433094E-003   3.1687024967654770E-002
  -3.8044211383199945E-002   3.4979984264879825E-003   3.3106688046024360E-002
  -3.5216795108634125E-002  -1.8649439112206068E-003   3.5185900642498824E-002
  -5.0356255198203401E-002   1.4391437421537312E-002   2.1679403515388829E-002
  -4.7200690562192005E-002   1.3330060413978856E-002   2.0516765365340972E-002
  -4.4045125926180699E-002   1.2208596918526063E-002   1.9350874420079739E-002
  -4.0889561290169393E-002   1.1027046935178312E-002   1.8181730679604810E-002
  -3.7733996654157997E-002   9.7854104639359951E-003   1.7009334143915922E-002
  -5.4470827191584061E-002   1.6599818877780087E-002   1.2545202712958878E-002
  -5.1649916507445548E-002   1.6138122463212418E-002   1.1293237461861991E-002
  -4.8829005823307028E-002   1.6790214651908435E-002   9.3752171022331229E-003
  -4.6008095139168557E-002   1.8556095443868589E-002   6.7911416340720281E-003
  -4.3187184455030017E-002   2.1435764839092597E-002   3.5410110573791953E-003
  -5.8870176187039304E-002   1.8808200334022765E-002   3.4237449579401814E-003
  -5.7046721768092098E-002   1.8946184512445494E-002   3.2563276969526204E-003
  -5.5223267349144865E-002   2.1371832385290886E-002   1.7600530141149897E-003
  -5.3399812930197681E-002   2.6085143952558724E-002  -1.0650790905738566E-003
  -5.1576358511250420E-002   3.3086119214249199E-002  -5.2190686171124795E-003
  -6.3554302184568923E-002   2.1016581790265554E-002  -5.6849697496674789E-003
  -6.3391106344131476E-002   2.1754246561678903E-002  -3.5939639293867121E-003
  -6.3227910503694085E-002   2.5953450118673588E-002  -3.4946178442750997E-003
  -6.3064714663256610E-002   3.3614192461249089E-002  -5.3869314943322602E-003
  -6.2901518822819247E-002   4.4736473589405801E-002  -9.2709048795585058E-003
 </DataArray>
 </PointData>
 </Piece>
 <Piece  NumberOfPoints="          1600 "  NumberOfCells="         1024 ">
 <Points>
 <DataArray  type="Float64" NumberOfComponents="3"  format="ascii" >
  0.50000000000000000        0.0000000000000000        0.0000000000000000     
  0.53125000000000000        0.0000000000000000        0.0000000000000000     
  0.56250000000000000        0.0000000000000000        0.0000000000000000     
  0.59375000000000000        0.0000000000000000        0.0000000000000000     
  0.62500000000000000        0.0000000000000000        0.0000000000000000     
  0.50000000000000000        3.1250000000000000E-002   0.0000000000000000     
  0.53125000000000000        3.1250000000000000E-002   0.0000000000000000     
  0.56250000000000000        3.1250000000000000E-002   0.0000000000000000     
  0.59375000000000000        3.1250000000000000E-002   0.0000000000000000     
  0.62500000000000000        3.1250000000000000E-002   0.0000000000000000     
  0.50000000000000000        6.2500000000000000E-002   0.0000000000000000     
  0.53125000000000000        6.2500000000000000E-002   0.0000000000000000     
  0.56250000000000000        6.2500000000000000E-002   0.0000000000000000     
  0.59375000000000000        6.2500000000000000E-002   0.0000000000000000     
  0.62500000000000000        6.2500000000000000E-002   0.0000000000000000     
  0.50000000000000000        9.3750000000000000E-002   0.0000000000000000     
  0.53125000000000000        9.3750000000000000E-002   0.0000000000000000     
  0.56250000000000000        9.3750000000000000E-002   0.0000000000000000     
  0.59375000000000000        9.3750000000000000E-002   0.0000000000000000     
  0.62500000000000000        9.3750000000000000E-002   0.0000000000000000     
  0.50000000000000000       0.12500000000000000        0.0000000000000000     
  0.53125000000000000       0.12500000000000000        0.0000000000000000     
  0.56250000000000000       0.12500000000000000        0.0000000000000000     
  0.59375000000000000       0.12500000000000000        0.0000000000000000     
  0.62500000000000000       0.12500000000000000        0.0000000000000000     
  0.62500000000000000        0.0000000000000000        0.0000000000000000     
  0.65625000000000000        0.0000000000000000        0.0000000000000000     
  0.68750000000000000        0.0000000000000000        0.0000000000000000     
  0.71875000000000000        0.0000000000000000        0.0000000000000000     
  0.75000000000000000        0.0000000000000000        0.0000000000000000     
  0.62500000000000000        3.1250000000000000E-002   0.0000000000000000     
  0.65625000000000000        3.1250000000000000E-002   0.0000000000000000     
  0.68750000000000000        3.1250000000000000E-002   0.0000000000000000     
  0.71875000000000000        3.1250000000000000E-002   0.0000000000000000     
  0.75000000000000000        3.1250000000000000E-002   0.0000000000000000     
  0.62500000000000000        6.2500000000000000E-002   0.0000000000000000     
  0.65625000000000000        6.2500000000000000E-002   0.0000000000000000     
  0.68750000000000000        6.2500000000000000E-002   0.0000000000000000     
  0.71875000000000000        6.2500000000000000E-002   0.0000000000000000     
  0.75000000000000000        6.2500000000000000E-002   0.0000000000000000     
  0.62500000000000000        9.3750000000000000E-002   0.0000000000000000     
  0.65625000000000000        9.3750000000000000E-002   0.0000000000000000     
  0.68750000000000000        9.3750000000000000E-002   0.0000000000000000     
  0.71875000000000000        9.3750000000000000E-002   0.0000000000000000     
  0.75000000000000000        9.3750000000000000E-002   0.0000000000000000     
  0.62500000000000000       0.12500000000000000        0.0000000000000000     
  0.65625000000000000       0.12500000000000000        0.0000000000000000     
  0.68750000000000000       0.12500000000000000        0.0000000000000000     
  0.71875000000000000       0.12500000000000000        0.0000000000000000     
  0.75000000000000000       0.12500000000000000        0.0000000000000000     
  0.75000000000000000        0.0000000000000000        0.0000000000000000     
  0.78125000000000000        0.0000000000000000        0.0000000000000000     
  0.81250000000000000        0.0000000000000000        0.0000000000000000     
  0.84375000000000000        0.0000000000000000        0.0000000000000000     
  0.87500000000000000        0.0000000000000000        0.0000000000000000     
  0.75000000000000000        3.1250000000000000E-002   0.0000000000000000     
  0.78125000000000000        3.1250000000000000E-002   0.0000000000000000     
  0.81250000000000000        3.1250000000000000E-002   0.0000000000000000     
  0.84375000000000000        3.1250000000000000E-002   0.0000000000000000     
  0.87500000000000000        3.1250000000000000E-002   0.0000000000000000     
  0.75000000000000000        6.2500000000000000E-002   0.0000000000000000     
  0.78125000000000000        6.2500000000000000E-002   0.0000000000000000     
  0.81250000000000000        6.2500000000000000E-002   0.0000000000000000     
  0.84375000000000000        6.2500000000000000E-002   0.0000000000000000     
  0.87500000000000000        6.2500000000000000E-002   0.0000000000000000     
  0.75000000000000000        9.3750000000000000E-002   0.0000000000000000     
  0.78125000000000000        9.3750000000000000E-002   0.0000000000000000     
  0.81250000000000000        9.3750000000000000E-002   0.0000000000000000     
  0.84375000000000000        9.3750000000000000E-002   0.0000000000000000     
  0.87500000000000000        9.3750000000000000E-002   0.0000000000000000     
  0.75000000000000000       0.12500000000000000        0.0000000000000000     
  0.78125000000000000       0.12500000000000000        0.0000000000000000     
  0.81250000000000000       0.12500000000000000        0.0000000000000000     
  0.84375000000000000       0.12500000000000000        0.0000000000000000     
  0.87500000000000000       0.12500000000000000        0.0000000000000000     
  0.87500000000000000        0.0000000000000000        0.0000000000000000     
  0.90625000000000000        0.0000000000000000        0.0000000000000000     
  0.93750000000000000        0.0000000000000000        0.0000000000000000     
  0.96875000000000000        0.0000000000000000        0.0000000000000000     
   1.0000000000000000        0.0000000000000000        0.0000000000000000     
  0.87500000000000000        3.1250000000000000E-002   0.0000000000000000     
  0.90625000000000000        3.1250000000000000E-002   0.0000000000000000     
  0.93750000000000000        3.1250000000000000E-002   0.0000000000000000     
  0.96875000000000000        3.1250000000000000E-002   0.0000000000000000     
   1.0000000000000000        3.1250000000000000E-002   0.0000000000000000     
  0.87500000000000000        6.2500000000000000E-002   0.0000000000000000     
  0.90625000000000000        6.2500000000000000E-002   0.0000000000000000     
  0.93750000000000000        6.2500000000000000E-002   0.0000000000000000     
  0.96875000000000000        6.2500000000000000E-002   0.0000000000000000     
   1.0000000000000000        6.2500000000000000E-002   0.0000000000000000     
  0.87500000000000000        9.3750000000000000E-002   0.0000000000000000     
  0.90625000000000000        9.3750000000000000E-002   0.0000000000000000     
  0.93750000000000000        9.3750000000000000E-002   0.0000000000000000     
  0.96875000000000000        9.3750000000000000E-002   0.0000000000000000     
   1.0000000000000000        9.3750000000000000E-002   0.0000000000000000     
  0.87500000000000000       0.12500000000000000        0.0000000000000000     
  0.90625000000000000       0.12500000000000000        0.0000000000000000     
  0.93750000000000000       0.12500000000000000        0.0000000000000000     
  0.96875000000000000       0.12500000000000000        0.0000000000000000     
   1.0000000000000000       0.12500000000000000        0.0000000000000000     
   1.0000000000000000        0.0000000000000000        0.0000000000000000     
   1.0312500000000000        0.0000000000000000        0.0000000000000000     
   1.0625000000000000        0.0000000000000000        0.0000000000000000     
   1.0937500000000000        0.0000000000000000        0.0000000000000000     
   1.1250000000000000        0.0000000000000000        0.0000000000000000     
   1.0000000000000000        3.1250000000000000E-002   0.0000000000000000     
   1.0312500000000000        3.1250000000000000E-002   0.0000000000000000     
   1.0625000000000000        3.1250000000000000E-002   0.0000000000000000     
   1.0937500000000000        3.1250000000000000E-002   0.0000000000000000     
   1.1250000000000000        3.1250000000000000E-002   0.0000000000000000     
   1.0000000000000000        6.2500000000000000E-002   0.0000000000000000     
   1.0312500000000000        6.2500000000000000E-002   0.0000000000000000     
   1.0625000000000000        6.2500000000000000E-002   0.0000000000000000     
   1.0937500000000000        6.2500000000000000E-002   0.0000000000000000     
   1.1250000000000000        6.2500000000000000E-002   0.0000000000000000     
   1.0000000000000000        9.3750000000000000E-002   0.0000000000000000     
   1.0312500000000000        9.3750000000000000E-002   0.0000000000000000     
   1.0625000000000000        9.3750000000000000E-002   0.0000000000000000     
   1.0937500000000000        9.3750000000000000E-002   0.0000000000000000     
   1.1250000000000000        9.3750000000000000E-002   0.0000000000000000     
   1.0000000000000000       0.12500000000000000        0.0000000000000000     
   1.0312500000000000       0.12500000000000000        0.0000000000000000     
   1.0625000000000000       0.12500000000000000        0.0000000000000000     
   1.0937500000000000       0.12500000000000000        0.0000000000000000     
   1.1250000000000000       0.12500000000000000        0.0000000000000000     
   1.1250000000000000        0.0000000000000000        0.0000000000000000     
   1.1562500000000000        0.0000000000000000        0.0000000000000000     
   1.1875000000000000        0.0000000000000000        0.0000000000000000     
   1.2187500000000000        0.0000000000000000        0.0000000000000000     
   1.2500000000000000        0.0000000000000000        0.0000000000000000     
   1.1250000000000000        3.1250000000000000E-002   0.0000000000000000     
   1.1562500000000000        3.1250000000000000E-002   0.0000000000000000     
   1.1875000000000000        3.1250000000000000E-002   0.0000000000000000     
   1.2187500000000000        3.1250000000000000E-002   0.0000000000000000     
   1.2500000000000000        3.1250000000000000E-002   0.0000000000000000     
   1.1250000000000000        6.2500000000000000E-002   0.0000000000000000     
   1.1562500000000000        6.2500000000000000E-002   0.0000000000000000     
   1.1875000000000000        6.2500000000000000E-002   0.0000000000000000     
   1.2187500000000000        6.2500000000000000E-002   0.0000000000000000     
   1.2500000000000000        6.2500000000000000E-002   0.0000000000000000     
   1.1250000000000000        9.3750000000000000E-002   0.0000000000000000     
   1.1562500000000000        9.3750000000000000E-002   0.0000000000000000     
   1.1875000000000000        9.3750000000000000E-002   0.0000000000000000     
   1.2187500000000000        9.3750000000000000E-002   0.0000000000000000     
   1.2500000000000000        9.3750000000000000E-002   0.0000000000000000     
   1.1250000000000000       0.12500000000000000        0.0000000000000000     
   1.1562500000000000       0.12500000000000000        0.0000000000000000     
   1.1875000000000000       0.12500000000000000        0.0000000000000000     
   1.2187500000000000       0.12500000000000000        0.0000000000000000     
   1.2500000000000000       0.12500000000000000        0.0000000000000000     
   1.2500000000000000        0.0000000000000000        0.0000000000000000     
   1.2812500000000000        0.0000000000000000        0.0000000000000000     
   1.3125000000000000        0.0000000000000000        0.0000000000000000     
   1.3437500000000000        0.0000000000000000        0.0000000000000000     
   1.3750000000000000        0.0000000000000000        0.0000000000000000     
   1.2500000000000000        3.1250000000000000E-002   0.0000000000000000     
   1.2812500000000000        3.1250000000000000E-002   0.0000000000000000     
   1.3125000000000000        3.1250000000000000E-002   0.0000000000000000     
   1.3437500000000000        3.1250000000000000E-002   0.0000000000000000     
   1.3750000000000000        3.1250000000000000E-002   0.0000000000000000     
   1.2500000000000000        6.2500000000000000E-002   0.0000000000000000     
   1.2812500000000000        6.2500000000000000E-002   0.0000000000000000     
   1.3125000000000000        6.2500000000000000E-002   0.0000000000000000     
   1.3437500000000000        6.2500000000000000E-002   0.0000000000000000     
   1.3750000000000000        6.2500000000000000E-002   0.0000000000000000     
   1.2500000000000000        9.3750000000000000E-002   0.0000000000000000     
   1.2812500000000000        9.3750000000000000E-002   0.0000000000000000     
   1.3125000000000000        9.3750000000000000E-002   0.0000000000000000     
   1.3437500000000000        9.3750000000000000E-002   0.0000000000000000     
   1.3750000000000000        9.3750000000000000E-002   0.0000000000000000     
   1.2500000000000000       0.12500000000000000        0.0000000000000000     
   1.2812500000000000       0.12500000000000000        0.0000000000000000     
   1.3125000000000000       0.12500000000000000        0.0000000000000000     
   1.3437500000000000       0.12500000000000000        0.0000000000000000     
   1.3750000000000000       0.12500000000000000        0.0000000000000000     
   1.3750000000000000        0.0000000000000000        0.0000000000000000     
   1.4062500000000000        0.0000000000000000        0.0000000000000000     
   1.4375000000000000        0.0000000000000000        0.0000000000000000     
   1.4687500000000000        0.0000000000000000        0.0000000000000000     
   1.5000000000000000        0.0000000000000000        0.0000000000000000     
   1.3750000000000000        3.1250000000000000E-002   0.0000000000000000     
   1.4062500000000000        3.1250000000000000E-002   0.0000000000000000     
   1.4375000000000000        3.1250000000000000E-002   0.0000000000000000     
   1.4687500000000000        3.1250000000000000E-002   0.0000000000000000     
   1.5000000000000000        3.1250000000000000E-002   0.0000000000000000     
   1.3750000000000000        6.2500000000000000E-002   0.0000000000000000     
   1.4062500000000000        6.2500000000000000E-002   0.0000000000000000     
   1.4375000000000000        6.2500000000000000E-002   0.0000000000000000     
   1.4687500000000000        6.2500000000000000E-002   0.0000000000000000     
   1.5000000000000000        6.2500000000000000E-002   0.0000000000000000     
   1.3750000000000000        9.3750000000000000E-002   0.0000000000000000     
   1.4062500000000000        9.3750000000000000E-002   0.0000000000000000     
   1.4375000000000000        9.3750000000000000E-002   0.0000000000000000     
   1.4687500000000000        9.3750000000000000E-002   0.0000000000000000     
   1.5000000000000000        9.3750000000000000E-002   0.0000000000000000     
   1.3750000000000000       0.12500000000000000        0.0000000000000000     
   1.4062500000000000       0.12500000000000000        0.0000000000000000     
   1.4375000000000000       0.12500000000000000        0.0000000000000000     
   1.4687500000000000       0.12500000000000000        0.0000000000000000     
   1.5000000000000000       0.12500000000000000        0.0000000000000000     
  0.50000000000000000       0.12500000000000000        0.0000000000000000     
  0.53125000000000000       0.12500000000000000        0.0000000000000000     
  0.56250000000000000       0.12500000000000000        0.0000000000000000     
  0.59375000000000000       0.12500000000000000        0.0000000000000000     
  0.62500000000000000       0.12500000000000000        0.0000000000000000     
  0.50000000000000000       0.15625000000000000        0.0000000000000000     
  0.53125000000000000       0.15625000000000000        0.0000000000000000     
  0.56250000000000000       0.15625000000000000        0.0000000000000000     
  0.59375000000000000       0.15625000000000000        0.0000000000000000     
  0.62500000000000000       0.15625000000000000        0.0000000000000000     
  0.50000000000000000       0.18750000000000000        0.0000000000000000     
  0.53125000000000000       0.18750000000000000        0.0000000000000000     
  0.56250000000000000       0.18750000000000000        0.0000000000000000     
  0.59375000000000000       0.18750000000000000        0.0000000000000000     
  0.62500000000000000       0.18750000000000000        0.0000000000000000     
  0.50000000000000000       0.21875000000000000        0.0000000000000000     
  0.53125000000000000       0.21875000000000000        0.0000000000000000     
  0.56250000000000000       0.21875000000000000        0.0000000000000000     
  0.59375000000000000       0.21875000000000000        0.0000000000000000     
  0.62500000000000000       0.21875000000000000        0.0000000000000000     
  0.50000000000000000       0.25000000000000000        0.0000000000000000     
  0.53125000000000000       0.25000000000000000        0.0000000000000000     
  0.56250000000000000       0.25000000000000000        0.0000000000000000     
  0.59375000000000000       0.25000000000000000        0.0000000000000000     
  0.62500000000000000       0.25000000000000000        0.0000000000000000     
  0.62500000000000000       0.12500000000000000        0.0000000000000000     
  0.65625000000000000       0.12500000000000000        0.0000000000000000     
  0.68750000000000000       0.12500000000000000        0.0000000000000000     
  0.71875000000000000       0.12500000000000000        0.0000000000000000     
  0.75000000000000000       0.12500000000000000        0.0000000000000000     
  0.62500000000000000       0.15625000000000000        0.0000000000000000     
  0.65625000000000000       0.15625000000000000        0.0000000000000000     
  0.68750000000000000       0.15625000000000000        0.0000000000000000     
  0.71875000000000000       0.15625000000000000        0.0000000000000000     
  0.75000000000000000       0.15625000000000000        0.0000000000000000     
  0.62500000000000000       0.18750000000000000        0.0000000000000000     
  0.65625000000000000       0.18750000000000000        0.0000000000000000     
  0.68750000000000000       0.18750000000000000        0.0000000000000000     
  0.71875000000000000       0.18750000000000000        0.0000000000000000     
  0.75000000000000000       0.18750000000000000        0.0000000000000000     
  0.62500000000000000       0.21875000000000000        0.0000000000000000     
  0.65625000000000000       0.21875000000000000        0.0000000000000000     
  0.68750000000000000       0.21875000000000000        0.0000000000000000     
  0.71875000000000000       0.21875000000000000        0.0000000000000000     
  0.75000000000000000       0.21875000000000000        0.0000000000000000     
  0.62500000000000000       0.25000000000000000        0.0000000000000000     
  0.65625000000000000       0.25000000000000000        0.0000000000000000     
  0.68750000000000000       0.25000000000000000        0.0000000000000000     
  0.71875000000000000       0.25000000000000000        0.0000000000000000     
  0.75000000000000000       0.25000000000000000        0.0000000000000000     
  0.75000000000000000       0.12500000000000000        0.0000000000000000     
  0.78125000000000000       0.12500000000000000        0.0000000000000000     
  0.81250000000000000       0.12500000000000000        0.0000000000000000     
  0.84375000000000000       0.12500000000000000        0.0000000000000000     
  0.87500000000000000       0.12500000000000000        0.0000000000000000     
  0.75000000000000000       0.15625000000000000        0.0000000000000000     
  0.78125000000000000       0.15625000000000000        0.0000000000000000     
  0.81250000000000000       0.15625000000000000        0.0000000000000000     
  0.84375000000000000       0.15625000000000000        0.0000000000000000     
  0.87500000000000000       0.15625000000000000        0.0000000000000000     
  0.75000000000000000       0.18750000000000000        0.0000000000000000     
  0.78125000000000000       0.18750000000000000        0.0000000000000000     
  0.81250000000000000       0.18750000000000000        0.0000000000000000     
  0.84375000000000000       0.18750000000000000        0.0000000000000000     
  0.87500000000000000       0.18750000000000000        0.0000000000000000     
  0.75000000000000000       0.21875000000000000        0.0000000000000000     
  0.78125000000000000       0.21875000000000000        0.0000000000000000     
  0.81250000000000000       0.21875000000000000        0.0000000000000000     
  0.84375000000000000       0.21875000000000000        0.0000000000000000     
  0.87500000000000000       0.21875000000000000        0.0000000000000000     
  0.75000000000000000       0.25000000000000000        0.0000000000000000     
  0.78125000000000000       0.25000000000000000        0.0000000000000000     
  0.81250000000000000       0.25000000000000000        0.0000000000000000     
  0.84375000000000000       0.25000000000000000        0.0000000000000000     
  0.87500000000000000       0.25000000000000000        0.0000000000000000     
  0.87500000000000000       0.12500000000000000        0.0000000000000000     
  0.90625000000000000       0.12500000000000000        0.0000000000000000     
  0.93750000000000000       0.12500000000000000        0.0000000000000000     
  0.96875000000000000       0.12500000000000000        0.0000000000000000     
   1.0000000000000000       0.12500000000000000        0.0000000000000000     
  0.87500000000000000       0.15625000000000000        0.0000000000000000     
  0.90625000000000000       0.15625000000000000        0.0000000000000000     
  0.93750000000000000       0.15625000000000000        0.0000000000000000     
  0.96875000000000000       0.15625000000000000        0.0000000000000000     
   1.0000000000000000       0.15625000000000000        0.0000000000000000     
  0.87500000000000000       0.18750000000000000        0.0000000000000000     
  0.90625000000000000       0.18750000000000000        0.0000000000000000     
  0.93750000000000000       0.18750000000000000        0.0000000000000000     
  0.96875000000000000       0.18750000000000000        0.0000000000000000     
   1.0000000000000000       0.18750000000000000        0.0000000000000000     
  0.87500000000000000       0.21875000000000000        0.0000000000000000     
  0.90625000000000000       0.21875000000000000        0.0000000000000000     
  0.93750000000000000       0.21875000000000000        0.0000000000000000     
  0.96875000000000000       0.21875000000000000        0.0000000000000000     
   1.0000000000000000       0.21875000000000000        0.0000000000000000     
  0.87500000000000000       0.25000000000000000        0.0000000000000000     
  0.90625000000000000       0.25000000000000000        0.0000000000000000     
  0.93750000000000000       0.25000000000000000        0.0000000000000000     
  0.96875000000000000       0.25000000000000000        0.0000000000000000     
   1.0000000000000000       0.25000000000000000        0.0000000000000000     
   1.0000000000000000       0.12500000000000000        0.0000000000000000     
   1.0312500000000000       0.12500000000000000        0.0000000000000000     
   1.0625000000000000       0.12500000000000000        0.0000000000000000     
   1.0937500000000000       0.12500000000000000        0.0000000000000000     
   1.1250000000000000       0.12500000000000000        0.0000000000000000     
   1.0000000000000000       0.15625000000000000        0.0000000000000000     
   1.0312500000000000       0.15625000000000000        0.0000000000000000     
   1.0625000000000000       0.15625000000000000        0.0000000000000000     
   1.0937500000000000       0.15625000000000000        0.0000000000000000     
   1.1250000000000000       0.15625000000000000        0.0000000000000000     
   1.0000000000000000       0.18750000000000000        0.0000000000000000     
   1.0312500000000000       0.18750000000000000        0.0000000000000000     
   1.0625000000000000       0.18750000000000000        0.0000000000000000     
   1.0937500000000000       0.18750000000000000        0.0000000000000000     
   1.1250000000000000       0.18750000000000000        0.0000000000000000     
   1.0000000000000000       0.21875000000000000        0.0000000000000000     
   1.0312500000000000       0.21875000000000000        0.0000000000000000     
   1.0625000000000000       0.21875000000000000        0.0000000000000000     
   1.0937500000000000       0.21875000000000000        0.0000000000000000     
   1.1250000000000000       0.21875000000000000        0.0000000000000000     
   1.0000000000000000       0.25000000000000000        0.0000000000000000     
   1.0312500000000000       0.25000000000000000        0.0000000000000000     
   1.0625000000000000       0.25000000000000000        0.0000000000000000     
   1.0937500000000000       0.25000000000000000        0.0000000000000000     
   1.1250000000000000       0.25000000000000000        0.0000000000000000     
   1.1250000000000000       0.12500000000000000        0.0000000000000000     
   1.1562500000000000       0.12500000000000000        0.0000000000000000     
   1.1875000000000000       0.12500000000000000        0.0000000000000000     
   1.2187500000000000       0.12500000000000000        0.0000000000000000     
   1.2500000000000000       0.12500000000000000        0.0000000000000000     
   1.1250000000000000       0.15625000000000000        0.0000000000000000     
   1.1562500000000000       0.15625000000000000        0.0000000000000000     
   1.1875000000000000       0.15625000000000000        0.0000000000000000     
   1.2187500000000000       0.15625000000000000        0.0000000000000000     
   1.2500000000000000       0.15625000000000000        0.0000000000000000     
   1.1250000000000000       0.18750000000000000        0.0000000000000000     
   1.1562500000000000       0.18750000000000000        0.0000000000000000     
   1.1875000000000000       0.18750000000000000        0.0000000000000000     
   1.2187500000000000       0.18750000000000000        0.0000000000000000     
   1.2500000000000000       0.18750000000000000        0.0000000000000000     
   1.1250000000000000       0.21875000000000000        0.0000000000000000     
   1.1562500000000000       0.21875000000000000        0.0000000000000000     
   1.1875000000000000       0.21875000000000000        0.0000000000000000     
   1.2187500000000000       0.21875000000000000        0.0000000000000000     
   1.2500000000000000       0.21875000000000000        0.0000000000000000     
   1.1250000000000000       0.25000000000000000        0.0000000000000000     
   1.1562500000000000       0.25000000000000000        0.0000000000000000     
   1.1875000000000000       0.25000000000000000        0.0000000000000000     
   1.2187500000000000       0.25000000000000000        0.0000000000000000     
   1.2500000000000000       0.25000000000000000        0.0000000000000000     
   1.2500000000000000       0.12500000000000000        0.0000000000000000     
   1.2812500000000000       0.12500000000000000        0.0000000000000000     
   1.3125000000000000       0.12500000000000000        0.0000000000000000     
   1.3437500000000000       0.12500000000000000        0.0000000000000000     
   1.3750000000000000       0.12500000000000000        0.0000000000000000     
   1.2500000000000000       0.15625000000000000        0.0000000000000000     
   1.2812500000000000       0.15625000000000000        0.0000000000000000     
   1.3125000000000000       0.15625000000000000        0.0000000000000000     
   1.3437500000000000       0.15625000000000000        0.0000000000000000     
   1.3750000000000000       0.15625000000000000        0.0000000000000000     
   1.2500000000000000       0.18750000000000000        0.0000000000000000     
   1.2812500000000000       0.18750000000000000        0.0000000000000000     
   1.3125000000000000       0.18750000000000000        0.0000000000000000     
   1.3437500000000000       0.18750000000000000        0.0000000000000000     
   1.3750000000000000       0.18750000000000000        0.0000000000000000     
   1.2500000000000000       0.21875000000000000        0.0000000000000000     
   1.2812500000000000       0.21875000000000000        0.0000000000000000     
   1.3125000000000000       0.21875000000000000        0.0000000000000000     
   1.3437500000000000       0.21875000000000000        0.0000000000000000     
   1.3750000000000000       0.21875000000000000        0.0000000000000000     
   1.2500000000000000       0.25000000000000000        0.0000000000000000     
   1.2812500000000000       0.25000000000000000        0.0000000000000000     
   1.3125000000000000       0.25000000000000000        0.0000000000000000     
   1.3437500000000000       0.25000000000000000        0.0000000000000000     
   1.3750000000000000       0.25000000000000000        0.0000000000000000     
   1.3750000000000000       0.12500000000000000        0.0000000000000000     
   1.4062500000000000       0.12500000000000000        0.0000000000000000     
   1.4375000000000000       0.12500000000000000        0.0000000000000000     
   1.4687500000000000       0.12500000000000000        0.0000000000000000     
   1.5000000000000000       0.12500000000000000        0.0000000000000000     
   1.3750000000000000       0.15625000000000000        0.0000000000000000     
   1.4062500000000000       0.15625000000000000        0.0000000000000000     
   1.4375000000000000       0.15625000000000000        0.0000000000000000     
   1.4687500000000000       0.15625000000000000        0.0000000000000000     
   1.5000000000000000       0.15625000000000000        0.0000000000000000     
   1.3750000000000000       0.18750000000000000        0.0000000000000000     
   1.4062500000000000       0.18750000000000000        0.0000000000000000     
   1.4375000000000000       0.18750000000000000        0.0000000000000000     
   1.4687500000000000       0.18750000000000000        0.0000000000000000     
   1.5000000000000000       0.18750000000000000        0.0000000000000000     
   1.3750000000000000       0.21875000000000000        0.0000000000000000     
   1.4062500000000000       0.21875000000000000        0.0000000000000000     
   1.4375000000000000       0.21875000000000000        0.0000000000000000     
   1.4687500000000000       0.21875000000000000        0.0000000000000000     
   1.5000000000000000       0.21875000000000000        0.0000000000000000     
   1.3750000000000000       0.25000000000000000        0.0000000000000000     
   1.4062500000000000       0.25000000000000000        0.0000000000000000     
   1.4375000000000000       0.25000000000000000        0.0000000000000000     
   1.4687500000000000       0.25000000000000000        0.0000000000000000     
   1.5000000000000000       0.25000000000000000        0.0000000000000000     
  0.50000000000000000       0.25000000000000000        0.0000000000000000     
  0.53125000000000000       0.25000000000000000        0.0000000000000000     
  0.56250000000000000       0.25000000000000000        0.0000000000000000     
  0.59375000000000000       0.25000000000000000        0.0000000000000000     
  0.62500000000000000       0.25000000000000000        0.0000000000000000     
  0.50000000000000000       0.28125000000000000        0.0000000000000000     
  0.53125000000000000       0.28125000000000000        0.0000000000000000     
  0.56250000000000000       0.28125000000000000        0.0000000000000000     
  0.59375000000000000       0.28125000000000000        0.0000000000000000     
  0.62500000000000000       0.28125000000000000        0.0000000000000000     
  0.50000000000000000       0.31250000000000000        0.0000000000000000     
  0.53125000000000000       0.31250000000000000        0.0000000000000000     
  0.56250000000000000       0.31250000000000000        0.0000000000000000     
  0.59375000000000000       0.31250000000000000        0.0000000000000000     
  0.62500000000000000       0.31250000000000000        0.0000000000000000     
  0.50000000000000000       0.34375000000000000        0.0000000000000000     
  0.53125000000000000       0.34375000000000000        0.0000000000000000     
  0.56250000000000000       0.34375000000000000        0.0000000000000000     
  0.59375000000000000       0.34375000000000000        0.0000000000000000     
  0.62500000000000000       0.34375000000000000        0.0000000000000000     
  0.50000000000000000       0.37500000000000000        0.0000000000000000     
  0.53125000000000000       0.37500000000000000        0.0000000000000000     
  0.56250000000000000       0.37500000000000000        0.0000000000000000     
  0.59375000000000000       0.37500000000000000        0.0000000000000000     
  0.62500000000000000       0.37500000000000000        0.0000000000000000     
  0.62500000000000000       0.25000000000000000        0.0000000000000000     
  0.65625000000000000       0.25000000000000000        0.0000000000000000     
  0.68750000000000000       0.25000000000000000        0.0000000000000000     
  0.71875000000000000       0.25000000000000000        0.0000000000000000     
  0.75000000000000000       0.25000000000000000        0.0000000000000000     
  0.62500000000000000       0.28125000000000000        0.0000000000000000     
  0.65625000000000000       0.28125000000000000        0.0000000000000000     
  0.68750000000000000       0.28125000000000000        0.0000000000000000     
  0.71875000000000000       0.28125000000000000        0.0000000000000000     
  0.75000000000000000       0.28125000000000000        0.0000000000000000     
  0.62500000000000000       0.31250000000000000        0.0000000000000000     
  0.65625000000000000       0.31250000000000000        0.0000000000000000     
  0.68750000000000000       0.31250000000000000        0.0000000000000000     
  0.71875000000000000       0.31250000000000000        0.0000000000000000     
  0.75000000000000000       0.31250000000000000        0.0000000000000000     
  0.62500000000000000       0.34375000000000000        0.0000000000000000     
  0.65625000000000000       0.34375000000000000        0.0000000000000000     
  0.68750000000000000       0.34375000000000000        0.0000000000000000     
  0.71875000000000000       0.34375000000000000        0.0000000000000000     
  0.75000000000000000       0.34375000000000000        0.0000000000000000     
  0.62500000000000000       0.37500000000000000        0.0000000000000000     
  0.65625000000000000       0.37500000000000000        0.0000000000000000     
  0.68750000000000000       0.37500000000000000        0.0000000000000000     
  0.71875000000000000       0.37500000000000000        0.0000000000000000     
  0.75000000000000000       0.37500000000000000        0.0000000000000000     
  0.75000000000000000       0.25000000000000000        0.0000000000000000     
  0.78125000000000000       0.25000000000000000        0.0000000000000000     
  0.81250000000000000       0.25000000000000000        0.0000000000000000     
  0.84375000000000000       0.25000000000000000        0.0000000000000000     
  0.87500000000000000       0.25000000000000000        0.0000000000000000     
  0.75000000000000000       0.28125000000000000        0.0000000000000000     
  0.78125000000000000       0.28125000000000000        0.0000000000000000     
  0.81250000000000000       0.28125000000000000        0.0000000000000000     
  0.84375000000000000       0.28125000000000000        0.0000000000000000     
  0.87500000000000000       0.28125000000000000        0.0000000000000000     
  0.75000000000000000       0.31250000000000000        0.0000000000000000     
  0.78125000000000000       0.31250000000000000        0.0000000000000000     
  0.81250000000000000       0.31250000000000000        0.0000000000000000     
  0.84375000000000000       0.31250000000000000        0.0000000000000000     
  0.87500000000000000       0.31250000000000000        0.0000000000000000     
  0.75000000000000000       0.34375000000000000        0.0000000000000000     
  0.78125000000000000       0.34375000000000000        0.0000000000000000     
  0.81250000000000000       0.34375000000000000        0.0000000000000000     
  0.84375000000000000       0.34375000000000000        0.0000000000000000     
  0.87500000000000000       0.34375000000000000        0.0000000000000000     
  0.75000000000000000       0.37500000000000000        0.0000000000000000     
  0.78125000000000000       0.37500000000000000        0.0000000000000000     
  0.81250000000000000       0.37500000000000000        0.0000000000000000     
  0.84375000000000000       0.37500000000000000        0.0000000000000000     
  0.87500000000000000       0.37500000000000000        0.0000000000000000     
  0.87500000000000000       0.25000000000000000        0.0000000000000000     
  0.90625000000000000       0.25000000000000000        0.0000000000000000     
  0.93750000000000000       0.25000000000000000        0.0000000000000000     
  0.96875000000000000       0.25000000000000000        0.0000000000000000     
   1.0000000000000000       0.25000000000000000        0.0000000000000000     
  0.87500000000000000       0.28125000000000000        0.0000000000000000     
  0.90625000000000000       0.28125000000000000        0.0000000000000000     
  0.93750000000000000       0.28125000000000000        0.0000000000000000     
  0.96875000000000000       0.28125000000000000        0.0000000000000000     
   1.0000000000000000       0.28125000000000000        0.0000000000000000     
  0.87500000000000000       0.31250000000000000        0.0000000000000000     
  0.90625000000000000       0.31250000000000000        0.0000000000000000     
  0.93750000000000000       0.31250000000000000        0.0000000000000000     
  0.96875000000000000       0.31250000000000000        0.0000000000000000     
   1.0000000000000000       0.31250000000000000        0.0000000000000000     
  0.87500000000000000       0.34375000000000000        0.0000000000000000     
  0.90625000000000000       0.34375000000000000        0.0000000000000000     
  0.93750000000000000       0.34375000000000000        0.0000000000000000     
  0.96875000000000000       0.34375000000000000        0.0000000000000000     
   1.0000000000000000       0.34375000000000000        0.0000000000000000     
  0.87500000000000000       0.37500000000000000        0.0000000000000000     
  0.90625000000000000       0.37500000000000000        0.0000000000000000     
  0.93750000000000000       0.37500000000000000        0.0000000000000000     
  0.96875000000000000       0.37500000000000000        0.0000000000000000     
   1.0000000000000000       0.37500000000000000        0.0000000000000000     
   1.0000000000000000       0.25000000000000000        0.0000000000000000     
   1.0312500000000000       0.25000000000000000        0.0000000000000000     
   1.0625000000000000       0.25000000000000000        0.0000000000000000     
   1.0937500000000000       0.25000000000000000        0.0000000000000000     
   1.1250000000000000       0.25000000000000000        0.0000000000000000     
   1.0000000000000000       0.28125000000000000        0.0000000000000000     
   1.0312500000000000       0.28125000000000000        0.0000000000000000     
   1.0625000000000000       0.28125000000000000        0.0000000000000000     
   1.0937500000000000       0.28125000000000000        0.0000000000000000     
   1.1250000000000000       0.28125000000000000        0.0000000000000000     
   1.0000000000000000       0.31250000000000000        0.0000000000000000     
   1.0312500000000000       0.31250000000000000        0.0000000000000000     
   1.0625000000000000       0.31250000000000000        0.0000000000000000     
   1.0937500000000000       0.31250000000000000        0.0000000000000000     
   1.1250000000000000       0.31250000000000000        0.0000000000000000     
   1.0000000000000000       0.34375000000000000        0.0000000000000000     
   1.0312500000000000       0.34375000000000000        0.0000000000000000     
   1.0625000000000000       0.34375000000000000        0.0000000000000000     
   1.0937500000000000       0.34375000000000000        0.0000000000000000     
   1.1250000000000000       0.34375000000000000        0.0000000000000000     
   1.0000000000000000       0.37500000000000000        0.0000000000000000     
   1.0312500000000000       0.37500000000000000        0.0000000000000000     
   1.0625000000000000       0.37500000000000000        0.0000000000000000     
   1.0937500000000000       0.37500000000000000        0.0000000000000000     
   1.1250000000000000       0.37500000000000000        0.0000000000000000     
   1.1250000000000000       0.25000000000000000        0.0000000000000000     
   1.1562500000000000       0.25000000000000000        0.0000000000000000     
   1.1875000000000000       0.25000000000000000        0.0000000000000000     
   1.2187500000000000       0.25000000000000000        0.0000000000000000     
   1.2500000000000000       0.25000000000000000        0.0000000000000000     
   1.1250000000000000       0.28125000000000000        0.0000000000000000     
   1.1562500000000000       0.28125000000000000        0.0000000000000000     
   1.1875000000000000       0.28125000000000000        0.0000000000000000     
   1.2187500000000000       0.28125000000000000        0.0000000000000000     
   1.2500000000000000       0.28125000000000000        0.0000000000000000     
   1.1250000000000000       0.31250000000000000        0.0000000000000000     
   1.1562500000000000       0.31250000000000000        0.0000000000000000     
   1.1875000000000000       0.31250000000000000        0.0000000000000000     
   1.2187500000000000       0.31250000000000000        0.0000000000000000     
   1.2500000000000000       0.31250000000000000        0.0000000000000000     
   1.1250000000000000       0.34375000000000000        0.0000000000000000     
   1.1562500000000000       0.34375000000000000        0.0000000000000000     
   1.1875000000000000       0.34375000000000000        0.0000000000000000     
   1.2187500000000000       0.34375000000000000        0.0000000000000000     
   1.2500000000000000       0.34375000000000000        0.0000000000000000     
   1.1250000000000000       0.37500000000000000        0.0000000000000000     
   1.1562500000000000       0.37500000000000000        0.0000000000000000     
   1.1875000000000000       0.37500000000000000        0.0000000000000000     
   1.2187500000000000       0.37500000000000000        0.0000000000000000     
   1.2500000000000000       0.37500000000000000        0.0000000000000000     
   1.2500000000000000       0.25000000000000000        0.0000000000000000     
   1.2812500000000000       0.25000000000000000        0.0000000000000000     
   1.3125000000000000       0.25000000000000000        0.0000000000000000     
   1.3437500000000000       0.25000000000000000        0.0000000000000000     
   1.3750000000000000       0.25000000000000000        0.0000000000000000     
   1.2500000000000000       0.28125000000000000        0.0000000000000000     
   1.2812500000000000       0.28125000000000000        0.0000000000000000     
   1.3125000000000000       0.28125000000000000        0.0000000000000000     
   1.3437500000000000       0.28125000000000000        0.0000000000000000     
   1.3750000000000000       0.28125000000000000        0.0000000000000000     
   1.2500000000000000       0.31250000000000000        0.0000000000000000     
   1.2812500000000000       0.31250000000000000        0.0000000000000000     
   1.3125000000000000       0.31250000000000000        0.0000000000000000     
   1.3437500000000000       0.31250000000000000        0.0000000000000000     
   1.3750000000000000       0.31250000000000000        0.0000000000000000     
   1.2500000000000000       0.34375000000000000        0.0000000000000000     
   1.2812500000000000       0.34375000000000000        0.0000000000000000     
   1.3125000000000000       0.34375000000000000        0.0000000000000000     
   1.3437500000000000       0.34375000000000000        0.0000000000000000     
   1.3750000000000000       0.34375000000000000        0.0000000000000000     
   1.2500000000000000       0.37500000000000000        0.0000000000000000     
   1.2812500000000000       0.37500000000000000        0.0000000000000000     
   1.3125000000000000       0.37500000000000000        0.0000000000000000     
   1.3437500000000000       0.37500000000000000        0.0000000000000000     
   1.3750000000000000       0.37500000000000000        0.0000000000000000     
   1.3750000000000000       0.25000000000000000        0.0000000000000000     
   1.4062500000000000       0.25000000000000000        0.0000000000000000     
   1.4375000000000000       0.25000000000000000        0.0000000000000000     
   1.4687500000000000       0.25000000000000000        0.0000000000000000     
   1.5000000000000000       0.25000000000000000        0.0000000000000000     
   1.3750000000000000       0.28125000000000000        0.0000000000000000     
   1.4062500000000000       0.28125000000000000        0.0000000000000000     
   1.4375000000000000       0.28125000000000000        0.0000000000000000     
   1.4687500000000000       0.28125000000000000        0.0000000000000000     
   1.5000000000000000       0.28125000000000000        0.0000000000000000     
   1.3750000000000000       0.31250000000000000        0.0000000000000000     
   1.4062500000000000       0.31250000000000000        0.0000000000000000     
   1.4375000000000000       0.31250000000000000        0.0000000000000000     
   1.4687500000000000       0.31250000000000000        0.0000000000000000     
   1.5000000000000000       0.31250000000000000        0.0000000000000000     
   1.3750000000000000       0.34375000000000000        0.0000000000000000     
   1.4062500000000000       0.34375000000000000        0.0000000000000000     
   1.4375000000000000       0.34375000000000000        0.0000000000000000     
   1.4687500000000000       0.34375000000000000        0.0000000000000000     
   1.5000000000000000       0.34375000000000000        0.0000000000000000     
   1.3750000000000000       0.37500000000000000        0.0000000000000000     
   1.4062500000000000       0.37500000000000000        0.0000000000000000     
   1.4375000000000000       0.37500000000000000        0.0000000000000000     
   1.4687500000000000       0.37500000000000000        0.0000000000000000     
   1.5000000000000000       0.37500000000000000        0.0000000000000000     
  0.50000000000000000       0.37500000000000000        0.0000000000000000     
  0.53125000000000000       0.37500000000000000        0.0000000000000000     
  0.56250000000000000       0.37500000000000000        0.0000000000000000     
  0.59375000000000000       0.37500000000000000        0.0000000000000000     
  0.62500000000000000       0.37500000000000000        0.0000000000000000     
  0.50000000000000000       0.40625000000000000        0.0000000000000000     
  0.53125000000000000       0.40625000000000000        0.0000000000000000     
  0.56250000000000000       0.40625000000000000        0.0000000000000000     
  0.59375000000000000       0.40625000000000000        0.0000000000000000     
  0.62500000000000000       0.40625000000000000        0.0000000000000000     
  0.50000000000000000       0.43750000000000000        0.0000000000000000     
  0.53125000000000000       0.43750000000000000        0.0000000000000000     
  0.56250000000000000       0.43750000000000000        0.0000000000000000     
  0.59375000000000000       0.43750000000000000        0.0000000000000000     
  0.62500000000000000       0.43750000000000000        0.0000000000000000     
  0.50000000000000000       0.46875000000000000        0.0000000000000000     
  0.53125000000000000       0.46875000000000000        0.0000000000000000     
  0.56250000000000000       0.46875000000000000        0.0000000000000000     
  0.59375000000000000       0.46875000000000000        0.0000000000000000     
  0.62500000000000000       0.46875000000000000        0.0000000000000000     
  0.50000000000000000       0.50000000000000000        0.0000000000000000     
  0.53125000000000000       0.50000000000000000        0.0000000000000000     
  0.56250000000000000       0.50000000000000000        0.0000000000000000     
  0.59375000000000000       0.50000000000000000        0.0000000000000000     
  0.62500000000000000       0.50000000000000000        0.0000000000000000     
  0.62500000000000000       0.37500000000000000        0.0000000000000000     
  0.65625000000000000       0.37500000000000000        0.0000000000000000     
  0.68750000000000000       0.37500000000000000        0.0000000000000000     
  0.71875000000000000       0.37500000000000000        0.0000000000000000     
  0.75000000000000000       0.37500000000000000        0.0000000000000000     
  0.62500000000000000       0.40625000000000000        0.0000000000000000     
  0.65625000000000000       0.40625000000000000        0.0000000000000000     
  0.68750000000000000       0.40625000000000000        0.0000000000000000     
  0.71875000000000000       0.40625000000000000        0.0000000000000000     
  0.75000000000000000       0.40625000000000000        0.0000000000000000     
  0.62500000000000000       0.43750000000000000        0.0000000000000000     
  0.65625000000000000       0.43750000000000000        0.0000000000000000     
  0.68750000000000000       0.43750000000000000        0.0000000000000000     
  0.71875000000000000       0.43750000000000000        0.0000000000000000     
  0.75000000000000000       0.43750000000000000        0.0000000000000000     
  0.62500000000000000       0.46875000000000000        0.0000000000000000     
  0.65625000000000000       0.46875000000000000        0.0000000000000000     
  0.68750000000000000       0.46875000000000000        0.0000000000000000     
  0.71875000000000000       0.46875000000000000        0.0000000000000000     
  0.75000000000000000       0.46875000000000000        0.0000000000000000     
  0.62500000000000000       0.50000000000000000        0.0000000000000000     
  0.65625000000000000       0.50000000000000000        0.0000000000000000     
  0.68750000000000000       0.50000000000000000        0.0000000000000000     
  0.71875000000000000       0.50000000000000000        0.0000000000000000     
  0.75000000000000000       0.50000000000000000        0.0000000000000000     
  0.75000000000000000       0.37500000000000000        0.0000000000000000     
  0.78125000000000000       0.37500000000000000        0.0000000000000000     
  0.81250000000000000       0.37500000000000000        0.0000000000000000     
  0.84375000000000000       0.37500000000000000        0.0000000000000000     
  0.87500000000000000       0.37500000000000000        0.0000000000000000     
  0.75000000000000000       0.40625000000000000        0.0000000000000000     
  0.78125000000000000       0.40625000000000000        0.0000000000000000     
  0.81250000000000000       0.40625000000000000        0.0000000000000000     
  0.84375000000000000       0.40625000000000000        0.0000000000000000     
  0.87500000000000000       0.40625000000000000        0.0000000000000000     
  0.75000000000000000       0.43750000000000000        0.0000000000000000     
  0.78125000000000000       0.43750000000000000        0.0000000000000000     
  0.81250000000000000       0.43750000000000000        0.0000000000000000     
  0.84375000000000000       0.43750000000000000        0.0000000000000000     
  0.87500000000000000       0.43750000000000000        0.0000000000000000     
  0.75000000000000000       0.46875000000000000        0.0000000000000000     
  0.78125000000000000       0.46875000000000000        0.0000000000000000     
  0.81250000000000000       0.46875000000000000        0.0000000000000000     
  0.84375000000000000       0.46875000000000000        0.0000000000000000     
  0.87500000000000000       0.46875000000000000        0.0000000000000000     
  0.75000000000000000       0.50000000000000000        0.0000000000000000     
  0.78125000000000000       0.50000000000000000        0.0000000000000000     
  0.81250000000000000       0.50000000000000000        0.0000000000000000     
  0.84375000000000000       0.50000000000000000        0.0000000000000000     
  0.87500000000000000       0.50000000000000000        0.0000000000000000     
  0.87500000000000000       0.37500000000000000        0.0000000000000000     
  0.90625000000000000       0.37500000000000000        0.0000000000000000     
  0.93750000000000000       0.37500000000000000        0.0000000000000000     
  0.96875000000000000       0.37500000000000000        0.0000000000000000     
   1.0000000000000000       0.37500000000000000        0.0000000000000000     
  0.87500000000000000       0.40625000000000000        0.0000000000000000     
  0.90625000000000000       0.40625000000000000        0.0000000000000000     
  0.93750000000000000       0.40625000000000000        0.0000000000000000     
  0.96875000000000000       0.40625000000000000        0.0000000000000000     
   1.0000000000000000       0.40625000000000000        0.0000000000000000     
  0.87500000000000000       0.43750000000000000        0.0000000000000000     
  0.90625000000000000       0.43750000000000000        0.0000000000000000     
  0.93750000000000000       0.43750000000000000        0.0000000000000000     
  0.96875000000000000       0.43750000000000000        0.0000000000000000     
   1.0000000000000000       0.43750000000000000        0.0000000000000000     
  0.87500000000000000       0.46875000000000000        0.0000000000000000     
  0.90625000000000000       0.46875000000000000        0.0000000000000000     
  0.93750000000000000       0.46875000000000000        0.0000000000000000     
  0.96875000000000000       0.46875000000000000        0.0000000000000000     
   1.0000000000000000       0.46875000000000000        0.0000000000000000     
  0.87500000000000000       0.50000000000000000        0.0000000000000000     
  0.90625000000000000       0.50000000000000000        0.0000000000000000     
  0.93750000000000000       0.50000000000000000        0.0000000000000000     
  0.96875000000000000       0.50000000000000000        0.0000000000000000     
   1.0000000000000000       0.50000000000000000        0.0000000000000000     
   1.0000000000000000       0.37500000000000000        0.0000000000000000     
   1.0312500000000000       0.37500000000000000        0.0000000000000000     
   1.0625000000000000       0.37500000000000000        0.0000000000000000     
   1.0937500000000000       0.37500000000000000        0.0000000000000000     
   1.1250000000000000       0.37500000000000000        0.0000000000000000     
   1.0000000000000000       0.40625000000000000        0.0000000000000000     
   1.0312500000000000       0.40625000000000000        0.0000000000000000     
   1.0625000000000000       0.40625000000000000        0.0000000000000000     
   1.0937500000000000       0.40625000000000000        0.0000000000000000     
   1.1250000000000000       0.40625000000000000        0.0000000000000000     
   1.0000000000000000       0.43750000000000000        0.0000000000000000     
   1.0312500000000000       0.43750000000000000        0.0000000000000000     
   1.0625000000000000       0.43750000000000000        0.0000000000000000     
   1.0937500000000000       0.43750000000000000        0.0000000000000000     
   1.1250000000000000       0.43750000000000000        0.0000000000000000     
   1.0000000000000000       0.46875000000000000        0.0000000000000000     
   1.0312500000000000       0.46875000000000000        0.0000000000000000     
   1.0625000000000000       0.46875000000000000        0.0000000000000000     
   1.0937500000000000       0.46875000000000000        0.0000000000000000     
   1.1250000000000000       0.46875000000000000        0.0000000000000000     
   1.0000000000000000       0.50000000000000000        0.0000000000000000     
   1.0312500000000000       0.50000000000000000        0.0000000000000000     
   1.0625000000000000       0.50000000000000000        0.0000000000000000     
   1.0937500000000000       0.50000000000000000        0.0000000000000000     
   1.1250000000000000       0.50000000000000000        0.0000000000000000     
   1.1250000000000000       0.37500000000000000        0.0000000000000000     
   1.1562500000000000       0.37500000000000000        0.0000000000000000     
   1.1875000000000000       0.37500000000000000        0.0000000000000000     
   1.2187500000000000       0.37500000000000000        0.0000000000000000     
   1.2500000000000000       0.37500000000000000        0.0000000000000000     
   1.1250000000000000       0.40625000000000000        0.0000000000000000     
   1.1562500000000000       0.40625000000000000        0.0000000000000000     
   1.1875000000000000       0.40625000000000000        0.0000000000000000     
   1.2187500000000000       0.40625000000000000        0.0000000000000000     
   1.2500000000000000       0.40625000000000000        0.0000000000000000     
   1.1250000000000000       0.43750000000000000        0.0000000000000000     
   1.1562500000000000       0.43750000000000000        0.0000000000000000     
   1.1875000000000000       0.43750000000000000        0.0000000000000000     
   1.2187500000000000       0.43750000000000000        0.0000000000000000     
   1.2500000000000000       0.43750000000000000        0.0000000000000000     
   1.1250000000000000       0.46875000000000000        0.0000000000000000     
   1.1562500000000000       0.46875000000000000        0.0000000000000000     
   1.1875000000000000       0.46875000000000000        0.0000000000000000     
   1.2187500000000000       0.46875000000000000        0.0000000000000000     
   1.2500000000000000       0.46875000000000000        0.0000000000000000     
   1.1250000000000000       0.50000000000000000        0.0000000000000000     
   1.1562500000000000       0.50000000000000000        0.0000000000000000     
   1.1875000000000000       0.50000000000000000        0.0000000000000000     
   1.2187500000000000       0.50000000000000000        0.0000000000000000     
   1.2500000000000000       0.50000000000000000        0.0000000000000000     
   1.2500000000000000       0.37500000000000000        0.0000000000000000     
   1.2812500000000000       0.37500000000000000        0.0000000000000000     
   1.3125000000000000       0.37500000000000000        0.0000000000000000     
   1.3437500000000000       0.37500000000000000        0.0000000000000000     
   1.3750000000000000       0.37500000000000000        0.0000000000000000     
   1.2500000000000000       0.40625000000000000        0.0000000000000000     
   1.2812500000000000       0.40625000000000000        0.0000000000000000     
   1.3125000000000000       0.40625000000000000        0.0000000000000000     
   1.3437500000000000       0.40625000000000000        0.0000000000000000     
   1.3750000000000000       0.40625000000000000        0.0000000000000000     
   1.2500000000000000       0.43750000000000000        0.0000000000000000     
   1.2812500000000000       0.43750000000000000        0.0000000000000000     
   1.3125000000000000       0.43750000000000000        0.0000000000000000     
   1.3437500000000000       0.43750000000000000        0.0000000000000000     
   1.3750000000000000       0.43750000000000000        0.0000000000000000     
   1.2500000000000000       0.46875000000000000        0.0000000000000000     
   1.2812500000000000       0.46875000000000000        0.0000000000000000     
   1.3125000000000000       0.46875000000000000        0.0000000000000000     
   1.3437500000000000       0.46875000000000000        0.0000000000000000     
   1.3750000000000000       0.46875000000000000        0.0000000000000000     
   1.2500000000000000       0.50000000000000000        0.0000000000000000     
   1.2812500000000000       0.50000000000000000        0.0000000000000000     
   1.3125000000000000       0.50000000000000000        0.0000000000000000     
   1.3437500000000000       0.50000000000000000        0.0000000000000000     
   1.3750000000000000       0.50000000000000000        0.0000000000000000     
   1.3750000000000000       0.37500000000000000        0.0000000000000000     
   1.4062500000000000       0.37500000000000000        0.0000000000000000     
   1.4375000000000000       0.37500000000000000        0.0000000000000000     
   1.4687500000000000       0.37500000000000000        0.0000000000000000     
   1.5000000000000000       0.37500000000000000        0.0000000000000000     
   1.3750000000000000       0.40625000000000000        0.0000000000000000     
   1.4062500000000000       0.40625000000000000        0.0000000000000000     
   1.4375000000000000       0.40625000000000000        0.0000000000000000     
   1.4687500000000000       0.40625000000000000        0.0000000000000000     
   1.5000000000000000       0.40625000000000000        0.0000000000000000     
   1.3750000000000000       0.43750000000000000        0.0000000000000000     
   1.4062500000000000       0.43750000000000000        0.0000000000000000     
   1.4375000000000000       0.43750000000000000        0.0000000000000000     
   1.4687500000000000       0.43750000000000000        0.0000000000000000     
   1.5000000000000000       0.43750000000000000        0.0000000000000000     
   1.3750000000000000       0.46875000000000000        0.0000000000000000     
   1.4062500000000000       0.46875000000000000        0.0000000000000000     
   1.4375000000000000       0.46875000000000000        0.0000000000000000     
   1.4687500000000000       0.46875000000000000        0.0000000000000000     
   1.5000000000000000       0.46875000000000000        0.0000000000000000     
   1.3750000000000000       0.50000000000000000        0.0000000000000000     
   1.4062500000000000       0.50000000000000000        0.0000000000000000     
   1.4375000000000000       0.50000000000000000        0.0000000000000000     
   1.4687500000000000       0.50000000000000000        0.0000000000000000     
   1.5000000000000000       0.50000000000000000        0.0000000000000000     
  0.50000000000000000       0.50000000000000000        0.0000000000000000     
  0.53125000000000000       0.50000000000000000        0.0000000000000000     
  0.56250000000000000       0.50000000000000000        0.0000000000000000     
  0.59375000000000000       0.50000000000000000        0.0000000000000000     
  0.62500000000000000       0.50000000000000000        0.0000000000000000     
  0.50000000000000000       0.53125000000000000        0.0000000000000000     
  0.53125000000000000       0.53125000000000000        0.0000000000000000     
  0.56250000000000000       0.53125000000000000        0.0000000000000000     
  0.59375000000000000       0.53125000000000000        0.0000000000000000     
  0.62500000000000000       0.53125000000000000        0.0000000000000000     
  0.50000000000000000       0.56250000000000000        0.0000000000000000     
  0.53125000000000000       0.56250000000000000        0.0000000000000000     
  0.56250000000000000       0.56250000000000000        0.0000000000000000     
  0.59375000000000000       0.56250000000000000        0.0000000000000000     
  0.62500000000000000       0.56250000000000000        0.0000000000000000     
  0.50000000000000000       0.59375000000000000        0.0000000000000000     
  0.53125000000000000       0.59375000000000000        0.0000000000000000     
  0.56250000000000000       0.59375000000000000        0.0000000000000000     
  0.59375000000000000       0.59375000000000000        0.0000000000000000     
  0.62500000000000000       0.59375000000000000        0.0000000000000000     
  0.50000000000000000       0.62500000000000000        0.0000000000000000     
  0.53125000000000000       0.62500000000000000        0.0000000000000000     
  0.56250000000000000       0.62500000000000000        0.0000000000000000     
  0.59375000000000000       0.62500000000000000        0.0000000000000000     
  0.62500000000000000       0.62500000000000000        0.0000000000000000     
  0.62500000000000000       0.50000000000000000        0.0000000000000000     
  0.65625000000000000       0.50000000000000000        0.0000000000000000     
  0.68750000000000000       0.50000000000000000        0.0000000000000000     
  0.71875000000000000       0.50000000000000000        0.0000000000000000     
  0.75000000000000000       0.50000000000000000        0.0000000000000000     
  0.62500000000000000       0.53125000000000000        0.0000000000000000     
  0.65625000000000000       0.53125000000000000        0.0000000000000000     
  0.68750000000000000       0.53125000000000000        0.0000000000000000     
  0.71875000000000000       0.53125000000000000        0.0000000000000000     
  0.75000000000000000       0.53125000000000000        0.0000000000000000     
  0.62500000000000000       0.56250000000000000        0.0000000000000000     
  0.65625000000000000       0.56250000000000000        0.0000000000000000     
  0.68750000000000000       0.56250000000000000        0.0000000000000000     
  0.71875000000000000       0.56250000000000000        0.0000000000000000     
  0.75000000000000000       0.56250000000000000        0.0000000000000000     
  0.62500000000000000       0.59375000000000000        0.0000000000000000     
  0.65625000000000000       0.59375000000000000        0.0000000000000000     
  0.68750000000000000       0.59375000000000000        0.0000000000000000     
  0.71875000000000000       0.59375000000000000        0.0000000000000000     
  0.75000000000000000       0.59375000000000000        0.0000000000000000     
  0.62500000000000000       0.62500000000000000        0.0000000000000000     
  0.65625000000000000       0.62500000000000000        0.0000000000000000     
  0.68750000000000000       0.62500000000000000        0.0000000000000000     
  0.71875000000000000       0.62500000000000000        0.0000000000000000     
  0.75000000000000000       0.62500000000000000        0.0000000000000000     
  0.75000000000000000       0.50000000000000000        0.0000000000000000     
  0.78125000000000000       0.50000000000000000        0.0000000000000000     
  0.81250000000000000       0.50000000000000000        0.0000000000000000     
  0.84375000000000000       0.50000000000000000        0.0000000000000000     
  0.87500000000000000       0.50000000000000000        0.0000000000000000     
  0.75000000000000000       0.53125000000000000        0.0000000000000000     
  0.78125000000000000       0.53125000000000000        0.0000000000000000     
  0.81250000000000000       0.53125000000000000        0.0000000000000000     
  0.84375000000000000       0.53125000000000000        0.0000000000000000     
  0.87500000000000000       0.53125000000000000        0.0000000000000000     
  0.75000000000000000       0.56250000000000000        0.0000000000000000     
  0.78125000000000000       0.56250000000000000        0.0000000000000000     
  0.81250000000000000       0.56250000000000000        0.0000000000000000     
  0.84375000000000000       0.56250000000000000        0.0000000000000000     
  0.87500000000000000       0.56250000000000000        0.0000000000000000     
  0.75000000000000000       0.59375000000000000        0.0000000000000000     
  0.78125000000000000       0.59375000000000000        0.0000000000000000     
  0.81250000000000000       0.59375000000000000        0.0000000000000000     
  0.84375000000000000       0.59375000000000000        0.0000000000000000     
  0.87500000000000000       0.59375000000000000        0.0000000000000000     
  0.75000000000000000       0.62500000000000000        0.0000000000000000     
  0.78125000000000000       0.62500000000000000        0.0000000000000000     
  0.81250000000000000       0.62500000000000000        0.0000000000000000     
  0.84375000000000000       0.62500000000000000        0.0000000000000000     
  0.87500000000000000       0.62500000000000000        0.0000000000000000     
  0.87500000000000000       0.50000000000000000        0.0000000000000000     
  0.90625000000000000       0.50000000000000000        0.0000000000000000     
  0.93750000000000000       0.50000000000000000        0.0000000000000000     
  0.96875000000000000       0.50000000000000000        0.0000000000000000     
   1.0000000000000000       0.50000000000000000        0.0000000000000000     
  0.87500000000000000       0.53125000000000000        0.0000000000000000     
  0.90625000000000000       0.53125000000000000        0.0000000000000000     
  0.93750000000000000       0.53125000000000000        0.0000000000000000     
  0.96875000000000000       0.53125000000000000        0.0000000000000000     
   1.0000000000000000       0.53125000000000000        0.0000000000000000     
  0.87500000000000000       0.56250000000000000        0.0000000000000000     
  0.90625000000000000       0.56250000000000000        0.0000000000000000     
  0.93750000000000000       0.56250000000000000        0.0000000000000000     
  0.96875000000000000       0.56250000000000000        0.0000000000000000     
   1.0000000000000000       0.56250000000000000        0.0000000000000000     
  0.87500000000000000       0.59375000000000000        0.0000000000000000     
  0.90625000000000000       0.59375000000000000        0.0000000000000000     
  0.93750000000000000       0.59375000000000000        0.0000000000000000     
  0.96875000000000000       0.59375000000000000        0.0000000000000000     
   1.0000000000000000       0.59375000000000000        0.0000000000000000     
  0.87500000000000000       0.62500000000000000        0.0000000000000000     
  0.90625000000000000       0.62500000000000000        0.0000000000000000     
  0.93750000000000000       0.62500000000000000        0.0000000000000000     
  0.96875000000000000       0.62500000000000000        0.0000000000000000     
   1.0000000000000000       0.62500000000000000        0.0000000000000000     
   1.0000000000000000       0.50000000000000000        0.0000000000000000     
   1.0312500000000000       0.50000000000000000        0.0000000000000000     
   1.0625000000000000       0.50000000000000000        0.0000000000000000     
   1.0937500000000000       0.50000000000000000        0.0000000000000000     
   1.1250000000000000       0.50000000000000000        0.0000000000000000     
   1.0000000000000000       0.53125000000000000        0.0000000000000000     
   1.0312500000000000       0.53125000000000000        0.0000000000000000     
   1.0625000000000000       0.53125000000000000        0.0000000000000000     
   1.0937500000000000       0.53125000000000000        0.0000000000000000     
   1.1250000000000000       0.53125000000000000        0.0000000000000000     
   1.0000000000000000       0.56250000000000000        0.0000000000000000     
   1.0312500000000000       0.56250000000000000        0.0000000000000000     
   1.0625000000000000       0.56250000000000000        0.0000000000000000     
   1.0937500000000000       0.56250000000000000        0.0000000000000000     
   1.1250000000000000       0.56250000000000000        0.0000000000000000     
   1.0000000000000000       0.59375000000000000        0.0000000000000000     
   1.0312500000000000       0.59375000000000000        0.0000000000000000     
   1.0625000000000000       0.59375000000000000        0.0000000000000000     
   1.0937500000000000       0.59375000000000000        0.0000000000000000     
   1.1250000000000000       0.59375000000000000        0.0000000000000000     
   1.0000000000000000       0.62500000000000000        0.0000000000000000     
   1.0312500000000000       0.62500000000000000        0.0000000000000000     
   1.0625000000000000       0.62500000000000000        0.0000000000000000     
   1.0937500000000000       0.62500000000000000        0.0000000000000000     
   1.1250000000000000       0.62500000000000000        0.0000000000000000     
   1.1250000000000000       0.50000000000000000        0.0000000000000000     
   1.1562500000000000       0.50000000000000000        0.0000000000000000     
   1.1875000000000000       0.50000000000000000        0.0000000000000000     
   1.2187500000000000       0.50000000000000000        0.0000000000000000     
   1.2500000000000000       0.50000000000000000        0.0000000000000000     
   1.1250000000000000       0.53125000000000000        0.0000000000000000     
   1.1562500000000000       0.53125000000000000        0.0000000000000000     
   1.1875000000000000       0.53125000000000000        0.0000000000000000     
   1.2187500000000000       0.53125000000000000        0.0000000000000000     
   1.2500000000000000       0.53125000000000000        0.0000000000000000     
   1.1250000000000000       0.56250000000000000        0.0000000000000000     
   1.1562500000000000       0.56250000000000000        0.0000000000000000     
   1.1875000000000000       0.56250000000000000        0.0000000000000000     
   1.2187500000000000       0.56250000000000000        0.0000000000000000     
   1.2500000000000000       0.56250000000000000        0.0000000000000000     
   1.1250000000000000       0.59375000000000000        0.0000000000000000     
   1.1562500000000000       0.59375000000000000        0.0000000000000000     
   1.1875000000000000       0.59375000000000000        0.0000000000000000     
   1.2187500000000000       0.59375000000000000        0.0000000000000000     
   1.2500000000000000       0.59375000000000000        0.0000000000000000     
   1.1250000000000000       0.62500000000000000        0.0000000000000000     
   1.1562500000000000       0.62500000000000000        0.0000000000000000     
   1.1875000000000000       0.62500000000000000        0.0000000000000000     
   1.2187500000000000       0.62500000000000000        0.0000000000000000     
   1.2500000000000000       0.62500000000000000        0.0000000000000000     
   1.2500000000000000       0.50000000000000000        0.0000000000000000     
   1.2812500000000000       0.50000000000000000        0.0000000000000000     
   1.3125000000000000       0.50000000000000000        0.0000000000000000     
   1.3437500000000000       0.50000000000000000        0.0000000000000000     
   1.3750000000000000       0.50000000000000000        0.0000000000000000     
   1.2500000000000000       0.53125000000000000        0.0000000000000000     
   1.2812500000000000       0.53125000000000000        0.0000000000000000     
   1.3125000000000000       0.53125000000000000        0.0000000000000000     
   1.3437500000000000       0.53125000000000000        0.0000000000000000     
   1.3750000000000000       0.53125000000000000        0.0000000000000000     
   1.2500000000000000       0.56250000000000000        0.0000000000000000     
   1.2812500000000000       0.56250000000000000        0.0000000000000000     
   1.3125000000000000       0.56250000000000000        0.0000000000000000     
   1.3437500000000000       0.56250000000000000        0.0000000000000000     
   1.3750000000000000       0.56250000000000000        0.0000000000000000     
   1.2500000000000000       0.59375000000000000        0.0000000000000000     
   1.2812500000000000       0.59375000000000000        0.0000000000000000     
   1.3125000000000000       0.59375000000000000        0.0000000000000000     
   1.3437500000000000       0.59375000000000000        0.0000000000000000     
   1.3750000000000000       0.59375000000000000        0.0000000000000000     
   1.2500000000000000       0.62500000000000000        0.0000000000000000     
   1.2812500000000000       0.62500000000000000        0.0000000000000000     
   1.3125000000000000       0.62500000000000000        0.0000000000000000     
   1.3437500000000000       0.62500000000000000        0.0000000000000000     
   1.3750000000000000       0.62500000000000000        0.0000000000000000     
   1.3750000000000000       0.50000000000000000        0.0000000000000000     
   1.4062500000000000       0.50000000000000000        0.0000000000000000     
   1.4375000000000000       0.50000000000000000        0.0000000000000000     
   1.4687500000000000       0.50000000000000000        0.0000000000000000     
   1.5000000000000000       0.50000000000000000        0.0000000000000000     
   1.3750000000000000       0.53125000000000000        0.0000000000000000     
   1.4062500000000000       0.53125000000000000        0.0000000000000000     
   1.4375000000000000       0.53125000000000000        0.0000000000000000     
   1.4687500000000000       0.53125000000000000        0.0000000000000000     
   1.5000000000000000       0.53125000000000000        0.0000000000000000     
   1.3750000000000000       0.56250000000000000        0.0000000000000000     
   1.4062500000000000       0.56250000000000000        0.0000000000000000     
   1.4375000000000000       0.56250000000000000        0.0000000000000000     
   1.4687500000000000       0.56250000000000000        0.0000000000000000     
   1.5000000000000000       0.56250000000000000        0.0000000000000000     
   1.3750000000000000       0.59375000000000000        0.0000000000000000     
   1.4062500000000000       0.59375000000000000        0.0000000000000000     
   1.4375000000000000       0.59375000000000000        0.0000000000000000     
   1.4687500000000000       0.59375000000000000        0.0000000000000000     
   1.5000000000000000       0.59375000000000000        0.0000000000000000     
   1.3750000000000000       0.62500000000000000        0.0000000000000000     
   1.4062500000000000       0.62500000000000000        0.0000000000000000     
   1.4375000000000000       0.62500000000000000        0.0000000000000000     
   1.4687500000000000       0.62500000000000000        0.0000000000000000     
   1.5000000000000000       0.62500000000000000        0.0000000000000000     
  0.50000000000000000       0.62500000000000000        0.0000000000000000     
  0.53125000000000000       0.62500000000000000        0.0000000000000000     
  0.56250000000000000       0.62500000000000000        0.0000000000000000     
  0.59375000000000000       0.62500000000000000        0.0000000000000000     
  0.62500000000000000       0.62500000000000000        0.0000000000000000     
  0.50000000000000000       0.65625000000000000        0.0000000000000000     
  0.53125000000000000       0.65625000000000000        0.0000000000000000     
  0.56250000000000000       0.65625000000000000        0.0000000000000000     
  0.59375000000000000       0.65625000000000000        0.0000000000000000     
  0.62500000000000000       0.65625000000000000        0.0000000000000000     
  0.50000000000000000       0.68750000000000000        0.0000000000000000     
  0.53125000000000000       0.68750000000000000        0.0000000000000000     
  0.56250000000000000       0.68750000000000000        0.0000000000000000     
  0.59375000000000000       0.68750000000000000        0.0000000000000000     
  0.62500000000000000       0.68750000000000000        0.0000000000000000     
  0.50000000000000000       0.71875000000000000        0.0000000000000000     
  0.53125000000000000       0.71875000000000000        0.0000000000000000     
  0.56250000000000000       0.71875000000000000        0.0000000000000000     
  0.59375000000000000       0.71875000000000000        0.0000000000000000     
  0.62500000000000000       0.71875000000000000        0.0000000000000000     
  0.50000000000000000       0.75000000000000000        0.0000000000000000     
  0.53125000000000000       0.75000000000000000        0.0000000000000000     
  0.56250000000000000       0.75000000000000000        0.0000000000000000     
  0.59375000000000000       0.75000000000000000        0.0000000000000000     
  0.62500000000000000       0.75000000000000000        0.0000000000000000     
  0.62500000000000000       0.62500000000000000        0.0000000000000000     
  0.65625000000000000       0.62500000000000000        0.0000000000000000     
  0.68750000000000000       0.62500000000000000        0.0000000000000000     
  0.71875000000000000       0.62500000000000000        0.0000000000000000     
  0.75000000000000000       0.62500000000000000        0.0000000000000000     
  0.62500000000000000       0.65625000000000000        0.0000000000000000     
  0.65625000000000000       0.65625000000000000        0.0000000000000000     
  0.68750000000000000       0.65625000000000000        0.0000000000000000     
  0.71875000000000000       0.65625000000000000        0.0000000000000000     
  0.75000000000000000       0.65625000000000000        0.0000000000000000     
  0.62500000000000000       0.68750000000000000        0.0000000000000000     
  0.65625000000000000       0.68750000000000000        0.0000000000000000     
  0.68750000000000000       0.68750000000000000        0.0000000000000000     
  0.71875000000000000       0.68750000000000000        0.0000000000000000     
  0.75000000000000000       0.68750000000000000        0.0000000000000000     
  0.62500000000000000       0.71875000000000000        0.0000000000000000     
  0.65625000000000000       0.71875000000000000        0.0000000000000000     
  0.68750000000000000       0.71875000000000000        0.0000000000000000     
  0.71875000000000000       0.71875000000000000        0.0000000000000000     
  0.75000000000000000       0.71875000000000000        0.0000000000000000     
  0.62500000000000000       0.75000000000000000        0.0000000000000000     
  0.65625000000000000       0.75000000000000000        0.0000000000000000     
  0.68750000000000000       0.75000000000000000        0.0000000000000000     
  0.71875000000000000       0.75000000000000000        0.0000000000000000     
  0.75000000000000000       0.75000000000000000        0.0000000000000000     
  0.75000000000000000       0.62500000000000000        0.0000000000000000     
  0.78125000000000000       0.62500000000000000        0.0000000000000000     
  0.81250000000000000       0.62500000000000000        0.0000000000000000     
  0.84375000000000000       0.62500000000000000        0.0000000000000000     
  0.87500000000000000       0.62500000000000000        0.0000000000000000     
  0.75000000000000000       0.65625000000000000        0.0000000000000000     
  0.78125000000000000       0.65625000000000000        0.0000000000000000     
  0.81250000000000000       0.65625000000000000        0.0000000000000000     
  0.84375000000000000       0.65625000000000000        0.0000000000000000     
  0.87500000000000000       0.65625000000000000        0.0000000000000000     
  0.75000000000000000       0.68750000000000000        0.0000000000000000     
  0.78125000000000000       0.68750000000000000        0.0000000000000000     
  0.81250000000000000       0.68750000000000000        0.0000000000000000     
  0.84375000000000000       0.68750000000000000        0.0000000000000000     
  0.87500000000000000       0.68750000000000000        0.0000000000000000     
  0.75000000000000000       0.71875000000000000        0.0000000000000000     
  0.78125000000000000       0.71875000000000000        0.0000000000000000     
  0.81250000000000000       0.71875000000000000        0.0000000000000000     
  0.84375000000000000       0.71875000000000000        0.0000000000000000     
  0.87500000000000000       0.71875000000000000        0.0000000000000000     
  0.75000000000000000       0.75000000000000000        0.0000000000000000     
  0.78125000000000000       0.75000000000000000        0.0000000000000000     
  0.81250000000000000       0.75000000000000000        0.0000000000000000     
  0.84375000000000000       0.75000000000000000        0.0000000000000000     
  0.87500000000000000       0.75000000000000000        0.0000000000000000     
  0.87500000000000000       0.62500000000000000        0.0000000000000000     
  0.90625000000000000       0.62500000000000000        0.0000000000000000     
  0.93750000000000000       0.62500000000000000        0.0000000000000000     
  0.96875000000000000       0.62500000000000000        0.0000000000000000     
   1.0000000000000000       0.62500000000000000        0.0000000000000000     
  0.87500000000000000       0.65625000000000000        0.0000000000000000     
  0.90625000000000000       0.65625000000000000        0.0000000000000000     
  0.93750000000000000       0.65625000000000000        0.0000000000000000     
  0.96875000000000000       0.65625000000000000        0.0000000000000000     
   1.0000000000000000       0.65625000000000000        0.0000000000000000     
  0.87500000000000000       0.68750000000000000        0.0000000000000000     
  0.90625000000000000       0.68750000000000000        0.0000000000000000     
  0.93750000000000000       0.68750000000000000        0.0000000000000000     
  0.96875000000000000       0.68750000000000000        0.0000000000000000     
   1.0000000000000000       0.68750000000000000        0.0000000000000000     
  0.87500000000000000       0.71875000000000000        0.0000000000000000     
  0.90625000000000000       0.71875000000000000        0.0000000000000000     
  0.93750000000000000       0.71875000000000000        0.0000000000000000     
  0.96875000000000000       0.71875000000000000        0.0000000000000000     
   1.0000000000000000       0.71875000000000000        0.0000000000000000     
  0.87500000000000000       0.75000000000000000        0.0000000000000000     
  0.90625000000000000       0.75000000000000000        0.0000000000000000     
  0.93750000000000000       0.75000000000000000        0.0000000000000000     
  0.96875000000000000       0.75000000000000000        0.0000000000000000     
   1.0000000000000000       0.75000000000000000        0.0000000000000000     
   1.0000000000000000       0.62500000000000000        0.0000000000000000     
   1.0312500000000000       0.62500000000000000        0.0000000000000000     
   1.0625000000000000       0.62500000000000000        0.0000000000000000     
   1.0937500000000000       0.62500000000000000        0.0000000000000000     
   1.1250000000000000       0.62500000000000000        0.0000000000000000     
   1.0000000000000000       0.65625000000000000        0.0000000000000000     
   1.0312500000000000       0.65625000000000000        0.0000000000000000     
   1.0625000000000000       0.65625000000000000        0.0000000000000000     
   1.0937500000000000       0.65625000000000000        0.0000000000000000     
   1.1250000000000000       0.65625000000000000        0.0000000000000000     
   1.0000000000000000       0.68750000000000000        0.0000000000000000     
   1.0312500000000000       0.68750000000000000        0.0000000000000000     
   1.0625000000000000       0.68750000000000000        0.0000000000000000     
   1.0937500000000000       0.68750000000000000        0.0000000000000000     
   1.1250000000000000       0.68750000000000000        0.0000000000000000     
   1.0000000000000000       0.71875000000000000        0.0000000000000000     
   1.0312500000000000       0.71875000000000000        0.0000000000000000     
   1.0625000000000000       0.71875000000000000        0.0000000000000000     
   1.0937500000000000       0.71875000000000000        0.0000000000000000     
   1.1250000000000000       0.71875000000000000        0.0000000000000000     
   1.0000000000000000       0.75000000000000000        0.0000000000000000     
   1.0312500000000000       0.75000000000000000        0.0000000000000000     
   1.0625000000000000       0.75000000000000000        0.0000000000000000     
   1.0937500000000000       0.75000000000000000        0.0000000000000000     
   1.1250000000000000       0.75000000000000000        0.0000000000000000     
   1.1250000000000000       0.62500000000000000        0.0000000000000000     
   1.1562500000000000       0.62500000000000000        0.0000000000000000     
   1.1875000000000000       0.62500000000000000        0.0000000000000000     
   1.2187500000000000       0.62500000000000000        0.0000000000000000     
   1.2500000000000000       0.62500000000000000        0.0000000000000000     
   1.1250000000000000       0.65625000000000000        0.0000000000000000     
   1.1562500000000000       0.65625000000000000        0.0000000000000000     
   1.1875000000000000       0.65625000000000000        0.0000000000000000     
   1.2187500000000000       0.65625000000000000        0.0000000000000000     
   1.2500000000000000       0.65625000000000000        0.0000000000000000     
   1.1250000000000000       0.68750000000000000        0.0000000000000000     
   1.1562500000000000       0.68750000000000000        0.0000000000000000     
   1.1875000000000000       0.68750000000000000        0.0000000000000000     
   1.2187500000000000       0.68750000000000000        0.0000000000000000     
   1.2500000000000000       0.68750000000000000        0.0000000000000000     
   1.1250000000000000       0.71875000000000000        0.0000000000000000     
   1.1562500000000000       0.71875000000000000        0.0000000000000000     
   1.1875000000000000       0.71875000000000000        0.0000000000000000     
   1.2187500000000000       0.71875000000000000        0.0000000000000000     
   1.2500000000000000       0.71875000000000000        0.0000000000000000     
   1.1250000000000000       0.75000000000000000        0.0000000000000000     
   1.1562500000000000       0.75000000000000000        0.0000000000000000     
   1.1875000000000000       0.75000000000000000        0.0000000000000000     
   1.2187500000000000       0.75000000000000000        0.0000000000000000     
   1.2500000000000000       0.75000000000000000        0.0000000000000000     
   1.2500000000000000       0.62500000000000000        0.0000000000000000     
   1.2812500000000000       0.62500000000000000        0.0000000000000000     
   1.3125000000000000       0.62500000000000000        0.0000000000000000     
   1.3437500000000000       0.62500000000000000        0.0000000000000000     
   1.3750000000000000       0.62500000000000000        0.0000000000000000     
   1.2500000000000000       0.65625000000000000        0.0000000000000000     
   1.2812500000000000       0.65625000000000000        0.0000000000000000     
   1.3125000000000000       0.65625000000000000        0.0000000000000000     
   1.3437500000000000       0.65625000000000000        0.0000000000000000     
   1.3750000000000000       0.65625000000000000        0.0000000000000000     
   1.2500000000000000       0.68750000000000000        0.0000000000000000     
   1.2812500000000000       0.68750000000000000        0.0000000000000000     
   1.3125000000000000       0.68750000000000000        0.0000000000000000     
   1.3437500000000000       0.68750000000000000        0.0000000000000000     
   1.3750000000000000       0.68750000000000000        0.0000000000000000     
   1.2500000000000000       0.71875000000000000        0.0000000000000000     
   1.2812500000000000       0.71875000000000000        0.0000000000000000     
   1.3125000000000000       0.71875000000000000        0.0000000000000000     
   1.3437500000000000       0.71875000000000000        0.0000000000000000     
   1.3750000000000000       0.71875000000000000        0.0000000000000000     
   1.2500000000000000       0.75000000000000000        0.0000000000000000     
   1.2812500000000000       0.75000000000000000        0.0000000000000000     
   1.3125000000000000       0.75000000000000000        0.0000000000000000     
   1.3437500000000000       0.75000000000000000        0.0000000000000000     
   1.3750000000000000       0.75000000000000000        0.0000000000000000     
   1.3750000000000000       0.62500000000000000        0.0000000000000000     
   1.4062500000000000       0.62500000000000000        0.0000000000000000     
   1.4375000000000000       0.62500000000000000        0.0000000000000000     
   1.4687500000000000       0.62500000000000000        0.0000000000000000     
   1.5000000000000000       0.62500000000000000        0.0000000000000000     
   1.3750000000000000       0.65625000000000000        0.0000000000000000     
   1.4062500000000000       0.65625000000000000        0.0000000000000000     
   1.4375000000000000       0.65625000000000000        0.0000000000000000     
   1.4687500000000000       0.65625000000000000        0.0000000000000000     
   1.5000000000000000       0.65625000000000000        0.0000000000000000     
   1.3750000000000000       0.68750000000000000        0.0000000000000000     
   1.4062500000000000       0.68750000000000000        0.0000000000000000     
   1.4375000000000000       0.68750000000000000        0.0000000000000000     
   1.4687500000000000       0.68750000000000000        0.0000000000000000     
   1.5000000000000000       0.68750000000000000        0.0000000000000000     
   1.3750000000000000       0.71875000000000000        0.0000000000000000     
   1.4062500000000000       0.71875000000000000        0.0000000000000000     
   1.4375000000000000       0.71875000000000000        0.0000000000000000     
   1.4687500000000000       0.71875000000000000        0.0000000000000000     
   1.5000000000000000       0.71875000000000000        0.0000000000000000     
   1.3750000000000000       0.75000000000000000        0.0000000000000000     
   1.4062500000000000       0.75000000000000000        0.0000000000000000     
   1.4375000000000000       0.75000000000000000        0.0000000000000000     
   1.4687500000000000       0.75000000000000000        0.0000000000000000     
   1.5000000000000000       0.75000000000000000        0.0000000000000000     
  0.50000000000000000       0.75000000000000000        0.0000000000000000     
  0.53125000000000000       0.75000000000000000        0.0000000000000000     
  0.56250000000000000       0.75000000000000000        0.0000000000000000     
  0.59375000000000000       0.75000000000000000        0.0000000000000000     
  0.62500000000000000       0.75000000000000000        0.0000000000000000     
  0.50000000000000000       0.78125000000000000        0.0000000000000000     
  0.53125000000000000       0.78125000000000000        0.0000000000000000     
  0.56250000000000000       0.78125000000000000        0.0000000000000000     
  0.59375000000000000       0.78125000000000000        0.0000000000000000     
  0.62500000000000000       0.78125000000000000        0.0000000000000000     
  0.50000000000000000       0.81250000000000000        0.0000000000000000     
  0.53125000000000000       0.81250000000000000        0.0000000000000000     
  0.56250000000000000       0.81250000000000000        0.0000000000000000     
  0.59375000000000000       0.81250000000000000        0.0000000000000000     
  0.62500000000000000       0.81250000000000000        0.0000000000000000     
  0.50000000000000000       0.84375000000000000        0.0000000000000000     
  0.53125000000000000       0.84375000000000000        0.0000000000000000     
  0.56250000000000000       0.84375000000000000        0.0000000000000000     
  0.59375000000000000       0.84375000000000000        0.0000000000000000     
  0.62500000000000000       0.84375000000000000        0.0000000000000000     
  0.50000000000000000       0.87500000000000000        0.0000000000000000     
  0.53125000000000000       0.87500000000000000        0.0000000000000000     
  0.56250000000000000       0.87500000000000000        0.0000000000000000     
  0.59375000000000000       0.87500000000000000        0.0000000000000000     
  0.62500000000000000       0.87500000000000000        0.0000000000000000     
  0.62500000000000000       0.75000000000000000        0.0000000000000000     
  0.65625000000000000       0.75000000000000000        0.0000000000000000     
  0.68750000000000000       0.75000000000000000        0.0000000000000000     
  0.71875000000000000       0.75000000000000000        0.0000000000000000     
  0.75000000000000000       0.75000000000000000        0.0000000000000000     
  0.62500000000000000       0.78125000000000000        0.0000000000000000     
  0.65625000000000000       0.78125000000000000        0.0000000000000000     
  0.68750000000000000       0.78125000000000000        0.0000000000000000     
  0.71875000000000000       0.78125000000000000        0.0000000000000000     
  0.75000000000000000       0.78125000000000000        0.0000000000000000     
  0.62500000000000000       0.81250000000000000        0.0000000000000000     
  0.65625000000000000       0.81250000000000000        0.0000000000000000     
  0.68750000000000000       0.81250000000000000        0.0000000000000000     
  0.71875000000000000       0.81250000000000000        0.0000000000000000     
  0.75000000000000000       0.81250000000000000        0.0000000000000000     
  0.62500000000000000       0.84375000000000000        0.0000000000000000     
  0.65625000000000000       0.84375000000000000        0.0000000000000000     
  0.68750000000000000       0.84375000000000000        0.0000000000000000     
  0.71875000000000000       0.84375000000000000        0.0000000000000000     
  0.75000000000000000       0.84375000000000000        0.0000000000000000     
  0.62500000000000000       0.87500000000000000        0.0000000000000000     
  0.65625000000000000       0.87500000000000000        0.0000000000000000     
  0.68750000000000000       0.87500000000000000        0.0000000000000000     
  0.71875000000000000       0.87500000000000000        0.0000000000000000     
  0.75000000000000000       0.87500000000000000        0.0000000000000000     
  0.75000000000000000       0.75000000000000000        0.0000000000000000     
  0.78125000000000000       0.75000000000000000        0.0000000000000000     
  0.81250000000000000       0.75000000000000000        0.0000000000000000     
  0.84375000000000000       0.75000000000000000        0.0000000000000000     
  0.87500000000000000       0.75000000000000000        0.0000000000000000     
  0.75000000000000000       0.78125000000000000        0.0000000000000000     
  0.78125000000000000       0.78125000000000000        0.0000000000000000     
  0.81250000000000000       0.78125000000000000        0.0000000000000000     
  0.84375000000000000       0.78125000000000000        0.0000000000000000     
  0.87500000000000000       0.78125000000000000        0.0000000000000000     
  0.75000000000000000       0.81250000000000000        0.0000000000000000     
  0.78125000000000000       0.81250000000000000        0.0000000000000000     
  0.81250000000000000       0.81250000000000000        0.0000000000000000     
  0.84375000000000000       0.81250000000000000        0.0000000000000000     
  0.87500000000000000       0.81250000000000000        0.0000000000000000     
  0.75000000000000000       0.84375000000000000        0.0000000000000000     
  0.78125000000000000       0.84375000000000000        0.0000000000000000     
  0.81250000000000000       0.84375000000000000        0.0000000000000000     
  0.84375000000000000       0.84375000000000000        0.0000000000000000     
  0.87500000000000000       0.84375000000000000        0.0000000000000000     
  0.75000000000000000       0.87500000000000000        0.0000000000000000     
  0.78125000000000000       0.87500000000000000        0.0000000000000000     
  0.81250000000000000       0.87500000000000000        0.0000000000000000     
  0.84375000000000000       0.87500000000000000        0.0000000000000000     
  0.87500000000000000       0.87500000000000000        0.0000000000000000     
  0.87500000000000000       0.75000000000000000        0.0000000000000000     
  0.90625000000000000       0.75000000000000000        0.0000000000000000     
  0.93750000000000000       0.75000000000000000        0.0000000000000000     
  0.96875000000000000       0.75000000000000000        0.0000000000000000     
   1.0000000000000000       0.75000000000000000        0.0000000000000000     
  0.87500000000000000       0.78125000000000000        0.0000000000000000     
  0.90625000000000000       0.78125000000000000        0.0000000000000000     
  0.93750000000000000       0.78125000000000000        0.0000000000000000     
  0.96875000000000000       0.78125000000000000        0.0000000000000000     
   1.0000000000000000       0.78125000000000000        0.0000000000000000     
  0.87500000000000000       0.81250000000000000        0.0000000000000000     
  0.90625000000000000       0.81250000000000000        0.0000000000000000     
  0.93750000000000000       0.81250000000000000        0.0000000000000000     
  0.96875000000000000       0.81250000000000000        0.0000000000000000     
   1.0000000000000000       0.81250000000000000        0.0000000000000000     
  0.87500000000000000       0.84375000000000000        0.0000000000000000     
  0.90625000000000000       0.84375000000000000        0.0000000000000000     
  0.93750000000000000       0.84375000000000000        0.0000000000000000     
  0.96875000000000000       0.84375000000000000        0.0000000000000000     
   1.0000000000000000       0.84375000000000000        0.0000000000000000     
  0.87500000000000000       0.87500000000000000        0.0000000000000000     
  0.90625000000000000       0.87500000000000000        0.0000000000000000     
  0.93750000000000000       0.87500000000000000        0.0000000000000000     
  0.96875000000000000       0.87500000000000000        0.0000000000000000     
   1.0000000000000000       0.87500000000000000        0.0000000000000000     
   1.0000000000000000       0.75000000000000000        0.0000000000000000     
   1.0312500000000000       0.75000000000000000        0.0000000000000000     
   1.0625000000000000       0.75000000000000000        0.0000000000000000     
   1.0937500000000000       0.75000000000000000        0.0000000000000000     
   1.1250000000000000       0.75000000000000000        0.0000000000000000     
   1.0000000000000000       0.78125000000000000        0.0000000000000000     
   1.0312500000000000       0.78125000000000000        0.0000000000000000     
   1.0625000000000000       0.78125000000000000        0.0000000000000000     
   1.0937500000000000       0.78125000000000000        0.0000000000000000     
   1.1250000000000000       0.78125000000000000        0.0000000000000000     
   1.0000000000000000       0.81250000000000000        0.0000000000000000     
   1.0312500000000000       0.81250000000000000        0.0000000000000000     
   1.0625000000000000       0.81250000000000000        0.0000000000000000     
   1.0937500000000000       0.81250000000000000        0.0000000000000000     
   1.1250000000000000       0.81250000000000000        0.0000000000000000     
   1.0000000000000000       0.84375000000000000        0.0000000000000000     
   1.0312500000000000       0.84375000000000000        0.0000000000000000     
   1.0625000000000000       0.84375000000000000        0.0000000000000000     
   1.0937500000000000       0.84375000000000000        0.0000000000000000     
   1.1250000000000000       0.84375000000000000        0.0000000000000000     
   1.0000000000000000       0.87500000000000000        0.0000000000000000     
   1.0312500000000000       0.87500000000000000        0.0000000000000000     
   1.0625000000000000       0.87500000000000000        0.0000000000000000     
   1.0937500000000000       0.87500000000000000        0.0000000000000000     
   1.1250000000000000       0.87500000000000000        0.0000000000000000     
   1.1250000000000000       0.75000000000000000        0.0000000000000000     
   1.1562500000000000       0.75000000000000000        0.0000000000000000     
   1.1875000000000000       0.75000000000000000        0.0000000000000000     
   1.2187500000000000       0.75000000000000000        0.0000000000000000     
   1.2500000000000000       0.75000000000000000        0.0000000000000000     
   1.1250000000000000       0.78125000000000000        0.0000000000000000     
   1.1562500000000000       0.78125000000000000        0.0000000000000000     
   1.1875000000000000       0.78125000000000000        0.0000000000000000     
   1.2187500000000000       0.78125000000000000        0.0000000000000000     
   1.2500000000000000       0.78125000000000000        0.0000000000000000     
   1.1250000000000000       0.81250000000000000        0.0000000000000000     
   1.1562500000000000       0.81250000000000000        0.0000000000000000     
   1.1875000000000000       0.81250000000000000        0.0000000000000000     
   1.2187500000000000       0.81250000000000000        0.0000000000000000     
   1.2500000000000000       0.81250000000000000        0.0000000000000000     
   1.1250000000000000       0.84375000000000000        0.0000000000000000     
   1.1562500000000000       0.84375000000000000        0.0000000000000000     
   1.1875000000000000       0.84375000000000000        0.0000000000000000     
   1.2187500000000000       0.84375000000000000        0.0000000000000000     
   1.2500000000000000       0.84375000000000000        0.0000000000000000     
   1.1250000000000000       0.87500000000000000        0.0000000000000000     
   1.1562500000000000       0.87500000000000000        0.0000000000000000     
   1.1875000000000000       0.87500000000000000        0.0000000000000000     
   1.2187500000000000       0.87500000000000000        0.0000000000000000     
   1.2500000000000000       0.87500000000000000        0.0000000000000000     
   1.2500000000000000       0.75000000000000000        0.0000000000000000     
   1.2812500000000000       0.75000000000000000        0.0000000000000000     
   1.3125000000000000       0.75000000000000000        0.0000000000000000     
   1.3437500000000000       0.75000000000000000        0.0000000000000000     
   1.3750000000000000       0.75000000000000000        0.0000000000000000     
   1.2500000000000000       0.78125000000000000        0.0000000000000000     
   1.2812500000000000       0.78125000000000000        0.0000000000000000     
   1.3125000000000000       0.78125000000000000        0.0000000000000000     
   1.3437500000000000       0.78125000000000000        0.0000000000000000     
   1.3750000000000000       0.78125000000000000        0.0000000000000000     
   1.2500000000000000       0.81250000000000000        0.0000000000000000     
   1.2812500000000000       0.81250000000000000        0.0000000000000000     
   1.3125000000000000       0.81250000000000000        0.0000000000000000     
   1.3437500000000000       0.81250000000000000        0.0000000000000000     
   1.3750000000000000       0.81250000000000000        0.0000000000000000     
   1.2500000000000000       0.84375000000000000        0.0000000000000000     
   1.2812500000000000       0.84375000000000000        0.0000000000000000     
   1.3125000000000000       0.84375000000000000        0.0000000000000000     
   1.3437500000000000       0.84375000000000000        0.0000000000000000     
   1.3750000000000000       0.84375000000000000        0.0000000000000000     
   1.2500000000000000       0.87500000000000000        0.0000000000000000     
   1.2812500000000000       0.87500000000000000        0.0000000000000000     
   1.3125000000000000       0.87500000000000000        0.0000000000000000     
   1.3437500000000000       0.87500000000000000        0.0000000000000000     
   1.3750000000000000       0.87500000000000000        0.0000000000000000     
   1.3750000000000000       0.75000000000000000        0.0000000000000000     
   1.4062500000000000       0.75000000000000000        0.0000000000000000     
   1.4375000000000000       0.75000000000000000        0.0000000000000000     
   1.4687500000000000       0.75000000000000000        0.0000000000000000     
   1.5000000000000000       0.75000000000000000        0.0000000000000000     
   1.3750000000000000       0.78125000000000000        0.0000000000000000     
   1.4062500000000000       0.78125000000000000        0.0000000000000000     
   1.4375000000000000       0.78125000000000000        0.0000000000000000     
   1.4687500000000000       0.78125000000000000        0.0000000000000000     
   1.5000000000000000       0.78125000000000000        0.0000000000000000     
   1.3750000000000000       0.81250000000000000        0.0000000000000000     
   1.4062500000000000       0.81250000000000000        0.0000000000000000     
   1.4375000000000000       0.81250000000000000        0.0000000000000000     
   1.4687500000000000       0.81250000000000000        0.0000000000000000     
   1.5000000000000000       0.81250000000000000        0.0000000000000000     
   1.3750000000000000       0.84375000000000000        0.0000000000000000     
   1.4062500000000000       0.84375000000000000        0.0000000000000000     
   1.4375000000000000       0.84375000000000000        0.0000000000000000     
   1.4687500000000000       0.84375000000000000        0.0000000000000000     
   1.5000000000000000       0.84375000000000000        0.0000000000000000     
   1.3750000000000000       0.87500000000000000        0.0000000000000000     
   1.4062500000000000       0.87500000000000000        0.0000000000000000     
   1.4375000000000000       0.87500000000000000        0.0000000000000000     
   1.4687500000000000       0.87500000000000000        0.0000000000000000     
   1.5000000000000000       0.87500000000000000        0.0000000000000000     
  0.50000000000000000       0.87500000000000000        0.0000000000000000     
  0.53125000000000000       0.87500000000000000        0.0000000000000000     
  0.56250000000000000       0.87500000000000000        0.0000000000000000     
  0.59375000000000000       0.87500000000000000        0.0000000000000000     
  0.62500000000000000       0.87500000000000000        0.0000000000000000     
  0.50000000000000000       0.90625000000000000        0.0000000000000000     
  0.53125000000000000       0.90625000000000000        0.0000000000000000     
  0.56250000000000000       0.90625000000000000        0.0000000000000000     
  0.59375000000000000       0.90625000000000000        0.0000000000000000     
  0.62500000000000000       0.90625000000000000        0.0000000000000000     
  0.50000000000000000       0.93750000000000000        0.0000000000000000     
  0.53125000000000000       0.93750000000000000        0.0000000000000000     
  0.56250000000000000       0.93750000000000000        0.0000000000000000     
  0.59375000000000000       0.93750000000000000        0.0000000000000000     
  0.62500000000000000       0.93750000000000000        0.0000000000000000     
  0.50000000000000000       0.96875000000000000        0.0000000000000000     
  0.53125000000000000       0.96875000000000000        0.0000000000000000     
  0.56250000000000000       0.96875000000000000        0.0000000000000000     
  0.59375000000000000       0.96875000000000000        0.0000000000000000     
  0.62500000000000000       0.96875000000000000        0.0000000000000000     
  0.50000000000000000        1.0000000000000000        0.0000000000000000     
  0.53125000000000000        1.0000000000000000        0.0000000000000000     
  0.56250000000000000        1.0000000000000000        0.0000000000000000     
  0.59375000000000000        1.0000000000000000        0.0000000000000000     
  0.62500000000000000        1.0000000000000000        0.0000000000000000     
  0.62500000000000000       0.87500000000000000        0.0000000000000000     
  0.65625000000000000       0.87500000000000000        0.0000000000000000     
  0.68750000000000000       0.87500000000000000        0.0000000000000000     
  0.71875000000000000       0.87500000000000000        0.0000000000000000     
  0.75000000000000000       0.87500000000000000        0.0000000000000000     
  0.62500000000000000       0.90625000000000000        0.0000000000000000     
  0.65625000000000000       0.90625000000000000        0.0000000000000000     
  0.68750000000000000       0.90625000000000000        0.0000000000000000     
  0.71875000000000000       0.90625000000000000        0.0000000000000000     
  0.75000000000000000       0.90625000000000000        0.0000000000000000     
  0.62500000000000000       0.93750000000000000        0.0000000000000000     
  0.65625000000000000       0.93750000000000000        0.0000000000000000     
  0.68750000000000000       0.93750000000000000        0.0000000000000000     
  0.71875000000000000       0.93750000000000000        0.0000000000000000     
  0.75000000000000000       0.93750000000000000        0.0000000000000000     
  0.62500000000000000       0.96875000000000000        0.0000000000000000     
  0.65625000000000000       0.96875000000000000        0.0000000000000000     
  0.68750000000000000       0.96875000000000000        0.0000000000000000     
  0.71875000000000000       0.96875000000000000        0.0000000000000000     
  0.75000000000000000       0.96875000000000000        0.0000000000000000     
  0.62500000000000000        1.0000000000000000        0.0000000000000000     
  0.65625000000000000        1.0000000000000000        0.0000000000000000     
  0.68750000000000000        1.0000000000000000        0.0000000000000000     
  0.71875000000000000        1.0000000000000000        0.0000000000000000     
  0.75000000000000000        1.0000000000000000        0.0000000000000000     
  0.75000000000000000       0.87500000000000000        0.0000000000000000     
  0.78125000000000000       0.87500000000000000        0.0000000000000000     
  0.81250000000000000       0.87500000000000000        0.0000000000000000     
  0.84375000000000000       0.87500000000000000        0.0000000000000000     
  0.87500000000000000       0.87500000000000000        0.0000000000000000     
  0.75000000000000000       0.90625000000000000        0.0000000000000000     
  0.78125000000000000       0.90625000000000000        0.0000000000000000     
  0.81250000000000000       0.90625000000000000        0.0000000000000000     
  0.84375000000000000       0.90625000000000000        0.0000000000000000     
  0.87500000000000000       0.90625000000000000        0.0000000000000000     
  0.75000000000000000       0.93750000000000000        0.0000000000000000     
  0.78125000000000000       0.93750000000000000        0.0000000000000000     
  0.81250000000000000       0.93750000000000000        0.0000000000000000     
  0.84375000000000000       0.93750000000000000        0.0000000000000000     
  0.87500000000000000       0.93750000000000000        0.0000000000000000     
  0.75000000000000000       0.96875000000000000        0.0000000000000000     
  0.78125000000000000       0.96875000000000000        0.0000000000000000     
  0.81250000000000000       0.96875000000000000        0.0000000000000000     
  0.84375000000000000       0.96875000000000000        0.0000000000000000     
  0.87500000000000000       0.96875000000000000        0.0000000000000000     
  0.75000000000000000        1.0000000000000000        0.0000000000000000     
  0.78125000000000000        1.0000000000000000        0.0000000000000000     
  0.81250000000000000        1.0000000000000000        0.0000000000000000     
  0.84375000000000000        1.0000000000000000        0.0000000000000000     
  0.87500000000000000        1.0000000000000000        0.0000000000000000     
  0.87500000000000000       0.87500000000000000        0.0000000000000000     
  0.90625000000000000       0.87500000000000000        0.0000000000000000     
  0.93750000000000000       0.87500000000000000        0.0000000000000000     
  0.96875000000000000       0.87500000000000000        0.0000000000000000     
   1.0000000000000000       0.87500000000000000        0.0000000000000000     
  0.87500000000000000       0.90625000000000000        0.0000000000000000     
  0.90625000000000000       0.90625000000000000        0.0000000000000000     
  0.93750000000000000       0.90625000000000000        0.0000000000000000     
  0.96875000000000000       0.90625000000000000        0.0000000000000000     
   1.0000000000000000       0.90625000000000000        0.0000000000000000     
  0.87500000000000000       0.93750000000000000        0.0000000000000000     
  0.90625000000000000       0.93750000000000000        0.0000000000000000     
  0.93750000000000000       0.93750000000000000        0.0000000000000000     
  0.96875000000000000       0.93750000000000000        0.0000000000000000     
   1.0000000000000000       0.93750000000000000        0.0000000000000000     
  0.87500000000000000       0.96875000000000000        0.0000000000000000     
  0.90625000000000000       0.96875000000000000        0.0000000000000000     
  0.93750000000000000       0.96875000000000000        0.0000000000000000     
  0.96875000000000000       0.96875000000000000        0.0000000000000000     
   1.0000000000000000       0.96875000000000000        0.0000000000000000     
  0.87500000000000000        1.0000000000000000        0.0000000000000000     
  0.90625000000000000        1.0000000000000000        0.0000000000000000     
  0.93750000000000000        1.0000000000000000        0.0000000000000000     
  0.96875000000000000        1.0000000000000000        0.0000000000000000     
   1.0000000000000000        1.0000000000000000        0.0000000000000000     
   1.0000000000000000       0.87500000000000000        0.0000000000000000     
   1.0312500000000000       0.87500000000000000        0.0000000000000000     
   1.0625000000000000       0.87500000000000000        0.0000000000000000     
   1.0937500000000000       0.87500000000000000        0.0000000000000000     
   1.1250000000000000       0.87500000000000000        0.0000000000000000     
   1.0000000000000000       0.90625000000000000        0.0000000000000000     
   1.0312500000000000       0.90625000000000000        0.0000000000000000     
   1.0625000000000000       0.90625000000000000        0.0000000000000000     
   1.0937500000000000       0.90625000000000000        0.0000000000000000     
   1.1250000000000000       0.90625000000000000        0.0000000000000000     
   1.0000000000000000       0.93750000000000000        0.0000000000000000     
   1.0312500000000000       0.93750000000000000        0.0000000000000000     
   1.0625000000000000       0.93750000000000000        0.0000000000000000     
   1.0937500000000000       0.93750000000000000        0.0000000000000000     
   1.1250000000000000       0.93750000000000000        0.0000000000000000     
   1.0000000000000000       0.96875000000000000        0.0000000000000000     
   1.0312500000000000       0.96875000000000000        0.0000000000000000     
   1.0625000000000000       0.96875000000000000        0.0000000000000000     
   1.0937500000000000       0.96875000000000000        0.0000000000000000     
   1.1250000000000000       0.96875000000000000        0.0000000000000000     
   1.0000000000000000        1.0000000000000000        0.0000000000000000     
   1.0312500000000000        1.0000000000000000        0.0000000000000000     
   1.0625000000000000        1.0000000000000000        0.0000000000000000     
   1.0937500000000000        1.0000000000000000        0.0000000000000000     
   1.1250000000000000        1.0000000000000000        0.0000000000000000     
   1.1250000000000000       0.87500000000000000        0.0000000000000000     
   1.1562500000000000       0.87500000000000000        0.0000000000000000     
   1.1875000000000000       0.87500000000000000        0.0000000000000000     
   1.2187500000000000       0.87500000000000000        0.0000000000000000     
   1.2500000000000000       0.87500000000000000        0.0000000000000000     
   1.1250000000000000       0.90625000000000000        0.0000000000000000     
   1.1562500000000000       0.90625000000000000        0.0000000000000000     
   1.1875000000000000       0.90625000000000000        0.0000000000000000     
   1.2187500000000000       0.90625000000000000        0.0000000000000000     
   1.2500000000000000       0.90625000000000000        0.0000000000000000     
   1.1250000000000000       0.93750000000000000        0.0000000000000000     
   1.1562500000000000       0.93750000000000000        0.0000000000000000     
   1.1875000000000000       0.93750000000000000        0.0000000000000000     
   1.2187500000000000       0.93750000000000000        0.0000000000000000     
   1.2500000000000000       0.93750000000000000        0.0000000000000000     
   1.1250000000000000       0.96875000000000000        0.0000000000000000     
   1.1562500000000000       0.96875000000000000        0.0000000000000000     
   1.1875000000000000       0.96875000000000000        0.0000000000000000     
   1.2187500000000000       0.96875000000000000        0.0000000000000000     
   1.2500000000000000       0.96875000000000000        0.0000000000000000     
   1.1250000000000000        1.0000000000000000        0.0000000000000000     
   1.1562500000000000        1.0000000000000000        0.0000000000000000     
   1.1875000000000000        1.0000000000000000        0.0000000000000000     
   1.2187500000000000        1.0000000000000000        0.0000000000000000     
   1.2500000000000000        1.0000000000000000        0.0000000000000000     
   1.2500000000000000       0.87500000000000000        0.0000000000000000     
   1.2812500000000000       0.87500000000000000        0.0000000000000000     
   1.3125000000000000       0.87500000000000000        0.0000000000000000     
   1.3437500000000000       0.87500000000000000        0.0000000000000000     
   1.3750000000000000       0.87500000000000000        0.0000000000000000     
   1.2500000000000000       0.90625000000000000        0.0000000000000000     
   1.2812500000000000       0.90625000000000000        0.0000000000000000     
   1.3125000000000000       0.90625000000000000        0.0000000000000000     
   1.3437500000000000       0.90625000000000000        0.0000000000000000     
   1.3750000000000000       0.90625000000000000        0.0000000000000000     
   1.2500000000000000       0.93750000000000000        0.0000000000000000     
   1.2812500000000000       0.93750000000000000        0.0000000000000000     
   1.3125000000000000       0.93750000000000000        0.0000000000000000     
   1.3437500000000000       0.93750000000000000        0.0000000000000000     
   1.3750000000000000       0.93750000000000000        0.0000000000000000     
   1.2500000000000000       0.96875000000000000        0.0000000000000000     
   1.2812500000000000       0.96875000000000000        0.0000000000000000     
   1.3125000000000000       0.96875000000000000        0.0000000000000000     
   1.3437500000000000       0.96875000000000000        0.0000000000000000     
   1.3750000000000000       0.96875000000000000        0.0000000000000000     
   1.2500000000000000        1.0000000000000000        0.0000000000000000     
   1.2812500000000000        1.0000000000000000        0.0000000000000000     
   1.3125000000000000        1.0000000000000000        0.0000000000000000     
   1.3437500000000000        1.0000000000000000        0.0000000000000000     
   1.3750000000000000        1.0000000000000000        0.0000000000000000     
   1.3750000000000000       0.87500000000000000        0.0000000000000000     
   1.4062500000000000       0.87500000000000000        0.0000000000000000     
   1.4375000000000000       0.87500000000000000        0.0000000000000000     
   1.4687500000000000       0.87500000000000000        0.0000000000000000     
   1.5000000000000000       0.87500000000000000        0.0000000000000000     
   1.3750000000000000       0.90625000000000000        0.0000000000000000     
   1.4062500000000000       0.90625000000000000        0.0000000000000000     
   1.4375000000000000       0.90625000000000000        0.0000000000000000     
   1.4687500000000000       0.90625000000000000        0.0000000000000000     
   1.5000000000000000       0.90625000000000000        0.0000000000000000     
   1.3750000000000000       0.93750000000000000        0.0000000000000000     
   1.4062500000000000       0.93750000000000000        0.0000000000000000     
   1.4375000000000000       0.93750000000000000        0.0000000000000000     
   1.4687500000000000       0.93750000000000000        0.0000000000000000     
   1.5000000000000000       0.93750000000000000        0.0000000000000000     
   1.3750000000000000       0.96875000000000000        0.0000000000000000     
   1.4062500000000000       0.96875000000000000        0.0000000000000000     
   1.4375000000000000       0.96875000000000000        0.0000000000000000     
   1.4687500000000000       0.96875000000000000        0.0000000000000000     
   1.5000000000000000       0.96875000000000000        0.0000000000000000     
   1.3750000000000000        1.0000000000000000        0.0000000000000000     
   1.4062500000000000        1.0000000000000000        0.0000000000000000     
   1.4375000000000000        1.0000000000000000        0.0000000000000000     
   1.4687500000000000        1.0000000000000000        0.0000000000000000     
   1.5000000000000000        1.0000000000000000        0.0000000000000000     
 </DataArray>
 </Points>
 <Cells>
 <DataArray  type="Int32"  Name="connectivity"  format="ascii">
           0           1           6           5
           1           2           7           6
           2           3           8           7
           3           4           9           8
           5           6          11          10
           6           7          12          11
           7           8          13          12
           8           9          14          13
          10          11          16          15
          11          12          17          16
          12          13          18          17
          13          14          19          18
          15          16          21          20
          16          17          22          21
          17          18          23          22
          18          19          24          23
          25          26          31          30
          26          27          32          31
          27          28          33          32
          28          29          34          33
          30          31          36          35
          31          32          37          36
          32          33          38          37
          33          34          39          38
          35          36          41          40
          36          37          42          41
          37          38          43          42
          38          39          44          43
          40          41          46          45
          41          42          47          46
          42          43          48          47
          43          44          49          48
          50          51          56          55
          51          52          57          56
          52          53          58          57
          53          54          59          58
          55          56          61          60
          56          57          62          61
          57          58          63          62
          58          59          64          63
          60          61          66          65
          61          62          67          66
          62          63          68          67
          63          64          69          68
          65          66          71          70
          66          67          72          71
          67          68          73          72
          68          69          74          73
          75          76          81          80
          76          77          82          81
          77          78          83          82
          78          79          84          83
          80          81          86          85
          81          82          87          86
          82          83          88          87
          83          84          89          88
          85          86          91          90
          86          87          92          91
          87          88          93          92
          88          89          94          93
          90          91          96          95
          91          92          97          96
          92          93          98          97
          93          94          99          98
         100         101         106         105
         101         102         107         106
         102         103         108         107
         103         104         109         108
         105         106         111         110
         106         107         112         111
         107         108         113         112
         108         109         114         113
         110         111         116         115
         111         112         117         116
         112         113         118         117
         113         114         119         118
         115         116         121         120
         116         117         122         121
         117         118         123         122
         118         119         124         123
         125         126         131         130
         126         127         132         131
         127         128         133         132
         128         129         134         133
         130         131         136         135
         131         132         137         136
         132         133         138         137
         133         134         139         138
         135         136         141         140
         136         137         142         141
         137         138         143         142
         138         139         144         143
         140         141         146         145
         141         142         147         146
         142         143         148         147
         143         144         149         148
         150         151         156         155
         151         152         157         156
         152         153         158         157
         153         154         159         158
         155         156         161         160
         156         157         162         161
         157         158         163         162
         158         159         164         163
         160         161         166         165
         161         162         167         166
         162         163         168         167
         163         164         169         168
         165         166         171         170
         166         167         172         171
         167         168         173         172
         168         169         174         173
         175         176         181         180
         176         177         182         181
         177         178         183         182
         178         179         184         183
         180         181         186         185
         181         182         187         186
         182         183         188         187
         183         184         189         188
         185         186         191         190
         186         187         192         191
         187         188         193         192
         188         189         194         193
         190         191         196         195
         191         192         197         196
         192         193         198         197
         193         194         199         198
         200         201         206         205
         201         202         207         206
         202         203         208         207
         203         204         209         208
         205         206         211         210
         206         207         212         211
         207         208         213         212
         208         209         214         213
         210         211         216         215
         211         212         217         216
         212         213         218         217
         213         214         219         218
         215         216         221         220
         216         217         222         221
         217         218         223         222
         218         219         224         223
         225         226         231         230
         226         227         232         231
         227         228         233         232
         228         229         234         233
         230         231         236         235
         231         232         237         236
         232         233         238         237
         233         234         239         238
         235         236         241         240
         236         237         242         241
         237         238         243         242
         238         239         244         243
         240         241         246         245
         241         242         247         246
         242         243         248         247
         243         244         249         248
         250         251         256         255
         251         252         257         256
         252         253         258         257
         253         254         259         258
         255         256         261         260
         256         257         262         261
         257         258         263         262
         258         259         264         263
         260         261         266         265
         261         262         267         266
         262         263         268         267
         263         264         269         268
         265         266         271         270
         266         267         272         271
         267         268         273         272
         268         269         274         273
         275         276         281         280
         276         277         282         281
         277         278         283         282
         278         279         284         283
         280         281         286         285
         281         282         287         286
         282         283         288         287
         283         284         289         288
         285         286         291         290
         286         287         292         291
         287         288         293         292
         288         289         294         293
         290         291         296         295
         291         292         297         296
         292         293         298         297
         293         294         299         298
         300         301         306         305
         301         302         307         306
         302         303         308         307
         303         304         309         308
         305         306         311         310
         306         307         312         311
         307         308         313         312
         308         309         314         313
         310         311         316         315
         311         312         317         316
         312         313         318         317
         313         314         319         318
         315         316         321         320
         316         317         322         321
         317         318         323         322
         318         319         324         323
         325         326         331         330
         326         327         332         331
         327         328         333         332
         328         329         334         333
         330         331         336         335
         331         332         337         336
         332         333         338         337
         333         334         339         338
         335         336         341         340
         336         337         342         341
         337         338         343         342
         338         339         344         343
         340         341         346         345
         341         342         347         346
         342         343         348         347
         343         344         349         348
         350         351         356         355
         351         352         357         356
         352         353         358         357
         353         354         359         358
         355         356         361         360
         356         357         362         361
         357         358         363         362
         358         359         364         363
         360         361         366         365
         361         362         367         366
         362         363         368         367
         363         364         369         368
         365         366         371         370
         366         367         372         371
         367         368         373         372
         368         369         374         373
         375         376         381         380
         376         377         382         381
         377         378         383         382
         378         379         384         383
         380         381         386         385
         381         382         387         386
         382         383         388         387
         383         384         389         388
         385         386         391         390
         386         387         392         391
         387         388         393         392
         388         389         394         393
         390         391         396         395
         391         392         397         396
         392         393         398         397
         393         394         399         398
         400         401         406         405
         401         402         407         406
         402         403         408         407
         403         404         409         408
         405         406         411         410
         406         407         412         411
         407         408         413         412
         408         409         414         413
         410         411         416         415
         411         412         417         416
         412         413         418         417
         413         414         419         418
         415         416         421         420
         416         417         422         421
         417         418         423         422
         418         419         424         423
         425         426         431         430
         426         427         432         431
         427         428         433         432
         428         429         434         433
         430         431         436         435
         431         432         437         436
         432         433         438         437
         433         434         439         438
         435         436         441         440
         436         437         442         441
         437         438         443         442
         438         439         444         443
         440         441         446         445
         441         442         447         446
         442         443         448         447
         443         444         449         448
         450         451         456         455
         451         452         457         456
         452         453         458         457
         453         454         459         458
         455         456         461         460
         456         457         462         461
         457         458         463         462
         458         459         464         463
         460         461         466         465
         461         462         467         466
         462         463         468         467
         463         464         469         468
         465         466         471         470
         466         467         472         471
         467         468         473         472
         468         469         474         473
         475         476         481         480
         476         477         482         481
         477         478         483         482
         478         479         484         483
         480         481         486         485
         481         482         487         486
         482         483         488         487
         483         484         489         488
         485         486         491         490
         486         487         492         491
         487         488         493         492
         488         489         494         493
         490         491         496         495
         491         492         497         496
         492         493         498         497
         493         494         499         498
         500         501         506         505
         501         502         507         506
         502         503         508         507
         503         504         509         508
         505         506         511         510
         506         507         512         511
         507         508         513         512
         508         509         514         513
         510         511         516         515
         511         512         517         516
         512         513         518         517
         513         514         519         518
         515         516         521         520
         516         517         522         521
         517         518         523         522
         518         519         524         523
         525         526         531         530
         526         527         532         531
         527         528         533         532
         528         529         534         533
         530         531         536         535
         531         532         537         536
         532         533         538         537
         533         534         539         538
         535         536         541         540
         536         537         542         541
         537         538         543         542
         538         539         544         543
         540         541         546         545
         541         542         547         546
         542         543         548         547
         543         544         549         548
         550         551         556         555
         551         552         557         556
         552         553         558         557
         553         554         559         558
         555         556         561         560
         556         557         562         561
         557         558         563         562
         558         559         564         563
         560         561         566         565
         561         562         567         566
         562         563         568         567
         563         564         569         568
         565         566         571         570
         566         567         572         571
         567         568         573         572
         568         569         574         573
         575         576         581         580
         576         577         582         581
         577         578         583         582
         578         579         584         583
         580         581         586         585
         581         582         587         586
         582         583         588         587
         583         584         589         588
         585         586         591         590
         586         587         592         591
         587         588         593         592
         588         589         594         593
         590         591         596         595
         591         592         597         596
         592         593         598         597
         593         594         599         598
         600         601         606         605
         601         602         607         606
         602         603         608         607
         603         604         609         608
         605         606         611         610
         606         607         612         611
         607         608         613         612
         608         609         614         613
         610         611         616         615
         611         612         617         616
         612         613         618         617
         613         614         619         618
         615         616         621         620
         616         617         622         621
         617         618         623         622
         618         619         624         623
         625         626         631         630
         626         627         632         631
         627         628         633         632
         628         629         634         633
         630         631         636         635
         631         632         637         636
         632         633         638         637
         633         634         639         638
         635         636         641         640
         636         637         642         641
         637         638         643         642
         638         639         644         643
         640         641         646         645
         641         642         647         646
         642         643         648         647
         643         644         649         648
         650         651         656         655
         651         652         657         656
         652         653         658         657
         653         654         659         658
         655         656         661         660
         656         657         662         661
         657         658         663         662
         658         659         664         663
         660         661         666         665
         661         662         667         666
         662         663         668         667
         663         664         669         668
         665         666         671         670
         666         667         672         671
         667         668         673         672
         668         669         674         673
         675         676         681         680
         676         677         682         681
         677         678         683         682
         678         679         684         683
         680         681         686         685
         681         682         687         686
         682         683         688         687
         683         684         689         688
         685         686         691         690
         686         687         692         691
         687         688         693         692
         688         689         694         693
         690         691         696         695
         691         692         697         696
         692         693         698         697
         693         694         699         698
         700         701         706         705
         701         702         707         706
         702         703         708         707
         703         704         709         708
         705         706         711         710
         706         707         712         711
         707         708         713         712
         708         709         714         713
         710         711         716         715
         711         712         717         716
         712         713         718         717
         713         714         719         718
         715         716         721         720
         716         717         722         721
         717         718         723         722
         718         719         724         723
         725         726         731         730
         726         727         732         731
         727         728         733         732
         728         729         734         733
         730         731         736         735
         731         732         737         736
         732         733         738         737
         733         734         739         738
         735         736         741         740
         736         737         742         741
         737         738         743         742
         738         739         744         743
         740         741         746         745
         741         742         747         746
         742         743         748         747
         743         744         749         748
         750         751         756         755
         751         752         757         756
         752         753         758         757
         753         754         759         758
         755         756         761         760
         756         757         762         761
         757         758         763         762
         758         759         764         763
         760         761         766         765
         761         762         767         766
         762         763         768         767
         763         764         769         768
         765         766         771         770
         766         767         772         771
         767         768         773         772
         768         769         774         773
         775         776         781         780
         776         777         782         781
         777         778         783         782
         778         779         784         783
         780         781         786         785
         781         782         787         786
         782         783         788         787
         783         784         789         788
         785         786         791         790
         786         787         792         791
         787         788         793         792
         788         789         794         793
         790         791         796         795
         791         792         797         796
         792         793         798         797
         793         794         799         798
         800         801         806         805
         801         802         807         806
         802         803         808         807
         803         804         809         808
         805         806         811         810
         806         807         812         811
         807         808         813         812
         808         809         814         813
         810         811         816         815
         811         812         817         816
         812         813         818         817
         813         814         819         818
         815         816         821         820
         816         817         822         821
         817         818         823         822
         818         819         824         823
         825         826         831         830
         826         827         832         831
         827         828         833         832
         828         829         834         833
         830         831         836         835
         831         832         837         836
         832         833         838         837
         833         834         839         838
         835         836         841         840
         836         837         842         841
         837         838         843         842
         838         839         844         843
         840         841         846         845
         841         842         847         846
         842         843         848         847
         843         844         849         848
         850         851         856         855
         851         852         857         856
         852         853         858         857
         853         854         859         858
         855         856         861         860
         856         857         862         861
         857         858         863         862
         858         859         864         863
         860         861         866         865
         861         862         867         866
         862         863         868         867
         863         864         869         868
         865         866         871         870
         866         867         872         871
         867         868         873         872
         868         869         874         873
         875         876         881         880
         876         877         882         881
         877         878         883         882
         878         879         884         883
         880         881         886         885
         881         882         887         886
         882         883         888         887
         883         884         889         888
         885         886         891         890
         886         887         892         891
         887         888         893         892
         888         889         894         893
         890         891         896         895
         891         892         897         896
         892         893         898         897
         893         894         899         898
         900         901         906         905
         901         902         907         906
         902         903         908         907
         903         904         909         908
         905         906         911         910
         906         907         912         911
         907         908         913         912
         908         909         914         913
         910         911         916         915
         911         912         917         916
         912         913         918         917
         913         914         919         918
         915         916         921         920
         916         917         922         921
         917         918         923         922
         918         919         924         923
         925         926         931         930
         926         927         932         931
         927         928         933         932
         928         929         934         933
         930         931         936         935
         931         932         937         936
         932         933         938         937
         933         934         939         938
         935         936         941         940
         936         937         942         941
         937         938         943         942
         938         939         944         943
         940         941         946         945
         941         942         947         946
         942         943         948         947
         943         944         949         948
         950         951         956         955
         951         952         957         956
         952         953         958         957
         953         954         959         958
         955         956         961         960
         956         957         962         961
         957         958         963         962
         958         959         964         963
         960         961         966         965
         961         962         967         966
         962         963         968         967
         963         964         969         968
         965         966         971         970
         966         967         972         971
         967         968         973         972
         968         969         974         973
         975         976         981         980
         976         977         982         981
         977         978         983         982
         978         979         984         983
         980         981         986         985
         981         982         987         986
         982         983         988         987
         983         984         989         988
         985         986         991         990
         986         987         992         991
         987         988         993         992
         988         989         994         993
         990         991         996         995
         991         992         997         996
         992         993         998         997
         993         994         999         998
        1000        1001        1006        1005
        1001        1002        1007        1006
        1002        1003        1008        1007
        1003        1004        1009        1008
        1005        1006        1011        1010
        1006        1007        1012        1011
        1007        1008        1013        1012
        1008        1009        1014        1013
        1010        1011        1016        1015
        1011        1012        1017        1016
        1012        1013        1018        1017
        1013        1014        1019        1018
        1015        1016        1021        1020
        1016        1017        1022        1021
        1017        1018        1023        1022
        1018        1019        1024        1023
        1025        1026        1031        1030
        1026        1027        1032        1031
        1027        1028        1033        1032
        1028        1029        1034        1033
        1030        1031        1036        1035
        1031        1032        1037        1036
        1032        1033        1038        1037
        1033        1034        1039        1038
        1035        1036        1041        1040
        1036        1037        1042        1041
        1037        1038        1043        1042
        1038        1039        1044        1043
        1040        1041        1046        1045
        1041        1042        1047        1046
        1042        1043        1048        1047
        1043        1044        1049        1048
        1050        1051        1056        1055
        1051        1052        1057        1056
        1052        1053        1058        1057
        1053        1054        1059        1058
        1055        1056        1061        1060
        1056        1057        1062        1061
        1057        1058        1063        1062
        1058        1059        1064        1063
        1060        1061        1066        1065
        1061        1062        1067        1066
        1062        1063        1068        1067
        1063        1064        1069        1068
        1065        1066        1071        1070
        1066        1067        1072        1071
        1067        1068        1073        1072
        1068        1069        1074        1073
        1075        1076        1081        1080
        1076        1077        1082        1081
        1077        1078        1083        1082
        1078        1079        1084        1083
        1080        1081        1086        1085
        1081        1082        1087        1086
        1082        1083        1088        1087
        1083        1084        1089        1088
        1085        1086        1091        1090
        1086        1087        1092        1091
        1087        1088        1093        1092
        1088        1089        1094        1093
        1090        1091        1096        1095
        1091        1092        1097        1096
        1092        1093        1098        1097
        1093        1094        1099        1098
        1100        1101        1106        1105
        1101        1102        1107        1106
        1102        1103        1108        1107
        1103        1104        1109        1108
        1105        1106        1111        1110
        1106        1107        1112        1111
        1107        1108        1113        1112
        1108        1109        1114        1113
        1110        1111        1116        1115
        1111        1112        1117        1116
        1112        1113        1118        1117
        1113        1114        1119        1118
        1115        1116        1121        1120
        1116        1117        1122        1121
        1117        1118        1123        1122
        1118        1119        1124        1123
        1125        1126        1131        1130
        1126        1127        1132        1131
        1127        1128        1133        1132
        1128        1129        1134        1133
        1130        1131        1136        1135
        1131        1132        1137        1136
        1132        1133        1138        1137
        1133        1134        1139        1138
        1135        1136        1141        1140
        1136        1137        1142        1141
        1137        1138        1143        1142
        1138        1139        1144        1143
        1140        1141        1146        1145
        1141        1142        1147        1146
        1142        1143        1148        1147
        1143        1144        1149        1148
        1150        1151        1156        1155
        1151        1152        1157        1156
        1152        1153        1158        1157
        1153        1154        1159        1158
        1155        1156        1161        1160
        1156        1157        1162        1161
        1157        1158        1163        1162
        1158        1159        1164        1163
        1160        1161        1166        1165
        1161        1162        1167        1166
        1162        1163        1168        1167
        1163        1164        1169        1168
        1165        1166        1171        1170
        1166        1167        1172        1171
        1167        1168        1173        1172
        1168        1169        1174        1173
        1175        1176        1181        1180
        1176        1177        1182        1181
        1177        1178        1183        1182
        1178        1179        1184        1183
        1180        1181        1186        1185
        1181        1182        1187        1186
        1182        1183        1188        1187
        1183        1184        1189        1188
        1185        1186        1191        1190
        1186        1187        1192        1191
        1187        1188        1193        1192
        1188        1189        1194        1193
        1190        1191        1196        1195
        1191        1192        1197        1196
        1192        1193        1198        1197
        1193        1194        1199        1198
        1200        1201        1206        1205
        1201        1202        1207        1206
        1202        1203        1208        1207
        1203        1204        1209        1208
        1205        1206        1211        1210
        1206        1207        1212        1211
        1207        1208        1213        1212
        1208        1209        1214        1213
        1210        1211        1216        1215
        1211        1212        1217        1216
        1212        1213        1218        1217
        1213        1214        1219        1218
        1215        1216        1221        1220
        1216        1217        1222        1221
        1217        1218        1223        1222
        1218        1219        1224        1223
        1225        1226        1231        1230
        1226        1227        1232        1231
        1227        1228        1233        1232
        1228        1229        1234        1233
        1230        1231        1236        1235
        1231        1232        1237        1236
        1232        1233        1238        1237
        1233        1234        1239        1238
        1235        1236        1241        1240
        1236        1237        1242        1241
        1237        1238        1243        1242
        1238        1239        1244        1243
        1240        1241        1246        1245
        1241        1242        1247        1246
        1242        1243        1248        1247
        1243        1244        1249        1248
        1250        1251        1256        1255
        1251        1252        1257        1256
        1252        1253        1258        1257
        1253        1254        1259        1258
        1255        1256        1261        1260
        1256        1257        1262        1261
        1257        1258        1263        1262
        1258        1259        1264        1263
        1260        1261        1266        1265
        1261        1262        1267        1266
        1262        1263        1268        1267
        1263        1264        1269        1268
        1265        1266        1271        1270
        1266        1267        1272        1271
        1267        1268        1273        1272
        1268        1269        1274        1273
        1275        1276        1281        1280
        1276        1277        1282        1281
        1277        1278        1283        1282
        1278        1279        1284        1283
        1280        1281        1286        1285
        1281        1282        1287        1286
        1282        1283        1288        1287
        1283        1284        1289        1288
        1285        1286        1291        1290
        1286        1287        1292        1291
        1287        1288        1293        1292
        1288        1289        1294        1293
        1290        1291        1296        1295
        1291        1292        1297        1296
        1292        1293        1298        1297
        1293        1294        1299        1298
        1300        1301        1306        1305
        1301        1302        1307        1306
        1302        1303        1308        1307
        1303        1304        1309        1308
        1305        1306        1311        1310
        1306        1307        1312        1311
        1307        1308        1313        1312
        1308        1309        1314        1313
        1310        1311        1316        1315
        1311        1312        1317        1316
        1312        1313        1318        1317
        1313        1314        1319        1318
        1315        1316        1321        1320
        1316        1317        1322        1321
        1317        1318        1323        1322
        1318        1319        1324        1323
        1325        1326        1331        1330
        1326        1327        1332        1331
        1327        1328        1333        1332
        1328        1329        1334        1333
        1330        1331        1336        1335
        1331        1332        1337        1336
        1332        1333        1338        1337
        1333        1334        1339        1338
        1335        1336        1341        1340
        1336        1337        1342        1341
        1337        1338        1343        1342
        1338        1339        1344        1343
        1340        1341        1346        1345
        1341        1342        1347        1346
        1342        1343        1348        1347
        1343        1344        1349        1348
        1350        1351        1356        1355
        1351        1352        1357        1356
        1352        1353        1358        1357
        1353        1354        1359        1358
        1355        1356        1361        1360
        1356        1357        1362        1361
        1357        1358        1363        1362
        1358        1359        1364        1363
        1360        1361        1366        1365
        1361        1362        1367        1366
        1362        1363        1368        1367
        1363        1364        1369        1368
        1365        1366        1371        1370
        1366        1367        1372        1371
        1367        1368        1373        1372
        1368        1369        1374        1373
        1375        1376        1381        1380
        1376        1377        1382        1381
        1377        1378        1383        1382
        1378        1379        1384        1383
        1380        1381        1386        1385
        1381        1382        1387        1386
        1382        1383        1388        1387
        1383        1384        1389        1388
        1385        1386        1391        1390
        1386        1387        1392        1391
        1387        1388        1393        1392
        1388        1389        1394        1393
        1390        1391        1396        1395
        1391        1392        1397        1396
        1392        1393        1398        1397
        1393        1394        1399        1398
        1400        1401        1406        1405
        1401        1402        1407        1406
        1402        1403        1408        1407
        1403        1404        1409        1408
        1405        1406        1411        1410
        1406        1407        1412        1411
        1407        1408        1413        1412
        1408        1409        1414        1413
        1410        1411        1416        1415
        1411        1412        1417        1416
        1412        1413        1418        1417
        1413        1414        1419        1418
        1415        1416        1421        1420
        1416        1417        1422        1421
        1417        1418        1423        1422
        1418        1419        1424        1423
        1425        1426        1431        1430
        1426        1427        1432        1431
        1427        1428        1433        1432
        1428        1429        1434        1433
        1430        1431        1436        1435
        1431        1432        1437        1436
        1432        1433        1438        1437
        1433        1434        1439        1438
        1435        1436        1441        1440
        1436        1437        1442        1441
        1437        1438        1443        1442
        1438        1439        1444        1443
        1440        1441        1446        1445
        1441        1442        1447        1446
        1442        1443        1448        1447
        1443        1444        1449        1448
        1450        1451        1456        1455
        1451        1452        1457        1456
        1452        1453        1458        1457
        1453        1454        1459        1458
        1455        1456        1461        1460
        1456        1457        1462        1461
        1457        1458        1463        1462
        1458        1459        1464        1463
        1460        1461        1466        1465
        1461        1462        1467        1466
        1462        1463        1468        1467
        1463        1464        1469        1468
        1465        1466        1471        1470
        1466        1467        1472        1471
        1467        1468        1473        1472
        1468        1469        1474        1473
        1475        1476        1481        1480
        1476        1477        1482        1481
        1477        1478        1483        1482
        1478        1479        1484        1483
        1480        1481        1486        1485
        1481        1482        1487        1486
        1482        1483        1488        1487
        1483        1484        1489        1488
        1485        1486        1491        1490
        1486        1487        1492        1491
        1487        1488        1493        1492
        1488        1489        1494        1493
        1490        1491        1496        1495
        1491        1492        1497        1496
        1492        1493        1498        1497
        1493        1494        1499        1498
        1500        1501        1506        1505
        1501        1502        1507        1506
        1502        1503        1508        1507
        1503        1504        1509        1508
        1505        1506        1511        1510
        1506        1507        1512        1511
        1507        1508        1513        1512
        1508        1509        1514        1513
        1510        1511        1516        1515
        1511        1512        1517        1516
        1512        1513        1518        1517
        1513        1514        1519        1518
        1515        1516        1521        1520
        1516        1517        1522        1521
        1517        1518        1523        1522
        1518        1519        1524        1523
        1525        1526        1531        1530
        1526        1527        1532        1531
        1527        1528        1533        1532
        1528        1529        1534        1533
        1530        1531        1536        1535
        1531        1532        1537        1536
        1532        1533        1538        1537
        1533        1534        1539        1538
        1535        1536        1541        1540
        1536        1537        1542        1541
        1537        1538        1543        1542
        1538        1539        1544        1543
        1540        1541        1546        1545
        1541        1542        1547        1546
        1542        1543        1548        1547
        1543        1544        1549        1548
        1550        1551        1556        1555
        1551        1552        1557        1556
        1552        1553        1558        1557
        1553        1554        1559        1558
        1555        1556        1561        1560
        1556        1557        1562        1561
        1557        1558        1563        1562
        1558        1559        1564        1563
        1560        1561        1566        1565
        1561        1562        1567        1566
        1562        1563        1568        1567
        1563        1564        1569        1568
        1565        1566        1571        1570
        1566        1567        1572        1571
        1567        1568        1573        1572
        1568        1569        1574        1573
        1575        1576        1581        1580
        1576        1577        1582        1581
        1577        1578        1583        1582
        1578        1579        1584        1583
        1580        1581        1586        1585
        1581        1582        1587        1586
        1582        1583        1588        1587
        1583        1584        1589        1588
        1585        1586        1591        1590
        1586        1587        1592        1591
        1587        1588        1593        1592
        1588        1589        1594        1593
        1590        1591        1596        1595
        1591        1592        1597        1596
        1592        1593        1598        1597
        1593        1594        1599        1598
 </DataArray>
 <DataArray  type="Int32"  Name="offsets"  format="ascii"> 
           4
           8
          12
          16
          20
          24
          28
          32
          36
          40
          44
          48
          52
          56
          60
          64
          68
          72
          76
          80
          84
          88
          92
          96
         100
         104
         108
         112
         116
         120
         124
         128
         132
         136
         140
         144
         148
         152
         156
         160
         164
         168
         172
         176
         180
         184
         188
         192
         196
         200
         204
         208
         212
         216
         220
         224
         228
         232
         236
         240
         244
         248
         252
         256
         260
         264
         268
         272
         276
         280
         284
         288
         292
         296
         300
         304
         308
         312
         316
         320
         324
         328
         332
         336
         340
         344
         348
         352
         356
         360
         364
         368
         372
         376
         380
         384
         388
         392
         396
         400
         404
         408
         412
         416
         420
         424
         428
         432
         436
         440
         444
         448
         452
         456
         460
         464
         468
         472
         476
         480
         484
         488
         492
         496
         500
         504
         508
         512
         516
         520
         524
         528
         532
         536
         540
         544
         548
         552
         556
         560
         564
         568
         572
         576
         580
         584
         588
         592
         596
         600
         604
         608
         612
         616
         620
         624
         628
         632
         636
         640
         644
         648
         652
         656
         660
         664
         668
         672
         676
         680
         684
         688
         692
         696
         700
         704
         708
         712
         716
         720
         724
         728
         732
         736
         740
         744
         748
         752
         756
         760
         764
         768
         772
         776
         780
         784
         788
         792
         796
         800
         804
         808
         812
         816
         820
         824
         828
         832
         836
         840
         844
         848
         852
         856
         860
         864
         868
         872
         876
         880
         884
         888
         892
         896
         900
         904
         908
         912
         916
         920
         924
         928
         932
         936
         940
         944
         948
         952
         956
         960
         964
         968
         972
         976
         980
         984
         988
         992
         996
        1000
        1004
        1008
        1012
        1016
        1020
        1024
        1028
        1032
        1036
        1040
        1044
        1048
        1052
        1056
        1060
        1064
        1068
        1072
        1076
        1080
        1084
        1088
        1092
        1096
        1100
        1104
        1108
        1112
        1116
        1120
        1124
        1128
        1132
        1136
        1140
        1144
        1148
        1152
        1156
        1160
        1164
        1168
        1172
        1176
        1180
        1184
        1188
        1192
        1196
        1200
        1204
        1208
        1212
        1216
        1220
        1224
        1228
        1232
        1236
        1240
        1244
        1248
        1252
        1256
        1260
        1264
        1268
        1272
        1276
        1280
        1284
        1288
        1292
        1296
        1300
        1304
        1308
        1312
        1316
        1320
        1324
        1328
        1332
        1336
        1340
        1344
        1348
        1352
        1356
        1360
        1364
        1368
        1372
        1376
        1380
        1384
        1388
        1392
        1396
        1400
        1404
        1408
        1412
        1416
        1420
        1424
        1428
        1432
        1436
        1440
        1444
        1448
        1452
        1456
        1460
        1464
        1468
        1472
        1476
        1480
        1484
        1488
        1492
        1496
        1500
        1504
        1508
        1512
        1516
        1520
        1524
        1528
        1532
        1536
        1540
        1544
        1548
        1552
        1556
        1560
        1564
        1568
        1572
        1576
        1580
        1584
        1588
        1592
        1596
        1600
        1604
        1608
        1612
        1616
        1620
        1624
        1628
        1632
        1636
        1640
        1644
        1648
        1652
        1656
        1660
        1664
        1668
        1672
        1676
        1680
        1684
        1688
        1692
        1696
        1700
        1704
        1708
        1712
        1716
        1720
        1724
        1728
        1732
        1736
        1740
        1744
        1748
        1752
        1756
        1760
        1764
        1768
        1772
        1776
        1780
        1784
        1788
        1792
        1796
        1800
        1804
        1808
        1812
        1816
        1820
        1824
        1828
        1832
        1836
        1840
        1844
        1848
        1852
        1856
        1860
        1864
        1868
        1872
        1876
        1880
        1884
        1888
        1892
        1896
        1900
        1904
        1908
        1912
        1916
        1920
        1924
        1928
        1932
        1936
        1940
        1944
        1948
        1952
        1956
        1960
        1964
        1968
        1972
        1976
        1980
        1984
        1988
        1992
        1996
        2000
        2004
        2008
        2012
        2016
        2020
        2024
        2028
        2032
        2036
        2040
        2044
        2048
        2052
        2056
        2060
        2064
        2068
        2072
        2076
        2080
        2084
        2088
        2092
        2096
        2100
        2104
        2108
        2112
        2116
        2120
        2124
        2128
        2132
        2136
        2140
        2144
        2148
        2152
        2156
        2160
        2164
        2168
        2172
        2176
        2180
        2184
        2188
        2192
        2196
        2200
        2204
        2208
        2212
        2216
        2220
        2224
        2228
        2232
        2236
        2240
        2244
        2248
        2252
        2256
        2260
        2264
        2268
        2272
        2276
        2280
        2284
        2288
        2292
        2296
        2300
        2304
        2308
        2312
        2316
        2320
        2324
        2328
        2332
        2336
        2340
        2344
        2348
        2352
        2356
        2360
        2364
        2368
        2372
        2376
        2380
        2384
        2388
        2392
        2396
        2400
        2404
        2408
        2412
        2416
        2420
        2424
        2428
        2432
        2436
        2440
        2444
        2448
        2452
        2456
        2460
        2464
        2468
        2472
        2476
        2480
        2484
        2488
        2492
        2496
        2500
        2504
        2508
        2512
        2516
        2520
        2524
        2528
        2532
        2536
        2540
        2544
        2548
        2552
        2556
        2560
        2564
        2568
        2572
        2576
        2580
        2584
        2588
        2592
        2596
        2600
        2604
        2608
        2612
        2616
        2620
        2624
        2628
        2632
        2636
        2640
        2644
        2648
        2652
        2656
        2660
        2664
        2668
        2672
        2676
        2680
        2684
        2688
        2692
        2696
        2700
        2704
        2708
        2712
        2716
        2720
        2724
        2728
        2732
        2736
        2740
        2744
        2748
        2752
        2756
        2760
        2764
        2768
        2772
        2776
        2780
        2784
        2788
        2792
        2796
        2800
        2804
        2808
        2812
        2816
        2820
        2824
        2828
        2832
        2836
        2840
        2844
        2848
        2852
        2856
        2860
        2864
        2868
        2872
        2876
        2880
        2884
        2888
        2892
        2896
        2900
        2904
        2908
        2912
        2916
        2920
        2924
        2928
        2932
        2936
        2940
        2944
        2948
        2952
        2956
        2960
        2964
        2968
        2972
        2976
        2980
        2984
        2988
        2992
        2996
        3000
        3004
        3008
        3012
        3016
        3020
        3024
        3028
        3032
        3036
        3040
        3044
        3048
        3052
        3056
        3060
        3064
        3068
        3072
        3076
        3080
        3084
        3088
        3092
        3096
        3100
        3104
        3108
        3112
        3116
        3120
        3124
        3128
        3132
        3136
        3140
        3144
        3148
        3152
        3156
        3160
        3164
        3168
        3172
        3176
        3180
        3184
        3188
        3192
        3196
        3200
        3204
        3208
        3212
        3216
        3220
        3224
        3228
        3232
        3236
        3240
        3244
        3248
        3252
        3256
        3260
        3264
        3268
        3272
        3276
        3280
        3284
        3288
        3292
        3296
        3300
        3304
        3308
        3312
        3316
        3320
        3324
        3328
        3332
        3336
        3340
        3344
        3348
        3352
        3356
        3360
        3364
        3368
        3372
        3376
        3380
        3384
        3388
        3392
        3396
        3400
        3404
        3408
        3412
        3416
        3420
        3424
        3428
        3432
        3436
        3440
        3444
        3448
        3452
        3456
        3460
        3464
        3468
        3472
        3476
        3480
        3484
        3488
        3492
        3496
        3500
        3504
        3508
        3512
        3516
        3520
        3524
        3528
        3532
        3536
        3540
        3544
        3548
        3552
        3556
        3560
        3564
        3568
        3572
        3576
        3580
        3584
        3588
        3592
        3596
        3600
        3604
        3608
        3612
        3616
        3620
        3624
        3628
        3632
        3636
        3640
        3644
        3648
        3652
        3656
        3660
        3664
        3668
        3672
        3676
        3680
        3684
        3688
        3692
        3696
        3700
        3704
        3708
        3712
        3716
        3720
        3724
        3728
        3732
        3736
        3740
        3744
        3748
        3752
        3756
        3760
        3764
        3768
        3772
        3776
        3780
        3784
        3788
        3792
        3796
        3800
        3804
        3808
        3812
        3816
        3820
        3824
        3828
        3832
        3836
        3840
        3844
        3848
        3852
        3856
        3860
        3864
        3868
        3872
        3876
        3880
        3884
        3888
        3892
        3896
        3900
        3904
        3908
        3912
        3916
        3920
        3924
        3928
        3932
        3936
        3940
        3944
        3948
        3952
        3956
        3960
        3964
        3968
        3972
        3976
        3980
        3984
        3988
        3992
        3996
        4000
        4004
        4008
        4012
        4016
        4020
        4024
        4028
        4032
        4036
        4040
        4044
        4048
        4052
        4056
        4060
        4064
        4068
        4072
        4076
        4080
        4084
        4088
        4092
        4096
 </DataArray>
 <DataArray  type="UInt8"  Name="types"  format="ascii">
 9
 9
 9
 9
 9
 9
 9
 9
 9
 9
 9
 9
 9
 9
 9
 9
 9
 9
 9
 9
 9
 9
 9
 9
 9
 9
 9
 9
 9
 9
 9
 9
 9
 9
 9
 9
 9
 9
 9
 9
 9
 9
 9
 9
 9
 9
 9
 9
 9
 9
 9
 9
 9
 9
 9
 9
 9
 9
 9
 9
 9
 9
 9
 9
 9
 9
 9
 9
 9
 9
 9
 9
 9
 9
 9
 9
 9
 9
 9
 9
 9
 9
 9
 9
 9
 9
 9
 9
 9
 9
 9
 9
 9
 9
 9
 9
 9
 9
 9
 9
 9
 9
 9
 9
 9
 9
 9
 9
 9
 9
 9
 9
 9
 9
 9
 9
 9
 9
 9
 9
 9
 9
 9
 9
 9
 9
 9
 9
 9
 9
 9
 9
 9
 9
 9
 9
 9
 9
 9
 9
 9
 9
 9
 9
 9
 9
 9
 9
 9
 9
 9
 9
 9
 9
 9
 9
 9
 9
 9
 9
 9
 9
 9
 9
 9
 9
 9
 9
 9
 9
 9
 9
 9
 9
 9
 9
 9
 9
 9
 9
 9
 9
 9
 9
 9
 9
 9
 9
 9
 9
 9
 9
 9
 9
 9
 9
 9
 9
 9
 9
 9
 9
 9
 9
 9
 9
 9
 9
 9
 9
 9
 9
 9
 9
 9
 9
 9
 9
 9
 9
 9
 9
 9
 9
 9
 9
 9
 9
 9
 9
 9
 9
 9
 9
 9
 9
 9
 9
 9
 9
 9
 9
 9
 9
 9
 9
 9
 9
 9
 9
 9
 9
 9
 9
 9
 9
 9
 9
 9
 9
 9
 9
 9
 9
 9
 9
 9
 9
 9
 9
 9
 9
 9
 9
 9
 9
 9
 9
 9
 9
 9
 9
 9
 9
 9
 9
 9
 9
 9
 9
 9
 9
 9
 9
 9
 9
 9
 9
 9
 9
 9
 9
 9
 9
 9
 9
 9
 9
 9
 9
 9
 9
 9
 9
 9
 9
 9
 9
 9
 9
 9
 9
 9
 9
 9
 9
 9
 9
 9
 9
 9
 9
 9
 9
 9
 9
 9
 9
 9
 9
 9
 9
 9
 9
 9
 9
 9
 9
 9
 9
 9
 9
 9
 9
 9
 9
 9
 9
 9
 9
 9
 9
 9
 9
 9
 9
 9
 9
 9
 9
 9
 9
 9
 9
 9
 9
 9
 9
 9
 9
 9
 9
 9
 9
 9
 9
 9
 9
 9
 9
 9
 9
 9
 9
 9
 9
 9
 9
 9
 9
 9
 9
 9
 9
 9
 9
 9
 9
 9
 9
 9
 9
 9
 9
 9
 9
 9
 9
 9
 9
 9
 9
 9
 9
 9
 9
 9
 9
 9
 9
 9
 9
 9
 9
 9
 9
 9
 9
 9
 9
 9
 9
 9
 9
 9
 9
 9
 9
 9
 9
 9
 9
 9
 9
 9
 9
 9
 9
 9
 9
 9
 9
 9
 9
 9
 9
 9
 9
 9
 9
 9
 9
 9
 9
 9
 9
 9
 9
 9
 9
 9
 9
 9
 9
 9
 9
 9
 9
 9
 9
 9
 9
 9
 9
 9
 9
 9
 9
 9
 9
 9
 9
 9
 9
 9
 9
 9
 9
 9
 9
 9
 9
 9
 9
 9
 9
 9
 9
 9
 9
 9
 9
 9
 9
 9
 9
 9
 9
 9
 9
 9
 9
 9
 9
 9
 9
 9
 9
 9
 9
 9
 9
 9
 9
 9
 9
 9
 9
 9
 9
 9
 9
 9
 9
 9
 9
 9
 9
 9
 9
 9
 9
 9
 9
 9
 9
 9
 9
 9
 9
 9
 9
 9
 9
 9
 9
 9
 9
 9
 9
 9
 9
 9
 9
 9
 9
 9
 9
 9
 9
 9
 9
 9
 9
 9
 9
 9
 9
 9
 9
 9
 9
 9
 9
 9
 9
 9
 9
 9
 9
 9
 9
 9
 9
 9
 9
 9
 9
 9
 9
 9
 9
 9
 9
 9
 9
 9
 9
 9
 9
 9
 9
 9
 9
 9
 9
 9
 9
 9
 9
 9
 9
 9
 9
 9
 9
 9
 9
 9
 9
 9
 9
 9
 9
 9
 9
 9
 9
 9
 9
 9
 9
 9
 9
 9
 9
 9
 9
 9
 9
 9
 9
 9
 9
 9
 9
 9
 9
 9
 9
 9
 9
 9
 9
 9
 9
 9
 9
 9
 9
 9
 9
 9
 9
 9
 9
 9
 9
 9
 9
 9
 9
 9
 9
 9
 9
 9
 9
 9
 9
 9
 9
 9
 9
 9
 9
 9
 9
 9
 9
 9
 9
 9
 9
 9
 9
 9
 9
 9
 9
 9
 9
 9
 9
 9
 9
 9
 9
 9
 9
 9
 9
 9
 9
 9
 9
 9
 9
 9
 9
 9
 9
 9
 9
 9
 9
 9
 9
 9
 9
 9
 9
 9
 9
 9
 9
 9
 9
 9
 9
 9
 9
 9
 9
 9
 9
 9
 9
 9
 9
 9
 9
 9
 9
 9
 9
 9
 9
 9
 9
 9
 9
 9
 9
 9
 9
 9
 9
 9
 9
 9
 9
 9
 9
 9
 9
 9
 9
 9
 9
 9
 9
 9
 9
 9
 9
 9
 9
 9
 9
 9
 9
 9
 9
 9
 9
 9
 9
 9
 9
 9
 9
 9
 9
 9
 9
 9
 9
 9
 9
 9
 9
 9
 9
 9
 9
 9
 9
 9
 9
 9
 9
 9
 9
 9
 9
 9
 9
 9
 9
 9
 9
 9
 9
 9
 9
 9
 9
 9
 9
 9
 9
 9
 9
 9
 9
 9
 9
 9
 9
 9
 9
 9
 9
 9
 9
 9
 9
 9
 9
 9
 9
 9
 9
 9
 9
 9
 9
 9
 9
 9
 9
 9
 9
 9
 9
 9
 9
 9
 9
 9
 9
 9
 9
 9
 9
 9
 9
 9
 9
 9
 9
 9
 9
 9
 9
 9
 9
 9
 9
 9
 9
 9
 9
 9
 9
 9
 9
 9
 9
 9
 9
 9
 9
 9
 9
 9
 9
 9
 9
 9
 9
 9
 9
 9
 9
 9
 9
 9
 9
 9
 9
 9
 9
 9
 9
 9
 9
 9
 9
 9
 9
 9
 9
 9
 9
 9
 9
 9
 9
 9
 9
 9
 9
 9
 9
 9
 9
 9
 9
 9
 9
 9
 9
 9
 9
 9
 9
 9
 9
 9
 9
 9
 9
 9
 9
 9
 9
 9
 9
 9
 9
 9
 9
 9
 9
 9
 9
 9
 9
 9
 9
 9
 9
 </DataArray>
 </Cells> 
 <PointData>
 <DataArray  type="Float64" Name="disp" NumberOfComponents="3" format="ascii">
   6.4316219072462710E-002   6.2519518948011596E-002   0.0000000000000000     
   6.7637127443260128E-002   6.7983521794982349E-002   0.0000000000000000     
   7.0809632196676242E-002   7.3611800002333722E-002   0.0000000000000000     
   7.3833733332711038E-002   7.9404353570065714E-002   0.0000000000000000     
   7.6709430851364557E-002   8.5361182498178312E-002   0.0000000000000000     
   5.9877605536613525E-002   6.1870143674713315E-002   0.0000000000000000     
   6.2814259779851930E-002   6.7277272269082811E-002   0.0000000000000000     
   6.5650096063177135E-002   7.2871550715514252E-002   0.0000000000000000     
   6.8385114386589146E-002   7.8652979014007654E-002   0.0000000000000000     
   7.1019314750087964E-002   8.4621557164562988E-002   0.0000000000000000     
   5.5332198472885535E-002   6.1117529843266599E-002   0.0000000000000000     
   5.7962001611909786E-002   6.6521292640367449E-002   0.0000000000000000     
   6.0522297374865891E-002   7.2120028778418749E-002   0.0000000000000000     
   6.3013085761753851E-002   7.7913738257420484E-002   0.0000000000000000     
   6.5434366772573652E-002   8.3902421077372683E-002   0.0000000000000000     
   5.0679997881278735E-002   6.0261677453671419E-002   0.0000000000000000     
   5.3080352939433695E-002   6.5715582908836306E-002   0.0000000000000000     
   5.5426236131742489E-002   7.1357234191047239E-002   0.0000000000000000     
   5.7717647458205124E-002   7.7186631300304259E-002   0.0000000000000000     
   5.9954586918821585E-002   8.3203774236607339E-002   0.0000000000000000     
   4.5921003761793117E-002   5.9302586505927818E-002   0.0000000000000000     
   4.8169313762423664E-002   6.4860143074489326E-002   0.0000000000000000     
   5.0361912333806970E-002   7.0583166953399709E-002   0.0000000000000000     
   5.2498799475943006E-002   7.6471658142658924E-002   0.0000000000000000     
   5.4579975188831793E-002   8.2525616642267000E-002   0.0000000000000000     
   7.6709430851364557E-002   8.5361182498178312E-002   0.0000000000000000     
   7.9455323115966550E-002   9.1476071213061463E-002   0.0000000000000000     
   8.2090008489846850E-002   9.7742804141105116E-002   0.0000000000000000     
   8.4613486973005456E-002  0.10416138128230931        0.0000000000000000     
   8.7025758565442368E-002  0.11073180263667398        0.0000000000000000     
   7.1019314750087964E-002   8.4621557164562988E-002   0.0000000000000000     
   7.3554964996821987E-002   9.0759578048836095E-002   0.0000000000000000     
   7.5994332969939613E-002   9.7049334548482705E-002   0.0000000000000000     
   7.8337418669440814E-002  0.10349082666350286        0.0000000000000000     
   8.0584222095325633E-002  0.11008405439389655        0.0000000000000000     
   6.5434366772573652E-002   8.3902421077372683E-002   0.0000000000000000     
   6.7778273004591952E-002   9.0064518637943972E-002   0.0000000000000000     
   7.0036937055075396E-002   9.6378472338803020E-002   0.0000000000000000     
   7.2210358924024012E-002  0.10284428217994988        0.0000000000000000     
   7.4298538611437745E-002  0.10946194816138451        0.0000000000000000     
   5.9954586918821585E-002   8.3203774236607339E-002   0.0000000000000000     
   6.2125247139276432E-002   8.9390892980385092E-002   0.0000000000000000     
   6.4217820745254242E-002   9.5730217512066104E-002   0.0000000000000000     
   6.6232307736754994E-002  0.10222174783165033        0.0000000000000000     
   6.8168708113778703E-002  0.10886548393913781        0.0000000000000000     
   5.4579975188831793E-002   8.2525616642267000E-002   0.0000000000000000     
   5.6595887400875469E-002   8.8738701076159499E-002   0.0000000000000000     
   5.8536984040476137E-002   9.5104570068271888E-002   0.0000000000000000     
   6.0403265107633809E-002  0.10162322361860424        0.0000000000000000     
   6.2194730602348480E-002  0.10829466172715654        0.0000000000000000     
   8.7025758565442368E-002  0.11073180263667398        0.0000000000000000     
   8.9334265436244370E-002  0.11744634605891936        0.0000000000000000     
   9.1546449754498258E-002  0.12429728940376558        0.0000000000000000     
   9.3662311520204031E-002  0.13128463267121265        0.0000000000000000     
   9.5681850733361690E-002  0.13840837586126059        0.0000000000000000     
   8.0584222095325633E-002  0.11008405439389655        0.0000000000000000     
   8.2738293466170384E-002  0.11682196727323860        0.0000000000000000     
   8.4803183000551383E-002  0.12369751483510383        0.0000000000000000     
   8.6778890698468655E-002  0.13071069707949221        0.0000000000000000     
   8.8665416559922189E-002  0.13786151400640378        0.0000000000000000     
   7.4298538611437745E-002  0.10946194816138451        0.0000000000000000     
   7.6302790996574194E-002  0.11622453504294522        0.0000000000000000     
   7.8224430958690874E-002  0.12312510758447037        0.0000000000000000     
   8.0063458497787801E-002  0.13016366578595992        0.0000000000000000     
   8.1819873613864988E-002  0.13734020964741389        0.0000000000000000     
   6.8168708113778703E-002  0.10886548393913781        0.0000000000000000     
   7.0027758027455783E-002  0.11565404936803922        0.0000000000000000     
   7.1810193628916719E-002  0.12258006765186523        0.0000000000000000     
   7.3516014918161496E-002  0.12964353879061577        0.0000000000000000     
   7.5145221895190115E-002  0.13684446278429091        0.0000000000000000     
   6.2194730602348480E-002  0.10829466172715654        0.0000000000000000     
   6.3913194558815181E-002  0.11511051024852062        0.0000000000000000     
   6.5560471011228943E-002  0.12206239503728837        0.0000000000000000     
   6.7136559959589739E-002  0.12915031609345981        0.0000000000000000     
   6.8641461403897583E-002  0.13637427341703490        0.0000000000000000     
   9.5681850733361690E-002  0.13840837586126059        0.0000000000000000     
   9.7606169102450735E-002  0.14565439545933345        0.0000000000000000     
   9.9436368335950626E-002  0.15300856795085532        0.0000000000000000     
  0.10117244843386138       0.16047089333582618        0.0000000000000000     
  0.10281440939618298       0.16804137161424604        0.0000000000000000     
   8.8665416559922189E-002  0.13786151400640378        0.0000000000000000     
   9.0463161864631839E-002  0.14513411401342527        0.0000000000000000     
   9.2172527892317585E-002  0.15251264549814347        0.0000000000000000     
   9.3793514642979386E-002  0.15999710846055842        0.0000000000000000     
   9.5326122116617243E-002  0.16758750290067009        0.0000000000000000     
   8.1819873613864988E-002  0.13734020964741389        0.0000000000000000     
   8.3493427499333195E-002  0.14463828136381054        0.0000000000000000     
   8.5083871346603279E-002  0.15204142313012819        0.0000000000000000     
   8.6591205155675227E-002  0.15954963494636684        0.0000000000000000     
   8.8015428926548997E-002  0.16716291681252646        0.0000000000000000     
   7.5145221895190115E-002  0.13684446278429091        0.0000000000000000     
   7.6696966006554790E-002  0.14416689751048928        0.0000000000000000     
   7.8170398698807708E-002  0.15159490084680946        0.0000000000000000     
   7.9565519971948884E-002  0.15912847279325146        0.0000000000000000     
   8.0882329825978275E-002  0.16676761334981524        0.0000000000000000     
   6.8641461403897583E-002  0.13637427341703490        0.0000000000000000     
   7.0073777386296568E-002  0.14371996245346144        0.0000000000000000     
   7.1432109948930816E-002  0.15117307864818721        0.0000000000000000     
   7.2716459091800315E-002  0.15873362200121222        0.0000000000000000     
   7.3926824814905076E-002  0.16640159251253642        0.0000000000000000     
  0.10281440939618298       0.16804137161424604        0.0000000000000000     
  0.10436606401565211       0.17571041137837631        0.0000000000000000     
  0.10583122508500541       0.18346842122047852        0.0000000000000000     
  0.10720989260424287       0.19131540114055259        0.0000000000000000     
  0.10850206657336449       0.19925135113859863        0.0000000000000000     
   9.5326122116617243E-002  0.16758750290067009        0.0000000000000000     
   9.6772914986690745E-002  0.17527655551604504        0.0000000000000000     
   9.8136457926659509E-002  0.18305699300424988        0.0000000000000000     
   9.9416750936523524E-002  0.19092881536528464        0.0000000000000000     
  0.10061379401628281       0.19889202259914929        0.0000000000000000     
   8.8015428926548997E-002  0.16716291681252646        0.0000000000000000     
   8.9358047587543149E-002  0.17487486298803209        0.0000000000000000     
   9.0620566066976146E-002  0.18267906773230860        0.0000000000000000     
   9.1802984364848017E-002  0.19057553104535607        0.0000000000000000     
   9.2905302481158733E-002  0.19856425292717450        0.0000000000000000     
   8.0882329825978275E-002  0.16676761334981524        0.0000000000000000     
   8.2121461818209299E-002  0.17450533379433752        0.0000000000000000     
   8.3283549505955318E-002  0.18233464540465477        0.0000000000000000     
   8.4368592889216290E-002  0.19025554818076701        0.0000000000000000     
   8.5376591967992257E-002  0.19826804212267421        0.0000000000000000     
   7.3926824814905076E-002  0.16640159251253642        0.0000000000000000     
   7.5063157678689235E-002  0.17416796793496131        0.0000000000000000     
   7.6125408243597037E-002  0.18202372602128825        0.0000000000000000     
   7.7113576509628398E-002  0.18996886677151736        0.0000000000000000     
   7.8027662476783388E-002  0.19800339018564855        0.0000000000000000     
  0.10850206657336449       0.19925135113859863        0.0000000000000000     
  0.10971282621499966       0.20727256945945821        0.0000000000000000     
  0.11084725075177776       0.21537535434797306        0.0000000000000000     
  0.11190534018369877       0.22355970580414325        0.0000000000000000     
  0.11288709451076272       0.23182562382796867        0.0000000000000000     
  0.10061379401628281       0.19889202259914929        0.0000000000000000     
  0.10173240058834419       0.20693947202630844        0.0000000000000000     
  0.10277738407511454       0.21506402096722677        0.0000000000000000     
  0.10374874447659384       0.22326566942190426        0.0000000000000000     
  0.10464648179278206       0.23154441739034087        0.0000000000000000     
   9.2905302481158733E-002  0.19856425292717450        0.0000000000000000     
   9.3931470646079193E-002  0.20663640199774597        0.0000000000000000     
   9.4885439089780255E-002  0.21478314687705266        0.0000000000000000     
   9.5767207812261904E-002  0.22300448756509469        0.0000000000000000     
   9.6576776813524196E-002  0.23130042406187198        0.0000000000000000     
   8.5376591967992257E-002  0.19826804212267421        0.0000000000000000     
   8.6310036388204642E-002  0.20636335937377079        0.0000000000000000     
   8.7171415795774906E-002  0.21453273207745088        0.0000000000000000     
   8.7960730190703051E-002  0.22277616023371460        0.0000000000000000     
   8.8677979572989077E-002  0.23109364384256198        0.0000000000000000     
   7.8027662476783388E-002  0.19800339018564855        0.0000000000000000     
   7.8868097814720567E-002  0.20612034415438285        0.0000000000000000     
   7.9635314193098508E-002  0.21431277656842135        0.0000000000000000     
   8.0329311611917253E-002  0.22258068742776399        0.0000000000000000     
   8.0950090071176761E-002  0.23092407673241080        0.0000000000000000     
  0.11288709451076272       0.23182562382796867        0.0000000000000000     
  0.11382129797559898       0.24018969504086751        0.0000000000000000     
  0.11473673482083695       0.24866850606425794        0.0000000000000000     
  0.11563340504647665       0.25726205689813986        0.0000000000000000     
  0.11651130865251806       0.26597034754251336        0.0000000000000000     
  0.10464648179278206       0.23154441739034087        0.0000000000000000     
  0.10547586869520588       0.23992395558557197        0.0000000000000000     
  0.10624217785539188       0.24842797472063291        0.0000000000000000     
  0.10694540927334005       0.25705647479552352        0.0000000000000000     
  0.10758556294905039       0.26580945581024396        0.0000000000000000     
   9.6576776813524196E-002  0.23130042406187198        0.0000000000000000     
   9.7305001589897522E-002  0.23969766239094573        0.0000000000000000     
   9.7942737637712357E-002  0.24822290857587714        0.0000000000000000     
   9.8489984956968687E-002  0.25687616261666624        0.0000000000000000     
   9.8946743547666569E-002  0.26565742451331298        0.0000000000000000     
   8.8677979572989077E-002  0.23109364384256198        0.0000000000000000     
   8.9308696659673906E-002  0.23951081545698871        0.0000000000000000     
   8.9838414167798405E-002  0.24805330762999070        0.0000000000000000     
   9.0267132097362632E-002  0.25672112036156797        0.0000000000000000     
   9.0594850448366529E-002  0.26551425365172049        0.0000000000000000     
   8.0950090071176761E-002  0.23092407673241080        0.0000000000000000     
   8.1486953904535045E-002  0.23936341478370099        0.0000000000000000     
   8.1929207445650062E-002  0.24791917188297360        0.0000000000000000     
   8.2276850694521828E-002  0.25659134803022876        0.0000000000000000     
   8.2529883651150326E-002  0.26537994322546643        0.0000000000000000     
  0.11651130865251806       0.26597034754251336        0.0000000000000000     
  0.11731058774622052       0.27495806132591227        0.0000000000000000     
  0.11797138443484340       0.28438988157687028        0.0000000000000000     
  0.11849369871838665       0.29426580829538740        0.0000000000000000     
  0.11887753059685030       0.30458584148146367        0.0000000000000000     
  0.10758556294905039       0.26580945581024396        0.0000000000000000     
  0.10814360102324889       0.27481905712096288        0.0000000000000000     
  0.10860048563666148       0.28421741808384909        0.0000000000000000     
  0.10895621678928816       0.29400453869890253        0.0000000000000000     
  0.10921079448112894       0.30418041896612324        0.0000000000000000     
   9.8946743547666569E-002  0.26565742451331298        0.0000000000000000     
   9.9324068774745505E-002  0.27466494313479900        0.0000000000000000     
   9.9633016003145183E-002  0.28399696735010582        0.0000000000000000     
   9.9873585232865533E-002  0.29365349715923345        0.0000000000000000     
  0.10004577646390658       0.30363453256218198        0.0000000000000000     
   9.0594850448366529E-002  0.26551425365172049        0.0000000000000000     
   9.0851991000710411E-002  0.27449571936742051        0.0000000000000000     
   9.1068975534294452E-002  0.28372852937564041        0.0000000000000000     
   9.1245804049118737E-002  0.29321268367638020        0.0000000000000000     
   9.1382476545183236E-002  0.30294818226963988        0.0000000000000000     
   8.2529883651150326E-002  0.26537994322546643        0.0000000000000000     
   8.2727367701143514E-002  0.27431138581882747        0.0000000000000000     
   8.2908364230109347E-002  0.28341210416045298        0.0000000000000000     
   8.3072873238047795E-002  0.29268209825034280        0.0000000000000000     
   8.3220894724958874E-002  0.30212136808849699        0.0000000000000000     
   4.5921003761793117E-002   5.9302586505927818E-002   0.0000000000000000     
   4.8169313762423664E-002   6.4860143074489326E-002   0.0000000000000000     
   5.0361912333806970E-002   7.0583166953399709E-002   0.0000000000000000     
   5.2498799475943006E-002   7.6471658142658924E-002   0.0000000000000000     
   5.4579975188831793E-002   8.2525616642267000E-002   0.0000000000000000     
   4.1263271957367217E-002   5.8432876631269608E-002   0.0000000000000000     
   4.3379331141590496E-002   6.4081606559507814E-002   0.0000000000000000     
   4.5433917674432785E-002   6.9876192856689279E-002   0.0000000000000000     
   4.7427031555894082E-002   7.5816635522814049E-002   0.0000000000000000     
   4.9358672785974389E-002   8.1902934557882071E-002   0.0000000000000000     
   3.6914858310939533E-002   5.7845167460930630E-002   0.0000000000000000     
   3.8860852137644973E-002   6.3506606786072978E-002   0.0000000000000000     
   4.0746843846993452E-002   6.9314677692129123E-002   0.0000000000000000     
   4.2572833438984957E-002   7.5269380179099094E-002   0.0000000000000000     
   4.4338820913619487E-002   8.1370714246982889E-002   0.0000000000000000     
   3.2875762822510091E-002   5.7539458994910919E-002   0.0000000000000000     
   3.4613876750587115E-002   6.3135143754184830E-002   0.0000000000000000     
   3.6300690851488952E-002   6.8898621459719214E-002   0.0000000000000000     
   3.7936205125215609E-002   7.4829892111514126E-002   0.0000000000000000     
   3.9520419571767079E-002   8.0928955709569483E-002   0.0000000000000000     
   2.9145985492078866E-002   5.7515751233210427E-002   0.0000000000000000     
   3.0638404980416901E-002   6.2967217463843372E-002   0.0000000000000000     
   3.2095458687919298E-002   6.8628024159459580E-002   0.0000000000000000     
   3.3517146614586053E-002   7.4498171320059078E-002   0.0000000000000000     
   3.4903468760417181E-002   8.0577658945641867E-002   0.0000000000000000     
   5.4579975188831793E-002   8.2525616642267000E-002   0.0000000000000000     
   5.6595887400875469E-002   8.8738701076159499E-002   0.0000000000000000     
   5.8536984040476137E-002   9.5104570068271888E-002   0.0000000000000000     
   6.0403265107633809E-002  0.10162322361860424        0.0000000000000000     
   6.2194730602348480E-002  0.10829466172715654        0.0000000000000000     
   4.9358672785974389E-002   8.1902934557882071E-002   0.0000000000000000     
   5.1223385617282381E-002   8.8139035939873295E-002   0.0000000000000000     
   5.3015714302426749E-002   9.4528885646767730E-002   0.0000000000000000     
   5.4735658841407478E-002  0.10107248367856533        0.0000000000000000     
   5.6383219234224582E-002  0.10776983003526612        0.0000000000000000     
   4.4338820913619487E-002   8.1370714246982889E-002   0.0000000000000000     
   4.6040933616390577E-002   8.7622990586132737E-002   0.0000000000000000     
   4.7675298892791783E-002   9.4030519886900865E-002   0.0000000000000000     
   4.9241916742823064E-002  0.10059330214928733        0.0000000000000000     
   5.0740787166484461E-002  0.10731133737329208        0.0000000000000000     
   3.9520419571767079E-002   8.0928955709569483E-002   0.0000000000000000     
   4.1048531398200062E-002   8.7190565014937771E-002   0.0000000000000000     
   4.2515737811571211E-002   9.3609472788671350E-002   0.0000000000000000     
   4.3922038811880573E-002  0.10018567903077022        0.0000000000000000     
   4.5267434399128101E-002  0.10691918374123441        0.0000000000000000     
   3.4903468760417181E-002   8.0577658945641867E-002   0.0000000000000000     
   3.6246178962710804E-002   8.6841759226288395E-002   0.0000000000000000     
   3.7537031058765061E-002   9.3265744352079127E-002   0.0000000000000000     
   3.8776025048579972E-002   9.9849614323014035E-002   0.0000000000000000     
   3.9963160932155531E-002  0.10659336913909315        0.0000000000000000     
   6.2194730602348480E-002  0.10829466172715654        0.0000000000000000     
   6.3913194558815181E-002  0.11511051024852062        0.0000000000000000     
   6.5560471011228943E-002  0.12206239503728837        0.0000000000000000     
   6.7136559959589739E-002  0.12915031609345981        0.0000000000000000     
   6.8641461403897583E-002  0.13637427341703490        0.0000000000000000     
   5.6383219234224582E-002  0.10776983003526612        0.0000000000000000     
   5.7961643227747932E-002  0.11461134452477748        0.0000000000000000     
   5.9474178568847430E-002  0.12158744695500688        0.0000000000000000     
   6.0920825257523056E-002  0.12869813732595428        0.0000000000000000     
   6.2301583293774832E-002  0.13594341563761972        0.0000000000000000     
   5.0740787166484461E-002  0.10731133737329208        0.0000000000000000     
   5.2175646671349593E-002  0.11417397903719796        0.0000000000000000     
   5.3550231764992108E-002  0.12117058061928777        0.0000000000000000     
   5.4864542447412006E-002  0.12830114211956153        0.0000000000000000     
   5.6118578718609299E-002  0.13556566353801922        0.0000000000000000     
   4.5267434399128101E-002  0.10691918374123441        0.0000000000000000     
   4.6555204889620130E-002  0.11379841378578201        0.0000000000000000     
   4.7788630599662964E-002  0.12081179603013105        0.0000000000000000     
   4.8967711529256587E-002  0.12795933047428154        0.0000000000000000     
   5.0092447678401014E-002  0.13524101711823344        0.0000000000000000     
   3.9963160932155531E-002  0.10659336913909315        0.0000000000000000     
   4.1100317882559585E-002  0.11348464877052963        0.0000000000000000     
   4.2189375072860011E-002  0.12051109318753667        0.0000000000000000     
   4.3230332503056794E-002  0.12767270239011425        0.0000000000000000     
   4.4223190173149948E-002  0.13496947637826237        0.0000000000000000     
   6.8641461403897583E-002  0.13637427341703490        0.0000000000000000     
   7.0073777386296568E-002  0.14371996245346144        0.0000000000000000     
   7.1432109948930816E-002  0.15117307864818721        0.0000000000000000     
   7.2716459091800315E-002  0.15873362200121222        0.0000000000000000     
   7.3926824814905076E-002  0.16640159251253642        0.0000000000000000     
   6.2301583293774832E-002  0.13594341563761972        0.0000000000000000     
   6.3614586305743362E-002  0.14331073556326931        0.0000000000000000     
   6.4857967921569323E-002  0.15078755077616918        0.0000000000000000     
   6.6031728141252674E-002  0.15837386127631944        0.0000000000000000     
   6.7135866964793456E-002  0.16606966706371995        0.0000000000000000     
   5.6118578718609299E-002  0.13556566353801922        0.0000000000000000     
   5.7310117432079928E-002  0.14295247621045501        0.0000000000000000     
   5.8436935441319844E-002  0.15044991147266304        0.0000000000000000     
   5.9499032746329034E-002  0.15805796932464336        0.0000000000000000     
   6.0496409347107510E-002  0.16577664976639589        0.0000000000000000     
   5.0092447678401014E-002  0.13524101711823344        0.0000000000000000     
   5.1160370765306259E-002  0.14264518439501861        0.0000000000000000     
   5.2169012508182386E-002  0.15016016073766880        0.0000000000000000     
   5.3118372907029379E-002  0.15778594614618399        0.0000000000000000     
   5.4008451961847240E-002  0.16552254062056423        0.0000000000000000     
   4.4223190173149948E-002  0.13496947637826237        0.0000000000000000     
   4.5165346305422370E-002  0.14238886011696009        0.0000000000000000     
   4.6054199122156962E-002  0.14991829857118641        0.0000000000000000     
   4.6889748623353718E-002  0.15755779174094137        0.0000000000000000     
   4.7671994809012630E-002  0.16530733962622499        0.0000000000000000     
   7.3926824814905076E-002  0.16640159251253642        0.0000000000000000     
   7.5063157678689235E-002  0.17416796793496131        0.0000000000000000     
   7.6125408243597037E-002  0.18202372602128825        0.0000000000000000     
   7.7113576509628398E-002  0.18996886677151736        0.0000000000000000     
   7.8027662476783388E-002  0.19800339018564855        0.0000000000000000     
   6.7135866964793456E-002  0.16606966706371995        0.0000000000000000     
   6.8169822734527916E-002  0.17386378067800345        0.0000000000000000     
   6.9133033792792314E-002  0.18174501465880263        0.0000000000000000     
   7.0025500139586666E-002  0.18971336900611740        0.0000000000000000     
   7.0847221774910957E-002  0.19776884371994785        0.0000000000000000     
   6.0496409347107510E-002  0.16577664976639589        0.0000000000000000     
   6.1428144551270235E-002  0.17359378729156408        0.0000000000000000     
   6.2293317666432202E-002  0.18149721639379124        0.0000000000000000     
   6.3091928692593391E-002  0.18948693707307743        0.0000000000000000     
   6.3823977629753795E-002  0.19756294932942259        0.0000000000000000     
   5.4008451961847240E-002  0.16552254062056423        0.0000000000000000     
   5.4838123128916241E-002  0.17335798777564310        0.0000000000000000     
   5.5606259864516699E-002  0.18128033122625412        0.0000000000000000     
   5.6312862168648586E-002  0.18928957097239729        0.0000000000000000     
   5.6957930041311916E-002  0.19738570701407276        0.0000000000000000     
   4.7671994809012630E-002  0.16530733962622499        0.0000000000000000     
   4.8399758467465928E-002  0.17315638213024048        0.0000000000000000     
   4.9071860387045807E-002  0.18109435915619124        0.0000000000000000     
   4.9688300567752280E-002  0.18912127070407719        0.0000000000000000     
   5.0249079009585335E-002  0.19723711677389832        0.0000000000000000     
   7.8027662476783388E-002  0.19800339018564855        0.0000000000000000     
   7.8868097814720567E-002  0.20612034415438285        0.0000000000000000     
   7.9635314193098508E-002  0.21431277656842135        0.0000000000000000     
   8.0329311611917253E-002  0.22258068742776399        0.0000000000000000     
   8.0950090071176761E-002  0.23092407673241080        0.0000000000000000     
   7.0847221774910957E-002  0.19776884371994785        0.0000000000000000     
   7.1596674395519977E-002  0.20590641179586885        0.0000000000000000     
   7.2272333698168517E-002  0.21412104622945533        0.0000000000000000     
   7.2874199682856564E-002  0.22241274702070729        0.0000000000000000     
   7.3402272349584144E-002  0.23078151416962481        0.0000000000000000     
   6.3823977629753795E-002  0.19756294932942259        0.0000000000000000     
   6.4486785600495963E-002  0.20572061775451531        0.0000000000000000     
   6.5077673727402433E-002  0.21395530694004417        0.0000000000000000     
   6.5596642010473161E-002  0.22226701688600906        0.0000000000000000     
   6.6043690449708176E-002  0.23065574759241014        0.0000000000000000     
   5.6957930041311916E-002  0.19738570701407276        0.0000000000000000     
   5.7538431429648519E-002  0.20556296203032223        0.0000000000000000     
   5.8051334280800213E-002  0.21381555870018776        0.0000000000000000     
   5.8496638594766989E-002  0.22214349702366928        0.0000000000000000     
   5.8874344371548849E-002  0.23054677700076687        0.0000000000000000     
   5.0249079009585335E-002  0.19723711677389832        0.0000000000000000     
   5.0751611882977651E-002  0.20543344462328969        0.0000000000000000     
   5.1193315358361892E-002  0.21370180150988624        0.0000000000000000     
   5.1574189435738063E-002  0.22204218743368798        0.0000000000000000     
   5.1894234115106172E-002  0.23045460239469492        0.0000000000000000     
   8.0950090071176761E-002  0.23092407673241080        0.0000000000000000     
   8.1486953904535045E-002  0.23936341478370099        0.0000000000000000     
   8.1929207445650062E-002  0.24791917188297360        0.0000000000000000     
   8.2276850694521828E-002  0.25659134803022876        0.0000000000000000     
   8.2529883651150326E-002  0.26537994322546643        0.0000000000000000     
   7.3402272349584144E-002  0.23078151416962481        0.0000000000000000     
   7.3853281364951021E-002  0.23924059426576702        0.0000000000000000     
   7.4223956395557011E-002  0.24780323389869330        0.0000000000000000     
   7.4514297441402116E-002  0.25646943306840364        0.0000000000000000     
   7.4724304502486336E-002  0.26523919177489802        0.0000000000000000     
   6.6043690449708176E-002  0.23065574759241014        0.0000000000000000     
   6.6421187081391955E-002  0.23912748779787144        0.0000000000000000     
   6.6731499941809033E-002  0.24768822624101730        0.0000000000000000     
   6.6974629030959340E-002  0.25633796292184768        0.0000000000000000     
   6.7150574348842945E-002  0.26507669784036253        0.0000000000000000     
   5.8874344371548849E-002  0.23054677700076687        0.0000000000000000     
   5.9190671053857863E-002  0.23902409538001429        0.0000000000000000     
   5.9451838084406079E-002  0.24757414890994561        0.0000000000000000     
   5.9657845463193512E-002  0.25619693759056078        0.0000000000000000     
   5.9808693190220141E-002  0.26489246142185985        0.0000000000000000     
   5.1894234115106172E-002  0.23045460239469492        0.0000000000000000     
   5.2161733282348716E-002  0.23893041701219553        0.0000000000000000     
   5.2384970823348191E-002  0.24746100190547821        0.0000000000000000     
   5.2563946738104605E-002  0.25604635707454304        0.0000000000000000     
   5.2698661026617952E-002  0.26468648251939009        0.0000000000000000     
   8.2529883651150326E-002  0.26537994322546643        0.0000000000000000     
   8.2727367701143514E-002  0.27431138581882747        0.0000000000000000     
   8.2908364230109347E-002  0.28341210416045298        0.0000000000000000     
   8.3072873238047795E-002  0.29268209825034280        0.0000000000000000     
   8.3220894724958874E-002  0.30212136808849699        0.0000000000000000     
   7.4724304502486336E-002  0.26523919177489802        0.0000000000000000     
   7.4894975325590571E-002  0.27410627046536451        0.0000000000000000     
   7.5067307657495766E-002  0.28306442958699124        0.0000000000000000     
   7.5241301498201879E-002  0.29211366913977799        0.0000000000000000     
   7.5416956847708938E-002  0.30125398912372497        0.0000000000000000     
   6.7150574348842945E-002  0.26507669784036253        0.0000000000000000     
   6.7299590323597225E-002  0.27387470128337615        0.0000000000000000     
   6.7461931383359638E-002  0.28270224353770290        0.0000000000000000     
   6.7637597528130186E-002  0.29155932460334272        0.0000000000000000     
   6.7826588757908868E-002  0.30044594448029560        0.0000000000000000     
   5.9808693190220141E-002  0.26489246142185985        0.0000000000000000     
   5.9941212695163483E-002  0.27361667827286246        0.0000000000000000     
   6.0092235407701006E-002  0.28232554601258808        0.0000000000000000     
   6.0261761327832716E-002  0.29101906464103694        0.0000000000000000     
   6.0449790455558608E-002  0.29969723415820887        0.0000000000000000     
   5.2698661026617952E-002  0.26468648251939009        0.0000000000000000     
   5.2819842440289332E-002  0.27333220143382325        0.0000000000000000     
   5.2958219730519833E-002  0.28193433701164672        0.0000000000000000     
   5.3113792897309456E-002  0.29049288925286054        0.0000000000000000     
   5.3286561940658200E-002  0.29900785815746467        0.0000000000000000     
   2.9145985492078866E-002   5.7515751233210427E-002   0.0000000000000000     
   3.0638404980416901E-002   6.2967217463843372E-002   0.0000000000000000     
   3.2095458687919298E-002   6.8628024159459580E-002   0.0000000000000000     
   3.3517146614586053E-002   7.4498171320059078E-002   0.0000000000000000     
   3.4903468760417181E-002   8.0577658945641867E-002   0.0000000000000000     
   2.5534816502441739E-002   5.7526412006757011E-002   0.0000000000000000     
   2.6781172019217245E-002   6.2839273084048131E-002   0.0000000000000000     
   2.8007840434806856E-002   6.8401309895186072E-002   0.0000000000000000     
   2.9214821749210574E-002   7.4212522440170847E-002   0.0000000000000000     
   3.0402115962428391E-002   8.0272910719002430E-002   0.0000000000000000     
   2.1851546036394571E-002   5.7323809146478479E-002   0.0000000000000000     
   2.2888913059071040E-002   6.2587755783798646E-002   0.0000000000000000     
   2.3914529170673993E-002   6.8116902770734566E-002   0.0000000000000000     
   2.4928394371203422E-002   7.3911250107286219E-002   0.0000000000000000     
   2.5930508660659331E-002   7.9970797793453605E-002   0.0000000000000000     
   1.8096174093937361E-002   5.6907942652374824E-002   0.0000000000000000     
   1.8961628099978287E-002   6.2212665563094939E-002   0.0000000000000000     
   1.9815524895520704E-002   6.7774802786105079E-002   0.0000000000000000     
   2.0657864480564607E-002   7.3594354321405223E-002   0.0000000000000000     
   2.1488646855110000E-002   7.9671320168995377E-002   0.0000000000000000     
   1.4268700675070110E-002   5.6278812524446067E-002   0.0000000000000000     
   1.4999317141938983E-002   6.1714002421937003E-002   0.0000000000000000     
   1.5710827609346986E-002   6.7375009941297581E-002   0.0000000000000000     
   1.6403232077294123E-002   7.3261835082527829E-002   0.0000000000000000     
   1.7076530545780389E-002   7.9374477845627761E-002   0.0000000000000000     
   3.4903468760417181E-002   8.0577658945641867E-002   0.0000000000000000     
   3.6246178962710804E-002   8.6841759226288395E-002   0.0000000000000000     
   3.7537031058765061E-002   9.3265744352079127E-002   0.0000000000000000     
   3.8776025048579972E-002   9.9849614323014035E-002   0.0000000000000000     
   3.9963160932155531E-002  0.10659336913909315        0.0000000000000000     
   3.0402115962428391E-002   8.0272910719002430E-002   0.0000000000000000     
   3.1558414149582791E-002   8.6538951478381865E-002   0.0000000000000000     
   3.2672407385796243E-002   9.2967121465010114E-002   0.0000000000000000     
   3.3744095671068744E-002   9.9557420678887162E-002   0.0000000000000000     
   3.4773479005400301E-002  0.10630984912001303        0.0000000000000000     
   2.5930508660659331E-002   7.9970797793453605E-002   0.0000000000000000     
   2.6909774798475984E-002   8.6244520029415406E-002   0.0000000000000000     
   2.7855095544087650E-002   9.2681391015350195E-002   0.0000000000000000     
   2.8766470897494317E-002   9.9281410751258029E-002   0.0000000000000000     
   2.9643900858695994E-002  0.10604457923713886        0.0000000000000000     
   2.1488646855110000E-002   7.9671320168995377E-002   0.0000000000000000     
   2.2300260909390388E-002   8.5958464879388963E-002   0.0000000000000000     
   2.3085095533639285E-002   9.2408553003099386E-002   0.0000000000000000     
   2.3843150727856696E-002   9.9021584540126592E-002   0.0000000000000000     
   2.4574426492042615E-002  0.10579755949047064        0.0000000000000000     
   1.7076530545780389E-002   7.9374477845627761E-002   0.0000000000000000     
   1.7729872482325999E-002   8.5680786028302605E-002   0.0000000000000000     
   1.8362407354451160E-002   9.2148607428257645E-002   0.0000000000000000     
   1.8974135162155879E-002   9.8777942045492895E-002   0.0000000000000000     
   1.9565055905440151E-002  0.10556878988000834        0.0000000000000000     
   3.9963160932155531E-002  0.10659336913909315        0.0000000000000000     
   4.1100317882559585E-002  0.11348464877052963        0.0000000000000000     
   4.2189375072860011E-002  0.12051109318753667        0.0000000000000000     
   4.3230332503056794E-002  0.12767270239011425        0.0000000000000000     
   4.4223190173149948E-002  0.13496947637826237        0.0000000000000000     
   3.4773479005400301E-002  0.10630984912001303        0.0000000000000000     
   3.5760741468375074E-002  0.11321149384102429        0.0000000000000000     
   3.6706067139577261E-002  0.12024944189455744        0.0000000000000000     
   3.7609456019006837E-002  0.12742369328061251        0.0000000000000000     
   3.8470908106663815E-002  0.13473424799918951        0.0000000000000000     
   2.9643900858695994E-002  0.10604457923713886        0.0000000000000000     
   3.0486231465273773E-002  0.11295775884684935        0.0000000000000000     
   3.1292308754808755E-002  0.12000781195424612        0.0000000000000000     
   3.2062132727300935E-002  0.12719473855932914        0.0000000000000000     
   3.2795703382750299E-002  0.13451853866209840        0.0000000000000000     
   2.4574426492042615E-002  0.10579755949047064        0.0000000000000000     
   2.5276787873255664E-002  0.11272344378800489        0.0000000000000000     
   2.5948099918554485E-002  0.11978620336660269        0.0000000000000000     
   2.6588362627939066E-002  0.12698583822626405        0.0000000000000000     
   2.7197576001409415E-002  0.13432234836698900        0.0000000000000000     
   1.9565055905440151E-002  0.10556878988000834        0.0000000000000000     
   2.0132410692320756E-002  0.11250854866449082        0.0000000000000000     
   2.0673440630814457E-002  0.11958461613162716        0.0000000000000000     
   2.1188145720921255E-002  0.12679699228141733        0.0000000000000000     
   2.1676525962641156E-002  0.13414567711386136        0.0000000000000000     
   4.4223190173149948E-002  0.13496947637826237        0.0000000000000000     
   4.5165346305422370E-002  0.14238886011696009        0.0000000000000000     
   4.6054199122156962E-002  0.14991829857118641        0.0000000000000000     
   4.6889748623353718E-002  0.15755779174094137        0.0000000000000000     
   4.7671994809012630E-002  0.16530733962622499        0.0000000000000000     
   3.8470908106663815E-002  0.13473424799918951        0.0000000000000000     
   3.9287874775292948E-002  0.14216755299435468        0.0000000000000000     
   4.0057807397639034E-002  0.14971005521017428        0.0000000000000000     
   4.0780705973702036E-002  0.15736175464664828        0.0000000000000000     
   4.1456570503481976E-002  0.16512265130377674        0.0000000000000000     
   3.2795703382750299E-002  0.13451853866209840        0.0000000000000000     
   3.3490786897782732E-002  0.14196531264527770        0.0000000000000000     
   3.4145149449024088E-002  0.14952116089159070        0.0000000000000000     
   3.4758791036474355E-002  0.15718608340103757        0.0000000000000000     
   3.5331711660133540E-002  0.16496008017361813        0.0000000000000000     
   2.7197576001409415E-002  0.13432234836698900        0.0000000000000000     
   2.7774082672891710E-002  0.14178213906972903        0.0000000000000000     
   2.8316225276312130E-002  0.14935161561543578        0.0000000000000000     
   2.8824003811670669E-002  0.15703077800410914        0.0000000000000000     
   2.9297418278967337E-002  0.16481962623574917        0.0000000000000000     
   2.1676525962641156E-002  0.13414567711386136        0.0000000000000000     
   2.2137762100619879E-002  0.14161803226770883        0.0000000000000000     
   2.2571034879503158E-002  0.14920141938170944        0.0000000000000000     
   2.2976344299290984E-002  0.15689583845586308        0.0000000000000000     
   2.3353690359983359E-002  0.16470128949016985        0.0000000000000000     
   4.7671994809012630E-002  0.16530733962622499        0.0000000000000000     
   4.8399758467465928E-002  0.17315638213024048        0.0000000000000000     
   4.9071860387045807E-002  0.18109435915619124        0.0000000000000000     
   4.9688300567752280E-002  0.18912127070407719        0.0000000000000000     
   5.0249079009585335E-002  0.19723711677389832        0.0000000000000000     
   4.1456570503481976E-002  0.16512265130377674        0.0000000000000000     
   4.2084247614269002E-002  0.17298364584658718        0.0000000000000000     
   4.2662583933353267E-002  0.18093563894010722        0.0000000000000000     
   4.3191579460734764E-002  0.18897863058433687        0.0000000000000000     
   4.3671234196413514E-002  0.19711262077927608        0.0000000000000000     
   3.5331711660133540E-002  0.16496008017361813        0.0000000000000000     
   3.5862787616675183E-002  0.17283445441591400        0.0000000000000000     
   3.6350895202772793E-002  0.18080050933450678        0.0000000000000000     
   3.6796034418426382E-002  0.18885824492939632        0.0000000000000000     
   3.7198205263635951E-002  0.19700766120058269        0.0000000000000000     
   2.9297418278967337E-002  0.16481962623574917        0.0000000000000000     
   2.9735378474684469E-002  0.17270880783822098        0.0000000000000000     
   3.0136794195304396E-002  0.18068897033938977        0.0000000000000000     
   3.0501665440827119E-002  0.18876011373925550        0.0000000000000000     
   3.0829992211252641E-002  0.19692223803781822        0.0000000000000000     
   2.3353690359983359E-002  0.16470128949016985        0.0000000000000000     
   2.3702020188296868E-002  0.17260670611350812        0.0000000000000000     
   2.4020280910948072E-002  0.18060102195475633        0.0000000000000000     
   2.4308472527936980E-002  0.18868423701391451        0.0000000000000000     
   2.4566595039263589E-002  0.19685635129098261        0.0000000000000000     
   5.0249079009585335E-002  0.19723711677389832        0.0000000000000000     
   5.0751611882977651E-002  0.20543344462328969        0.0000000000000000     
   5.1193315358361892E-002  0.21370180150988624        0.0000000000000000     
   5.1574189435738063E-002  0.22204218743368798        0.0000000000000000     
   5.1894234115106172E-002  0.23045460239469492        0.0000000000000000     
   4.3671234196413514E-002  0.19711262077927608        0.0000000000000000     
   4.4099811152392115E-002  0.20532611915798396        0.0000000000000000     
   4.4475573340673202E-002  0.21360763535351962        0.0000000000000000     
   4.4798520761256753E-002  0.22195716936588308        0.0000000000000000     
   4.5068653414142804E-002  0.23037472119507432        0.0000000000000000     
   3.7198205263635951E-002  0.19700766120058269        0.0000000000000000     
   3.7556513429800709E-002  0.20523503925897146        0.0000000000000000     
   3.7870064608319862E-002  0.21352666021546804        0.0000000000000000     
   3.8138858799193445E-002  0.22188252407007250        0.0000000000000000     
   3.8362896002421418E-002  0.23030263082278485        0.0000000000000000     
   3.0829992211252641E-002  0.19692223803781822        0.0000000000000000     
   3.1121718715203413E-002  0.20516020492625209        0.0000000000000000     
   3.1376789161301905E-002  0.21345887609573147        0.0000000000000000     
   3.1595203549548090E-002  0.22181825154625628        0.0000000000000000     
   3.1776961879942001E-002  0.23023833127782656        0.0000000000000000     
   2.4566595039263589E-002  0.19685635129098261        0.0000000000000000     
   2.4795427008600247E-002  0.20510161615982597        0.0000000000000000     
   2.4995746999619289E-002  0.21340428299430994        0.0000000000000000     
   2.5167555012320725E-002  0.22176435179443441        0.0000000000000000     
   2.5310851046704552E-002  0.23018182256019948        0.0000000000000000     
   5.1894234115106172E-002  0.23045460239469492        0.0000000000000000     
   5.2161733282348716E-002  0.23893041701219553        0.0000000000000000     
   5.2384970823348191E-002  0.24746100190547821        0.0000000000000000     
   5.2563946738104605E-002  0.25604635707454304        0.0000000000000000     
   5.2698661026617952E-002  0.26468648251939009        0.0000000000000000     
   4.5068653414142804E-002  0.23037472119507432        0.0000000000000000     
   4.5294993043475319E-002  0.23884497819821901        0.0000000000000000     
   4.5486561393398295E-002  0.24735262773244293        0.0000000000000000     
   4.5643358463911730E-002  0.25589766979774603        0.0000000000000000     
   4.5765384255015626E-002  0.26448010439412833        0.0000000000000000     
   3.8362896002421418E-002  0.23030263082278485        0.0000000000000000     
   3.8551069613848493E-002  0.23876630444188862        0.0000000000000000     
   3.8712273029319351E-002  0.24725286889566739        0.0000000000000000     
   3.8846506248834005E-002  0.25576232418412115        0.0000000000000000     
   3.8953769272392448E-002  0.26429467030724996        0.0000000000000000     
   3.1776961879942001E-002  0.23023833127782656        0.0000000000000000     
   3.1929962993468210E-002  0.23869439574320434        0.0000000000000000     
   3.2062105731111359E-002  0.24716172539515166        0.0000000000000000     
   3.2173390092871422E-002  0.25564032023366856        0.0000000000000000     
   3.2263816078748404E-002  0.26413018025875484        0.0000000000000000     
   2.5310851046704552E-002  0.23018182256019948        0.0000000000000000     
   2.5431673182334507E-002  0.23862925210216621        0.0000000000000000     
   2.5536059498774313E-002  0.24707919723089575        0.0000000000000000     
   2.5624009996023982E-002  0.25553165794638805        0.0000000000000000     
   2.5695524674083505E-002  0.26398663424864310        0.0000000000000000     
   5.2698661026617952E-002  0.26468648251939009        0.0000000000000000     
   5.2819842440289332E-002  0.27333220143382325        0.0000000000000000     
   5.2958219730519833E-002  0.28193433701164672        0.0000000000000000     
   5.3113792897309456E-002  0.29049288925286054        0.0000000000000000     
   5.3286561940658200E-002  0.29900785815746467        0.0000000000000000     
   4.5765384255015626E-002  0.26448010439412833        0.0000000000000000     
   4.5876625063191838E-002  0.27304997240641898        0.0000000000000000     
   4.6001067184922209E-002  0.28155731471944706        0.0000000000000000     
   4.6138710620206747E-002  0.29000213133321268        0.0000000000000000     
   4.6289555369045436E-002  0.29838442224771566        0.0000000000000000     
   3.8953769272392448E-002  0.26429467030724996        0.0000000000000000     
   3.9052706068088049E-002  0.27279869283080987        0.0000000000000000     
   3.9161960604014188E-002  0.28122317732055729        0.0000000000000000     
   3.9281532880170882E-002  0.28956812377649199        0.0000000000000000     
   3.9411422896558100E-002  0.29783353219861408        0.0000000000000000     
   3.2263816078748404E-002  0.26413018025875484        0.0000000000000000     
   3.2348085454977978E-002  0.27257836270699604        0.0000000000000000     
   3.2440899987795799E-002  0.28093192481497725        0.0000000000000000     
   3.2542259677201875E-002  0.28919086658269871        0.0000000000000000     
   3.2652164523196199E-002  0.29735518801016009        0.0000000000000000     
   2.5695524674083505E-002  0.26398663424864310        0.0000000000000000     
   2.5762763223861611E-002  0.27238898203497730        0.0000000000000000     
   2.5837885336267016E-002  0.28068355720270721        0.0000000000000000     
   2.5920891011299727E-002  0.28887035975183262        0.0000000000000000     
   2.6011780248959736E-002  0.29694938968235363        0.0000000000000000     
   1.4268700675070110E-002   5.6278812524446067E-002   0.0000000000000000     
   1.4999317141938983E-002   6.1714002421937003E-002   0.0000000000000000     
   1.5710827609346986E-002   6.7375009941297581E-002   0.0000000000000000     
   1.6403232077294123E-002   7.3261835082527829E-002   0.0000000000000000     
   1.7076530545780389E-002   7.9374477845627761E-002   0.0000000000000000     
   1.0479263763183522E-002   5.5635020823651418E-002   0.0000000000000000     
   1.1076991850696469E-002   6.1223609021281614E-002   0.0000000000000000     
   1.1648243038444694E-002   6.6999950576015821E-002   0.0000000000000000     
   1.2193017326428203E-002   7.2964045487853985E-002   0.0000000000000000     
   1.2711314714646992E-002   7.9115893756796118E-002   0.0000000000000000     
   6.8380013416683072E-003   5.5175169610950078E-002   0.0000000000000000     
   7.2696638919940810E-003   6.0873328022085622E-002   0.0000000000000000     
   7.6755769091056709E-003   6.6732051029963435E-002   0.0000000000000000     
   8.0557403930030733E-003   7.2751338634583537E-002   0.0000000000000000     
   8.4101543436862908E-003   7.8931190835945936E-002   0.0000000000000000     
   3.3449134105244618E-003   5.4899258886342076E-002   0.0000000000000000     
   3.5773332658318221E-003   6.0663159424349002E-002   0.0000000000000000     
   3.7928292213299129E-003   6.6571311303140493E-002   0.0000000000000000     
   3.9914012770187355E-003   7.2623714522716543E-002   0.0000000000000000     
   4.1730494328982865E-003   7.8820369083077130E-002   0.0000000000000000     
  -3.0248015030209796E-011   5.4807288649827382E-002   0.0000000000000000     
  -2.7790309766947963E-011   6.0593103228071737E-002   0.0000000000000000     
  -2.4882575275393670E-011   6.6517731395546925E-002   0.0000000000000000     
  -2.1524811257391321E-011   7.2581173152252931E-002   0.0000000000000000     
  -1.7717018607407709E-011   7.8783428498189784E-002   0.0000000000000000     
   1.7076530545780389E-002   7.9374477845627761E-002   0.0000000000000000     
   1.7729872482325999E-002   8.5680786028302605E-002   0.0000000000000000     
   1.8362407354451160E-002   9.2148607428257645E-002   0.0000000000000000     
   1.8974135162155879E-002   9.8777942045492895E-002   0.0000000000000000     
   1.9565055905440151E-002  0.10556878988000834        0.0000000000000000     
   1.2711314714646992E-002   7.9115893756796118E-002   0.0000000000000000     
   1.3208636179276314E-002   8.5441481664190133E-002   0.0000000000000000     
   1.3690482696491424E-002   9.1926795491383870E-002   0.0000000000000000     
   1.4156854266292321E-002   9.8571835238377342E-002   0.0000000000000000     
   1.4607750888679008E-002  0.10537660090517052        0.0000000000000000     
   8.4101543436862908E-003   7.8931190835945936E-002   0.0000000000000000     
   8.7465786622348378E-003   8.5270549975085430E-002   0.0000000000000000     
   9.0727732497282339E-003   9.1768358393036903E-002   0.0000000000000000     
   9.3887381061664738E-003   9.8424616089800326E-002   0.0000000000000000     
   9.6944732315495628E-003  0.10523932306537573        0.0000000000000000     
   4.1730494328982865E-003   7.8820369083077130E-002   0.0000000000000000     
   4.3436999312015711E-003   8.5167990960988496E-002   0.0000000000000000     
   4.5092790141615883E-003   9.1673296133216731E-002   0.0000000000000000     
   4.6697866817783382E-003   9.8336284599761889E-002   0.0000000000000000     
   4.8252229340518208E-003  0.10515695636062393        0.0000000000000000     
  -1.7717018607407709E-011   7.8783428498189784E-002   0.0000000000000000     
  -1.3823487493569431E-011   8.5133804621899303E-002   0.0000000000000000     
  -1.0208509981356889E-011   9.1641608711923353E-002   0.0000000000000000     
  -6.8720876835208153E-012   9.8306840768261974E-002   0.0000000000000000     
  -3.8142184723144457E-012  0.10512950079091513        0.0000000000000000     
   1.9565055905440151E-002  0.10556878988000834        0.0000000000000000     
   2.0132410692320756E-002  0.11250854866449082        0.0000000000000000     
   2.0673440630814457E-002  0.11958461613162716        0.0000000000000000     
   2.1188145720921255E-002  0.12679699228141733        0.0000000000000000     
   2.1676525962641156E-002  0.13414567711386136        0.0000000000000000     
   1.4607750888679008E-002  0.10537660090517052        0.0000000000000000     
   1.5040252042432780E-002  0.11232901165287380        0.0000000000000000     
   1.5451437206334948E-002  0.11941698664259758        0.0000000000000000     
   1.5841306380385504E-002  0.12664052587434182        0.0000000000000000     
   1.6209859564584449E-002  0.13399962934810655        0.0000000000000000     
   9.6944732315495628E-003  0.10523932306537573        0.0000000000000000     
   9.9874640435554871E-003  0.11220077092972049        0.0000000000000000     
   1.0265195959862241E-002  0.11929725129279209        0.0000000000000000     
   1.0527668980469824E-002  0.12652876415459050        0.0000000000000000     
   1.0774883105378235E-002  0.13389530951511566        0.0000000000000000     
   4.8252229340518208E-003  0.10515695636062393        0.0000000000000000     
   4.9740466956888765E-003  0.11212382649503085        0.0000000000000000     
   5.1147168913963413E-003  0.11922541008221062        0.0000000000000000     
   5.2472335211742197E-003  0.12646170712216326        0.0000000000000000     
   5.3715965850225063E-003  0.13383271761488871        0.0000000000000000     
  -3.8142184723144457E-012  0.10512950079091513        0.0000000000000000     
  -1.1670566856664122E-012  0.11209817834880484        0.0000000000000000     
   9.3724507321812922E-013  0.11920146301085320        0.0000000000000000     
   2.4986855032965716E-012  0.12643935477706014        0.0000000000000000     
   3.5172659056115219E-012  0.13381185364742573        0.0000000000000000     
   2.1676525962641156E-002  0.13414567711386136        0.0000000000000000     
   2.2137762100619879E-002  0.14161803226770883        0.0000000000000000     
   2.2571034879503158E-002  0.14920141938170944        0.0000000000000000     
   2.2976344299290984E-002  0.15689583845586308        0.0000000000000000     
   2.3353690359983359E-002  0.16470128949016985        0.0000000000000000     
   1.6209859564584449E-002  0.13399962934810655        0.0000000000000000     
   1.6557055410115696E-002  0.14148278052926913        0.0000000000000000     
   1.6882852568163145E-002  0.14907846288320703        0.0000000000000000     
   1.7187251038726793E-002  0.15678667640992022        0.0000000000000000     
   1.7470250821806643E-002  0.16460742110940868        0.0000000000000000     
   1.0774883105378235E-002  0.13389530951511566        0.0000000000000000     
   1.1007192830527602E-002  0.14138617214446203        0.0000000000000000     
   1.1224952651858055E-002  0.14899063681272390        0.0000000000000000     
   1.1428162569369599E-002  0.15670870351990132        0.0000000000000000     
   1.1616822583062231E-002  0.16454037226599427        0.0000000000000000     
   5.3715965850225063E-003  0.13383271761488871        0.0000000000000000     
   5.4881743618556012E-003  0.14132820711328750        0.0000000000000000     
   5.5973351305879018E-003  0.14893794117026007        0.0000000000000000     
   5.6990788912194053E-003  0.15666191978580646        0.0000000000000000     
   5.7934056437501154E-003  0.16450014295992654        0.0000000000000000     
   3.5172659056115219E-012  0.13381185364742573        0.0000000000000000     
   4.0996925906172654E-012  0.14130888543574566        0.0000000000000000     
   4.3526745792735189E-012  0.14892037595581559        0.0000000000000000     
   4.2762117902651192E-012  0.15664632520763555        0.0000000000000000     
   3.8703020822927758E-012  0.16448673319120558        0.0000000000000000     
   2.3353690359983359E-002  0.16470128949016985        0.0000000000000000     
   2.3702020188296868E-002  0.17260670611350812        0.0000000000000000     
   2.4020280910948072E-002  0.18060102195475633        0.0000000000000000     
   2.4308472527936980E-002  0.18868423701391451        0.0000000000000000     
   2.4566595039263589E-002  0.19685635129098261        0.0000000000000000     
   1.7470250821806643E-002  0.16460742110940868        0.0000000000000000     
   1.7730894282797224E-002  0.17252766797757085        0.0000000000000000     
   1.7968223787093042E-002  0.18053438801030505        0.0000000000000000     
   1.8182239334694102E-002  0.18862758120761119        0.0000000000000000     
   1.8372940925600406E-002  0.19680724756948942        0.0000000000000000     
   1.1616822583062231E-002  0.16454037226599427        0.0000000000000000     
   1.1790182283470391E-002  0.17247121216620467        0.0000000000000000     
   1.1947491261128526E-002  0.18048679233573442        0.0000000000000000     
   1.2088749516036631E-002  0.18858711277458362        0.0000000000000000     
   1.2213957048194710E-002  0.19677217348275217        0.0000000000000000     
   5.7934056437501154E-003  0.16450014295992654        0.0000000000000000     
   5.8798841903163748E-003  0.17243733867940958        0.0000000000000000     
   5.9580833330545226E-003  0.18045823493104463        0.0000000000000000     
   6.0280030719645642E-003  0.18856283171483171        0.0000000000000000     
   6.0896434070464951E-003  0.19675112903077074        0.0000000000000000     
   3.8703020822927758E-012  0.16448673319120558        0.0000000000000000     
   3.3351691634125880E-012  0.17242604751718560        0.0000000000000000     
   2.8710358743189168E-012  0.18044871579623553        0.0000000000000000     
   2.4779000466074175E-012  0.18855473802835546        0.0000000000000000     
   2.1557660170867798E-012  0.19674411421354532        0.0000000000000000     
   2.4566595039263589E-002  0.19685635129098261        0.0000000000000000     
   2.4795427008600247E-002  0.20510161615982597        0.0000000000000000     
   2.4995746999619289E-002  0.21340428299430994        0.0000000000000000     
   2.5167555012320725E-002  0.22176435179443441        0.0000000000000000     
   2.5310851046704552E-002  0.23018182256019948        0.0000000000000000     
   1.8372940925600406E-002  0.19680724756948942        0.0000000000000000     
   1.8541682668726321E-002  0.20505745842447221        0.0000000000000000     
   1.8689818672986212E-002  0.21336228510109212        0.0000000000000000     
   1.8817348938380087E-002  0.22172172759934919        0.0000000000000000     
   1.8924273464907937E-002  0.23013578591924341        0.0000000000000000     
   1.2213957048194710E-002  0.19677217348275217        0.0000000000000000     
   1.2324530054316777E-002  0.20502591718496993        0.0000000000000000     
   1.2421884731116847E-002  0.21333228660596684        0.0000000000000000     
   1.2506021078594921E-002  0.22169128174574296        0.0000000000000000     
   1.2576939096750997E-002  0.23010290260429814        0.0000000000000000     
   6.0896434070464951E-003  0.19675112903077074        0.0000000000000000     
   6.1439691653716070E-003  0.20500699244131915        0.0000000000000000     
   6.1919451740111838E-003  0.21331428750893408        0.0000000000000000     
   6.2335714329652247E-003  0.22167301423361560        0.0000000000000000     
   6.2688479422337347E-003  0.23008317261536368        0.0000000000000000     
   2.1557660170867798E-012  0.19674411421354532        0.0000000000000000     
   1.8908143280260692E-012  0.20500068419351986        0.0000000000000000     
   1.6692260637954370E-012  0.21330828780999381        0.0000000000000000     
   1.4910053714681931E-012  0.22166692506296726        0.0000000000000000     
   1.3561495676439606E-012  0.23007659595244009        0.0000000000000000     
   2.5310851046704552E-002  0.23018182256019948        0.0000000000000000     
   2.5431673182334507E-002  0.23862925210216621        0.0000000000000000     
   2.5536059498774313E-002  0.24707919723089575        0.0000000000000000     
   2.5624009996023982E-002  0.25553165794638805        0.0000000000000000     
   2.5695524674083505E-002  0.26398663424864310        0.0000000000000000     
   1.8924273464907937E-002  0.23013578591924341        0.0000000000000000     
   1.9014532553634000E-002  0.23857521112898761        0.0000000000000000     
   1.9092066505622510E-002  0.24701075429679470        0.0000000000000000     
   1.9156875320873470E-002  0.25544241542266466        0.0000000000000000     
   1.9208958999386874E-002  0.26387019450659754        0.0000000000000000     
   1.2576939096750997E-002  0.23010290260429814        0.0000000000000000     
   1.2636873480553345E-002  0.23853661043388194        0.0000000000000000     
   1.2688058924970238E-002  0.24696186648674362        0.0000000000000000     
   1.2730495430001668E-002  0.25537867076288340        0.0000000000000000     
   1.2764182995647640E-002  0.26378702326230113        0.0000000000000000     
   6.2688479422337347E-003  0.23008317261536368        0.0000000000000000     
   6.2986959630925449E-003  0.23851345001684909        0.0000000000000000     
   6.3240367568174931E-003  0.24693253380074262        0.0000000000000000     
   6.3448703234085793E-003  0.25534042396704415        0.0000000000000000     
   6.3611966628658034E-003  0.26373712051575376        0.0000000000000000     
   1.3561495676439606E-012  0.23007659595244009        0.0000000000000000     
   1.2515958321829279E-012  0.23850572987788921        0.0000000000000000     
   1.1642797186420251E-012  0.24692275623879151        0.0000000000000000     
   1.0942033141104340E-012  0.25532767503514697        0.0000000000000000     
   1.0413644772888642E-012  0.26372048626695554        0.0000000000000000     
   2.5695524674083505E-002  0.26398663424864310        0.0000000000000000     
   2.5762763223861611E-002  0.27238898203497730        0.0000000000000000     
   2.5837885336267016E-002  0.28068355720270721        0.0000000000000000     
   2.5920891011299727E-002  0.28887035975183262        0.0000000000000000     
   2.6011780248959736E-002  0.29694938968235363        0.0000000000000000     
   1.9208958999386874E-002  0.26387019450659754        0.0000000000000000     
   1.9258335742343018E-002  0.27223681433213187        0.0000000000000000     
   1.9315023750922197E-002  0.28048499768280621        0.0000000000000000     
   1.9379023025124401E-002  0.28861474455862057        0.0000000000000000     
   1.9450333564949643E-002  0.29662605495957495        0.0000000000000000     
   1.2764182995647640E-002  0.26378702326230113        0.0000000000000000     
   1.2796399378026275E-002  0.27212812311583756        0.0000000000000000     
   1.2834422333255689E-002  0.28034316945433363        0.0000000000000000     
   1.2878251861335883E-002  0.28843216227778917        0.0000000000000000     
   1.2927887962266859E-002  0.29639510158620425        0.0000000000000000     
   6.3611966628658034E-003  0.26373712051575376        0.0000000000000000     
   6.3769541309113727E-003  0.27206290838609454        0.0000000000000000     
   6.3960810832674924E-003  0.28025807251728940        0.0000000000000000     
   6.4185775199341625E-003  0.28832261290933842        0.0000000000000000     
   6.4444434409113814E-003  0.29625652956224158        0.0000000000000000     
   1.0413644772888642E-012  0.26372048626695554        0.0000000000000000     
   9.9831449530685124E-013  0.27204117014290263        0.0000000000000000     
   9.5760584791632075E-013  0.28022970687167353        0.0000000000000000     
   9.1923829117178391E-013  0.28828609645326830        0.0000000000000000     
   8.8321103902666565E-013  0.29621033888768683        0.0000000000000000     
  -3.0248015030209796E-011   5.4807288649827382E-002   0.0000000000000000     
  -2.7790309766947963E-011   6.0593103228071737E-002   0.0000000000000000     
  -2.4882575275393670E-011   6.6517731395546925E-002   0.0000000000000000     
  -2.1524811257391321E-011   7.2581173152252931E-002   0.0000000000000000     
  -1.7717018607407709E-011   7.8783428498189784E-002   0.0000000000000000     
  -3.3449134689710774E-003   5.4899258899784475E-002   0.0000000000000000     
  -3.5773333194923759E-003   6.0663159432293112E-002   0.0000000000000000     
  -3.7928292693518153E-003   6.6571311306746581E-002   0.0000000000000000     
  -3.9914013185493938E-003   7.2623714523144936E-002   0.0000000000000000     
  -4.1730494670851118E-003   7.8820369081488123E-002   0.0000000000000000     
  -6.8380013939666794E-003   5.5175169634591834E-002   0.0000000000000000     
  -7.2696639398944392E-003   6.0873328036052353E-002   0.0000000000000000     
  -7.6755769518978278E-003   6.6732051036303294E-002   0.0000000000000000     
  -8.0557404299768428E-003   7.2751338635344692E-002   0.0000000000000000     
  -8.4101543741314788E-003   7.8931190833176512E-002   0.0000000000000000     
  -1.0479263805234824E-002   5.5635020854249456E-002   0.0000000000000000     
  -1.1076991888996503E-002   6.1223609039349466E-002   0.0000000000000000     
  -1.1648243072520610E-002   6.6999950584217038E-002   0.0000000000000000     
  -1.2193017355807153E-002   7.2964045488852200E-002   0.0000000000000000     
  -1.2711314738856125E-002   7.9115893753254909E-002   0.0000000000000000     
  -1.4268700702775507E-002   5.6278812558757330E-002   0.0000000000000000     
  -1.4999317166798561E-002   6.1714002442184460E-002   0.0000000000000000     
  -1.5710827631220167E-002   6.7375009950487841E-002   0.0000000000000000     
  -1.6403232096040325E-002   7.3261835083667459E-002   0.0000000000000000     
  -1.7076530561259042E-002   7.9374477841723329E-002   0.0000000000000000     
  -1.7717018607407709E-011   7.8783428498189784E-002   0.0000000000000000     
  -1.3823487493569431E-011   8.5133804621899303E-002   0.0000000000000000     
  -1.0208509981356889E-011   9.1641608711923353E-002   0.0000000000000000     
  -6.8720876835208153E-012   9.8306840768261974E-002   0.0000000000000000     
  -3.8142184723144457E-012  0.10512950079091513        0.0000000000000000     
  -4.1730494670851118E-003   7.8820369081488123E-002   0.0000000000000000     
  -4.3436999578868093E-003   8.5167990958177633E-002   0.0000000000000000     
  -4.5092790338823229E-003   9.1673296129614945E-002   0.0000000000000000     
  -4.6697866950716534E-003   9.8336284595800003E-002   0.0000000000000000     
  -4.8252229414548009E-003  0.10515695635673283        0.0000000000000000     
  -8.4101543741314788E-003   7.8931190833176512E-002   0.0000000000000000     
  -8.7465786860348657E-003   8.5270549970183296E-002   0.0000000000000000     
  -9.0727732673601055E-003   9.1768358386749571E-002   0.0000000000000000     
  -9.3887381181072104E-003   9.8424616082875338E-002   0.0000000000000000     
  -9.6944732382761717E-003  0.10523932305856057        0.0000000000000000     
  -1.2711314738856125E-002   7.9115893753254909E-002   0.0000000000000000     
  -1.3208636198267655E-002   8.5441481657916249E-002   0.0000000000000000     
  -1.3690482710641867E-002   9.1926795483327273E-002   0.0000000000000000     
  -1.4156854275978757E-002   9.8571835229487953E-002   0.0000000000000000     
  -1.4607750894278335E-002  0.10537660089639832        0.0000000000000000     
  -1.7076530561259042E-002   7.9374477841723329E-002   0.0000000000000000     
  -1.7729872494585179E-002   8.5680786021376520E-002   0.0000000000000000     
  -1.8362407363727597E-002   9.2148607419348022E-002   0.0000000000000000     
  -1.8974135168686301E-002   9.8777942035637889E-002   0.0000000000000000     
  -1.9565055909461285E-002  0.10556878987024607        0.0000000000000000     
  -3.8142184723144457E-012  0.10512950079091513        0.0000000000000000     
  -1.1670566856664122E-012  0.11209817834880484        0.0000000000000000     
   9.3724507321812922E-013  0.11920146301085320        0.0000000000000000     
   2.4986855032965716E-012  0.12643935477706014        0.0000000000000000     
   3.5172659056115219E-012  0.13381185364742573        0.0000000000000000     
  -4.8252229414548009E-003  0.10515695635673283        0.0000000000000000     
  -4.9740466979915614E-003  0.11212382649147577        0.0000000000000000     
  -5.1147168896417267E-003  0.11922541007909113        0.0000000000000000     
  -5.2472335164053009E-003  0.12646170711957885        0.0000000000000000     
  -5.3715965782822816E-003  0.13383271761293897        0.0000000000000000     
  -9.6944732382761717E-003  0.10523932305856057        0.0000000000000000     
  -9.9874640457638907E-003  0.11220077092347686        0.0000000000000000     
  -1.0265195958467258E-002  0.11929725128729561        0.0000000000000000     
  -1.0527668976386269E-002  0.12652876415001690        0.0000000000000000     
  -1.0774883099520932E-002  0.13389530951164072        0.0000000000000000     
  -1.4607750894278335E-002  0.10537660089639832        0.0000000000000000     
  -1.5040252044484044E-002  0.11232901164480801        0.0000000000000000     
  -1.5451437205539337E-002  0.11941698663546668        0.0000000000000000     
  -1.5841306377444218E-002  0.12664052586837432        0.0000000000000000     
  -1.6209859560198683E-002  0.13399962934353093        0.0000000000000000     
  -1.9565055909461285E-002  0.10556878987024607        0.0000000000000000     
  -2.0132410694152024E-002  0.11250854865546933        0.0000000000000000     
  -2.0673440630857978E-002  0.11958461612360433        0.0000000000000000     
  -2.1188145719579152E-002  0.12679699227465110        0.0000000000000000     
  -2.1676525960315541E-002  0.13414567710860964        0.0000000000000000     
   3.5172659056115219E-012  0.13381185364742573        0.0000000000000000     
   4.0996925906172654E-012  0.14130888543574566        0.0000000000000000     
   4.3526745792735189E-012  0.14892037595581559        0.0000000000000000     
   4.2762117902651192E-012  0.15664632520763555        0.0000000000000000     
   3.8703020822927758E-012  0.16448673319120558        0.0000000000000000     
  -5.3715965782822816E-003  0.13383271761293897        0.0000000000000000     
  -5.4881743539831589E-003  0.14132820711196645        0.0000000000000000     
  -5.5973351222184239E-003  0.14893794116945619        0.0000000000000000     
  -5.6990788829880783E-003  0.15666191978540822        0.0000000000000000     
  -5.7934056362921194E-003  0.16450014295982252        0.0000000000000000     
  -1.0774883099520932E-002  0.13389530951164072        0.0000000000000000     
  -1.1007192823635993E-002  0.14138617214207999        0.0000000000000000     
  -1.1224952644496198E-002  0.14899063681124775        0.0000000000000000     
  -1.1428162562101555E-002  0.15670870351914395        0.0000000000000000     
  -1.1616822576452055E-002  0.16454037226576859        0.0000000000000000     
  -1.6209859560198683E-002  0.13399962934353093        0.0000000000000000     
  -1.6557055404858800E-002  0.14148278052608632        0.0000000000000000     
  -1.6882852562480649E-002  0.14907846288119023        0.0000000000000000     
  -1.7187251033064219E-002  0.15678667640884278        0.0000000000000000     
  -1.7470250816609509E-002  0.16460742110904383        0.0000000000000000     
  -2.1676525960315541E-002  0.13414567710860964        0.0000000000000000     
  -2.2137762097651600E-002  0.14161803226398537        0.0000000000000000     
  -2.2571034876171778E-002  0.14920141937928372        0.0000000000000000     
  -2.2976344295876069E-002  0.15689583845450464        0.0000000000000000     
  -2.3353690356764472E-002  0.16470128948964818        0.0000000000000000     
   3.8703020822927758E-012  0.16448673319120558        0.0000000000000000     
   3.3351691634125880E-012  0.17242604751718560        0.0000000000000000     
   2.8710358743189168E-012  0.18044871579623553        0.0000000000000000     
   2.4779000466074175E-012  0.18855473802835546        0.0000000000000000     
   2.1557660170867798E-012  0.19674411421354532        0.0000000000000000     
  -5.7934056362921194E-003  0.16450014295982252        0.0000000000000000     
  -5.8798841838814406E-003  0.17243733867950770        0.0000000000000000     
  -5.9580833275069290E-003  0.18045823493127239        0.0000000000000000     
  -6.0280030671685863E-003  0.18856283171511656        0.0000000000000000     
  -6.0896434028664143E-003  0.19675112903104020        0.0000000000000000     
  -1.1616822576452055E-002  0.16454037226576859        0.0000000000000000     
  -1.1790182277741671E-002  0.17247121216635095        0.0000000000000000     
  -1.1947491256164367E-002  0.18048679233612031        0.0000000000000000     
  -1.2088749511720133E-002  0.18858711277507659        0.0000000000000000     
  -1.2213957044408979E-002  0.19677217348321982        0.0000000000000000     
  -1.7470250816609509E-002  0.16460742110904383        0.0000000000000000     
  -1.7730894278245524E-002  0.17252766797771540        0.0000000000000000     
  -1.7968223783101270E-002  0.18053438801077928        0.0000000000000000     
  -1.8182239331176738E-002  0.18862758120823556        0.0000000000000000     
  -1.8372940922471926E-002  0.19680724757008419        0.0000000000000000     
  -2.3353690356764472E-002  0.16470128948964818        0.0000000000000000     
  -2.3702020185392997E-002  0.17260670611360091        0.0000000000000000     
  -2.4020280908317641E-002  0.18060102195524930        0.0000000000000000     
  -2.4308472525538392E-002  0.18868423701459347        0.0000000000000000     
  -2.4566595037055265E-002  0.19685635129163334        0.0000000000000000     
   2.1557660170867798E-012  0.19674411421354532        0.0000000000000000     
   1.8908143280260692E-012  0.20500068419351986        0.0000000000000000     
   1.6692260637954370E-012  0.21330828780999381        0.0000000000000000     
   1.4910053714681931E-012  0.22166692506296726        0.0000000000000000     
   1.3561495676439606E-012  0.23007659595244009        0.0000000000000000     
  -6.0896434028664143E-003  0.19675112903104020        0.0000000000000000     
  -6.1439691616981974E-003  0.20500699244154216        0.0000000000000000     
  -6.1919451707617302E-003  0.21331428750912118        0.0000000000000000     
  -6.2335714300570015E-003  0.22167301423377733        0.0000000000000000     
  -6.2688479395840236E-003  0.23008317261551053        0.0000000000000000     
  -1.2213957044408979E-002  0.19677217348321982        0.0000000000000000     
  -1.2324530050968023E-002  0.20502591718535607        0.0000000000000000     
  -1.2421884728134382E-002  0.21333228660629119        0.0000000000000000     
  -1.2506021075908058E-002  0.22169128174602529        0.0000000000000000     
  -1.2576939094289051E-002  0.23010290260455829        0.0000000000000000     
  -1.8372940922471926E-002  0.19680724757008419        0.0000000000000000     
  -1.8541682665918661E-002  0.20505745842496156        0.0000000000000000     
  -1.8689818670448739E-002  0.21336228510150385        0.0000000000000000     
  -1.8817348936062163E-002  0.22172172759971118        0.0000000000000000     
  -1.8924273462758930E-002  0.23013578591958339        0.0000000000000000     
  -2.4566595037055265E-002  0.19685635129163334        0.0000000000000000     
  -2.4795427006550110E-002  0.20510161616035869        0.0000000000000000     
  -2.4995746997704790E-002  0.21340428299475916        0.0000000000000000     
  -2.5167555010519312E-002  0.22176435179483492        0.0000000000000000     
  -2.5310851044993667E-002  0.23018182256058578        0.0000000000000000     
   1.3561495676439606E-012  0.23007659595244009        0.0000000000000000     
   1.2515958321829279E-012  0.23850572987788921        0.0000000000000000     
   1.1642797186420251E-012  0.24692275623879151        0.0000000000000000     
   1.0942033141104340E-012  0.25532767503514697        0.0000000000000000     
   1.0413644772888642E-012  0.26372048626695554        0.0000000000000000     
  -6.2688479395840236E-003  0.23008317261551053        0.0000000000000000     
  -6.2986959606435621E-003  0.23851345001698862        0.0000000000000000     
  -6.3240367545363959E-003  0.24693253380087948        0.0000000000000000     
  -6.3448703212625190E-003  0.25534042396718293        0.0000000000000000     
  -6.3611966608219366E-003  0.26373712051589909        0.0000000000000000     
  -1.2576939094289051E-002  0.23010290260455829        0.0000000000000000     
  -1.2636873478266995E-002  0.23853661043413382        0.0000000000000000     
  -1.2688058922831530E-002  0.24696186648699553        0.0000000000000000     
  -1.2730495427982649E-002  0.25537867076314325        0.0000000000000000     
  -1.2764182993720360E-002  0.26378702326257708        0.0000000000000000     
  -1.8924273462758930E-002  0.23013578591958339        0.0000000000000000     
  -1.9014532551618699E-002  0.23857521112932481        0.0000000000000000     
  -1.9092066503721122E-002  0.24701075429713965        0.0000000000000000     
  -1.9156875319066187E-002  0.25544241542302781        0.0000000000000000     
  -1.9208958997653899E-002  0.26387019450698951        0.0000000000000000     
  -2.5310851044993667E-002  0.23018182256058578        0.0000000000000000     
  -2.5431673180698680E-002  0.23862925210256156        0.0000000000000000     
  -2.5536059497205169E-002  0.24707919723131189        0.0000000000000000     
  -2.5624009994513131E-002  0.25553165794683674        0.0000000000000000     
  -2.5695524672622559E-002  0.26398663424913626        0.0000000000000000     
   1.0413644772888642E-012  0.26372048626695554        0.0000000000000000     
   9.9831449530685124E-013  0.27204117014290263        0.0000000000000000     
   9.5760584791632075E-013  0.28022970687167353        0.0000000000000000     
   9.1923829117178391E-013  0.28828609645326830        0.0000000000000000     
   8.8321103902666565E-013  0.29621033888768683        0.0000000000000000     
  -6.3611966608219366E-003  0.26373712051589909        0.0000000000000000     
  -6.3769541289511707E-003  0.27206290838625546        0.0000000000000000     
  -6.3960810813867407E-003  0.28025807251747936        0.0000000000000000     
  -6.4185775181286511E-003  0.28832261290957095        0.0000000000000000     
  -6.4444434391768982E-003  0.29625652956253012        0.0000000000000000     
  -1.2764182993720360E-002  0.26378702326257708        0.0000000000000000     
  -1.2796399376175350E-002  0.27212812311614626        0.0000000000000000     
  -1.2834422331478320E-002  0.28034316945470006        0.0000000000000000     
  -1.2878251859629269E-002  0.28843216227823848        0.0000000000000000     
  -1.2927887960628194E-002  0.29639510158676141        0.0000000000000000     
  -1.9208958997653899E-002  0.26387019450698951        0.0000000000000000     
  -1.9258335740674232E-002  0.27223681433257513        0.0000000000000000     
  -1.9315023749317130E-002  0.28048499768333562        0.0000000000000000     
  -1.9379023023582621E-002  0.28861474455927072        0.0000000000000000     
  -1.9450333563470680E-002  0.29662605496038075        0.0000000000000000     
  -2.5695524672622559E-002  0.26398663424913626        0.0000000000000000     
  -2.5762763222447804E-002  0.27238898203554202        0.0000000000000000     
  -2.5837885334903180E-002  0.28068355720338595        0.0000000000000000     
  -2.5920891009988699E-002  0.28887035975266795        0.0000000000000000     
  -2.6011780247704348E-002  0.29694938968338802        0.0000000000000000     
  -1.4268700702775507E-002   5.6278812558757330E-002   0.0000000000000000     
  -1.4999317166798561E-002   6.1714002442184460E-002   0.0000000000000000     
  -1.5710827631220167E-002   6.7375009950487841E-002   0.0000000000000000     
  -1.6403232096040325E-002   7.3261835083667459E-002   0.0000000000000000     
  -1.7076530561259042E-002   7.9374477841723329E-002   0.0000000000000000     
  -1.8096174105459297E-002   5.6907942687262035E-002   0.0000000000000000     
  -1.8961628109786619E-002   6.2212665583672430E-002   0.0000000000000000     
  -1.9815524903806614E-002   6.7774802795453060E-002   0.0000000000000000     
  -2.0657864487519290E-002   7.3594354322603917E-002   0.0000000000000000     
  -2.1488646860924637E-002   7.9671320165125001E-002   0.0000000000000000     
  -2.1851546032156752E-002   5.7323809178910119E-002   0.0000000000000000     
  -2.2888913054446680E-002   6.2587755802928510E-002   0.0000000000000000     
  -2.3914529166090076E-002   6.8116902779450136E-002   0.0000000000000000     
  -2.4928394367086958E-002   7.3911250108474991E-002   0.0000000000000000     
  -2.5930508657437304E-002   7.9970797790003073E-002   0.0000000000000000     
  -2.5534816482867876E-002   5.7526412033701582E-002   0.0000000000000000     
  -2.6781172000778741E-002   6.2839273099952686E-002   0.0000000000000000     
  -2.8007840418070556E-002   6.8401309902479057E-002   0.0000000000000000     
  -2.9214821734743331E-002   7.4212522441280682E-002   0.0000000000000000     
  -3.0402115950797049E-002   8.0272910716357587E-002   0.0000000000000000     
  -2.9145985457592664E-002   5.7515751251636438E-002   0.0000000000000000     
  -3.0638404948782807E-002   6.2967217474744958E-002   0.0000000000000000     
  -3.2095458659748055E-002   6.8628024164539822E-002   0.0000000000000000     
  -3.3517146590488406E-002   7.4498171321021017E-002   0.0000000000000000     
  -3.4903468741003869E-002   8.0577658944188529E-002   0.0000000000000000     
  -1.7076530561259042E-002   7.9374477841723329E-002   0.0000000000000000     
  -1.7729872494585179E-002   8.5680786021376520E-002   0.0000000000000000     
  -1.8362407363727597E-002   9.2148607419348022E-002   0.0000000000000000     
  -1.8974135168686301E-002   9.8777942035637889E-002   0.0000000000000000     
  -1.9565055909461285E-002  0.10556878987024607        0.0000000000000000     
  -2.1488646860924637E-002   7.9671320165125001E-002   0.0000000000000000     
  -2.2300260914200089E-002   8.5958464872499266E-002   0.0000000000000000     
  -2.3085095537523078E-002   9.2408552994209622E-002   0.0000000000000000     
  -2.3843150730893613E-002   9.9021584530256126E-002   0.0000000000000000     
  -2.4574426494311678E-002  0.10579755948063874        0.0000000000000000     
  -2.5930508657437304E-002   7.9970797790003073E-002   0.0000000000000000     
  -2.6909774796325045E-002   8.6244520023219612E-002   0.0000000000000000     
  -2.7855095542934107E-002   9.2681391007309807E-002   0.0000000000000000     
  -2.8766470897264470E-002   9.9281410742273646E-002   0.0000000000000000     
  -2.9643900859316150E-002  0.10604457922811114        0.0000000000000000     
  -3.0402115950797049E-002   8.0272910716357587E-002   0.0000000000000000     
  -3.1558414140960056E-002   8.6538951473537601E-002   0.0000000000000000     
  -3.2672407379960661E-002   9.2967121458648549E-002   0.0000000000000000     
  -3.3744095667798880E-002   9.9557420671690489E-002   0.0000000000000000     
  -3.4773479004474722E-002  0.10630984911266336        0.0000000000000000     
  -3.4903468741003869E-002   8.0577658944188529E-002   0.0000000000000000     
  -3.6246178948105098E-002   8.6841759223453205E-002   0.0000000000000000     
  -3.7537031048602752E-002   9.3265744348225904E-002   0.0000000000000000     
  -3.8776025042496845E-002   9.9849614318506627E-002   0.0000000000000000     
  -3.9963160929787363E-002  0.10659336913429535        0.0000000000000000     
  -1.9565055909461285E-002  0.10556878987024607        0.0000000000000000     
  -2.0132410694152024E-002  0.11250854865546933        0.0000000000000000     
  -2.0673440630857978E-002  0.11958461612360433        0.0000000000000000     
  -2.1188145719579152E-002  0.12679699227465110        0.0000000000000000     
  -2.1676525960315541E-002  0.13414567710860964        0.0000000000000000     
  -2.4574426494311678E-002  0.10579755948063874        0.0000000000000000     
  -2.5276787874833159E-002  0.11272344377885342        0.0000000000000000     
  -2.5948099919513946E-002  0.11978620335839607        0.0000000000000000     
  -2.6588362628354040E-002  0.12698583821926673        0.0000000000000000     
  -2.7197576001353432E-002  0.13432234836146542        0.0000000000000000     
  -2.9643900859316150E-002  0.10604457922811114        0.0000000000000000     
  -3.0486231466592788E-002  0.11295775883835289        0.0000000000000000     
  -3.1292308756598025E-002  0.12000781194652942        0.0000000000000000     
  -3.2062132729331859E-002  0.12719473855264071        0.0000000000000000     
  -3.2795703384794303E-002  0.13451853865668684        0.0000000000000000     
  -3.4773479004474722E-002  0.10630984911266336        0.0000000000000000     
  -3.5760741469430909E-002  0.11321149383396779        0.0000000000000000     
  -3.6706067142110201E-002  0.12024944188800432        0.0000000000000000     
  -3.7609456022512616E-002  0.12742369327477301        0.0000000000000000     
  -3.8470908110638129E-002  0.13473424799427383        0.0000000000000000     
  -3.9963160929787363E-002  0.10659336913429535        0.0000000000000000     
  -4.1100317883347517E-002  0.11348464876569808        0.0000000000000000     
  -4.2189375076050487E-002  0.12051109318282084        0.0000000000000000     
  -4.3230332507896291E-002  0.12767270238566364        0.0000000000000000     
  -4.4223190178884916E-002  0.13496947637422640        0.0000000000000000     
  -2.1676525960315541E-002  0.13414567710860964        0.0000000000000000     
  -2.2137762097651600E-002  0.14161803226398537        0.0000000000000000     
  -2.2571034876171778E-002  0.14920141937928372        0.0000000000000000     
  -2.2976344295876069E-002  0.15689583845450464        0.0000000000000000     
  -2.3353690356764472E-002  0.16470128948964818        0.0000000000000000     
  -2.7197576001353432E-002  0.13432234836146542        0.0000000000000000     
  -2.7774082672448804E-002  0.14178213906571011        0.0000000000000000     
  -2.8316225275576819E-002  0.14935161561271881        0.0000000000000000     
  -2.8824003810737481E-002  0.15703077800249152        0.0000000000000000     
  -2.9297418277930795E-002  0.16481962623502819        0.0000000000000000     
  -3.2795703384794303E-002  0.13451853865668684        0.0000000000000000     
  -3.3490786899684842E-002  0.14196531264119344        0.0000000000000000     
  -3.4145149450703044E-002  0.14952116088868619        0.0000000000000000     
  -3.4758791037848867E-002  0.15718608339916509        0.0000000000000000     
  -3.5331711661122325E-002  0.16496008017263020        0.0000000000000000     
  -3.8470908110638129E-002  0.13473424799427383        0.0000000000000000     
  -3.9287874779359737E-002  0.14216755299043529        0.0000000000000000     
  -4.0057807401550433E-002  0.14971005520718583        0.0000000000000000     
  -4.0780705977210195E-002  0.15736175464452551        0.0000000000000000     
  -4.1456570506339052E-002  0.16512265130245438        0.0000000000000000     
  -4.4223190178884916E-002  0.13496947637422640        0.0000000000000000     
  -4.5165346311473453E-002  0.14238886011343568        0.0000000000000000     
  -4.6054199128118978E-002  0.14991829856821778        0.0000000000000000     
  -4.6889748628821483E-002  0.15755779173857276        0.0000000000000000     
  -4.7671994813580976E-002  0.16530733962450056        0.0000000000000000     
  -2.3353690356764472E-002  0.16470128948964818        0.0000000000000000     
  -2.3702020185392997E-002  0.17260670611360091        0.0000000000000000     
  -2.4020280908317641E-002  0.18060102195524930        0.0000000000000000     
  -2.4308472525538392E-002  0.18868423701459347        0.0000000000000000     
  -2.4566595037055265E-002  0.19685635129163334        0.0000000000000000     
  -2.9297418277930795E-002  0.16481962623502819        0.0000000000000000     
  -2.9735378473596204E-002  0.17270880783817960        0.0000000000000000     
  -3.0136794194173144E-002  0.18068897033979645        0.0000000000000000     
  -3.0501665439661620E-002  0.18876011373987878        0.0000000000000000     
  -3.0829992210061628E-002  0.19692223803842659        0.0000000000000000     
  -3.5331711661122325E-002  0.16496008017263020        0.0000000000000000     
  -3.5862787617267237E-002  0.17283445441562348        0.0000000000000000     
  -3.6350895203027450E-002  0.18080050933468667        0.0000000000000000     
  -3.6796034418402915E-002  0.18885824492981998        0.0000000000000000     
  -3.7198205263393680E-002  0.19700766120102325        0.0000000000000000     
  -4.1456570506339052E-002  0.16512265130245438        0.0000000000000000     
  -4.2084247616406126E-002  0.17298364584593245        0.0000000000000000     
  -4.2662583934880531E-002  0.18093563893992004        0.0000000000000000     
  -4.3191579461762303E-002  0.18897863058441700        0.0000000000000000     
  -4.3671234197051420E-002  0.19711262077942346        0.0000000000000000     
  -4.7671994813580976E-002  0.16530733962450056        0.0000000000000000     
  -4.8399758471012827E-002  0.17315638212910664        0.0000000000000000     
  -4.9071860389732422E-002  0.18109435915549643        0.0000000000000000     
  -4.9688300569739753E-002  0.18912127070366991        0.0000000000000000     
  -5.0249079011034828E-002  0.19723711677362704        0.0000000000000000     
  -2.4566595037055265E-002  0.19685635129163334        0.0000000000000000     
  -2.4795427006550110E-002  0.20510161616035869        0.0000000000000000     
  -2.4995746997704790E-002  0.21340428299475916        0.0000000000000000     
  -2.5167555010519312E-002  0.22176435179483492        0.0000000000000000     
  -2.5310851044993667E-002  0.23018182256058578        0.0000000000000000     
  -3.0829992210061628E-002  0.19692223803842659        0.0000000000000000     
  -3.1121718713995182E-002  0.20516020492674886        0.0000000000000000     
  -3.1376789160084274E-002  0.21345887609615477        0.0000000000000000     
  -3.1595203548328898E-002  0.22181825154664422        0.0000000000000000     
  -3.1776961878729075E-002  0.23023833127821722        0.0000000000000000     
  -3.7198205263393680E-002  0.19700766120102325        0.0000000000000000     
  -3.7556513429386686E-002  0.20523503925933367        0.0000000000000000     
  -3.7870064607768893E-002  0.21352666021578812        0.0000000000000000     
  -3.8138858798540315E-002  0.22188252407038669        0.0000000000000000     
  -3.8362896001700945E-002  0.23030263082312941        0.0000000000000000     
  -4.3671234197051420E-002  0.19711262077942346        0.0000000000000000     
  -4.4099811152724627E-002  0.20532611915811297        0.0000000000000000     
  -4.4475573340758676E-002  0.21360763535365931        0.0000000000000000     
  -4.4798520761153558E-002  0.22195716936606244        0.0000000000000000     
  -4.5068653413909289E-002  0.23037472119532235        0.0000000000000000     
  -5.0249079011034828E-002  0.19723711677362704        0.0000000000000000     
  -5.0751611884009000E-002  0.20543344462308682        0.0000000000000000     
  -5.1193315359053589E-002  0.21370180150976828        0.0000000000000000     
  -5.1574189436168628E-002  0.22204218743367135        0.0000000000000000     
  -5.1894234115354106E-002  0.23045460239479607        0.0000000000000000     
  -2.5310851044993667E-002  0.23018182256058578        0.0000000000000000     
  -2.5431673180698680E-002  0.23862925210256156        0.0000000000000000     
  -2.5536059497205169E-002  0.24707919723131189        0.0000000000000000     
  -2.5624009994513131E-002  0.25553165794683674        0.0000000000000000     
  -2.5695524672622559E-002  0.26398663424913626        0.0000000000000000     
  -3.1776961878729075E-002  0.23023833127821722        0.0000000000000000     
  -3.1929962992267399E-002  0.23869439574362281        0.0000000000000000     
  -3.2062105729926516E-002  0.24716172539561004        0.0000000000000000     
  -3.2173390091706409E-002  0.25564032023417887        0.0000000000000000     
  -3.2263816077607088E-002  0.26413018025932933        0.0000000000000000     
  -3.8362896001700945E-002  0.23030263082312941        0.0000000000000000     
  -3.8551069613085319E-002  0.23876630444228741        0.0000000000000000     
  -3.8712273028527998E-002  0.24725286889613193        0.0000000000000000     
  -3.8846506248028968E-002  0.25576232418466299        0.0000000000000000     
  -3.8953769271588237E-002  0.26429467030788056        0.0000000000000000     
  -4.5068653413909289E-002  0.23037472119532235        0.0000000000000000     
  -4.5294993043152446E-002  0.23884497819855530        0.0000000000000000     
  -4.5486561393009606E-002  0.24735262773287761        0.0000000000000000     
  -4.5643358463480790E-002  0.25589766979828910        0.0000000000000000     
  -4.5765384254565993E-002  0.26448010439478992        0.0000000000000000     
  -5.1894234115354106E-002  0.23045460239479607        0.0000000000000000     
  -5.2161733282468779E-002  0.23893041701242657        0.0000000000000000     
  -5.2384970823371367E-002  0.24746100190584697        0.0000000000000000     
  -5.2563946738061904E-002  0.25604635707505730        0.0000000000000000     
  -5.2698661026540368E-002  0.26468648252005755        0.0000000000000000     
  -2.5695524672622559E-002  0.26398663424913626        0.0000000000000000     
  -2.5762763222447804E-002  0.27238898203554202        0.0000000000000000     
  -2.5837885334903180E-002  0.28068355720338595        0.0000000000000000     
  -2.5920891009988699E-002  0.28887035975266795        0.0000000000000000     
  -2.6011780247704348E-002  0.29694938968338802        0.0000000000000000     
  -3.2263816077607088E-002  0.26413018025932933        0.0000000000000000     
  -3.2348085453865416E-002  0.27257836270766428        0.0000000000000000     
  -3.2440899986718265E-002  0.28093192481578694        0.0000000000000000     
  -3.2542259676165627E-002  0.28919086658369708        0.0000000000000000     
  -3.2652164522207511E-002  0.29735518801139477        0.0000000000000000     
  -3.8953769271588237E-002  0.26429467030788056        0.0000000000000000     
  -3.9052706067296432E-002  0.27279869283155939        0.0000000000000000     
  -3.9161960603244214E-002  0.28122317732147428        0.0000000000000000     
  -3.9281532879431570E-002  0.28956812377762531        0.0000000000000000     
  -3.9411422895858479E-002  0.29783353220001230        0.0000000000000000     
  -4.5765384254565993E-002  0.26448010439478992        0.0000000000000000     
  -4.5876625062740845E-002  0.27304997240722728        0.0000000000000000     
  -4.6001067184481013E-002  0.28155731472044809        0.0000000000000000     
  -4.6138710619786479E-002  0.29000213133445252        0.0000000000000000     
  -4.6289555368657254E-002  0.29838442224924056        0.0000000000000000     
  -5.2698661026540368E-002  0.26468648252005755        0.0000000000000000     
  -5.2819842440198661E-002  0.27333220143466780        0.0000000000000000     
  -5.2958219730428670E-002  0.28193433701270826        0.0000000000000000     
  -5.3113792897230401E-002  0.29049288925417893        0.0000000000000000     
  -5.3286561940603827E-002  0.29900785815907971        0.0000000000000000     
  -2.9145985457592664E-002   5.7515751251636438E-002   0.0000000000000000     
  -3.0638404948782807E-002   6.2967217474744958E-002   0.0000000000000000     
  -3.2095458659748055E-002   6.8628024164539822E-002   0.0000000000000000     
  -3.3517146590488406E-002   7.4498171321021017E-002   0.0000000000000000     
  -3.4903468741003869E-002   8.0577658944188529E-002   0.0000000000000000     
  -3.2875762777841933E-002   5.7539459002515961E-002   0.0000000000000000     
  -3.4613876709903152E-002   6.3135143758652368E-002   0.0000000000000000     
  -3.6300690815433620E-002   6.8898621461850620E-002   0.0000000000000000     
  -3.7936205094433344E-002   7.4829892112110691E-002   0.0000000000000000     
  -3.9520419546902323E-002   8.0928955709432607E-002   0.0000000000000000     
  -3.6914858265126492E-002   5.7845167456141419E-002   0.0000000000000000     
  -3.8860852095584056E-002   6.3506606783021932E-002   0.0000000000000000     
  -4.0746843809438320E-002   6.9314677690629600E-002   0.0000000000000000     
  -4.2572833406689305E-002   7.5269380178964479E-002   0.0000000000000000     
  -4.4338820887336969E-002   8.1370714248026499E-002   0.0000000000000000     
  -4.1263271919446329E-002   5.8432876612512834E-002   0.0000000000000000     
  -4.3379331105825522E-002   6.4081606547853637E-002   0.0000000000000000     
  -4.5433917641762168E-002   6.9876192850876789E-002   0.0000000000000000     
  -4.7427031527256282E-002   7.5816635521582340E-002   0.0000000000000000     
  -4.9358672762307820E-002   8.1902934559970234E-002   0.0000000000000000     
  -4.5921003740801464E-002   5.9302586471630191E-002   0.0000000000000000     
  -4.8169313740627558E-002   6.4860143053147482E-002   0.0000000000000000     
  -5.0361912312405159E-002   7.0583166942592174E-002   0.0000000000000000     
  -5.2498799456134268E-002   7.6471658139964288E-002   0.0000000000000000     
  -5.4579975171814885E-002   8.2525616645263811E-002   0.0000000000000000     
  -3.4903468741003869E-002   8.0577658944188529E-002   0.0000000000000000     
  -3.6246178948105098E-002   8.6841759223453205E-002   0.0000000000000000     
  -3.7537031048602752E-002   9.3265744348225904E-002   0.0000000000000000     
  -3.8776025042496845E-002   9.9849614318506627E-002   0.0000000000000000     
  -3.9963160929787363E-002  0.10659336913429535        0.0000000000000000     
  -3.9520419546902323E-002   8.0928955709432607E-002   0.0000000000000000     
  -4.1048531379348475E-002   8.7190565014455323E-002   0.0000000000000000     
  -4.2515737798279718E-002   9.3609472787817935E-002   0.0000000000000000     
  -4.3922038803696072E-002  0.10018567902952036        0.0000000000000000     
  -4.5267434395597508E-002  0.10691918373956266        0.0000000000000000     
  -4.4338820887336969E-002   8.1370714248026499E-002   0.0000000000000000     
  -4.6040933596278463E-002   8.7622990588032870E-002   0.0000000000000000     
  -4.7675298878410897E-002   9.4030519889200706E-002   0.0000000000000000     
  -4.9241916733734264E-002  0.10059330215153003        0.0000000000000000     
  -5.0740787162248571E-002  0.10731133737502084        0.0000000000000000     
  -4.9358672762307820E-002   8.1902934559970234E-002   0.0000000000000000     
  -5.1223385598895076E-002   8.8139035944185762E-002   0.0000000000000000     
  -5.3015714288996277E-002   9.4528885652374245E-002   0.0000000000000000     
  -5.4735658832611438E-002  0.10107248368453560        0.0000000000000000     
  -5.6383219229740524E-002  0.10776983004066990        0.0000000000000000     
  -5.4579975171814885E-002   8.2525616645263811E-002   0.0000000000000000     
  -5.6595887387198313E-002   8.8738701082914095E-002   0.0000000000000000     
  -5.8536984030035877E-002   9.5104570077338538E-002   0.0000000000000000     
  -6.0403265100327563E-002  0.10162322362853711        0.0000000000000000     
  -6.2194730598073393E-002  0.10829466173650984        0.0000000000000000     
  -3.9963160929787363E-002  0.10659336913429535        0.0000000000000000     
  -4.1100317883347517E-002  0.11348464876569808        0.0000000000000000     
  -4.2189375076050487E-002  0.12051109318282084        0.0000000000000000     
  -4.3230332507896291E-002  0.12767270238566364        0.0000000000000000     
  -4.4223190178884916E-002  0.13496947637422640        0.0000000000000000     
  -4.5267434395597508E-002  0.10691918373956266        0.0000000000000000     
  -4.6555204890058155E-002  0.11379841378371168        0.0000000000000000     
  -4.7788630603152096E-002  0.12081179602773442        0.0000000000000000     
  -4.8967711534879332E-002  0.12795933047163088        0.0000000000000000     
  -5.0092447685239856E-002  0.13524101711540099        0.0000000000000000     
  -5.0740787162248571E-002  0.10731133737502084        0.0000000000000000     
  -5.2175646671278365E-002  0.11417397903817657        0.0000000000000000     
  -5.3550231768148222E-002  0.12117058061950063        0.0000000000000000     
  -5.4864542452858149E-002  0.12830114211899302        0.0000000000000000     
  -5.6118578725408111E-002  0.13556566353665381        0.0000000000000000     
  -5.6383219229740524E-002  0.10776983004066990        0.0000000000000000     
  -5.7961643227008149E-002  0.11461134452909263        0.0000000000000000     
  -5.9474178571038899E-002  0.12158744695811938        0.0000000000000000     
  -6.0920825261832727E-002  0.12869813732775018        0.0000000000000000     
  -6.2301583299389680E-002  0.13594341563798490        0.0000000000000000     
  -6.2194730598073393E-002  0.10829466173650984        0.0000000000000000     
  -6.3913194557247519E-002  0.11511051025645996        0.0000000000000000     
  -6.5560471011824079E-002  0.12206239504359075        0.0000000000000000     
  -6.7136559961803094E-002  0.12915031609790215        0.0000000000000000     
  -6.8641461407184565E-002  0.13637427341939423        0.0000000000000000     
  -4.4223190178884916E-002  0.13496947637422640        0.0000000000000000     
  -4.5165346311473453E-002  0.14238886011343568        0.0000000000000000     
  -4.6054199128118978E-002  0.14991829856821778        0.0000000000000000     
  -4.6889748628821483E-002  0.15755779173857276        0.0000000000000000     
  -4.7671994813580976E-002  0.16530733962450056        0.0000000000000000     
  -5.0092447685239856E-002  0.13524101711540099        0.0000000000000000     
  -5.1160370772645243E-002  0.14264518439212320        0.0000000000000000     
  -5.2169012515507061E-002  0.15016016073487598        0.0000000000000000     
  -5.3118372913825304E-002  0.15778594614365926        0.0000000000000000     
  -5.4008451967599964E-002  0.16552254061847316        0.0000000000000000     
  -5.6118578725408111E-002  0.13556566353665381        0.0000000000000000     
  -5.7310117439494351E-002  0.14295247620842641        0.0000000000000000     
  -5.8436935448813052E-002  0.15044991147025441        0.0000000000000000     
  -5.9499032753364239E-002  0.15805796932213778        0.0000000000000000     
  -6.0496409353147887E-002  0.16577664976407649        0.0000000000000000     
  -6.2301583299389680E-002  0.13594341563798490        0.0000000000000000     
  -6.3614586312020743E-002  0.14331073556234528        0.0000000000000000     
  -6.4857967928036955E-002  0.15078755077435307        0.0000000000000000     
  -6.6031728147438268E-002  0.15837386127400813        0.0000000000000000     
  -6.7135866970224736E-002  0.16606966706131057        0.0000000000000000     
  -6.8641461407184565E-002  0.13637427341939423        0.0000000000000000     
  -7.0073777390224440E-002  0.14371996245387988        0.0000000000000000     
  -7.1432109953178738E-002  0.15117307864717194        0.0000000000000000     
  -7.2716459096047417E-002  0.15873362199927044        0.0000000000000000     
  -7.3926824818830505E-002  0.16640159251017539        0.0000000000000000     
  -4.7671994813580976E-002  0.16530733962450056        0.0000000000000000     
  -4.8399758471012827E-002  0.17315638212910664        0.0000000000000000     
  -4.9071860389732422E-002  0.18109435915549643        0.0000000000000000     
  -4.9688300569739753E-002  0.18912127070366991        0.0000000000000000     
  -5.0249079011034828E-002  0.19723711677362704        0.0000000000000000     
  -5.4008451967599964E-002  0.16552254061847316        0.0000000000000000     
  -5.4838123133464631E-002  0.17335798777402425        0.0000000000000000     
  -5.5606259868052864E-002  0.18128033122501916        0.0000000000000000     
  -5.6312862171364657E-002  0.18928957097145790        0.0000000000000000     
  -5.6957930043400030E-002  0.19738570701334052        0.0000000000000000     
  -6.0496409353147887E-002  0.16577664976407649        0.0000000000000000     
  -6.1428144556138743E-002  0.17359378728956346        0.0000000000000000     
  -6.2293317670311571E-002  0.18149721639209138        0.0000000000000000     
  -6.3091928695666349E-002  0.18948693707166034        0.0000000000000000     
  -6.3823977632203086E-002  0.19756294932827029        0.0000000000000000     
  -6.7135866970224736E-002  0.16606966706131057        0.0000000000000000     
  -6.8169822739035199E-002  0.17386378067572428        0.0000000000000000     
  -6.9133033796508578E-002  0.18174501465671311        0.0000000000000000     
  -7.0025500142644831E-002  0.18971336900427718        0.0000000000000000     
  -7.0847221777444028E-002  0.19776884371841638        0.0000000000000000     
  -7.3926824818830505E-002  0.16640159251017539        0.0000000000000000     
  -7.5063157682153991E-002  0.17416796793250675        0.0000000000000000     
  -7.6125408246643878E-002  0.18202372601888439        0.0000000000000000     
  -7.7113576512300150E-002  0.18996886676930841        0.0000000000000000     
  -7.8027662479122822E-002  0.19800339018377872        0.0000000000000000     
  -5.0249079011034828E-002  0.19723711677362704        0.0000000000000000     
  -5.0751611884009000E-002  0.20543344462308682        0.0000000000000000     
  -5.1193315359053589E-002  0.21370180150976828        0.0000000000000000     
  -5.1574189436168628E-002  0.22204218743367135        0.0000000000000000     
  -5.1894234115354106E-002  0.23045460239479607        0.0000000000000000     
  -5.6957930043400030E-002  0.19738570701334052        0.0000000000000000     
  -5.7538431431250134E-002  0.20556296202975405        0.0000000000000000     
  -5.8051334282006165E-002  0.21381555869978563        0.0000000000000000     
  -5.8496638595668102E-002  0.22214349702343517        0.0000000000000000     
  -5.8874344372235966E-002  0.23054677700070275        0.0000000000000000     
  -6.3823977632203086E-002  0.19756294932827029        0.0000000000000000     
  -6.4486785602458394E-002  0.20572061775361342        0.0000000000000000     
  -6.5077673728968888E-002  0.21395530693938183        0.0000000000000000     
  -6.5596642011734554E-002  0.22226701688557560        0.0000000000000000     
  -6.6043690450755407E-002  0.23065574759219465        0.0000000000000000     
  -7.0847221777444028E-002  0.19776884371841638        0.0000000000000000     
  -7.1596674397633772E-002  0.20590641179466490        0.0000000000000000     
  -7.2272333699941751E-002  0.21412104622855702        0.0000000000000000     
  -7.2874199684367980E-002  0.22241274702009262        0.0000000000000000     
  -7.3402272350912443E-002  0.23078151416927173        0.0000000000000000     
  -7.8027662479122822E-002  0.19800339018377872        0.0000000000000000     
  -7.8868097816776256E-002  0.20612034415290853        0.0000000000000000     
  -7.9635314194924769E-002  0.21431277656731101        0.0000000000000000     
  -8.0329311613568377E-002  0.22258068742698617        0.0000000000000000     
  -8.0950090072707079E-002  0.23092407673193399        0.0000000000000000     
  -5.1894234115354106E-002  0.23045460239479607        0.0000000000000000     
  -5.2161733282468779E-002  0.23893041701242657        0.0000000000000000     
  -5.2384970823371367E-002  0.24746100190584697        0.0000000000000000     
  -5.2563946738061904E-002  0.25604635707505730        0.0000000000000000     
  -5.2698661026540368E-002  0.26468648252005755        0.0000000000000000     
  -5.8874344372235966E-002  0.23054677700070275        0.0000000000000000     
  -5.9190671054393934E-002  0.23902409538012370        0.0000000000000000     
  -5.9451838084826243E-002  0.24757414891023344        0.0000000000000000     
  -5.9657845463532880E-002  0.25619693759103190        0.0000000000000000     
  -5.9808693190513844E-002  0.26489246142251910        0.0000000000000000     
  -6.6043690450755407E-002  0.23065574759219465        0.0000000000000000     
  -6.6421187082287586E-002  0.23912748779786944        0.0000000000000000     
  -6.6731499942587216E-002  0.24768822624123032        0.0000000000000000     
  -6.6974629031654326E-002  0.25633796292227734        0.0000000000000000     
  -6.7150574349488915E-002  0.26507669784101040        0.0000000000000000     
  -7.3402272350912443E-002  0.23078151416927173        0.0000000000000000     
  -7.3853281366149687E-002  0.23924059426566363        0.0000000000000000     
  -7.4223956396654314E-002  0.24780323389883754        0.0000000000000000     
  -7.4514297442426228E-002  0.25646943306879350        0.0000000000000000     
  -7.4724304503465525E-002  0.26523919177553151        0.0000000000000000     
  -8.0950090072707079E-002  0.23092407673193399        0.0000000000000000     
  -8.1486953905980306E-002  0.23936341478350640        0.0000000000000000     
  -8.1929207447027474E-002  0.24791917188305521        0.0000000000000000     
  -8.2276850695848627E-002  0.25659134803058065        0.0000000000000000     
  -8.2529883652443736E-002  0.26537994322608238        0.0000000000000000     
  -5.2698661026540368E-002  0.26468648252005755        0.0000000000000000     
  -5.2819842440198661E-002  0.27333220143466780        0.0000000000000000     
  -5.2958219730428670E-002  0.28193433701270826        0.0000000000000000     
  -5.3113792897230401E-002  0.29049288925417893        0.0000000000000000     
  -5.3286561940603827E-002  0.29900785815907971        0.0000000000000000     
  -5.9808693190513844E-002  0.26489246142251910        0.0000000000000000     
  -5.9941212695435640E-002  0.27361667827372826        0.0000000000000000     
  -6.0092235407964802E-002  0.28232554601369259        0.0000000000000000     
  -6.0261761328101279E-002  0.29101906464241212        0.0000000000000000     
  -6.0449790455845115E-002  0.29969723415988681        0.0000000000000000     
  -6.7150574349488915E-002  0.26507669784101040        0.0000000000000000     
  -6.7299590324217562E-002  0.27387470128425556        0.0000000000000000     
  -6.7461931383966986E-002  0.28270224353883877        0.0000000000000000     
  -6.7637597528737131E-002  0.29155932460475992        0.0000000000000000     
  -6.7826588758528011E-002  0.30044594448201906        0.0000000000000000     
  -7.4724304503465525E-002  0.26523919177553151        0.0000000000000000     
  -7.4894975326544447E-002  0.27410627046624986        0.0000000000000000     
  -7.5067307658435237E-002  0.28306442958814676        0.0000000000000000     
  -7.5241301499137936E-002  0.29211366914122233        0.0000000000000000     
  -7.5416956848652558E-002  0.30125398912547652        0.0000000000000000     
  -8.2529883652443736E-002  0.26537994322608238        0.0000000000000000     
  -8.2727367702416232E-002  0.27431138581971098        0.0000000000000000     
  -8.2908364231369575E-002  0.28341210416161666        0.0000000000000000     
  -8.3072873239303707E-002  0.29268209825179936        0.0000000000000000     
  -8.3220894726218686E-002  0.30212136809025925        0.0000000000000000     
  -4.5921003740801464E-002   5.9302586471630191E-002   0.0000000000000000     
  -4.8169313740627558E-002   6.4860143053147482E-002   0.0000000000000000     
  -5.0361912312405159E-002   7.0583166942592174E-002   0.0000000000000000     
  -5.2498799456134268E-002   7.6471658139964288E-002   0.0000000000000000     
  -5.4579975171814885E-002   8.2525616645263811E-002   0.0000000000000000     
  -5.0679997879134048E-002   6.0261677405917730E-002   0.0000000000000000     
  -5.3080352933766409E-002   6.5715582878865683E-002   0.0000000000000000     
  -5.5426236123812762E-002   7.1357234175540463E-002   0.0000000000000000     
  -5.7717647449273130E-002   7.7186631295942082E-002   0.0000000000000000     
  -5.9954586910147475E-002   8.3203774240070499E-002   0.0000000000000000     
  -5.5332198484386245E-002   6.1117529787799690E-002   0.0000000000000000     
  -5.7962001619018329E-002   6.6521292604970458E-002   0.0000000000000000     
  -6.0522297378430484E-002   7.2120028759486351E-002   0.0000000000000000     
  -6.3013085762622698E-002   7.7913738251347411E-002   0.0000000000000000     
  -6.5434366771594990E-002   8.3902421080553596E-002   0.0000000000000000     
  -5.9877605556558057E-002   6.1870143617276073E-002   0.0000000000000000     
  -6.2814259796383318E-002   6.7277272231461793E-002   0.0000000000000000     
  -6.5650096076258310E-002   7.2871550694429868E-002   0.0000000000000000     
  -6.8385114396182986E-002   7.8652979006180304E-002   0.0000000000000000     
  -7.1019314756157387E-002   8.4621557166713143E-002   0.0000000000000000     
  -6.4316219095649496E-002   6.2519518894346870E-002   0.0000000000000000     
  -6.7637127465861396E-002   6.7983521758339674E-002   0.0000000000000000     
  -7.0809632217296234E-002   7.3611799980370984E-002   0.0000000000000000     
  -7.3833733349953995E-002   7.9404353560440774E-002   0.0000000000000000     
  -7.6709430863834693E-002   8.5361182498549071E-002   0.0000000000000000     
  -5.4579975171814885E-002   8.2525616645263811E-002   0.0000000000000000     
  -5.6595887387198313E-002   8.8738701082914095E-002   0.0000000000000000     
  -5.8536984030035877E-002   9.5104570077338538E-002   0.0000000000000000     
  -6.0403265100327563E-002  0.10162322362853711        0.0000000000000000     
  -6.2194730598073393E-002  0.10829466173650984        0.0000000000000000     
  -5.9954586910147475E-002   8.3203774240070499E-002   0.0000000000000000     
  -6.2125247131569153E-002   8.9390892989055518E-002   0.0000000000000000     
  -6.4217820738671424E-002   9.5730217524026898E-002   0.0000000000000000     
  -6.6232307731454346E-002  0.10222174784498467        0.0000000000000000     
  -6.8168708109917875E-002  0.10886548395192880        0.0000000000000000     
  -6.5434366771594990E-002   8.3902421080553596E-002   0.0000000000000000     
  -6.7778273002388575E-002   9.0064518647447758E-002   0.0000000000000000     
  -7.0036937052044723E-002   9.6378472352372693E-002   0.0000000000000000     
  -7.2210358920563419E-002  0.10284428219532840        0.0000000000000000     
  -7.4298538607944692E-002  0.10946194817631491        0.0000000000000000     
  -7.1019314756157387E-002   8.4621557166713143E-002   0.0000000000000000     
  -7.3554964999656594E-002   9.0759578058090831E-002   0.0000000000000000     
  -7.5994332970155745E-002   9.7049334562375897E-002   0.0000000000000000     
  -7.8337418667654812E-002  0.10349082667956835        0.0000000000000000     
  -8.0584222092153809E-002  0.11008405440966819        0.0000000000000000     
  -7.6709430863834693E-002   8.5361182498549071E-002   0.0000000000000000     
  -7.9455323123373223E-002   9.1476071220984709E-002   0.0000000000000000     
  -8.2090008493004490E-002   9.7742804154036494E-002   0.0000000000000000     
  -8.4613486972728497E-002  0.10416138129770448        0.0000000000000000     
  -8.7025758562545269E-002  0.11073180265198862        0.0000000000000000     
  -6.2194730598073393E-002  0.10829466173650984        0.0000000000000000     
  -6.3913194557247519E-002  0.11511051025645996        0.0000000000000000     
  -6.5560471011824079E-002  0.12206239504359075        0.0000000000000000     
  -6.7136559961803094E-002  0.12915031609790215        0.0000000000000000     
  -6.8641461407184565E-002  0.13637427341939423        0.0000000000000000     
  -6.8168708109917875E-002  0.10886548395192880        0.0000000000000000     
  -7.0027758025009976E-002  0.11565404937916718        0.0000000000000000     
  -7.1810193627678584E-002  0.12258006766100774        0.0000000000000000     
  -7.3516014917923714E-002  0.12964353879745041        0.0000000000000000     
  -7.5145221895745351E-002  0.13684446278849524        0.0000000000000000     
  -7.4298538607944692E-002  0.10946194817631491        0.0000000000000000     
  -7.6302790993309069E-002  0.11622453505610297        0.0000000000000000     
  -7.8224430955777205E-002  0.12312510759546341        0.0000000000000000     
  -8.0063458495349057E-002  0.13016366579439617        0.0000000000000000     
  -8.1819873612024627E-002  0.13734020965290133        0.0000000000000000     
  -8.0584222092153809E-002  0.11008405440966819        0.0000000000000000     
  -8.2738293462144827E-002  0.11682196728726735        0.0000000000000000     
  -8.4803182996119914E-002  0.12369751484695776        0.0000000000000000     
  -8.6778890694079111E-002  0.13071069708873947        0.0000000000000000     
  -8.8665416556022406E-002  0.13786151401261246        0.0000000000000000     
  -8.7025758562545269E-002  0.11073180265198862        0.0000000000000000     
  -8.9334265431517207E-002  0.11744634607266030        0.0000000000000000     
  -9.1546449748706751E-002  0.12429728941549087        0.0000000000000000     
  -9.3662311514113902E-002  0.13128463268048032        0.0000000000000000     
  -9.5681850727738688E-002  0.13840837586762866        0.0000000000000000     
  -6.8641461407184565E-002  0.13637427341939423        0.0000000000000000     
  -7.0073777390224440E-002  0.14371996245387988        0.0000000000000000     
  -7.1432109953178738E-002  0.15117307864717194        0.0000000000000000     
  -7.2716459096047417E-002  0.15873362199927044        0.0000000000000000     
  -7.3926824818830505E-002  0.16640159251017539        0.0000000000000000     
  -7.5145221895745351E-002  0.13684446278849524        0.0000000000000000     
  -7.6696966007724909E-002  0.14416689751219919        0.0000000000000000     
  -7.8170398700443830E-002  0.15159490084661906        0.0000000000000000     
  -7.9565519973902071E-002  0.15912847279175496        0.0000000000000000     
  -8.0882329828099689E-002  0.16676761334760681        0.0000000000000000     
  -8.1819873612024627E-002  0.13734020965290133        0.0000000000000000     
  -8.3493427498141592E-002  0.14463828136647230        0.0000000000000000     
  -8.5083871346037621E-002  0.15204142313060248        0.0000000000000000     
  -8.6591205155712656E-002  0.15954963494529198        0.0000000000000000     
  -8.8015428927166767E-002  0.16716291681054068        0.0000000000000000     
  -8.8665416556022406E-002  0.13786151401261246        0.0000000000000000     
  -9.0463161861474503E-002  0.14513411401669923        0.0000000000000000     
  -9.2172527889960068E-002  0.15251264549912225        0.0000000000000000     
  -9.3793514641479170E-002  0.15999710845988155        0.0000000000000000     
  -9.5326122116031739E-002  0.16758750289897709        0.0000000000000000     
  -9.5681850727738688E-002  0.13840837586762866        0.0000000000000000     
  -9.7606169097723613E-002  0.14565439546287995        0.0000000000000000     
  -9.9436368332211242E-002  0.15300856795217826        0.0000000000000000     
 -0.10117244843120157       0.16047089333552361        0.0000000000000000     
 -0.10281440939469461       0.16804137161291594        0.0000000000000000     
  -7.3926824818830505E-002  0.16640159251017539        0.0000000000000000     
  -7.5063157682153991E-002  0.17416796793250675        0.0000000000000000     
  -7.6125408246643878E-002  0.18202372601888439        0.0000000000000000     
  -7.7113576512300150E-002  0.18996886676930841        0.0000000000000000     
  -7.8027662479122822E-002  0.19800339018377872        0.0000000000000000     
  -8.0882329828099689E-002  0.16676761334760681        0.0000000000000000     
  -8.2121461820396799E-002  0.17450533379182329        0.0000000000000000     
  -8.3283549508153573E-002  0.18233464540205310        0.0000000000000000     
  -8.4368592891370012E-002  0.19025554817829618        0.0000000000000000     
  -8.5376591970046156E-002  0.19826804212055260        0.0000000000000000     
  -8.8015428927166767E-002  0.16716291681054068        0.0000000000000000     
  -8.9358047588665335E-002  0.17487486298558649        0.0000000000000000     
  -9.0620566068473851E-002  0.18267906772966722        0.0000000000000000     
  -9.1802984366592275E-002  0.19057553104278274        0.0000000000000000     
  -9.2905302483020605E-002  0.19856425292493321        0.0000000000000000     
  -9.5326122116031739E-002  0.16758750289897709        0.0000000000000000     
  -9.6772914986959641E-002  0.17527655551379631        0.0000000000000000     
  -9.8136457927604698E-002  0.18305699300172668        0.0000000000000000     
  -9.9416750937966911E-002  0.19092881536276810        0.0000000000000000     
 -0.10061379401804625       0.19889202259692063        0.0000000000000000     
 -0.10281440939469461       0.16804137161291594        0.0000000000000000     
 -0.10436606401527967       0.17571041137645274        0.0000000000000000     
 -0.10583122508554610       0.18346842121823151        0.0000000000000000     
 -0.10720989260549389       0.19131540113825216        0.0000000000000000     
 -0.10850206657512304       0.19925135113651476        0.0000000000000000     
  -7.8027662479122822E-002  0.19800339018377872        0.0000000000000000     
  -7.8868097816776256E-002  0.20612034415290853        0.0000000000000000     
  -7.9635314194924769E-002  0.21431277656731101        0.0000000000000000     
  -8.0329311613568377E-002  0.22258068742698617        0.0000000000000000     
  -8.0950090072707079E-002  0.23092407673193399        0.0000000000000000     
  -8.5376591970046156E-002  0.19826804212055260        0.0000000000000000     
  -8.6310036390141703E-002  0.20636335937208941        0.0000000000000000     
  -8.7171415797616489E-002  0.21453273207617385        0.0000000000000000     
  -8.7960730192470485E-002  0.22277616023280586        0.0000000000000000     
  -8.8677979574703678E-002  0.23109364384198550        0.0000000000000000     
  -9.2905302483020605E-002  0.19856425292493321        0.0000000000000000     
  -9.3931470647985960E-002  0.20663640199595271        0.0000000000000000     
  -9.4885439091715443E-002  0.21478314687567540        0.0000000000000000     
  -9.5767207814208999E-002  0.22300448756410124        0.0000000000000000     
  -9.6576776815466656E-002  0.23130042406123028        0.0000000000000000     
 -0.10061379401804625       0.19889202259692063        0.0000000000000000     
 -0.10173240059030907       0.20693947202449842        0.0000000000000000     
 -0.10277738407722162       0.21506402096581564        0.0000000000000000     
 -0.10374874447878393       0.22326566942087225        0.0000000000000000     
 -0.10464648179499597       0.23154441738966833        0.0000000000000000     
 -0.10850206657512304       0.19925135113651476        0.0000000000000000     
 -0.10971282621711097       0.20727256945772649        0.0000000000000000     
 -0.11084725075413503       0.21537535434659455        0.0000000000000000     
 -0.11190534018619526       0.22355970580311893        0.0000000000000000     
 -0.11288709451329164       0.23182562382729968        0.0000000000000000     
  -8.0950090072707079E-002  0.23092407673193399        0.0000000000000000     
  -8.1486953905980306E-002  0.23936341478350640        0.0000000000000000     
  -8.1929207447027474E-002  0.24791917188305521        0.0000000000000000     
  -8.2276850695848627E-002  0.25659134803058065        0.0000000000000000     
  -8.2529883652443736E-002  0.26537994322608238        0.0000000000000000     
  -8.8677979574703678E-002  0.23109364384198550        0.0000000000000000     
  -8.9308696661349510E-002  0.23951081545672148        0.0000000000000000     
  -8.9838414169441327E-002  0.24805330763002265        0.0000000000000000     
  -9.0267132098979158E-002  0.25672112036188910        0.0000000000000000     
  -9.0594850449962960E-002  0.26551425365232068        0.0000000000000000     
  -9.6576776815466656E-002  0.23130042406123028        0.0000000000000000     
  -9.7305001591827422E-002  0.23969766239063281        0.0000000000000000     
  -9.7942737639630351E-002  0.24822290857587931        0.0000000000000000     
  -9.8489984958875426E-002  0.25687616261696955        0.0000000000000000     
  -9.8946743549562649E-002  0.26565742451390378        0.0000000000000000     
 -0.10464648179499597       0.23154441738966833        0.0000000000000000     
 -0.10547586869741409       0.23992395558524046        0.0000000000000000     
 -0.10624217785759459       0.24842797472062503        0.0000000000000000     
 -0.10694540927553749       0.25705647479582222        0.0000000000000000     
 -0.10758556295124277       0.26580945581083193        0.0000000000000000     
 -0.11288709451329164       0.23182562382729968        0.0000000000000000     
 -0.11382129797810946       0.24018969504054419        0.0000000000000000     
 -0.11473673482333403       0.24866850606425994        0.0000000000000000     
 -0.11563340504896533       0.25726205689844689        0.0000000000000000     
 -0.11651130865500336       0.26597034754310511        0.0000000000000000     
  -8.2529883652443736E-002  0.26537994322608238        0.0000000000000000     
  -8.2727367702416232E-002  0.27431138581971098        0.0000000000000000     
  -8.2908364231369575E-002  0.28341210416161666        0.0000000000000000     
  -8.3072873239303707E-002  0.29268209825179936        0.0000000000000000     
  -8.3220894726218686E-002  0.30212136809025925        0.0000000000000000     
  -9.0594850449962960E-002  0.26551425365232068        0.0000000000000000     
  -9.0851991002292520E-002  0.27449571936829903        0.0000000000000000     
  -9.1068975535867513E-002  0.28372852937680576        0.0000000000000000     
  -9.1245804050687981E-002  0.29321268367784081        0.0000000000000000     
  -9.1382476546753924E-002  0.30294818227140435        0.0000000000000000     
  -9.8946743549562649E-002  0.26565742451390378        0.0000000000000000     
  -9.9324068776632787E-002  0.27466494313567380        0.0000000000000000     
  -9.9633016005026692E-002  0.28399696735127139        0.0000000000000000     
  -9.9873585234744322E-002  0.29365349716069655        0.0000000000000000     
 -0.10004577646578568       0.30363453256394934        0.0000000000000000     
 -0.10758556295124277       0.26580945581083193        0.0000000000000000     
 -0.10814360102543709       0.27481905712183541        0.0000000000000000     
 -0.10860048563884707       0.28421741808501355        0.0000000000000000     
 -0.10895621679147269       0.29400453870036636        0.0000000000000000     
 -0.10921079448331397       0.30418041896789405        0.0000000000000000     
 -0.11651130865500336       0.26597034754310511        0.0000000000000000     
 -0.11731058774870537       0.27495806132678380        0.0000000000000000     
 -0.11797138443732862       0.28438988157803230        0.0000000000000000     
 -0.11849369872087309       0.29426580829685056        0.0000000000000000     
 -0.11887753059933880       0.30458584148323858        0.0000000000000000     
 </DataArray>
 <DataArray  type="Float64" Name="stress" NumberOfComponents="3" format="ascii">
   6784949551.5868530        887793356.56586242        735986506.98142052     
   6418900155.9756060        617411855.76871872        544961070.29157281     
   6072092953.7850122        411170999.70708537        395085069.37746286     
   5744527945.0150661        269070788.38096857        286358504.23908317     
   5436205129.6657743        191111221.79034066        218781374.87644392     
   5858668710.2943354        411691072.53310370        606678179.85225427     
   5626888910.9582090        284326684.85715580        489703831.18175405     
   5404824516.4617825        189346979.98016071        401860402.38073689     
   5192475526.8050318        126751957.90210557        343147893.44918346     
   4989841941.9879570        96541618.622989893        313566304.38711184     
   5112869050.8702450       -10266856.939139843        522441082.30762011     
   4981020230.9342270       -4915716.5563828945        468403234.97868109     
   4849360027.2569199        1064144.6887485981        431477791.61295038     
   4717888439.8383179        7672726.7962386608        411664752.21041930     
   4586605468.6784306        14910029.766102552        408964116.77111065     
   4547550573.3146019       -378080431.85084605        483275214.34754139     
   4481294115.9036398       -250315348.47189927        481059281.68234938     
   4405699486.1704197       -153677506.16715956        483937237.07410544     
   4320766684.1149426       -88166904.936617136        491909080.52280641     
   4226495709.7372012       -53783544.780277014        504974812.02845365     
   4162713277.6274128       -691749652.20201278        489180575.97199291     
   4127710565.8664722       -451872210.88940001        527671971.29275823     
   4073842893.2022982       -274877972.58755493        559238738.76420426     
   4001110259.6348915       -160766937.29648328        583880878.38633311     
   3909512665.1642590       -109539105.01616693        601598390.15914702     
   5436205129.6657743        191111221.79034066        218781374.87644392     
   5215913790.5376005        168530858.64862251        168826810.23624960     
   4995481199.0322294        145479654.24959278        131327787.46718834     
   4774907355.1496582        121957608.59321046        106284306.56927176     
   4554192258.8898907        97964721.679524899        93696367.542488277     
   4989841941.9879570        96541618.622989893        313566304.38711184     
   4801637746.6194839        85400851.873038054        277191608.32435191     
   4613437325.9901896        74272667.587029696        250403881.80751151     
   4425240680.1000805        63157065.764973879        233203124.83657557     
   4237047808.9491606        52054046.406852007        225589337.41155335     
   4586605468.6784306        14910029.766102552        408964116.77111065     
   4422292496.1404400        12750083.129190683        386338487.58823854     
   4258128325.4580035        11086142.677450418        370431255.62604964     
   4094112956.6311216        9918208.4109029770        361242420.88454944     
   3930246389.6598053        9246280.3295681477        358771983.36372513     
   4226495709.7372012       -53783544.780277014        504974812.02845365     
   4077878039.1004605       -49421447.582955122        496267448.02790928     
   3929554197.4356546       -44079920.479187727        491409908.92281699     
   3781524184.7427845       -37758963.468964577        490402194.71318781     
   3633788001.0218477       -30458576.552304745        493244305.39900184     
   3909512665.1642590       -109539105.01616693        601598390.15914702     
   3768394375.4995461       -101113740.26337814        606978489.64336586     
   3627714941.9231482       -91225521.882870913        613339841.69781220     
   3487474364.4350595       -79874449.874663591        620682446.32248950     
   3347672643.0352898       -67060524.238734484        629006303.51739359     
   4554192258.8898907        97964721.679524899        93696367.542488277     
   4365341486.8021650        84926484.361703396        78673228.233536392     
   4177551979.6263194        75425796.750138283        69134175.623336136     
   3990823737.3623414        69462658.844803095        65079209.711890742     
   3805156760.0102344        67037070.645706892        66508330.499208510     
   4237047808.9491606        52054046.406852007        225589337.41155335     
   4064088897.1606236        46288093.813014269        214887139.02907407     
   3891631845.1091385        42195007.009333849        209247142.31860414     
   3719676652.7946835        39774785.995759487        208669347.28014770     
   3548223320.2172756        39027430.772337914        213153753.91368970     
   3930246389.6598053        9246280.3295681477        358771983.36372513     
   3771973952.3797607        10390996.722533464        351738086.53709006     
   3613643969.6619282        11343894.989518881        349344506.35570252     
   3455256441.5062971        12104975.130523443        351591242.81958228     
   3296811367.9128671        12674237.145523787        358478295.92871988     
   3633788001.0218477       -30458576.552304745        493244305.39900184     
   3488996652.4595928       -22764806.909738064        489226070.75756121     
   3343588353.2846947       -17127539.309295654        489426267.73462415     
   3197563103.4971695       -13546773.750948310        493844896.33020633     
   3050920903.0970140       -12022510.234712005        502481956.54429340     
   3347672643.0352898       -67060524.238734484        629006303.51739359     
   3215156997.4000936       -53179317.083815455        627351091.69050300     
   3081464995.9774284       -43219295.887124777        629492426.45537937     
   2946596638.7673025       -37180460.648638010        635430307.81201243     
   2810551925.7697110       -35062811.368379235        645164735.76041436     
   3805156760.0102344        67037070.645706892        66508330.499208510     
   3623751134.4063034        64714119.736460209        52026366.068958797     
   3440509012.0874844        56269513.110885978        41956833.713697910     
   3255430393.0537443        41703250.768914819        36299733.433447629     
   3068515277.3051052        21015332.710635185        35055065.228191301     
   3548223320.2172756        39027430.772337914        213153753.91368970     
   3378226395.1527486        37998386.843816757        198790112.72204065     
   3207253800.9277134        33717112.380280972        188491369.02860600     
   3035305537.5421658        26183607.381708264        182257522.83338255     
   2862381604.9961023        15397871.848073602        180088574.13637993     
   3296811367.9128671        12674237.145523787        358478295.92871988     
   3137230187.4540658        12641213.417654872        345237276.78914285     
   2977534165.3891473        12225384.336062908        335713620.57097858     
   2817723301.7181082        11426749.900730848        329907327.27424705     
   2657797596.4409528        10245310.111674547        327818396.89894855     
   3050920903.0970140       -12022510.234712005        502481956.54429340     
   2900762511.3102555       -11357400.542055488        491367858.27023560     
   2751350105.4717746       -8205671.0218098164        483623588.34082001     
   2602683685.5815678       -2567321.6739842892        479249146.75603765     
   2454763251.6396351        5557647.5014215708        478244533.51589489     
   2810551925.7697110       -35062811.368379235        645164735.76041436     
   2668823366.7213149       -33997455.035308123        637181857.16534293     
   2528701621.1755981       -27576053.693323016        632221272.33811975     
   2390186689.1325521       -15798607.342435479        630282981.27874768     
   2253278570.5921655        1334884.0173232555        631366983.98722827     
   3068515277.3051052        21015332.710635185        35055065.228191301     
   2897779169.5417624        5453694.2408133745        23065816.060055319     
   2729059279.7194023       -3387217.7590670586        13506515.749656539     
   2562355607.8380265       -5507403.2889978886        6377164.2969680559     
   2397668153.8976088       -906862.34906983376        1677761.7020142116     
   2862381604.9961023        15397871.848073602        180088574.13637993     
   2700312572.7708125        7967317.1007785797        170390280.17384198     
   2539284293.6775160        4005939.4601374865        163052614.60074750     
   2379296767.7162304        3513738.9261956215        158075577.41705930     
   2220349994.8869414        6490715.4989087582        155459168.62280685     
   2657797596.4409528        10245310.111674547        327818396.89894855     
   2504197581.2728586        10886421.542655826        319273015.86487377     
   2350662854.4277720        11745160.716996431        313018942.75193012     
   2197193415.9057255        12821527.634803057        309056177.56010056     
   2043789265.7066913        14115522.295972705        307384720.28941303     
   2454763251.6396351        5557647.5014215708        478244533.51589489     
   2309434195.0478859        14211007.566420794        469714023.13314360     
   2163194961.9701695        19830446.011531949        463405500.20321089     
   2016045552.4064913        22415962.836778164        459318964.72610730     
   1867985966.3568628        21967558.042169571        457454416.70182759     
   2253278570.5921655        1334884.0173232555        631366983.98722827     
   2116022414.0958996        17941075.172068477        621713301.97864449     
   1976880616.3046868        28261795.343656659        614212286.95458949     
   1835853177.2185435        32297044.532137990        608863938.91506135     
   1692940096.8374653        30046822.737502635        605668257.86005580     
   2397668153.8976088       -906862.34906983376        1677761.7020142116     
   2253697579.4080515        7735893.7710384130       -6034607.3822454140     
   2106278139.5126009        4882431.8715050220       -11268443.065976391     
   1955409834.2112250       -9467248.0477701426       -14023745.349174874     
   1801092663.5039704       -35313145.986662984       -14300514.231857520     
   2220349994.8869414        6490715.4989087582        155459168.62280685     
   2081132118.1377127        13618872.197525501        144237341.22720808     
   1939708111.0929284        13393261.244293809        134542424.71321920     
   1796077973.7525840        5813882.6391882896        126374419.08082990     
   1650241706.1166687       -9119263.6178219318        119733324.33007099     
   2043789265.7066913        14115522.295972705        307384720.28941303     
   1906605165.2151685        18913403.128370881        294103292.21120548     
   1768457669.5384271        20499966.676700711        281397152.49568075     
   1629346778.6764405        18875212.940882742        269266301.14284128     
   1489272492.6292322        14039141.920992196        257710738.15267050     
   1867985966.3568628        21967558.042169571        457454416.70182759     
   1730116720.6404142        23619486.563563108        443563245.56973785     
   1592526814.8490603        26202548.168614566        429295740.28140152     
   1455216248.9828155        29716742.857359290        414651900.83682305     
   1318185023.0416706        34162070.629768670        399631727.23599541     
   1692940096.8374653        30046822.737502635        605668257.86005580     
   1551666784.4134290        27737122.503046095        592617201.30279875     
   1411915547.0248454        30501005.720087409        578238188.07037222     
   1273686384.6716924        38338472.388573229        562531218.16277933     
   1136979297.3539708        51249522.508490443        545496291.58002341     
   1801092663.5039704       -35313145.986662984       -14300514.231857520     
   1770580492.6904411       -16914016.602753162       -8321907.5378577076     
   1748200831.6925004        28593478.833116651       -41305410.972329699     
   1733953680.5101631        101209340.32099980       -113251024.53526965     
   1727839039.1433952        200933567.86078095       -224158748.22666347     
   1650241706.1166687       -9119263.6178219318        119733324.33007099     
   1527651447.1735468       -14055909.772870958        135604041.07957593     
   1409260305.8847589       -4995497.0801336765        124992748.36687045     
   1295068282.2503138        18061974.460387409        87899446.191923842     
   1185075376.2701788        55116504.848630905        24324134.554759141     
   1489272492.6292322        14039141.920992196        257710738.15267050     
   1310261576.0314932       -3536050.6304897070        278884607.43625832     
   1131516384.9268079       -20225491.538437009        286056567.92382926     
   953036919.31520677       -36029180.802776635        279226619.61541790     
   774823179.19668269       -50947118.423536390        258394762.51100758     
   1318185023.0416706        34162070.629768670        399631727.23599541     
   1118410879.2642405        14645560.824281812        421519791.53216356     
   914969068.81862700       -17096504.541827679        441886047.69856369     
   707859591.70484376       -61064125.468503684        460730495.73521012     
   497082447.92286336       -117257301.95584726        478053135.64209527     
   1136979297.3539708        51249522.508490443        545496291.58002341     
   952099356.87182665        40488924.591525018        563509593.36731565     
   759618357.56024837        4391463.9097740650        592481187.69107664     
   559536299.41921246       -57042859.536828279        632411074.55131149     
   351853182.44874454       -143814045.74821472        683299253.94802034     
   1727839039.1433952        200933567.86078095       -224158748.22666347     
   1457096643.9244745        184746309.64051086       -96699281.004797295     
   1154140534.7552021        61180004.919091165        60007461.579962671     
   818970711.63559294       -169765346.30346221        245961479.52760875     
   451587174.56563622       -508089744.02717400        461162772.83813834     
   1185075376.2701788        55116504.848630905        24324134.554759141     
   977920594.57804334        11982714.904664278        155609834.63265714     
   732914107.79070854       -157323425.35664484        312780238.61222368     
   450055915.90816140       -452801915.93533361        495835346.49343312     
   129346018.93042582       -874452756.83129501        704775158.27627516     
   774823179.19668269       -50947118.423536390        258394762.51100758     
   621648663.99919677       -123909644.20093355        386929039.10929054     
   424984452.56167030       -341837824.11179411        537985448.14798474     
   184830544.88409740       -704731658.15616727        711563989.62710178     
  -98813059.033548176       -1212591146.3340716        907664663.54663503     
   497082447.92286336       -117257301.95584726        478053135.64209527     
   388280852.18794680       -222930767.67621249        597258332.42509592     
   230351569.06812826       -492363191.34628284        735623090.18728566     
   23294598.563403428       -925554572.96603036        893147408.92864168     
  -232890059.32621780       -1522504912.5354438        1069831288.6491705     
   351853182.44874454       -143814045.74821472        683299253.94802034     
   277817159.14428115       -285080655.52124941        786597714.58008909     
   149015457.31005701       -608899527.06014204        905693164.73008788     
  -34551923.053912163       -1115270660.3648629        1040585604.3980325     
  -272884981.94764233       -1804194055.4354422        1191275033.5839007     
   4162713277.6274128       -691749652.20201278        489180575.97199291     
   4127710565.8664722       -451872210.88940001        527671971.29275823     
   4073842893.2022982       -274877972.58755493        559238738.76420426     
   4001110259.6348915       -160766937.29648328        583880878.38633311     
   3909512665.1642590       -109539105.01616693        601598390.15914702     
   4068253509.9728179       -178646230.20544505        792169121.23552918     
   3971430150.9000435       -107965791.60969162        788254006.39051950     
   3868645593.9401283       -57156012.637710094        782754637.47423029     
   3759899839.0930839       -26216893.289514542        775671014.48666143     
   3645192886.3589082       -15148433.565083504        767003137.42781615     
   3886380110.6217904        308233102.28219104        1029687852.7435344     
   3742994315.0315781        214294001.39940703        998420617.91819537     
   3606551084.5703259        143496784.27983892        970909502.79961503     
   3477050419.2380395        95841450.923484921        947154507.38779676     
   3354492319.0347214        71328001.330351114        927155631.68273723     
   3617093079.5743341        768888345.26090121        1201736770.4960029     
   3442403058.2610788        514907168.13789177        1158171805.8757827     
   3287559365.0928864        327080418.16509795        1123703334.7403598     
   3152562000.0697536        205408095.34250939        1098331357.0897386     
   3037410963.1916885        149890199.67013252        1082055872.9239140     
   3260392416.8304501        1203319498.7306800        1308315874.4929354     
   3069656380.5885496        793873708.60577404        1267507570.2632804     
   2911670435.5078125        493594889.01807177        1241136133.2964656     
   2786434581.5882330        302483039.96756053        1229201563.5924876     
   2693948818.8298135        220538161.45426142        1231703861.1513445     
   3909512665.1642590       -109539105.01616693        601598390.15914702     
   3768394375.4995461       -101113740.26337814        606978489.64336586     
   3627714941.9231482       -91225521.882870913        613339841.69781220     
   3487474364.4350595       -79874449.874663591        620682446.32248950     
   3347672643.0352898       -67060524.238734484        629006303.51739359     
   3645192886.3589082       -15148433.565083504        767003137.42781615     
   3504873884.2489667       -19619905.150987387        764675927.77875483     
   3365336091.1266365       -21487346.778187037        764958495.14129269     
   3226579506.9919224       -20750758.446662307        767850839.51543975     
   3088604131.8448219       -17410140.156424284        773352960.90118492     
   3354492319.0347214        71328001.330351114        927155631.68273723     
   3219625531.4549046        55355571.498346806        917520524.61624455     
   3085882305.7620087        43128347.956072211        912123719.00273180     
   2953262641.9560218        34646330.703503132        910965214.84219563     
   2821766540.0369568        29909519.740664959        914045012.13464355     
   3037410963.1916885        149890199.67013252        1082055872.9239140     
   2912649317.1173649        123812689.68464851        1065512280.1558435     
   2789353585.8292580        102621562.31989145        1054835513.2821279     
   2667523769.3273697        86316817.575855613        1050025572.3027645     
   2547159867.6116943        74898455.452539206        1051082457.2177627     
   2693948818.8298135        220538161.45426142        1231703861.1513445     
   2583945241.2363410        185751449.40789843        1208651194.3975465     
   2475749931.3283873        156992296.31326962        1193093877.9794786     
   2369362889.1059489        134260702.17035854        1185031911.8971438     
   2264784114.5690336        117556666.97919071        1184465296.1505411     
   3347672643.0352898       -67060524.238734484        629006303.51739359     
   3215156997.4000936       -53179317.083815455        627351091.69050300     
   3081464995.9774284       -43219295.887124777        629492426.45537937     
   2946596638.7673025       -37180460.648638010        635430307.81201243     
   2810551925.7697110       -35062811.368379235        645164735.76041436     
   3088604131.8448219       -17410140.156424284        773352960.90118492     
   2964395574.0406675       -9751290.6575615406        768025488.84005857     
   2839529885.9340034       -4282875.5003871918        766727466.43937123     
   2714007067.5248308       -1004894.6849012375        769458893.69911242     
   2587827118.8131542        82651.788888812065        776219770.61929214     
   2821766540.0369568        29909519.740664959        914045012.13464355     
   2706530507.4029059        31545642.785201669        905651042.90506506     
   2591156569.9512982        32722083.104568720        901519426.40459144     
   2475644727.6821465        33438840.698774815        901650162.63322520     
   2359994980.5954423        33695915.567815185        906043251.59096456     
   2547159867.6116943        74898455.452539206        1051082457.2177627     
   2441561797.4868031        70711483.244460821        1040227753.8855155     
   2336345048.0293202        67795579.927743435        1033868306.3510437     
   2231509619.2392435        66150745.502386808        1032004114.6143527     
   2127055511.1165824        65776979.968401313        1034635178.6754340     
   2264784114.5690336        117556666.97919071        1184465296.1505411     
   2169489444.2923632        107746230.72021389        1171755621.7814100     
   2075095320.1680608        100937614.96912944        1163774106.2787244     
   1981601742.1961250        97130819.725930572        1160520749.6424882     
   1889008710.3765566        96325844.990624487        1161995551.8727007     
   2810551925.7697110       -35062811.368379235        645164735.76041436     
   2668823366.7213149       -33997455.035308123        637181857.16534293     
   2528701621.1755981       -27576053.693323016        632221272.33811975     
   2390186689.1325521       -15798607.342435479        630282981.27874768     
   2253278570.5921655        1334884.0173232555        631366983.98722827     
   2587827118.8131542        82651.788888812065        776219770.61929214     
   2453948576.5899563       -602220.30919134617        768175452.67674303     
   2321081335.7560267        2083912.2236205339        763551214.31599140     
   2189225396.3113627        8141049.3873096704        762347055.53703535     
   2058380758.2559631        17569191.181889057        764562976.33987582     
   2359994980.5954423        33695915.567815185        906043251.59096456     
   2235102986.0944161        31601774.307666063        897242730.16864228     
   2110626780.8692589        30893597.300398231        892260074.14205790     
   1986566364.9199591        31571384.545990229        891095283.51121235     
   1862921738.2465210        33635136.044462800        893748358.27610302     
   2127055511.1165824        65776979.968401313        1034635178.6754340     
   2012286595.2347045        62614528.815267682        1024383689.6410313     
   1897337956.5152912        58853001.537009239        1018347851.8163130     
   1782209594.9583347        54492398.133614480        1016527665.2012683     
   1666901510.5638371        49532718.605073988        1018923129.7959116     
   1889008710.3765566        96325844.990624487        1161995551.8727007     
   1785499404.0108142        92436043.213619173        1149598331.0939143     
   1681214862.6941304        85962124.933477521        1141814547.3387547     
   1576155086.4264970        76904090.150167108        1138644200.6072130     
   1470320075.2079191        65261938.863708436        1140087290.8992984     
   2253278570.5921655        1334884.0173232555        631366983.98722827     
   2116022414.0958996        17941075.172068477        621713301.97864449     
   1976880616.3046868        28261795.343656659        614212286.95458949     
   1835853177.2185435        32297044.532137990        608863938.91506135     
   1692940096.8374653        30046822.737502635        605668257.86005580     
   2058380758.2559631        17569191.181889057        764562976.33987582     
   1925182559.9785628        26341350.332222939        753354264.98350620     
   1791006083.6673019        31852582.703018785        744922246.50428808     
   1655851329.3221855        34102888.294295132        739266920.90222752     
   1519718296.9432127        33092267.106043637        736388288.17732239     
   1862921738.2465210        33635136.044462800        893748358.27610302     
   1735564429.3097842        35108142.526951611        882043208.04320240     
   1608136205.6002676        36344766.433492720        873738776.58008909     
   1480637067.1179705        37345007.764108360        868835063.88675439     
   1353067013.8628864        38108866.518765986        867332069.96320438     
   1666901510.5638371        49532718.605073988        1018923129.7959116     
   1547168022.0895545        44241451.756235003        1007780131.1577417     
   1428270982.1035683        41738346.535060525        1000661877.1819799     
   1310210390.6058760        42023402.941531360        997568367.86863339     
   1192986247.5964866        45096620.975671232        998499603.21768796     
   1470320075.2079191        65261938.863708436        1140087290.8992984     
   1359993338.3178811        53741278.020098507        1130565034.3271189     
   1251410413.1772177        48033323.007734656        1125691548.3099761     
   1144571299.7859299        48138073.826620758        1125466832.8478668     
   1039475998.1440101        54055530.476740181        1129890887.9407876     
   1692940096.8374653        30046822.737502635        605668257.86005580     
   1551666784.4134290        27737122.503046095        592617201.30279875     
   1411915547.0248454        30501005.720087409        578238188.07037222     
   1273686384.6716924        38338472.388573229        562531218.16277933     
   1136979297.3539708        51249522.508490443        545496291.58002341     
   1519718296.9432127        33092267.106043637        736388288.17732239     
   1376907959.5224264        29335043.983878195        727713339.79676497     
   1234585739.4181323        27204878.583330989        719518064.91411018     
   1092751636.6303103        26701770.904375851        711802463.52936554     
   951405651.15897620        27825720.947031140        704566535.64252734     
   1353067013.8628864        38108866.518765986        867332069.96320438     
   1213884309.0827067        34453517.800095081        861826945.75388706     
   1074155763.9000502        28978701.073170304        858609125.21555793     
   933881378.31492388        21684416.338003874        857678608.34820080     
   793061152.32731283        12570663.594571173        859035395.15183318     
   1192986247.5964866        45096620.975671232        998499603.21768796     
   1062595833.0942620        43092543.951694429        994958019.17417240     
   930625620.47060394        35822473.189600497        995511368.97471678     
   797075609.72551799        23286408.689419359        1000159652.6193131     
   661945800.85899711        5484350.4511155188        1008902870.1079568     
   1039475998.1440101        54055530.476740181        1129890887.9407876     
   923042531.55709743        55252122.438674629        1127106560.0576234     
   803995309.12978673        47736194.932616144        1130224796.1915855     
   682334330.86209953        31507747.958635241        1139245596.3426800     
   558059596.75401151        6566781.5166522861        1154168960.5108972     
   1136979297.3539708        51249522.508490443        545496291.58002341     
   952099356.87182665        40488924.591525018        563509593.36731565     
   759618357.56024837        4391463.9097740650        592481187.69107664     
   559536299.41921246       -57042859.536828279        632411074.55131149     
   351853182.44874454       -143814045.74821472        683299253.94802034     
   951405651.15897620        27825720.947031140        704566535.64252734     
   792164518.91765797        11159449.278995216        722197996.03401470     
   624245152.20840120       -34434270.615516305        749956171.86298609     
   447647551.03119951       -108955438.73650005        787841063.12945127     
   262371715.38606378       -212404055.08393896        835852669.83339405     
   793061152.32731283        12570663.594571173        859035395.15183318     
   657082893.75827646       -10714062.195128411        875028309.23594296     
   511349225.08280987       -66516821.672935784        900316361.65855312     
   355860146.30090576       -154837614.83886915        934899552.41966259     
   190615657.41257524       -275676441.69288212        978777881.51926625     
   661945800.85899711        5484350.4511155188        1008902870.1079568     
   546854481.39370072       -25131609.830815315        1022000532.9731133     
   420930576.18348491       -91856189.262465805        1043561757.0777841     
   284174085.22833246       -194689387.84390232        1073586542.4219652     
   136585008.52826592       -333631205.57506990        1112074889.0056493     
   558059596.75401151        6566781.5166522861        1154168960.5108972     
   461479281.82392985       -32093193.628017485        1163114667.2455239     
   352989205.51041627       -110452373.38413218        1179692358.1206744     
   232589367.81348795       -228510757.75162673        1203902033.1363430     
   100279768.73313910       -386268346.73052293        1235743692.2925303     
   351853182.44874454       -143814045.74821472        683299253.94802034     
   277817159.14428115       -285080655.52124941        786597714.58008909     
   149015457.31005701       -608899527.06014204        905693164.73008788     
  -34551923.053912163       -1115270660.3648629        1040585604.3980325     
  -272884981.94764233       -1804194055.4354422        1191275033.5839007     
   262371715.38606378       -212404055.08393896        835852669.83339405     
   223646024.83412907       -352123346.58306360        885216160.44806910     
   140695897.09322202       -639257428.71209884        945587382.52200580     
   13521332.163329482       -1073806301.4710941        1016966336.0552112     
  -157877669.95553589       -1655769964.8599794        1099353021.0476716     
   190615657.41257524       -275676441.69288212        978777881.51926625     
   173516705.15980506       -417953493.25411260        986504517.01413703     
   122734557.05884111       -672507864.30933344        1000449625.9095880     
   38269213.109668970       -1039339554.8585763        1020613208.2056143     
  -79879326.687700868       -1518448564.9018109        1046995263.9022480     
   136585008.52826592       -333631205.57506990        1112074889.0056493     
   127429200.12130255       -482571095.53441024        1090462784.2782707     
   95131437.206915379       -708650833.85182440        1070279894.8928055     
   39691719.785094976       -1011870420.5273358        1051526220.8492347     
  -38889952.144136608       -1392229855.5609174        1034201762.1475865     
   100279768.73313910       -386268346.73052293        1235743692.2925303     
   85383509.718609869       -545976153.42399812        1197090962.2404878     
   57886537.537447393       -747686337.33957314        1155078189.4716713     
   17788852.189620197       -991398898.47737765        1109705373.9860899     
  -34909546.324845731       -1277113836.8373058        1060972515.7837355     
   3260392416.8304501        1203319498.7306800        1308315874.4929354     
   3069656380.5885496        793873708.60577404        1267507570.2632804     
   2911670435.5078125        493594889.01807177        1241136133.2964656     
   2786434581.5882330        302483039.96756053        1229201563.5924876     
   2693948818.8298135        220538161.45426142        1231703861.1513445     
   2589695481.7237735        592644241.25446153        1138008725.5573316     
   2488811001.3380661        382360087.55849916        1153996049.3845646     
   2405605253.6711950        231005042.92534363        1178702709.7393479     
   2340078238.7231741        138579107.35500216        1212128706.6216867     
   2292229956.4939895        105082280.84746683        1254274040.0315735     
   2005391630.8871872        7886909.0592651367        1042726344.5613160     
   1978022904.2568493       -8136348.8380000591        1097926044.9293988     
   1953261551.9030321       -15468359.146849155        1156127551.0897493     
   1931107573.8257434       -14109121.867276430        1217330863.0423675     
   1911560970.0249827       -4058636.9992809296        1281535980.7872472     
   1507480864.3206780       -550952497.85490632        1022468731.5048895     
   1537292089.3448939       -377615600.58372092        1099297556.8977916     
   1554639330.2033134       -245825317.19850647        1173410657.3476667     
   1559522586.8959441       -155581647.69926292        1244808032.8545275     
   1551941859.4227836       -106884592.08599055        1313489683.4183633     
   1095963182.0242572       -1083873979.4880495        1077235886.3880529     
   1166618556.6022050       -726077667.67866039        1158110585.2897332     
   1209738588.5720439       -460065831.22963411        1230552028.5131028     
   1225323277.9337776       -285838470.14095837        1294560216.0581656     
   1213372624.6874015       -203395584.41264826        1350135147.9249203     
   2693948818.8298135        220538161.45426142        1231703861.1513445     
   2583945241.2363410        185751449.40789843        1208651194.3975465     
   2475749931.3283873        156992296.31326962        1193093877.9794786     
   2369362889.1059489        134260702.17035854        1185031911.8971438     
   2264784114.5690336        117556666.97919071        1184465296.1505411     
   2292229956.4939895        105082280.84746683        1254274040.0315735     
   2206016349.1579156        88455275.749278903        1239805507.1161282     
   2120835713.8995409        75271510.910086036        1231950899.3826036     
   2036688050.7188549        65530986.329866290        1230710216.8309946     
   1953573359.6158719        59233702.008646488        1236083459.4613092     
   1911560970.0249827       -4058636.9992809296        1281535980.7872472     
   1846618975.3639863       -3281442.4239851236        1274747070.1676941     
   1781934657.1728611       -1645326.2824540138        1273690659.5762498     
   1717508015.4516144        849711.42533648014        1278366749.0129108     
   1653339050.2002392        4203670.6993662119        1288775338.4776795     
   1551941859.4227836       -106884592.08599055        1313489683.4183633     
   1505753119.8545444       -89458705.111912787        1313475883.5522447     
   1459046761.1483560       -73758215.264328480        1318313158.5604217     
   1411822783.3042159       -59783122.543254614        1328001508.4428923     
   1364081186.3221302       -47533426.948659658        1342540933.1996577     
   1213372624.6874015       -203395584.41264826        1350135147.9249203     
   1183418782.6295965       -170076512.31448233        1355991947.2697778     
   1152172025.8260157       -141067156.03557175        1365818396.3351173     
   1119632354.2766702       -116367515.57587463        1379614495.1209383     
   1085799767.9815490       -95977590.935427129        1397380243.6272404     
   2264784114.5690336        117556666.97919071        1184465296.1505411     
   2169489444.2923632        107746230.72021389        1171755621.7814100     
   2075095320.1680608        100937614.96912944        1163774106.2787244     
   1981601742.1961250        97130819.725930572        1160520749.6424882     
   1889008710.3765566        96325844.990624487        1161995551.8727007     
   1953573359.6158719        59233702.008646488        1236083459.4613092     
   1872022319.5494092        55792369.131758332        1227879270.3724055     
   1791012058.7019887        54153633.651673198        1224049152.5675037     
   1710542577.0736005        54317495.568364739        1224593106.0466030     
   1630613874.6642544        56283954.881861448        1229511130.8096979     
   1653339050.2002392        4203670.6993662119        1288775338.4776795     
   1584519961.5369878        6827937.5624649525        1284656906.5801251     
   1515881885.1594479        10055578.711266696        1284558458.3841197     
   1447424821.0676184        13886594.145768225        1288479993.8896644     
   1379148769.2614949        18320983.865961194        1296421513.0967629     
   1364081186.3221302       -47533426.948659658        1342540933.1996577     
   1306982370.2550972       -39147063.987670541        1342088530.4045644     
   1249704799.5404437       -31356549.852073967        1345302023.7285736     
   1192248474.1781704       -24161884.541878104        1352181413.1716876     
   1134613394.1682789       -17563068.057075858        1362726698.7339003     
   1085799767.9815490       -95977590.935427129        1397380243.6272404     
   1039409545.7037352       -82132635.518645525        1400174141.8457277     
   992480801.84497452       -70082752.038354099        1406279848.6008661     
   945013536.40526664       -59827940.494552851        1415697363.8926647     
   897007749.38460958       -51368200.887248993        1428426687.7211132     
   1889008710.3765566        96325844.990624487        1161995551.8727007     
   1785499404.0108142        92436043.213619173        1149598331.0939143     
   1681214862.6941304        85962124.933477521        1141814547.3387547     
   1576155086.4264970        76904090.150167108        1138644200.6072130     
   1470320075.2079191        65261938.863708436        1140087290.8992984     
   1630613874.6642544        56283954.881861448        1229511130.8096979     
   1540045766.4743671        55408157.127201617        1218922265.8505096     
   1449167361.2628160        53498035.966991365        1212979192.3055048     
   1357978659.0295861        50553591.401190698        1211681910.1746869     
   1266479659.7746966        46574823.429852664        1215030419.4580569     
   1379148769.2614949        18320983.865961194        1296421513.0967629     
   1301614300.3633556        20486922.468412936        1288183431.5413265     
   1224234472.3728240        23168330.762894630        1284623495.7906356     
   1147009285.2898965        26365208.749390423        1285741705.8446913     
   1069938739.1145785        30077556.427911460        1291538061.7034984     
   1134613394.1682789       -17563068.057075858        1362726698.7339003     
   1070205005.6777809       -12327660.762740552        1357381828.1663718     
   1006416196.0241647       -5026990.6787953377        1356747457.7941496     
   943246965.20742977        4338942.1947554946        1360823587.6172373     
   880697313.22758138        15770137.857921600        1369610217.6356392     
   897007749.38460958       -51368200.887248993        1428426687.7211132     
   845817882.41764069       -43035592.566266954        1426517455.7256396     
   795712532.21683228       -31087928.358088851        1429351078.3160431     
   746691698.78218079       -15525208.262719482        1436927555.4923236     
   698755382.11368847        3652567.7198497355        1449246887.2544739     
   1470320075.2079191        65261938.863708436        1140087290.8992984     
   1359993338.3178811        53741278.020098507        1130565034.3271189     
   1251410413.1772177        48033323.007734656        1125691548.3099761     
   1144571299.7859299        48138073.826620758        1125466832.8478668     
   1039475998.1440101        54055530.476740181        1129890887.9407876     
   1266479659.7746966        46574823.429852664        1215030419.4580569     
   1170393088.9565027        42067320.933543742        1209606197.7377555     
   1075175630.7274873        40456860.401162386        1208868758.2067647     
   980827285.08763945        41743441.832671762        1212818100.8650875     
   887348052.03696012        45927065.228078902        1221454225.7127287     
   1069938739.1145785        30077556.427911460        1291538061.7034984     
   988200939.03760087        32615793.679745317        1289191392.4815083     
   906457552.38959634        35135409.028141052        1291569517.0831068     
   824708579.17055655        37636402.473091424        1298672435.5082941     
   742954019.38048172        40118774.014595836        1310500147.7570758     
   880697313.22758138        15770137.857921600        1369610217.6356392     
   813416888.56118405        25386696.258695722        1369320618.5583844     
   745256178.16354454        32068968.888668656        1373793824.9390075     
   676215182.03467715        35816955.747872263        1383029836.7774854     
   606293900.17456985        36630656.836282700        1397028654.0738444     
   698755382.11368847        3652567.7198497355        1449246887.2544739     
   646040937.52723181        20380028.670368820        1449993875.9683890     
   591571508.04933500        31257539.982753843        1455541681.7744505     
   535347093.68000048        36285101.657013476        1465890304.6726580     
   477367694.41922379        35462713.693132639        1481039744.6630118     
   1039475998.1440101        54055530.476740181        1129890887.9407876     
   923042531.55709743        55252122.438674629        1127106560.0576234     
   803995309.12978673        47736194.932616144        1130224796.1915855     
   682334330.86209953        31507747.958635241        1139245596.3426800     
   558059596.75401151        6566781.5166522861        1154168960.5108972     
   887348052.03696012        45927065.228078902        1221454225.7127287     
   785741575.34685826        45253322.858529508        1218430567.7784462     
   681670913.97540736        36365631.551155150        1221341338.2856939     
   575136067.92259526        19263991.305908889        1230186537.2344718     
   466137037.18843889       -6051597.8771542311        1244966164.6247752     
   742954019.38048172        40118774.014595836        1310500147.7570758     
   656265573.79976869        37602009.677350938        1307411659.4572225     
   567262514.69673789        27369866.932378799        1310289464.0232968     
   475944842.07139510        9422345.7796999812        1319133561.4553030     
   382312555.92373663       -16240553.780696288        1333943951.7532461     
   606293900.17456985        36630656.836282700        1397028654.0738444     
   534614526.91582173        32298182.895110965        1394049835.0939565     
   460770111.29379112        20748901.076333463        1397069173.4044051     
   384760653.30848873        1982811.3799794167        1406086669.0051858     
   306586152.95990634       -24000086.193975106        1421102321.8962953     
   477367694.41922379        35462713.693132639        1481039744.6630118     
   420788434.69501066        29341842.511791810        1478345094.6886437     
   362193703.76656479        16502733.983002573        1481680466.4290128     
   301583501.63387173       -3054611.8932714015        1491045859.8841140     
   238957828.29694211       -29330195.117000774        1506441275.0539482     
   558059596.75401151        6566781.5166522861        1154168960.5108972     
   461479281.82392985       -32093193.628017485        1163114667.2455239     
   352989205.51041627       -110452373.38413218        1179692358.1206744     
   232589367.81348795       -228510757.75162673        1203902033.1363430     
   100279768.73313910       -386268346.73052293        1235743692.2925303     
   466137037.18843889       -6051597.8771542311        1244966164.6247752     
   388931032.78777999       -40868757.658299908        1243289674.6590965     
   301635710.76201111       -109316976.18981199        1247997712.7993312     
   204251071.11112440       -211396253.47171694        1259090279.0454762     
   96777113.835137054       -347106589.50395721        1276567373.3975406     
   382312555.92373663       -16240553.780696288        1333943951.7532461     
   320916701.95362651       -48284146.227978453        1323769116.1386223     
   251251974.11671796       -107890651.56459150        1318731352.5953062     
   173318372.41301611       -195060069.79051059        1318830661.1232948     
   87115896.842510656       -309792400.90578216        1324067041.7225945     
   306586152.95990634       -24000086.193975106        1421102321.8962953     
   257436289.32147175       -54339359.337046534        1404552991.6840949     
   201837995.57454717       -106173399.50842762        1391893277.5085905     
   139791271.71914929       -179502206.70804843        1383123179.3697958     
   71296117.755253688       -274325780.93599457        1378242697.2676921     
   238957828.29694211       -29330195.117000774        1506441275.0539482     
   198489794.89130872       -59034396.985537082        1485641301.2955270     
   153393775.13550335       -104165220.02131069        1467483487.5392025     
   103669769.02953029       -164722664.22430986        1451967833.7849753     
   49317776.573372900       -240706729.59458748        1439094340.0328436     
   100279768.73313910       -386268346.73052293        1235743692.2925303     
   85383509.718609869       -545976153.42399812        1197090962.2404878     
   57886537.537447393       -747686337.33957314        1155078189.4716713     
   17788852.189620197       -991398898.47737765        1109705373.9860899     
  -34909546.324845731       -1277113836.8373058        1060972515.7837355     
   96777113.835137054       -347106589.50395721        1276567373.3975406     
   79785862.684039623       -488232500.08758706        1222181151.9202943     
   51415542.528067738       -667288640.68747067        1165255310.8755703     
   11666153.367195487       -884275011.30367327        1105789850.2633717     
  -39462304.798556566       -1139191611.9361563        1043784770.0836940     
   87115896.842510656       -309792400.90578216        1324067041.7225945     
   70373719.695679426       -431633195.53732949        1255372580.3422041     
   43474117.705736279       -587332072.97925282        1184958922.5436294     
   6417090.8726696074       -776889033.23160243        1112826068.3268790     
  -40797360.803531110       -1000304076.2943727        1038974017.6919302     
   71296117.755253688       -274325780.93599457        1378242697.2676921     
   57147080.753539458       -376178239.77319098        1296665247.5062120     
   34062263.070468873       -507816634.21491635        1214189024.4758554     
   2041664.7060343623       -669240964.26117623        1130814028.1766005     
  -38914714.339757591       -860451229.91197121        1046540258.6084678     
   49317776.573372900       -240706729.59458748        1439094340.0328436     
   40105945.857609257       -321867632.79520279        1346059153.4123344     
   23179978.622254193       -428742324.39445889        1252945616.6722445     
  -1460125.1326995194       -561330804.39237177        1159753729.8125491     
  -33814365.407252073       -719633072.78895020        1066483492.8332615     
   1095963182.0242572       -1083873979.4880495        1077235886.3880529     
   1166618556.6022050       -726077667.67866039        1158110585.2897332     
   1209738588.5720439       -460065831.22963411        1230552028.5131028     
   1225323277.9337776       -285838470.14095837        1294560216.0581656     
   1213372624.6874015       -203395584.41264826        1350135147.9249203     
   939787464.51883507       -777560957.60049891        1313990290.9863234     
   967149315.48739362       -516902629.21110243        1342255939.3548903     
   973859659.60245013       -325082657.00004852        1368068590.6453063     
   959918496.86400747       -202101040.96732211        1391428244.8575752     
   925325827.27206683       -147957781.11292726        1412334901.9917002     
   705068363.25935471       -494810950.83916593        1514363768.4442108     
   706223143.76183665       -326164669.92677236        1498051507.9933703     
   693610253.16542411       -203410626.01069176        1485266509.0645437     
   667229691.47012079       -126548819.09091577        1476008771.6577313     
   627081458.67592454       -95579249.167448491        1470278295.7729247     
   391805878.24581534       -235623959.20405051        1678356318.7617056     
   383840041.42553413       -153863789.82566556        1625497291.2051754     
   368990369.26096559       -95049738.261568591        1582145783.7708144     
   347256861.75211519       -59181804.511745960        1548301796.4586258     
   318639518.89897817       -46259988.576212570        1523965329.2686088     
   9.4782204063359217        17.304848213724568        1805967941.9388237     
   8.4784876921404368        11.092218078111827        1724593288.9903047     
   7.8890762512406036        6.2473262140406458        1658706414.7641199     
   7.7099905672294069        2.7701858320974977        1608307319.2602618     
   7.9412274375404266       0.66078868567385851        1573396002.4787412     
   1213372624.6874015       -203395584.41264826        1350135147.9249203     
   1183418782.6295965       -170076512.31448233        1355991947.2697778     
   1152172025.8260157       -141067156.03557175        1365818396.3351173     
   1119632354.2766702       -116367515.57587463        1379614495.1209383     
   1085799767.9815490       -95977590.935427129        1397380243.6272404     
   925325827.27206683       -147957781.11292726        1412334901.9917002     
   903135471.69682634       -122885969.57943267        1413270614.5833552     
   879975430.10087085       -101046444.78165662        1418111804.1098852     
   855845702.48419750       -82439206.719604313        1426858470.5712931     
   830746288.84680486       -67064255.393285930        1439510613.9675782     
   627081458.67592454       -95579249.167448491        1470278295.7729247     
   612471238.76724267       -78809703.443407089        1466670021.7906077     
   597214561.56289434       -64195015.371587694        1466903051.9575603     
   581311427.06288433       -51735184.951972902        1470977386.2737875     
   564761835.26720691       -41430212.184584111        1478893024.7392850     
   318639518.89897817       -46259988.576212570        1523965329.2686088     
   311426083.84083641       -37847713.906441629        1516190168.8915417     
   303889420.21208715       -30512867.805363029        1512192139.8781462     
   296029528.01272273       -24255450.273002684        1511971242.2284160     
   287846407.24274647       -19075461.309346184        1515527475.9423509     
   7.9412274375404266       0.66078868567385851        1573396002.4787412     
   6.9176135515795636      -0.96851281573416959        1561831055.8861580     
   6.0484428820762020       -2.0830035956171873        1553979067.8716388     
   5.3337136104301273       -2.6826902363929546        1549840038.4351828     
   4.7734262513395151       -2.7675694611497645        1549413967.5767891     
   1085799767.9815490       -95977590.935427129        1397380243.6272404     
   1039409545.7037352       -82132635.518645525        1400174141.8457277     
   992480801.84497452       -70082752.038354099        1406279848.6008661     
   945013536.40526664       -59827940.494552851        1415697363.8926647     
   897007749.38460958       -51368200.887248993        1428426687.7211132     
   830746288.84680486       -67064255.393285930        1439510613.9675782     
   792636128.94049108       -57675786.697369546        1438315971.1981995     
   754122077.85726631       -49633621.924488127        1441207218.6519837     
   715204135.59712958       -42937761.074647486        1448184356.3289280     
   675882302.16008139       -37588204.147847772        1459247384.2290330     
   564761835.26720691       -41430212.184584111        1478893024.7392850     
   537143399.69383812       -35834731.621113658        1473866909.7867498     
   509255703.34759796       -31136786.967213541        1473700766.7438886     
   481098746.22848397       -27336378.222894669        1478394595.6106977     
   452672528.33649993       -24433505.388142496        1487948396.3871725     
   287846407.24274647       -19075461.309346184        1515527475.9423509     
   272931357.96377593       -16609470.289878398        1506826957.6113815     
   257881678.31596968       -14592247.166530237        1503760492.8765814     
   242697368.29932940       -13023791.939294517        1506328081.7379618     
   227378427.91385972       -11904104.608158201        1514529724.1955147     
   4.7734262513395151       -2.7675694611497645        1549413967.5767891     
   3.7503030900556618       -2.7036730455187001        1537196114.6720843     
   2.7623859243997506       -2.5224219233490461        1531386397.0500619     
   1.8096671139633289       -2.2238429504477590        1531984814.7107248     
  0.89215713571367694       -1.8079025913693560        1538991367.6540716     
   897007749.38460958       -51368200.887248993        1428426687.7211132     
   845817882.41764069       -43035592.566266954        1426517455.7256396     
   795712532.21683228       -31087928.358088851        1429351078.3160431     
   746691698.78218079       -15525208.262719482        1436927555.4923236     
   698755382.11368847        3652567.7198497355        1449246887.2544739     
   675882302.16008139       -37588204.147847772        1459247384.2290330     
   636590734.00050402       -31608498.116800427        1457820651.6953382     
   598112553.40530229       -22917500.204503298        1461346579.5714395     
   560447760.37447476       -11515210.410961092        1469825167.8573413     
   523596354.90802717        2598371.2638538480        1483256416.5530381     
   452672528.33649993       -24433505.388142496        1487948396.3871725     
   425878704.19552720       -20626868.083677560        1486687845.9131680     
   399627138.41714716       -15012702.903904513        1490589761.6728849     
   373917831.00136340       -7591009.8488107622        1499654143.6663303     
   348750781.94817448        1638211.0816005021        1513880991.8934960     
   227378427.91385972       -11904104.608158201        1514529724.1955147     
   213681793.00270507       -10090702.466915816        1513119038.3791242     
   200256287.25236675       -7373536.4562870190        1517080624.6203809     
   187101910.66283739       -3752606.5762949288        1526414482.9192874     
   174218663.23412716        772087.17309547216        1541120613.2758441     
  0.89215713571367694       -1.8079025913693560        1538991367.6540716     
  0.42204015008037449       -1.2665069085057803        1537114229.0932117     
  -8.9044751425828406E-002 -0.86167302688671066        1540819168.4139297     
 -0.64109761455588066      -0.59339867040244365        1550106185.6162210     
  -1.2341183020569360      -0.46168234070940561        1564975280.7000923     
   698755382.11368847        3652567.7198497355        1449246887.2544739     
   646040937.52723181        20380028.670368820        1449993875.9683890     
   591571508.04933500        31257539.982753843        1455541681.7744505     
   535347093.68000048        36285101.657013476        1465890304.6726580     
   477367694.41922379        35462713.693132639        1481039744.6630118     
   523596354.90802717        2598371.2638538480        1483256416.5530381     
   482452516.32038176        14661565.484807879        1482509167.7796335     
   439992439.05791056        22337297.456350729        1486937937.3123007     
   396216123.12062752        25625567.178519458        1496542725.1510336     
   351123568.50852805        24526374.651297301        1511323531.2958415     
   348750781.94817448        1638211.0816005021        1513880991.8934960     
   320249552.82769024        9358739.6134927869        1512151376.2188251     
   290870831.24900758        14154293.284724802        1515972980.0641518     
   260614617.21212769        16024872.095300868        1525345803.4294693     
   229480910.71704924        14970476.045213737        1540269846.3147838     
   174218663.23412716        772087.17309547216        1541120613.2758441     
   159432047.04915753        4471551.0564228594        1538920501.2859683     
   144206684.62261295        6708527.4678343311        1542646810.0300090     
   128542575.95449278        7483016.4073283449        1552299539.5079696     
   112439721.04479502        6795017.8748942092        1567878689.7198453     
  -1.2341183020569360      -0.46168234070940561        1564975280.7000923     
  -1.0152104431840610      -0.18638433287596892        1562816542.9810612     
 -0.82126164843069427        5.7181823378890662E-003   1566959427.2098746     
 -0.65227027076267785       0.11462861337785524        1577403933.3865285     
 -0.50823393113067339       0.14035558429778155        1594150061.5110297     
   477367694.41922379        35462713.693132639        1481039744.6630118     
   420788434.69501066        29341842.511791810        1478345094.6886437     
   362193703.76656479        16502733.983002573        1481680466.4290128     
   301583501.63387173       -3054611.8932714015        1491045859.8841140     
   238957828.29694211       -29330195.117000774        1506441275.0539482     
   351123568.50852805        24526374.651297301        1511323531.2958415     
   310331134.87013924        20428324.599207997        1507990367.0101826     
   268027097.82946205        11291596.539492354        1510304088.5075235     
   224211457.38648394       -2883809.5278946012        1518264695.7878556     
   178884213.54120845       -22097893.602938086        1531872188.8511927     
   229480910.71704924        14970476.045213737        1540269846.3147838     
   203380629.07381251        12566844.895204261        1536886013.4867713     
   176272611.83021969        6804095.0773410648        1538765930.5100188     
   148156858.98627639       -2317773.4083568528        1545909597.3845191     
   119033370.54197605       -14798760.561911710        1558317014.1102808     
   112439721.04479502        6795017.8748942092        1567878689.7198453     
   99936917.306024119        5757403.3997470401        1565032034.1184118     
   86930245.768846542        3040229.5965734683        1567065992.4364984     
   73419706.433249280       -1356503.5346650817        1573980564.6741042     
   59405299.299237087       -7432795.9939506203        1585775750.8312232     
 -0.50823393113067339       0.14035558429778155        1594150061.5110297     
 -0.43321884541241540       0.11286676721438810        1592428428.9051032     
 -0.35468070788050671        9.7117986729545497E-002   1595204274.2869587     
 -0.27260073777045785        9.3177743451369893E-002   1602477597.6565924     
 -0.18699922562806898       0.10097458583554646        1614248399.0140092     
   238957828.29694211       -29330195.117000774        1506441275.0539482     
   198489794.89130872       -59034396.985537082        1485641301.2955270     
   153393775.13550335       -104165220.02131069        1467483487.5392025     
   103669769.02953029       -164722664.22430986        1451967833.7849753     
   49317776.573372900       -240706729.59458748        1439094340.0328436     
   178884213.54120845       -22097893.602938086        1531872188.8511927     
   147692877.60451984       -44628138.271569073        1506523818.7459004     
   113030551.90559474       -78728348.814317480        1484013681.1838758     
   74897236.444459960       -124398525.23110029        1464341776.1651196     
   33292931.221097760       -181638667.52197450        1447508103.6896355     
   119033370.54197605       -14798760.561911710        1558317014.1102808     
   97678939.334705949       -29986985.852545194        1529770077.0107317     
   74010514.953167021       -52888521.724074170        1504257444.9956219     
   48028097.397358745       -83503368.176500201        1481779118.0649486     
   19731686.667279847       -121831525.20982768        1462335096.2187209     
   59405299.299237087       -7432795.9939506203        1585775750.8312232     
   48447980.081883997       -15110939.728412088        1555380076.0900202     
   36333664.278220616       -26645738.750576049        1528214778.9744334     
   23062351.888223793       -42037193.060516804        1504279859.4844556     
   8634042.9119200818       -61285302.658148408        1483575317.6200871     
 -0.18699922562806898       0.10097458583554646        1614248399.0140092     
 -0.15394416510780765       0.10083248338852094        1583353815.9837697     
 -0.11925593296762688       0.10613636800939796        1555885683.1203098     
  -8.2933728565922418E-002  0.11688647989065877        1531844000.4236417     
  -4.4977208770578127E-002  0.13308292197193822        1511228767.8937507     
   49317776.573372900       -240706729.59458748        1439094340.0328436     
   40105945.857609257       -321867632.79520279        1346059153.4123344     
   23179978.622254193       -428742324.39445889        1252945616.6722445     
  -1460125.1326995194       -561330804.39237177        1159753729.8125491     
  -33814365.407252073       -719633072.78895020        1066483492.8332615     
   33292931.221097760       -181638667.52197450        1447508103.6896355     
   29334937.100721285       -241624081.24395990        1347116060.4455395     
   19591340.591795579       -320894836.26111084        1245957128.6685665     
   4062141.6943206787       -419450932.57342649        1144031308.3587241     
  -17252659.591710150       -537292370.18093121        1041338599.5160148     
   19731686.667279847       -121831525.20982768        1462335096.2187209     
   19060276.532934479       -161231625.23597342        1356836152.8372378     
   14531798.141081005       -213488619.45381215        1249881782.5096085     
   6146251.4917129874       -278602507.86336607        1141471985.2358236     
  -6096363.4151629210       -356573290.46461082        1031606761.0159112     
   8634042.9119200818       -61285302.658148408        1483575317.6200871     
   9281964.1542448066       -80690264.771251082        1375219430.5874376     
   8001351.2701007947       -106523673.97258689        1264719578.1953650     
   4792204.2594866455       -138785530.26215300        1152075760.4438639     
  -345476.87760722637       -177475833.63998777        1037287977.3329554     
  -4.4977208770578127E-002  0.13308292197193822        1511228767.8937507     
  -3.5343248474393331E-002  0.15021505102068516        1402265893.6961503     
  -2.1154460966837388E-002  0.18252924355127892        1290470515.7258389     
  -2.3874446375903857E-003  0.23010246409736679        1175842633.9828432     
   2.0956496611306358E-002  0.29293765215741030        1058382248.4671388     
   9.4782204063359217        17.304848213724568        1805967941.9388237     
   8.4784876921404368        11.092218078111827        1724593288.9903047     
   7.8890762512406036        6.2473262140406458        1658706414.7641199     
   7.7099905672294069        2.7701858320974977        1608307319.2602618     
   7.9412274375404266       0.66078868567385851        1573396002.4787412     
  -391805861.56496316        235623986.90439120        1678356317.2998428     
  -383840026.00779480        153863807.85904741        1625497290.4091020     
  -368990354.45813352        95049748.788677603        1582145783.5704274     
  -347256846.91597867        59181809.693287730        1548301796.7838185     
  -318639503.38133436        46259990.572862402        1523965330.0492740     
  -705068349.29976392        494810971.49644899        1514363766.5969894     
  -706223130.52930903        326164683.61531061        1498051507.2765572     
  -693610240.18419170        203410634.31637579        1485266509.3379230     
  -667229678.26441419        126548823.59964627        1476008772.7810888     
  -627081444.76997530        95579251.465117425        1470278297.6060548     
  -939787453.72618115        777560971.08102250        1313990289.8302629     
  -967149305.08605564        516902638.36100155        1342255939.5926654     
  -973859649.28909862        325082662.83042026        1368068592.0666063     
  -959918486.33531332        202101044.48926920        1391428247.2520785     
  -925325816.22469735        147957783.33754718        1412334905.1490853     
  -1095963174.8442168        1083873985.6581092        1077235886.9996624     
  -1166618549.6780357        726077672.09612584        1158110587.3574331     
  -1209738581.7728562        460065834.33080292        1230552031.7564750     
  -1225323271.1286769        285838472.36215109        1294560220.1967845     
  -1213372617.7455001        203395586.19015276        1350135152.6783640     
   7.9412274375404266       0.66078868567385851        1573396002.4787412     
   6.9176135515795636      -0.96851281573416959        1561831055.8861580     
   6.0484428820762020       -2.0830035956171873        1553979067.8716388     
   5.3337136104301273       -2.6826902363929546        1549840038.4351828     
   4.7734262513395151       -2.7675694611497645        1549413967.5767891     
  -318639503.38133436        46259990.572862402        1523965330.0492740     
  -311426070.13135272        37847713.313229531        1516190169.5687706     
  -303889408.07418233        30512865.410893887        1512192140.4815106     
  -296029517.20981795        24255446.865871027        1511971242.7874911     
  -287846397.53826302        19075457.678149730        1515527476.4867132     
  -627081444.76997530        95579251.465117425        1470278297.6060548     
  -612471226.34589303        78809703.845293820        1466670023.3325081     
  -597214550.46186793        64195014.425280333        1466903053.2673790     
  -581311417.11790419        51735183.205062658        1470977387.4106743     
  -564761826.31399584        41430210.184657484        1478893025.7623816     
  -925325816.22469735        147957783.33754718        1412334905.1490853     
  -903135461.72600400        122885970.62768984        1413270617.1773672     
  -879975421.11461520        101046444.96015143        1418111806.2292488     
  -855845694.39054334        82439206.334890008        1426858472.3047264     
  -830746281.55377734        67064254.751941502        1439510615.4037995     
  -1213372617.7455001        203395586.19015276        1350135152.6783640     
  -1183418776.2716858        170076513.66041619        1355991951.1033504     
  -1152172020.0324299        141067157.01548809        1365818399.3671138     
  -1119632349.0277357        116367516.25535452        1379614497.4696522     
  -1085799763.2575989        95977591.380026877        1397380245.4109647     
   4.7734262513395151       -2.7675694611497645        1549413967.5767891     
   3.7503030900556618       -2.7036730455187001        1537196114.6720843     
   2.7623859243997506       -2.5224219233490461        1531386397.0500619     
   1.8096671139633289       -2.2238429504477590        1531984814.7107248     
  0.89215713571367694       -1.8079025913693560        1538991367.6540716     
  -287846397.53826302        19075457.678149730        1515527476.4867132     
  -272931350.27903396        16609466.601384357        1506826957.9426820     
  -257881672.59536582        14592243.606082261        1503760493.0579305     
  -242697364.48724818        13023788.692279369        1506328081.8324599     
  -227378425.95468545        11904101.859958962        1514529724.2662628     
  -564761826.31399584        41430210.184657484        1478893025.7623816     
  -537143392.55357790        35834729.432869703        1473866910.3664773     
  -509255697.97947443        31136784.726698548        1473700767.0064430     
  -481098742.59168607        27336376.066144705        1478394595.6822851     
  -452672526.39021063        24433503.451214075        1487948396.3939955     
  -830746281.55377734        67064254.751941502        1439510615.4037995     
  -792636123.07332516        57675785.790795773        1438315971.9434657     
  -754122073.38994837        49633620.839398950        1441207218.8955986     
  -715204132.50364661        42937759.897753298        1448184356.2601986     
  -675882300.41441560        37588202.965869427        1459247384.0372653     
  -1085799763.2575989        95977591.380026877        1397380245.4109647     
  -1039409541.8382752        82132635.675166011        1400174142.6736526     
  -992480798.82678723        70082751.944184899        1406279848.7253973     
  -945013534.22313118        59827940.187100172        1415697363.5662084     
  -897007748.02730358        51368200.403916478        1428426687.1960781     
  0.89215713571367694       -1.8079025913693560        1538991367.6540716     
  0.42204015008037449       -1.2665069085057803        1537114229.0932117     
  -8.9044751425828406E-002 -0.86167302688671066        1540819168.4139297     
 -0.64109761455588066      -0.59339867040244365        1550106185.6162210     
  -1.2341183020569360      -0.46168234070940561        1564975280.7000923     
  -227378425.95468545        11904101.859958962        1514529724.2662628     
  -213681792.03780565        10090700.469640687        1513119038.3193350     
  -200256287.34094521        7373535.0125908181        1517080624.4650702     
  -187101911.86410147        3752605.4888199270        1526414482.7034681     
  -174218665.60727626       -772088.10168024153        1541120613.0345340     
  -452672526.39021063        24433503.451214075        1487948396.3939955     
  -425878703.19751233        20626866.595816702        1486687845.6854382     
  -399627138.40387797        15012701.743538707        1490589761.2806377     
  -373917832.00931025        7591008.8943738192        1499654143.1795866     
  -348750784.01380962       -1638211.9516841024        1513880991.3822904     
  -675882300.41441560        37588202.965869427        1459247384.0372653     
  -636590733.05707181        31608497.112046868        1457820651.1915252     
  -598112553.27784216        22917499.331176996        1461346578.8606315     
  -560447761.07672369        11515209.623267919        1469825167.0445778     
  -523596356.45372564       -2598372.0117060840        1483256415.7433684     
  -897007748.02730358        51368200.403916478        1428426687.1960781     
  -845817881.61648774        43035592.018316746        1426517454.8375998     
  -795712531.96283221        31087927.775518298        1429351077.2050517     
  -746691699.06634295        15525207.675496310        1436927554.2984347     
  -698755382.92701888       -3652568.2817412317        1449246886.1177499     
  -1.2341183020569360      -0.46168234070940561        1564975280.7000923     
  -1.0152104431840610      -0.18638433287596892        1562816542.9810612     
 -0.82126164843069427        5.7181823378890662E-003   1566959427.2098746     
 -0.65227027076267785       0.11462861337785524        1577403933.3865285     
 -0.50823393113067339       0.14035558429778155        1594150061.5110297     
  -174218665.60727626       -772088.10168024153        1541120613.0345340     
  -159432049.01822823       -4471551.5067055672        1538920501.0608099     
  -144206686.22951460       -6708527.5795115232        1542646809.8117330     
  -128542577.24112418       -7483016.3200614378        1552299539.2873039     
  -112439722.05306542       -6795017.7283844836        1567878689.4875271     
  -348750784.01380962       -1638211.9516841024        1513880991.3822904     
  -320249554.54946047       -9358740.0854878277        1512151375.7492692     
  -290870832.66081333       -14154293.471634150        1515972979.6177044     
  -260614618.34786415       -16024872.110107094        1525345802.9875946     
  -229480911.61062047       -14970476.000931613        1540269845.8589394     
  -523596356.45372564       -2598372.0117060840        1483256415.7433684     
  -482452517.60890788       -14661565.922732949        1482509167.0464463     
  -439992440.11516559       -22337297.670679912        1486937936.6277864     
  -396216123.97249162       -25625567.255517438        1496542724.4873905     
  -351123569.18090302       -24526374.677312016        1511323530.6252565     
  -698755382.92701888       -3652568.2817412317        1449246886.1177499     
  -646040938.19657052       -20380029.018445998        1449993874.9523313     
  -591571508.59257233       -31257540.176645309        1455541680.8419785     
  -535347094.11501378       -36285101.756312013        1465890303.7866995     
  -477367694.76390576       -35462713.757481813        1481039743.7864873     
 -0.50823393113067339       0.14035558429778155        1594150061.5110297     
 -0.43321884541241540       0.11286676721438810        1592428428.9051032     
 -0.35468070788050671        9.7117986729545497E-002   1595204274.2869587     
 -0.27260073777045785        9.3177743451369893E-002   1602477597.6565924     
 -0.18699922562806898       0.10097458583554646        1614248399.0140092     
  -112439722.05306542       -6795017.7283844836        1567878689.4875271     
  -99936918.165585667       -5757403.2869470082        1565032033.9281774     
  -86930246.473430380       -3040229.4965914264        1567065992.2824204     
  -73419706.976577267        1356503.6427555680        1573980564.5502586     
  -59405299.675062925        7432796.1309764050        1585775750.7316926     
  -229480911.61062047       -14970476.000931613        1540269845.8589394     
  -203380629.83692077       -12566844.868444614        1536886013.1141772     
  -176272612.45739207       -6804095.0498569533        1538765930.2088244     
  -148156859.47202167        2317773.4548665956        1545909597.1428828     
  -119033370.88082437        14798760.645682223        1558317013.9163480     
  -351123569.18090302       -24526374.677312016        1511323530.6252565     
  -310331135.44722742       -20428324.631636992        1507990366.4630990     
  -268027098.30657235       -11291596.562701792        1510304088.0661592     
  -224211457.75892681        2883809.5295359492        1518264695.4344409     
  -178884213.80429024        22097893.645080037        1531872188.5679538     
  -477367694.76390576       -35462713.757481813        1481039743.7864873     
  -420788434.99650407       -29341842.576520383        1478345093.9749403     
  -362193704.02096826       -16502734.035111308        1481680465.8544261     
  -301583501.83728153        3054611.8668020964        1491045859.4249537     
  -238957828.44546276        29330195.129152536        1506441274.6865139     
 -0.18699922562806898       0.10097458583554646        1614248399.0140092     
 -0.15394416510780765       0.10083248338852094        1583353815.9837697     
 -0.11925593296762688       0.10613636800939796        1555885683.1203098     
  -8.2933728565922418E-002  0.11688647989065877        1531844000.4236417     
  -4.4977208770578127E-002  0.13308292197193822        1511228767.8937507     
  -59405299.675062925        7432796.1309764050        1585775750.7316926     
  -48447980.391009241        15110939.877559360        1555380076.0062706     
  -36333664.518070668        26645738.920426369        1528214778.9040506     
  -23062352.056255460        42037193.259548292        1504279859.4250336     
  -8634043.0055462159        61285302.894983657        1483575317.5692232     
  -119033370.88082437        14798760.645682223        1558317013.9163480     
  -97678939.613144353        29986985.958778545        1529770076.8475289     
  -74010515.169332951        52888521.858982101        1504257444.8583341     
  -48028097.549388871        83503368.346293241        1481779117.9487662     
  -19731686.753308162        121831525.42072651        1462335096.1188142     
  -178884213.80429024        22097893.645080037        1531872188.5679538     
  -147692877.82035646        44628138.344474643        1506523818.5075331     
  -113030552.07304318        78728348.921803445        1484013680.9831583     
  -74897236.562341690        124398525.37709239        1464341775.9948258     
  -33292931.288260505        181638667.71031222        1447508103.5425370     
  -238957828.44546276        29330195.129152536        1506441274.6865139     
  -198489795.01264408        59034397.034648076        1485641300.9862897     
  -153393775.22920039        104165220.10889235        1467483487.2785249     
  -103669769.09512013        164722664.35192758        1451967833.5632217     
  -49317776.610405624        240706729.76374012        1439094339.8403847     
  -4.4977208770578127E-002  0.13308292197193822        1511228767.8937507     
  -3.5343248474393331E-002  0.15021505102068516        1402265893.6961503     
  -2.1154460966837388E-002  0.18252924355127892        1290470515.7258389     
  -2.3874446375903857E-003  0.23010246409736679        1175842633.9828432     
   2.0956496611306358E-002  0.29293765215741030        1058382248.4671388     
  -8634043.0055462159        61285302.894983657        1483575317.5692232     
  -9281964.2286365815        80690265.045249850        1375219430.5501287     
  -8001351.3173199520        106523674.31020431        1264719578.1709211     
  -4792204.2715988234        138785530.68983713        1152075760.4315863     
   345476.90853422135        177475834.18418464        1037287977.3321489     
  -19731686.753308162        121831525.42072651        1462335096.1188142     
  -19060276.601729870        161231625.48637798        1356836152.7630434     
  -14531798.185911849        213488619.76616481        1249881782.4597347     
  -6146251.5058593899        278602508.26006705        1141471985.2088876     
   6096363.4384384453        356573290.96811628        1031606761.0105207     
  -33292931.288260505        181638667.71031222        1447508103.5425370     
  -29334937.154636711        241624081.47355869        1347116060.3348930     
  -19591340.626949772        320894836.55034482        1245957128.5922890     
  -4062141.7051713765        419450932.94076979        1144031308.3147316     
   17252659.610671729        537292370.64474654        1041338599.5022348     
  -49317776.610405624        240706729.76374012        1439094339.8403847     
  -40105945.887361556        321867633.00676739        1346059153.2656696     
  -23179978.640394509        428742324.66287607        1252945616.5685878     
   1460125.1304638982        561330804.73195183        1159753729.7491326     
   33814365.425240248        719633073.21409094        1066483492.8073027     
  -1095963174.8442168        1083873985.6581092        1077235886.9996624     
  -1166618549.6780357        726077672.09612584        1158110587.3574331     
  -1209738581.7728562        460065834.33080292        1230552031.7564750     
  -1225323271.1286769        285838472.36215109        1294560220.1967845     
  -1213372617.7455001        203395586.19015276        1350135152.6783640     
  -1507480861.0983388        550952497.01716971        1022468731.5948267     
  -1537292086.2847714        377615600.42885888        1099297558.3543048     
  -1554639327.3430991        245825317.60087907        1173410659.9611928     
  -1559522584.2733312        155581648.53322870        1244808036.4154975     
  -1551941857.0754659        106884593.22590476        1313489687.7172163     
  -2005391632.1348739       -7886917.0584918261        1042726345.1538376     
  -1978022905.3706379        8136344.0178534985        1097926046.6022990     
  -1953261553.0892069        15468356.818193913        1156127553.7043209     
  -1931107575.2905760        14109121.342535973        1217330866.4599035     
  -1911560971.9747462        4058637.5908674002        1281535984.8690431     
  -2589695487.9538102       -592644256.56887555        1138008727.6766882     
  -2488811006.9356456       -382360097.13689142        1153996052.1014173     
  -2405605259.0111775       -231005048.01724923        1178702712.9858558     
  -2340078244.1804132       -138579109.20993972        1212128710.3299978     
  -2292229962.4433498       -105082280.71497452        1254274044.1338451     
  -3260392428.5551596       -1203319521.5139816        1308315879.1633775     
  -3069656390.9797831       -793873723.03538179        1267507574.8516626     
  -2911670445.1090112       -493594896.90545219        1241136137.8058002     
  -2786434590.9428382       -302483043.12418675        1229201568.0257864     
  -2693948828.4812675       -220538161.69160056        1231703865.5116234     
  -1213372617.7455001        203395586.19015276        1350135152.6783640     
  -1183418776.2716858        170076513.66041619        1355991951.1033504     
  -1152172020.0324299        141067157.01548809        1365818399.3671138     
  -1119632349.0277357        116367516.25535452        1379614497.4696522     
  -1085799763.2575989        95977591.380026877        1397380245.4109647     
  -1551941857.0754659        106884593.22590476        1313489687.7172163     
  -1505753117.5864820        89458706.493420660        1313475887.0196037     
  -1459046759.0030661        73758216.742373347        1318313161.3109031     
  -1411822781.3252187        59783123.972769916        1328001510.5911136     
  -1364081184.5529399        47533428.184596896        1342540934.8602400     
  -1911560971.9747462        4058637.5908674002        1281535984.8690431     
  -1846618976.8987732        3281443.9271807671        1274747073.4326518     
  -1781934658.3993757        1645328.3415702581        1273690662.1353080     
  -1717508016.4765558       -849709.16596758366        1278366750.9770172     
  -1653339051.1303208       -4203668.5954500437        1288775339.9577739     
  -2292229962.4433498       -105082280.71497452        1254274044.1338451     
  -2206016354.2085609       -88455274.038306952        1239805510.3424978     
  -2120835718.2213602       -75271508.186933875        1231950901.8403335     
  -2036688054.4817529       -65530983.160871387        1230710218.6273575     
  -1953573362.9897332       -59233698.960102320        1236083460.7035713     
  -2693948828.4812675       -220538161.69160056        1231703865.5116234     
  -2583945249.5158477       -185751447.40304756        1208651197.7491379     
  -2475749938.4690270       -156992292.84315658        1193093880.4259760     
  -2369362895.3408022       -134260698.01191878        1185031913.5421393     
  -2264784120.1311827       -117556662.90936899        1184465297.0976260     
  -1085799763.2575989        95977591.380026877        1397380245.4109647     
  -1039409541.8382752        82132635.675166011        1400174142.6736526     
  -992480798.82678723        70082751.944184899        1406279848.7253973     
  -945013534.22313118        59827940.187100172        1415697363.5662084     
  -897007748.02730358        51368200.403916478        1428426687.1960781     
  -1364081184.5529399        47533428.184596896        1342540934.8602400     
  -1306982368.7073786        39147064.956008255        1342088531.1938157     
  -1249704798.2171669        31356550.542923331        1345302023.8793755     
  -1192248473.0823057        24161884.945336878        1352181412.9169176     
  -1134613393.3027976        17563068.163239777        1362726698.3064382     
  -1653339051.1303208       -4203668.5954500437        1288775339.9577739     
  -1584519962.1073129       -6827935.7223879099        1284656907.2568030     
  -1515881885.3871770       -10055577.192228138        1284558458.4707372     
  -1447424820.9699094       -13886593.004965365        1288479993.5995724     
  -1379148768.8555117       -18320983.160604775        1296421512.6433136     
  -1953573362.9897332       -59233698.960102320        1236083460.7035713     
  -1872022322.0380826       -55792366.360043406        1227879270.8626137     
  -1791012060.3368134       -54153631.261260450        1224049152.4994805     
  -1710542577.8859415       -54317493.663797677        1224593105.6141748     
  -1630613874.6854532       -56283953.567616642        1229511130.2066879     
  -2264784120.1311827       -117556662.90936899        1184465297.0976260     
  -2169489448.4996815       -107746226.95694268        1171755622.0112455     
  -2075095323.0660844       -100937611.66419566        1163774105.9656119     
  -1981601743.8303967       -97130817.031146646        1160520748.9607241     
  -1889008710.7926192       -96325843.057799220        1161995550.9965773     
  -897007748.02730358        51368200.403916478        1428426687.1960781     
  -845817881.61648774        43035592.018316746        1426517454.8375998     
  -795712531.96283221        31087927.775518298        1429351077.2050517     
  -746691699.06634295        15525207.675496310        1436927554.2984347     
  -698755382.92701888       -3652568.2817412317        1449246886.1177499     
  -1134613393.3027976        17563068.163239777        1362726698.3064382     
  -1070205005.0753176        12327660.597110748        1357381827.4043517     
  -1006416195.6584935        5026990.3288048506        1356747456.8308086     
  -943246965.05231476       -4338942.6416595578        1360823586.5858128     
  -880697313.25678658       -15770138.314286828        1369610216.6693664     
  -1379148768.8555117       -18320983.160604775        1296421512.6433136     
  -1301614299.9467587       -20486922.247886956        1288183430.8018777     
  -1224234471.9021399       -23168330.882288039        1284623494.8916068     
  -1147009284.7216597       -26365209.063814163        1285741704.9124997     
  -1069938738.4053131       -30077556.792460084        1291538060.8645513     
  -1630613874.6854532       -56283953.567616642        1229511130.2066879     
  -1540045766.2308059       -55408156.516665637        1218922265.0301795     
  -1449167360.6937833       -53498035.857794702        1212979191.3874459     
  -1357978658.0743802       -50553591.590994716        1211681909.2784910     
  -1266479658.3725996       -46574823.716264606        1215030418.7033141     
  -1889008710.7926192       -96325843.057799220        1161995550.9965773     
  -1785499403.9274592       -92436042.209226191        1149598330.0892513     
  -1681214862.0334127       -85962124.597686410        1141814546.3183241     
  -1576155085.1104701       -76904090.223166704        1138644199.6837840     
  -1470320073.1586406       -65261939.085688889        1140087290.1856413     
  -698755382.92701888       -3652568.2817412317        1449246886.1177499     
  -646040938.19657052       -20380029.018445998        1449993874.9523313     
  -591571508.59257233       -31257540.176645309        1455541680.8419785     
  -535347094.11501378       -36285101.756312013        1465890303.7866995     
  -477367694.76390576       -35462713.757481813        1481039743.7864873     
  -880697313.25678658       -15770138.314286828        1369610216.6693664     
  -813416888.58258867       -25386696.633129388        1369320617.6839561     
  -745256178.18113649       -32068969.194454610        1373793824.1191649     
  -676215182.05243969       -35816955.998297989        1383029835.9749849     
  -606293900.19648457       -36630657.044615686        1397028653.2514269     
  -1069938738.4053131       -30077556.792460084        1291538060.8645513     
  -988200938.45723712       -32615794.094410241        1289191391.7218027     
  -906457551.92820883       -35135409.459856302        1291569516.3652158     
  -824708578.81822610       -37636402.888792127        1298672434.7947898     
  -742954019.12729406       -40118774.381222159        1310500147.0105300     
  -1266479658.3725996       -46574823.716264606        1215030418.7033141     
  -1170393087.8205142       -42067321.402288914        1209606197.0658731     
  -1075175629.8337698       -40456860.972777843        1208868757.5801432     
  -980827284.41238332       -41743442.427794099        1212818100.2461164     
  -887348051.55634129       -45927065.767294943        1221454225.0638027     
  -1470320073.1586406       -65261939.085688889        1140087290.1856413     
  -1359993336.6724114       -53741278.556726754        1130565033.7161627     
  -1251410411.8978300       -48033323.733264267        1125691547.7639360     
  -1144571298.8348999       -48138074.615307689        1125466832.3289638     
  -1039475997.4836204       -54055531.202843964        1129890887.4112446     
  -477367694.76390576       -35462713.757481813        1481039743.7864873     
  -420788434.99650407       -29341842.576520383        1478345093.9749403     
  -362193704.02096826       -16502734.035111308        1481680465.8544261     
  -301583501.83728153        3054611.8668020964        1491045859.4249537     
  -238957828.44546276        29330195.129152536        1506441274.6865139     
  -606293900.19648457       -36630657.044615686        1397028653.2514269     
  -534614526.94169557       -32298183.066533029        1394049834.4215124     
  -460770111.32312214       -20748901.209174380        1397069172.8607526     
  -384760653.34075135       -1982811.4724854678        1406086668.5691507     
  -306586152.99459308        24000086.143489480        1421102321.5467060     
  -742954019.12729406       -40118774.381222159        1310500147.0105300     
  -656265573.59049404       -37602009.967627794        1307411658.8438418     
  -567262514.53425920       -27369867.155912429        1310289463.5244317     
  -475944841.95858592       -9422345.9460757971        1319133561.0522912     
  -382312555.86347264        16240553.661898330        1333943951.4274254     
  -887348051.55634129       -45927065.767294943        1221454225.0638027     
  -785741574.94290948       -45253323.279810935        1218430567.2419322     
  -681670913.65438581       -36365631.875357300        1221341337.8454502     
  -575136067.69078565       -19263991.553975672        1230186536.8743653     
  -466137037.05209380        6051597.6843696833        1244966164.3286672     
  -1039475997.4836204       -54055531.202843964        1129890887.4112446     
  -923042530.99892879       -55252123.003061980        1127106559.6157818     
  -803995308.68350160       -47736195.367497295        1130224795.8238246     
  -682334330.53735292       -31507748.296188742        1139245596.0353789     
  -558059596.56045401       -6566781.7890540063        1154168960.2504413     
  -238957828.44546276        29330195.129152536        1506441274.6865139     
  -198489795.01264408        59034397.034648076        1485641300.9862897     
  -153393775.22920039        104165220.10889235        1467483487.2785249     
  -103669769.09512013        164722664.35192758        1451967833.5632217     
  -49317776.610405624        240706729.76374012        1439094339.8403847     
  -306586152.99459308        24000086.143489480        1421102321.5467060     
  -257436289.34999549        54339359.331830904        1404552991.3868999     
  -201837995.59700036        106173399.54816282        1391893277.2553427     
  -139791271.73561281        179502206.79247332        1383123179.1520395     
  -71296117.765818119        274325781.06480134        1378242697.0769830     
  -382312555.86347264        16240553.661898330        1333943951.4274254     
  -320916701.90484649        48284146.163757205        1323769115.8587680     
  -251251974.08005416        107890651.55282301        1318731352.3541455     
  -173318372.38909033        195060069.82913002        1318830660.9135647     
  -87115896.831967503        309792400.99264145        1324067041.5370193     
  -466137037.05209380        6051597.6843696833        1244966164.3286672     
  -388931032.67717761        40868757.530449420        1243289674.4018877     
  -301635710.67833823        109316976.12293449        1247997712.5749302     
  -204251071.05556196        211396253.46187863        1259090278.8477964     
  -96777113.808856547        347106589.54725301        1276567373.2204924     
  -558059596.56045401       -6566781.7890540063        1154168960.2504413     
  -461479281.66701102        32093193.431877673        1163114667.0162637     
  -352989205.39186859        110452373.25846046        1179692357.9176955     
  -232589367.73502049        228510757.69073993        1203902032.9547429     
  -100279768.69647834        386268346.72865808        1235743692.1274085     
  -49317776.610405624        240706729.76374012        1439094339.8403847     
  -40105945.887361556        321867633.00676739        1346059153.2656696     
  -23179978.640394509        428742324.66287607        1252945616.5685878     
   1460125.1304638982        561330804.73195183        1159753729.7491326     
   33814365.425240248        719633073.21409094        1066483492.8073027     
  -71296117.765818119        274325781.06480134        1378242697.0769830     
  -57147080.762337461        376178239.94797462        1296665247.3633139     
  -34062263.075543493        507816634.44219714        1214189024.3784695     
  -2041664.7054543495        669240964.54740644        1130814028.1224496     
   38914714.347944885        860451230.26363480        1046540258.5952522     
  -87115896.831967503        309792400.99264145        1324067041.5370193     
  -70373719.687501818        431633195.67412537        1255372580.2036874     
  -43474117.700326830        587332073.16463447        1184958922.4503756     
  -6417090.8704595864        776889033.46412480        1112826068.2770894     
   40797360.802111089        1000304076.5726171        1038974017.6837982     
  -96777113.808856547        347106589.54725301        1276567373.2204924     
  -79785862.662846595        488232500.18523526        1222181151.7867992     
  -51415542.514748365        667288640.83018386        1165255310.7843146     
  -11666153.364555955        884275011.48211432        1105789850.2130284     
   39462304.787734807        1139191612.1410367        1043784770.0729667     
  -100279768.69647834        386268346.72865808        1235743692.1274085     
  -85383509.688388616        545976153.48125935        1197090962.1126363     
  -57886537.518807173        747686337.43883860        1155078189.3802688     
  -17788852.187735975        991398898.60138774        1109705373.9303019     
   34909546.304827273        1277113836.9688969        1060972515.7627472     
  -3260392428.5551596       -1203319521.5139816        1308315879.1633775     
  -3069656390.9797831       -793873723.03538179        1267507574.8516626     
  -2911670445.1090112       -493594896.90545219        1241136137.8058002     
  -2786434590.9428382       -302483043.12418675        1229201568.0257864     
  -2693948828.4812675       -220538161.69160056        1231703865.5116234     
  -3617093094.6479344       -768888372.06959796        1201736772.0654213     
  -3442403071.7629170       -514907185.58299446        1158171807.7046421     
  -3287559377.6210189       -327080428.24011433        1123703336.7758927     
  -3152562012.2222371       -205408100.04095435        1098331359.2791691     
  -3037410975.5665698       -149890200.98551357        1082055875.2144737     
  -3886380126.0863757       -308233132.22891128        1029687851.6047159     
  -3742994328.8454967       -214294021.02044261        998420617.31660807     
  -3606551097.3862557       -143496795.75074506        970909502.62670338     
  -3477050431.7086439       -95841456.419819236        947154507.53500211     
  -3354492331.8126631       -71328003.027663946        927155632.04150474     
  -4068253522.8704796        178646198.00807428        792169117.78126371     
  -3971430162.2275252        107965770.65227556        788254003.68755531     
  -3868645604.4047165        57156000.562655210        782754635.35822880     
  -3759899849.4020624        26216887.739211798        775671012.79328251     
  -3645192897.2195444        15148432.181949139        767003135.99271894     
  -4162713285.0002518        691749618.64136124        489180570.59506196     
  -4127710571.9090014        451872189.43515277        527671966.81749064     
  -4073842898.6764140        274877960.70008898        559238734.97047603     
  -4001110265.3024840        160766932.43614006        583880875.05401659     
  -3909512671.7872195        109539104.64332795        601598387.06811452     
  -2693948828.4812675       -220538161.69160056        1231703865.5116234     
  -2583945249.5158477       -185751447.40304756        1208651197.7491379     
  -2475749938.4690270       -156992292.84315658        1193093880.4259760     
  -2369362895.3408022       -134260698.01191878        1185031913.5421393     
  -2264784120.1311827       -117556662.90936899        1184465297.0976260     
  -3037410975.5665698       -149890200.98551357        1082055875.2144737     
  -2912649327.8278723       -123812688.35189962        1065512281.9244173     
  -2789353595.1351089       -102621559.20472264        1054835514.5563886     
  -2667523777.4882812       -86316813.544004440        1050025573.1103905     
  -2547159874.8873906       -74898451.369739056        1051082457.5864183     
  -3354492331.8126631       -71328003.027663946        927155632.04150474     
  -3219625542.4929609       -55355570.206659079        917520524.90865362     
  -3085882315.3465333       -43128344.629897952        912123719.18053317     
  -2953262650.3733764       -34646326.297375083        910965214.85714614     
  -2821766547.5734906       -29909515.209086895        914045011.93848991     
  -3645192897.2195444        15148432.181949139        767003135.99271894     
  -3504873893.5111160        19619907.032655716        764675926.70184577     
  -3365336099.1032972        21487350.881326437        764958494.29840815     
  -3226579513.9960852        20750763.727977037        767850838.78240800     
  -3088604138.1894827        17410145.572597742        773352960.15384078     
  -3909512671.7872195        109539104.64332795        601598387.06811452     
  -3768394380.8823347        101113743.36605120        606978487.30399680     
  -3627714946.4054008        91225527.328950882        613339839.91001534     
  -3487474368.3564091        79874456.532040596        620682444.88617563     
  -3347672646.7353582        67060530.975323915        629006302.23247397     
  -2264784120.1311827       -117556662.90936899        1184465297.0976260     
  -2169489448.4996815       -107746226.95694268        1171755622.0112455     
  -2075095323.0660844       -100937611.66419566        1163774105.9656119     
  -1981601743.8303967       -97130817.031146646        1160520748.9607241     
  -1889008710.7926192       -96325843.057799220        1161995550.9965773     
  -2547159874.8873906       -74898451.369739056        1051082457.5864183     
  -2441561803.0534029       -70711479.336692452        1040227753.9351128     
  -2336345051.9390678       -67795576.369138002        1033868306.1494492     
  -2231509621.5443783       -66150742.467076421        1032004114.2294216     
  -2127055511.8693440       -65776977.630529761        1034635178.1750362     
  -2821766547.5734906       -29909515.209086895        914045011.93848991     
  -2706530513.1801777       -31545638.388350964        905651042.78022933     
  -2591156574.0282593       -32722079.038926482        901519426.31249762     
  -2475644730.1177344       -33438837.160818577        901650162.53530014     
  -2359994981.4486084       -33695912.754033804        906043251.44863105     
  -3088604138.1894827        17410145.572597742        773352960.15384078     
  -2964395578.8800073        9751295.8880673647        768025488.54658949     
  -2839529889.3336701        4282880.3264161348        766727466.45475829     
  -2714007069.5504746        1004898.8876173496        769458893.87835431     
  -2587827119.5304217       -82648.428303480148        776219770.81737173     
  -3347672646.7353582        67060530.975323915        629006302.23247397     
  -3215157000.1528859        53179323.492579103        627351091.23419487     
  -3081464997.8552976        43219301.726882935        629492426.57622886     
  -2946596639.8425865        37180465.678258300        635430308.25858212     
  -2810551926.1147633        35062815.346675038        645164736.28125536     
  -1889008710.7926192       -96325843.057799220        1161995550.9965773     
  -1785499403.9274592       -92436042.209226191        1149598330.0892513     
  -1681214862.0334127       -85962124.597686410        1141814546.3183241     
  -1576155085.1104701       -76904090.223166704        1138644199.6837840     
  -1470320073.1586406       -65261939.085688889        1140087290.1856413     
  -2127055511.8693440       -65776977.630529761        1034635178.1750362     
  -2012286595.2738297       -62614527.391039729        1024383689.1522864     
  -1897337955.7651656       -58853000.774383068        1018347851.3878218     
  -1782209593.3433533       -54492397.780570388        1016527664.8816386     
  -1666901508.0084023       -49532718.409610033        1018923129.6337382     
  -2359994981.4486084       -33695912.754033804        906043251.44863105     
  -2235102986.2030563       -31601772.447703600        897242730.17542636     
  -2110626780.1601021       -30893596.150035262        892260074.28239179     
  -1986566363.3197458       -31571383.861023664        891095283.76952851     
  -1862921735.6819878       -33635135.580678463        893748358.63683426     
  -2587827119.5304217       -82648.428303480148        776219770.81737173     
  -2453948576.7151480        602222.62076640129        768175453.15867221     
  -2321081335.2182164       -2083910.7246406078        763551215.00202990     
  -2189225395.0396261       -8141048.4645216465        762347056.34744823     
  -2058380756.1793835       -17569190.598886490        764562977.19492376     
  -2810551926.1147633        35062815.346675038        645164736.28125536     
  -2668823366.8100905        33997457.814391136        637181858.10202181     
  -2528701620.9395113        27576055.501803160        632221273.54674077     
  -2390186688.5030165        15798608.408925056        630282982.61540568     
  -2253278569.5006123       -1334883.4642512798        631366985.30801535     
  -1470320073.1586406       -65261939.085688889        1140087290.1856413     
  -1359993336.6724114       -53741278.556726754        1130565033.7161627     
  -1251410411.8978300       -48033323.733264267        1125691547.7639360     
  -1144571298.8348999       -48138074.615307689        1125466832.3289638     
  -1039475997.4836204       -54055531.202843964        1129890887.4112446     
  -1666901508.0084023       -49532718.409610033        1018923129.6337382     
  -1547168020.0255120       -44241451.969129920        1007780130.9858687     
  -1428270980.4886644       -41738347.015457511        1000661876.9924420     
  -1310210389.3978395       -42023403.548529923        997568367.65345609     
  -1192986246.7530482       -45096621.568378270        998499602.96891296     
  -1862921735.6819878       -33635135.580678463        893748358.63683426     
  -1735564427.2390425       -35108142.539668739        882043208.28712523     
  -1608136203.9765151       -36344766.766728282        873738776.72904813     
  -1480637065.8944066       -37345008.261833489        868835063.96260512     
  -1353067012.9927099       -38108867.025002658        867332069.98779178     
  -2058380756.1793835       -17569190.598886490        764562977.19492376     
  -1925182558.3129902       -26341350.268335938        753354265.61993062     
  -1791006082.3613946       -31852582.987118006        744922246.97376037     
  -1655851328.3246026       -34102888.755249321        739266921.25640702     
  -1519718296.2026112       -33092267.572698832        736388288.46787667     
  -2253278569.5006123       -1334883.4642512798        631366985.30801535     
  -2116022413.2473631       -17941075.155120730        621713302.98428619     
  -1976880615.6433029       -28261795.676628113        614212287.72657061     
  -1835853176.6884136       -32297045.028704166        608863939.53486431     
  -1692940096.3827257       -30046823.211445749        605668258.40916526     
  -1039475997.4836204       -54055531.202843964        1129890887.4112446     
  -923042530.99892879       -55252123.003061980        1127106559.6157818     
  -803995308.68350160       -47736195.367497295        1130224795.8238246     
  -682334330.53735292       -31507748.296188742        1139245596.0353789     
  -558059596.56045401       -6566781.7890540063        1154168960.2504413     
  -1192986246.7530482       -45096621.568378270        998499602.96891296     
  -1062595832.3848743       -43092544.409938097        994958018.95225728     
  -930625619.90389109       -35822473.542143643        995511368.77507579     
  -797075609.31009340       -23286408.964952290        1000159652.4373736     
  -661945800.60348248       -5484350.6784047186        1008902869.9391570     
  -1353067012.9927099       -38108867.025002658        867332069.98779178     
  -1213884308.3525710       -34453518.191362858        861826945.74569750     
  -1074155763.3175361       -28978701.374740839        858609125.17904770     
  -933881377.88761795       -21684416.575177908        857678608.28785050     
  -793061152.06281102       -12570663.792642057        859035395.07209563     
  -1519718296.2026112       -33092267.572698832        736388288.46787667     
  -1376907958.9020076       -29335044.347287893        727713339.99610221     
  -1234585738.9244392       -27204878.865321815        719518065.03573704     
  -1092751636.2699215       -26701771.126843870        711802463.58679795     
  -951405650.93841648       -27825721.131764174        704566535.64927661     
  -1692940096.3827257       -30046823.211445749        605668258.40916526     
  -1551666784.0331929       -27737122.877750993        592617201.70346546     
  -1411915546.7246087       -30501006.013891041        578238188.34514606     
  -1273686384.4569871       -38338472.619900465        562531218.33422172     
  -1136979297.2303216       -51249522.695769548        545496291.67068672     
  -558059596.56045401       -6566781.7890540063        1154168960.2504413     
  -461479281.66701102        32093193.431877673        1163114667.0162637     
  -352989205.39186859        110452373.25846046        1179692357.9176955     
  -232589367.73502049        228510757.69073993        1203902032.9547429     
  -100279768.69647834        386268346.72865808        1235743692.1274085     
  -661945800.60348248       -5484350.6784047186        1008902869.9391570     
  -546854481.18585002        25131609.669407845        1022000532.8166863     
  -420930576.02525824        91856189.160419643        1043561756.9325454     
  -284174085.12168646        194689387.79470342        1073586542.2867393     
  -136585008.47513837        333631205.57221824        1112074888.8792477     
  -793061152.06281102       -12570663.792642057        859035395.07209563     
  -657082893.54181492        10714062.055773646        875028309.14949608     
  -511349224.91658032        66516821.584991544        900316361.56793582     
  -355860146.18708324        154837614.79506746        934899552.32741392     
  -190615657.35336035        275676441.68592304        978777881.42794251     
  -951405650.93841648       -27825721.131764174        704566535.64927661     
  -792164518.73488593       -11159449.409002453        722197996.01469362     
  -624245152.06581855        34434270.532199085        749956171.82386422     
  -447647550.93125129        108955438.69175023        787841063.07679510     
  -262371715.33114576        212404055.06974548        835852669.77347755     
  -1136979297.2303216       -51249522.695769548        545496291.67068672     
  -952099356.76505268       -40488924.724853933        563509593.41227710     
  -759618357.47299361       -4391463.9979877770        592481187.70033336     
  -559536299.35412836        57042859.484906912        632411074.53485990     
  -351853182.40848732        143814045.72372112        683299253.91585636     
  -100279768.69647834        386268346.72865808        1235743692.1274085     
  -85383509.688388616        545976153.48125935        1197090962.1126363     
  -57886537.518807173        747686337.43883860        1155078189.3802688     
  -17788852.187735975        991398898.60138774        1109705373.9303019     
   34909546.304827273        1277113836.9688969        1060972515.7627472     
  -136585008.47513837        333631205.57221824        1112074888.8792477     
  -127429200.07872018        482571095.58061981        1090462784.1801636     
  -95131437.179596573        708650833.93138671        1070279894.8229662     
  -39691719.777782202        1011870420.6244513        1051526220.8076718     
   38889952.126736104        1392229855.6598473        1034201762.1342766     
  -190615657.35336035        275676441.68592304        978777881.42794251     
  -173516705.11290431        417953493.28684461        986504516.94260323     
  -122734557.02854377        672507864.36744928        1000449625.8586643     
  -38269213.100271940        1039339554.9277623        1020613208.1761032     
   79879326.671904922        1518448564.9677489        1046995263.8949590     
  -262371715.33114576        212404055.06974548        835852669.77347755     
  -223646024.79095146        352123346.59988707        885216160.39997232     
  -140695897.06564549        639257428.74708450        945587382.48735642     
  -13521332.155223072        1073806301.5113311        1016966336.0356357     
   157877669.94032055        1655769964.8926315        1099353021.0448015     
  -351853182.40848732        143814045.72372112        683299253.91585636     
  -277817159.11285573        285080655.51978576        786597714.55226004     
  -149015457.29089612        608899527.07027686        905693164.70905077     
   34551923.057396293        1115270660.3752081        1040585604.3862330     
   272884981.93200064        1804194055.4345067        1191275033.5837984     
  -4162713285.0002518        691749618.64136124        489180570.59506196     
  -4127710571.9090014        451872189.43515277        527671966.81749064     
  -4073842898.6764140        274877960.70008898        559238734.97047603     
  -4001110265.3024840        160766932.43614006        583880875.05401659     
  -3909512671.7872195        109539104.64332795        601598387.06811452     
  -4547550571.2526112        378080412.14693952        483275216.70805287     
  -4481294114.2489595        250315335.47537160        481059282.91641992     
  -4405699485.2977133        153677498.62910223        483937237.31116182     
  -4320766684.3988838        88166901.608132601        491909079.89228350     
  -4226495711.5524549        53783544.412469149        504974810.65978450     
  -5112869043.7731180        10266849.772069216        522441090.30364734     
  -4981020224.9832926        4915710.9972593784        468403240.27190948     
  -4849360022.4396133       -1064148.5980577469        431477794.68237185     
  -4717888436.1420946       -7672729.0139176846        411664753.53503239     
  -4586605466.0907364       -14910030.250294447        408964116.82989216     
  -5858668702.5617657       -411691068.48323584        606678191.38184154     
  -5626888904.1119690       -284326683.99913645        489703838.88396448     
  -5404824510.1020985       -189346980.98139668        401860407.08410633     
  -5192475520.5321159       -126751959.42999792        343147895.98226464     
  -4989841935.4020500       -96541619.344968796        313566305.57844561     
  -6784949547.6185379       -887793342.61898518        735986519.94263721     
  -6418900151.6350288       -617411849.51386690        544961078.75257897     
  -6072092948.2851667       -411170998.52090931        395085074.51635730     
  -5744527937.5689631       -269070789.64015222        286358507.23398238     
  -5436205119.4864092       -191111222.87156367        218781376.90544140     
  -3909512671.7872195        109539104.64332795        601598387.06811452     
  -3768394380.8823347        101113743.36605120        606978487.30399680     
  -3627714946.4054008        91225527.328950882        613339839.91001534     
  -3487474368.3564091        79874456.532040596        620682444.88617563     
  -3347672646.7353582        67060530.975323915        629006302.23247397     
  -4226495711.5524549        53783544.412469149        504974810.65978450     
  -4077878040.4365859        49421449.821348667        496267446.92904037     
  -3929554198.5493960        44079924.467976093        491409907.90903378     
  -3781524185.8908687        37758968.352386236        490402193.59976453     
  -3633788002.4610105        30458581.474565029        493244304.00123119     
  -4586605466.0907364       -14910030.250294447        408964116.82989216     
  -4422292493.7907515       -12750081.863334417        386338487.53168297     
  -4258128323.5201659       -11086140.241034746        370431255.28480226     
  -4094112955.2789679       -9918205.3833529949        361242420.08926094     
  -3930246389.0671635       -9246277.2903294563        358771981.94504708     
  -4989841935.4020500       -96541619.344968796        313566305.57844561     
  -4801637740.9448166       -85400851.687980652        277191609.11192071     
  -4613437321.3176985       -74272666.798052549        250403882.03732592     
  -4425240676.5207024       -63157064.675196409        233203124.35465807     
  -4237047806.5538249       -52054045.319387197        225589336.06392536     
  -5436205119.4864092       -191111222.87156367        218781376.90544140     
  -5215913781.8987904       -168530859.65260649        168826811.66975802     
  -4995481191.9420176       -145479655.20313787        131327788.16660003     
  -4774907349.6160870       -121957609.52313256        106284306.39596952     
  -4554192254.9209909       -97964722.612596273        93696366.357871771     
  -3347672646.7353582        67060530.975323915        629006302.23247397     
  -3215157000.1528859        53179323.492579103        627351091.23419487     
  -3081464997.8552976        43219301.726882935        629492426.57622886     
  -2946596639.8425865        37180465.678258300        635430308.25858212     
  -2810551926.1147633        35062815.346675038        645164736.28125536     
  -3633788002.4610105        30458581.474565029        493244304.00123119     
  -3488996653.5748234        22764811.584860563        489226070.03717911     
  -3343588354.1295133        17127543.558921099        489426267.44496292     
  -3197563104.1250668        13546777.396757007        493844896.22458500     
  -3050920903.5614872        12022513.098369479        502481956.37603682     
  -3930246389.0671635       -9246277.2903294563        358771981.94504708     
  -3771973952.0729342       -10390993.845717192        351738085.66657901     
  -3613643969.6755576       -11343892.390601873        349344505.79145974     
  -3455256441.8750324       -12104972.924996138        351591242.31970167     
  -3296811368.6713538       -12674235.448882222        358478295.25129509     
  -4237047806.5538249       -52054045.319387197        225589336.06392536     
  -4064088895.6472154       -46288092.799155712        214887138.12238854     
  -3891631844.4934287       -42195006.121666908        209247141.61572868     
  -3719676653.0924859       -39774785.286989450        208669346.54393348     
  -3548223321.4443707       -39027430.295077562        213153752.90701947     
  -4554192254.9209909       -97964722.612596273        93696366.357871771     
  -4365341484.2976456       -84926485.275409222        78673227.404614836     
  -4177551978.5831280       -75425797.634288311        69134174.917755678     
  -3990823737.7774210       -69462659.689214468        65079208.897290111     
  -3805156761.8805351       -67037071.440216780        66508329.343212694     
  -2810551926.1147633        35062815.346675038        645164736.28125536     
  -2668823366.8100905        33997457.814391136        637181858.10202181     
  -2528701620.9395113        27576055.501803160        632221273.54674077     
  -2390186688.5030165        15798608.408925056        630282982.61540568     
  -2253278569.5006123       -1334883.4642512798        631366985.30801535     
  -3050920903.5614872        12022513.098369479        502481956.37603682     
  -2900762511.7405763        11357402.566553354        491367858.53784233     
  -2751350105.8264599        8205672.3454117775        483623588.93424314     
  -2602683685.8191481        2567322.4349288940        479249147.56522995     
  -2454763251.7186365       -5557647.1648936272        478244534.43081146     
  -3296811368.6713538       -12674235.448882222        358478295.25129509     
  -3137230188.3037829       -12641212.171089292        345237276.53597003     
  -2977534166.3157296       -12225383.491682887        335713620.66588247     
  -2817723302.7071848       -11426749.410635233        329907327.64103204     
  -2657797597.4781561       -10245309.927984595        327818397.46141851     
  -3548223321.4443707       -39027430.295077562        213153752.90701947     
  -3378226396.4997339       -37998386.398557544        198790112.09640127     
  -3207253802.4073172       -33717112.009462833        188491368.74166420     
  -3035305539.1671309       -26183607.127784014        182257522.84280595     
  -2862381606.7791648       -15397871.753522515        180088574.39983088     
  -3805156761.8805351       -67037071.440216780        66508329.343212694     
  -3623751136.3284092       -64714120.115856409        52026365.219134741     
  -3440509014.1012268       -56269513.207942843        41956833.161582507     
  -3255430395.1989732       -41703250.716479063        36299733.170555517     
  -3068515279.6216755       -21015332.641524196        35055065.246059060     
  -2253278569.5006123       -1334883.4642512798        631366985.30801535     
  -2116022413.2473631       -17941075.155120730        621713302.98428619     
  -1976880615.6433029       -28261795.676628113        614212287.72657061     
  -1835853176.6884136       -32297045.028704166        608863939.53486431     
  -1692940096.3827257       -30046823.211445749        605668258.40916526     
  -2454763251.7186365       -5557647.1648936272        478244534.43081146     
  -2309434195.1261101       -14211007.581258178        469714023.85289413     
  -2163194962.0097289       -19830446.251429796        463405500.79122436     
  -2016045552.3695009       -22415963.175444484        459318965.24578702     
  -1867985966.2054169       -21967558.353284001        457454417.21659535     
  -2657797597.4781561       -10245309.927984595        327818397.46141851     
  -2504197582.1171255       -10886421.541061401        319273016.33119178     
  -2350662855.0591927       -11745160.831136942        313018943.16743875     
  -2197193416.3043871       -12821527.798315048        309056177.97015011     
  -2043789265.8526888       -14115522.442499757        307384720.73932749     
  -2862381606.7791648       -15397871.753522515        180088574.39983088     
  -2700312574.2203960       -7967317.0345287323        170390280.41917202     
  -2539284294.7917008       -4005939.4157738686        163052614.85520831     
  -2379296768.4930983       -3513738.8973309994        158075577.70794427     
  -2220349995.3245625       -6490715.4791109562        155459168.97737530     
  -3068515279.6216755       -21015332.641524196        35055065.246059060     
  -2897779171.4359455       -5453694.0617061853        23065816.116835542     
  -2729059281.2072473        3387217.9946811199        13506515.854541870     
  -2562355608.9356151        5507403.5275021791        6377164.4591645943     
  -2397668154.6210036        906862.53694081306        1677761.9307286949     
  -1692940096.3827257       -30046823.211445749        605668258.40916526     
  -1551666784.0331929       -27737122.877750993        592617201.70346546     
  -1411915546.7246087       -30501006.013891041        578238188.34514606     
  -1273686384.4569871       -38338472.619900465        562531218.33422172     
  -1136979297.2303216       -51249522.695769548        545496291.67068672     
  -1867985966.2054169       -21967558.353284001        457454417.21659535     
  -1730116720.5173607       -23619486.832798839        443563245.93656749     
  -1592526814.7545962       -26202548.396587074        429295740.52644426     
  -1455216248.9171209       -29716743.044682920        414651900.98622471     
  -1318185023.0049198       -34162070.777036846        399631727.31590778     
  -2043789265.8526888       -14115522.442499757        307384720.73932749     
  -1906605165.3332250       -18913403.287358880        294103292.51992774     
  -1768457669.6233697       -20499966.830924630        281397152.69294441     
  -1629346778.7231336       -18875213.073208690        269266301.25837564     
  -1489272492.6325114       -14039142.014218926        257710738.21623182     
  -2220349995.3245625       -6490715.4791109562        155459168.97737530     
  -2081132118.4807646       -13618872.241400003        144237341.45354208     
  -1939708111.3309355       -13393261.316913724        134542424.84464681     
  -1796077973.8750346       -5813882.7055077553        126374419.15068072     
  -1650241706.1130776        9119263.5927218199        119733324.37166192     
  -2397668154.6210036        906862.53694081306        1677761.9307286949     
  -2253697579.9599996       -7735893.6949762106       -6034607.2625860041     
  -2106278139.8772676       -4882431.8544793129       -11268443.018440057     
  -1955409834.3728199        9467248.0584094524       -14023745.336848836     
  -1801092663.4466360        35313146.043751478       -14300514.217812344     
  -1136979297.2303216       -51249522.695769548        545496291.67068672     
  -952099356.76505268       -40488924.724853933        563509593.41227710     
  -759618357.47299361       -4391463.9979877770        592481187.70033336     
  -559536299.35412836        57042859.484906912        632411074.53485990     
  -351853182.40848732        143814045.72372112        683299253.91585636     
  -1318185023.0049198       -34162070.777036846        399631727.31590778     
  -1118410879.2260559       -14645560.926412284        421519791.57787216     
  -914969068.78146482        17096504.476639032        441886047.71619922     
  -707859591.67114258        61064125.432116628        460730495.73088902     
  -497082447.89508879        117257301.94005230        478053135.62194407     
  -1489272492.6325114       -14039142.014218926        257710738.21623182     
  -1310261576.0260658        3536050.5703239441        278884607.47733188     
  -1131516384.9149487        20225491.503768682        286056567.94468051     
  -953036919.29917824        36029180.786059856        279226619.61829185     
  -774823179.17872453        50947118.417283177        258394762.49816081     
  -1650241706.1130776        9119263.5927218199        119733324.37166192     
  -1527651447.1650710        14055909.765369952        135604041.11064497     
  -1409260305.8734505        4995497.0833863020        124992748.38578416     
  -1295068282.2382512       -18061974.453314722        87899446.197069645     
  -1185075376.2594280       -55116504.844631255        24324134.544514291     
  -1801092663.4466360        35313146.043751478       -14300514.217812344     
  -1770580492.6430840        16914016.658713579       -8321907.5221779421     
  -1748200831.6569664       -28593478.784470201       -41305410.960500702     
  -1733953680.4883478       -101209340.28597379       -113251024.53277870     
  -1727839039.1371703       -200933567.84560406       -224158748.23901513     
  -351853182.40848732        143814045.72372112        683299253.91585636     
  -277817159.11285573        285080655.51978576        786597714.55226004     
  -149015457.29089612        608899527.07027686        905693164.70905077     
   34551923.057396293        1115270660.3752081        1040585604.3862330     
   272884981.93200064        1804194055.4345067        1191275033.5837984     
  -497082447.89508879        117257301.94005230        478053135.62194407     
  -388280852.16603231        222930767.67449015        597258332.40684187     
  -230351569.05395725        492363191.35234278        735623090.17282414     
  -23294598.558860242        925554572.97360754        893147408.91989267     
   232890059.31926656        1522504912.5382745        1069831288.6480240     
  -774823179.17872453        50947118.417283177        258394762.49816081     
  -621648663.98571241        123909644.19923016        386929039.09771454     
  -424984452.55296844        341837824.11361611        537985448.13903332     
  -184830544.88051215        704731658.16040134        711563989.62212348     
   98813059.031683028        1212591146.3396006        907664663.54699373     
  -1185075376.2594280       -55116504.844631255        24324134.544514291     
  -977920594.57188010       -11982714.905922830        155609834.62486097     
  -732914107.78793788        157323425.35410577        312780238.60766619     
  -450055915.90756416        452801915.93558192        495835346.49295098     
  -129346018.93076003        874452756.83846891        704775158.28068519     
  -1727839039.1371703       -200933567.84560406       -224158748.23901513     
  -1457096643.9245915       -184746309.64114559       -96699281.011712283     
  -1154140534.7588711       -61180004.926203728        60007461.578740567     
  -818970711.64002967        169765346.29914272        245961479.53234342     
  -451587174.56807232        508089744.03486311        461162772.84910393     
 </DataArray>
 <DataArray  type="Float64" Name="VM" NumberOfComponents="1" format="ascii">
   6513456282.2194424     
   6205748887.8565187     
   5917007904.0354996     
   5636694005.8892145     
   5356633810.2061644     
   5760703275.8991041     
   5555382555.3868332     
   5358084404.1563959     
   5164587412.9746065     
   4972030465.9300976     
   5197389968.8440084     
   5049086725.3868484     
   4906083227.9538317     
   4767676031.0532751     
   4633631465.3470516     
   4821116645.8438673     
   4686218680.6228857     
   4562175730.5677547     
   4447883811.1710806     
   4342634368.4143972     
   4626461691.4870815     
   4465724335.1681890     
   4327794749.5504122     
   4207223098.4992828     
   4100035912.2970114     
   5356633810.2061644     
   5142044765.1147795     
   4929604124.6049957     
   4718703920.3298855     
   4508930146.7622147     
   4972030465.9300976     
   4783665954.5259800     
   4597257269.8420906     
   4412528727.0917997     
   4229349822.7569766     
   4633631465.3470516     
   4466343154.0879574     
   4300724528.0192499     
   4136754919.8485098     
   3974510539.0967355     
   4342634368.4143972     
   4191886276.7177382     
   4042400866.1039348     
   3894306134.6540380     
   3747785053.2928843     
   4100035912.2970114     
   3961985016.1920257     
   3824674531.0883899     
   3688245865.4710579     
   3552865422.5643725     
   4508930146.7622147     
   4325650717.4241238     
   4142085586.9337244     
   3958155106.4227567     
   3773843590.9071436     
   4229349822.7569766     
   4058247364.4514570     
   3887637393.4830208     
   3717560461.0539293     
   3548131536.3039055     
   3974510539.0967355     
   3815738453.5408006     
   3658371683.9693756     
   3502565776.6531539     
   3348561083.3224502     
   3747785053.2928843     
   3601536985.4183774     
   3457709947.9893866     
   3316558204.6358151     
   3178428381.3619533     
   3552865422.5643725     
   3419320193.8208523     
   3289263644.2359200     
   3163018334.8950276     
   3041001477.9689932     
   3773843590.9071436     
   3592961531.2296562     
   3413495844.5972939     
   3235391349.9053721     
   3058664472.3764634     
   3548131536.3039055     
   3376987241.2623334     
   3207189024.5181055     
   3038740438.5598993     
   2871704484.3693304     
   3348561083.3224502     
   3187519566.1931520     
   3027799295.1394243     
   2869497219.0207829     
   2712776764.4008560     
   3178428381.3619533     
   3028502001.9329057     
   2879973391.4303341     
   2733073383.3120399     
   2588127566.7376976     
   3041001477.9689932     
   2903878328.9621291     
   2768381323.2544065     
   2634914331.6901202     
   2504022970.8335619     
   3058664472.3764634     
   2895331820.7512050     
   2730854668.6756568     
   2565137525.1408200     
   2398123474.3526878     
   2871704484.3693304     
   2712440923.7807531     
   2552952607.8445225     
   2393254874.0331974     
   2233402612.2452703     
   2712776764.4008560     
   2559231928.8625174     
   2406675604.7574568     
   2255260314.2505522     
   2105203257.7500525     
   2588127566.7376976     
   2441876871.9483633     
   2298073658.9657297     
   2157005395.6026831     
   2019062327.9271603     
   2504022970.8335619     
   2366324430.7383256     
   2232656647.3908076     
   2103390891.8466220     
   1979036034.9876111     
   2398123474.3526878     
   2249863886.5217099     
   2103931703.5109353     
   1960311096.4211652     
   1819174967.6957991     
   2233402612.2452703     
   2089346052.3077774     
   1947042092.6009915     
   1806488080.1916056     
   1667764385.5150454     
   2105203257.7500525     
   1964416152.5031087     
   1824599278.3585029     
   1685789415.7451103     
   1548052331.3513970     
   2019062327.9271603     
   1882350216.3544340     
   1745847778.8281538     
   1609689947.0517807     
   1474063575.4341483     
   1979036034.9876111     
   1849049979.8473167     
   1718851123.7256825     
   1588785627.1051168     
   1459375689.2795360     
   1819174967.6957991     
   1779156191.9456780     
   1735556107.5378325     
   1697004352.4535267     
   1682070930.2156799     
   1667764385.5150454     
   1552596023.2553012     
   1428267860.7003622     
   1295112172.0902262     
   1159266688.2093873     
   1548052331.3513970     
   1398127649.8750944     
   1244632056.1080790     
   1085272834.9269724     
   918000618.75976467     
   1474063575.4341483     
   1329554224.8098128     
   1199538785.3900495     
   1088502009.6494849     
   1002362800.1276346     
   1459375689.2795360     
   1349893419.7770183     
   1275462806.5133295     
   1244220081.1636362     
   1263241141.9712713     
   1682070930.2156799     
   1384240171.9888310     
   1129590956.8109555     
   1009978858.2093608     
   1153059532.4197547     
   1159266688.2093873     
   1008661188.3954594     
   985247552.89896584     
   1161431942.0511382     
   1544224423.6353443     
   918000618.75976467     
   963312602.46621454     
   1145000292.8884411     
   1476494128.2327828     
   1957520598.2647431     
   1002362800.1276346     
   1164977443.0255530     
   1425596009.9877267     
   1808836977.2630606     
   2334801851.8797107     
   1263241141.9712713     
   1447018156.6446168     
   1715966202.4552059     
   2110673573.8757532     
   2663579087.9406190     
   4626461691.4870815     
   4465724335.1681890     
   4327794749.5504122     
   4207223098.4992828     
   4100035912.2970114     
   4380864640.6807289     
   4251673293.1250119     
   4126610760.0806394     
   4005134652.7315426     
   3886870341.8745942     
   4145095684.5044188     
   4030429049.5260658     
   3916410264.2109685     
   3802252572.7678480     
   3687450320.4416208     
   3902041096.3828287     
   3790360931.7297606     
   3691593076.2476583     
   3598926673.8754630     
   3507932301.5002103     
   3645533437.1550994     
   3526447587.4631181     
   3450439348.5649972     
   3397892569.7914448     
   3356063468.4554100     
   4100035912.2970114     
   3961985016.1920257     
   3824674531.0883899     
   3688245865.4710579     
   3552865422.5643725     
   3886870341.8745942     
   3755992412.3880506     
   3626809252.4687252     
   3499569204.3605289     
   3374577904.4876399     
   3687450320.4416208     
   3566000607.1317539     
   3447803603.7280607     
   3333198727.1109762     
   3222622869.0982652     
   3507932301.5002103     
   3397673018.1198215     
   3292842338.9580369     
   3193828830.3877335     
   3101157497.6996541     
   3356063468.4554100     
   3257885536.0602560     
   3167921975.3292370     
   3086534627.6813116     
   3014249541.2580409     
   3552865422.5643725     
   3419320193.8208523     
   3289263644.2359200     
   3163018334.8950276     
   3041001477.9689932     
   3374577904.4876399     
   3253649081.3318939     
   3136673826.2837629     
   3024031023.4756165     
   2916193874.2230778     
   3222622869.0982652     
   3114728672.7823782     
   3011409452.8410068     
   2913086221.0757732     
   2820271733.8610492     
   3101157497.6996541     
   3006625851.1057591     
   2917423791.8577981     
   2833988806.3861918     
   2756844270.0988822     
   3014249541.2580409     
   2933184805.0284224     
   2858297452.8173599     
   2790005464.2021394     
   2728804354.2522087     
   3041001477.9689932     
   2903878328.9621291     
   2768381323.2544065     
   2634914331.6901202     
   2504022970.8335619     
   2916193874.2230778     
   2791705997.2663784     
   2670508818.7024984     
   2553129573.6265345     
   2440234737.0159550     
   2820271733.8610492     
   2709462005.8210926     
   2603628062.6043825     
   2503373011.9197612     
   2409420569.9432693     
   2756844270.0988822     
   2659944618.6689405     
   2569589073.2273154     
   2486384738.8062277     
   2411029034.6585560     
   2728804354.2522087     
   2645040077.6363797     
   2569158126.8857327     
   2501699056.5257993     
   2443264496.1149158     
   2504022970.8335619     
   2366324430.7383256     
   2232656647.3908076     
   2103390891.8466220     
   1979036034.9876111     
   2440234737.0159550     
   2314937967.5109167     
   2194629050.5157137     
   2079924051.4771228     
   1971585912.2270052     
   2409420569.9432693     
   2299235674.9958467     
   2195275384.1198964     
   2098334929.4329925     
   2009346545.0859637     
   2411029034.6585560     
   2318210433.3927245     
   2232948498.2931547     
   2156104283.3267698     
   2088648993.1097476     
   2443264496.1149158     
   2369369982.8565106     
   2304293863.1055045     
   2248841935.8056912     
   2203906345.6848521     
   1979036034.9876111     
   1849049979.8473167     
   1718851123.7256825     
   1588785627.1051168     
   1459375689.2795360     
   1971585912.2270052     
   1856083115.8657446     
   1744842123.3638890     
   1638788870.2729185     
   1539063171.2469823     
   2009346545.0859637     
   1913404460.4730554     
   1826239749.0904043     
   1749054531.9434531     
   1683139963.9748034     
   2088648993.1097476     
   2013703377.8513641     
   1951189032.6148815     
   1902174741.7698710     
   1867679571.7037206     
   2203906345.6848521     
   2148294171.2676139     
   2107731433.1732948     
   2082958387.8447244     
   2074638992.4331408     
   1459375689.2795360     
   1349893419.7770183     
   1275462806.5133295     
   1244220081.1636362     
   1263241141.9712713     
   1539063171.2469823     
   1477673466.9734764     
   1449022406.5542378     
   1457090894.6099586     
   1505201738.2865641     
   1683139963.9748034     
   1654066616.9421628     
   1652762685.9249849     
   1681613268.9495502     
   1743243671.8874829     
   1867679571.7037206     
   1856577502.6337209     
   1868515081.7293575     
   1905714758.1307251     
   1971209259.1142344     
   2074638992.4331408     
   2070582196.4031920     
   2085859961.9690723     
   2123111977.5653837     
   2186133936.2684298     
   1263241141.9712713     
   1447018156.6446168     
   1715966202.4552059     
   2110673573.8757532     
   2663579087.9406190     
   1505201738.2865641     
   1613562002.0633919     
   1789075958.9752138     
   2066500345.3163154     
   2476049600.8417277     
   1743243671.8874829     
   1787984499.0436025     
   1884825964.3391025     
   2060684331.0354738     
   2340805705.3099046     
   1971209259.1142344     
   1969247055.0142257     
   2003783453.1708775     
   2093499996.9306147     
   2257076095.5546145     
   2186133936.2684298     
   2156635801.3524470     
   2146691304.0501299     
   2166832277.4943085     
   2228147885.9721460     
   3645533437.1550994     
   3526447587.4631181     
   3450439348.5649972     
   3397892569.7914448     
   3356063468.4554100     
   3067274580.0205393     
   3063311621.5195117     
   3074510246.4136128     
   3094939802.8276782     
   3121553749.2781763     
   2695862782.8716497     
   2746827168.6982126     
   2802780129.5564103     
   2863966663.8163524     
   2930672884.6620641     
   2557914087.6048169     
   2590700936.2644558     
   2643895034.3004365     
   2710643937.8513727     
   2785963382.5624900     
   2654263653.0691094     
   2599789164.5360503     
   2602779724.7751093     
   2638375211.4991698     
   2688685975.9359584     
   3356063468.4554100     
   3257885536.0602560     
   3167921975.3292370     
   3086534627.6813116     
   3014249541.2580409     
   3121553749.2781763     
   3048040644.4983897     
   2982797423.9961371     
   2926238073.4890757     
   2878879482.8683763     
   2930672884.6620641     
   2879411790.7289286     
   2836386677.1533012     
   2801970691.1228976     
   2776584810.8868752     
   2785963382.5624900     
   2754206733.7461171     
   2730517013.8138041     
   2715139920.3247910     
   2708332482.3454342     
   2688685975.9359584     
   2673353747.1610670     
   2665766986.4144735     
   2665973613.5778556     
   2674023170.4154782     
   3014249541.2580409     
   2933184805.0284224     
   2858297452.8173599     
   2790005464.2021394     
   2728804354.2522087     
   2878879482.8683763     
   2815350475.6779585     
   2758361104.5808725     
   2708298125.3154755     
   2665592796.4391341     
   2776584810.8868752     
   2729644890.5945129     
   2689428793.2241549     
   2656251820.3390746     
   2630445939.8959737     
   2708332482.3454342     
   2676659261.3902259     
   2651687077.1651769     
   2633634544.3519797     
   2622719099.3647165     
   2674023170.4154782     
   2655927390.0785446     
   2644306063.5723062     
   2639273623.2671156     
   2640936893.4845781     
   2728804354.2522087     
   2645040077.6363797     
   2569158126.8857327     
   2501699056.5257993     
   2443264496.1149158     
   2665592796.4391341     
   2597459219.9798598     
   2537592566.9983106     
   2486469416.6743670     
   2444596211.4210830     
   2630445939.8959737     
   2578023097.1696229     
   2534106533.5776820     
   2499095734.0555663     
   2473399303.9024510     
   2622719099.3647165     
   2585757168.0192800     
   2557391066.6505623     
   2537944735.3284369     
   2527742902.5692997     
   2640936893.4845781     
   2618876931.1840210     
   2605378180.3533659     
   2600704609.9957013     
   2605123758.0163751     
   2443264496.1149158     
   2369369982.8565106     
   2304293863.1055045     
   2248841935.8056912     
   2203906345.6848521     
   2444596211.4210830     
   2389936359.2558079     
   2344830950.7872400     
   2309892813.2585430     
   2285737046.4344287     
   2473399303.9024510     
   2435450115.9571314     
   2407385820.0871596     
   2389596610.2225480     
   2382439023.0075645     
   2527742902.5692997     
   2503349440.3876662     
   2488868018.3944154     
   2484480719.5332661     
   2490339803.2236595     
   2605123758.0163751     
   2590765258.9028845     
   2586164645.7687907     
   2591329996.6615233     
   2606270312.4730759     
   2203906345.6848521     
   2148294171.2676139     
   2107731433.1732948     
   2082958387.8447244     
   2074638992.4331408     
   2285737046.4344287     
   2244459715.5566149     
   2217257832.2418623     
   2204574773.2733278     
   2206799376.1014986     
   2382439023.0075645     
   2352742495.8723488     
   2336147557.2498331     
   2332909731.4927449     
   2343257350.9725213     
   2490339803.2236595     
   2469759829.5007362     
   2461419501.9805150     
   2465465665.2112784     
   2482040409.6867795     
   2606270312.4730759     
   2592699326.8567381     
   2590677603.7796307     
   2600295450.2315965     
   2621653243.5349212     
   2074638992.4331408     
   2070582196.4031920     
   2085859961.9690723     
   2123111977.5653837     
   2186133936.2684298     
   2206799376.1014986     
   2192291125.0754232     
   2192807123.4284701     
   2210318931.6460290     
   2247735203.4067459     
   2343257350.9725213     
   2319031715.1477628     
   2306302848.1403866     
   2306477426.9474559     
   2321639280.1013713     
   2482040409.6867795     
   2449800492.1647859     
   2426013578.1321716     
   2411626976.0359011     
   2408018881.0283856     
   2621653243.5349212     
   2583793957.0325327     
   2551642940.9793921     
   2525784929.2274580     
   2507034234.3118916     
   2186133936.2684298     
   2156635801.3524470     
   2146691304.0501299     
   2166832277.4943085     
   2228147885.9721460     
   2247735203.4067459     
   2182858473.0952067     
   2134405424.0136566     
   2112038839.9571669     
   2126692176.6836729     
   2321639280.1013713     
   2224750830.0600314     
   2141206587.6231396     
   2079357759.4003897     
   2049356955.6576962     
   2408018881.0283856     
   2282607201.7398415     
   2167740832.5281701     
   2070138908.6869349     
   1998535963.8742275     
   2507034234.3118916     
   2356637816.7304187     
   2214478197.0172081     
   2085512151.0440297     
   1976573387.5914228     
   2654263653.0691094     
   2599789164.5360503     
   2602779724.7751093     
   2638375211.4991698     
   2688685975.9359584     
   2719973348.4948936     
   2665978464.0444255     
   2643009886.9097414     
   2639035157.1367955     
   2645580876.4749513     
   2823247720.3922815     
   2750991552.3455634     
   2698445584.1688581     
   2661099937.3083029     
   2635802975.3258152     
   2958376099.6250458     
   2856009568.9314022     
   2773051861.5203581     
   2708570925.8717580     
   2661920803.5720706     
   3128028232.2786431     
   2987083198.9235234     
   2872963785.2118707     
   2785669991.1436725     
   2725201816.7189469     
   2688685975.9359584     
   2673353747.1610670     
   2665766986.4144735     
   2665973613.5778556     
   2674023170.4154782     
   2645580876.4749513     
   2633199348.6996031     
   2628042769.2787852     
   2630132813.2198110     
   2639492908.7312174     
   2635802975.3258152     
   2623540265.1429930     
   2618117285.7662811     
   2619541404.8218985     
   2627821213.7800498     
   2661920803.5720706     
   2647017813.5401130     
   2638698079.7834120     
   2636962883.6592774     
   2641813926.3391910     
   2725201816.7189469     
   2705170741.6337724     
   2691570699.4522033     
   2684401690.1742382     
   2683663713.7998757     
   2674023170.4154782     
   2655927390.0785446     
   2644306063.5723062     
   2639273623.2671156     
   2640936893.4845781     
   2639492908.7312174     
   2623656406.7319841     
   2615306512.8428335     
   2614533163.0986638     
   2621420177.4144502     
   2627821213.7800498     
   2612643594.6542964     
   2606060111.9211059     
   2608123179.5065169     
   2618881647.1329436     
   2641813926.3391910     
   2625049158.8725824     
   2618084381.1243734     
   2620935966.6466379     
   2633619230.2976999     
   2683663713.7998757     
   2662501771.8095241     
   2652439045.7105532     
   2653475535.5029678     
   2665611241.1867652     
   2640936893.4845781     
   2618876931.1840210     
   2605378180.3533659     
   2600704609.9957013     
   2605123758.0163751     
   2621420177.4144502     
   2608081995.3202372     
   2603569196.2759609     
   2608034899.7406502     
   2621630826.1120644     
   2618881647.1329436     
   2611762802.3584180     
   2613713876.3302760     
   2624804418.1530647     
   2645102160.0495157     
   2633619230.2976999     
   2629925018.5602269     
   2635570983.9528751     
   2650574814.6180406     
   2674953543.6589613     
   2665611241.1867652     
   2662359941.8265095     
   2668777084.9689527     
   2684862670.6140876     
   2710616698.7619252     
   2605123758.0163751     
   2590765258.9028845     
   2586164645.7687907     
   2591329996.6615233     
   2606270312.4730759     
   2621630826.1120644     
   2611398510.4723053     
   2610980150.7387371     
   2620383751.9800735     
   2639616253.1646819     
   2645102160.0495157     
   2638078009.4073596     
   2641062540.3973613     
   2654061024.0616145     
   2677077466.8394499     
   2674953543.6589613     
   2670122579.8999367     
   2675658928.0424147     
   2691564393.4768910     
   2717840243.6962810     
   2710616698.7619252     
   2706877655.3523483     
   2714053341.3265285     
   2732143756.6844602     
   2761148901.4261546     
   2606270312.4730759     
   2592699326.8567381     
   2590677603.7796307     
   2600295450.2315965     
   2621653243.5349212     
   2639616253.1646819     
   2629161087.7893858     
   2629067304.3420887     
   2639376581.0405316     
   2660138727.9616179     
   2677077466.8394499     
   2669273610.6301656     
   2670827721.9760799     
   2681754774.5502338     
   2702074248.1218061     
   2717840243.6962810     
   2712456628.4896650     
   2715582680.8757582     
   2727221359.0761771     
   2747376927.0496469     
   2761148901.4261546     
   2758166946.2807226     
   2762974851.5160518     
   2775572617.1321354     
   2795960243.1289821     
   2621653243.5349212     
   2583793957.0325327     
   2551642940.9793921     
   2525784929.2274580     
   2507034234.3118916     
   2660138727.9616179     
   2615193714.4942708     
   2575803289.2887931     
   2542300573.7189136     
   2515151573.8052144     
   2702074248.1218061     
   2652161186.0960217     
   2607788419.5724106     
   2569104529.3518577     
   2536317803.8988671     
   2747376927.0496469     
   2694611138.0074606     
   2647511945.1868930     
   2606116298.4727869     
   2570475976.1776714     
   2795960243.1289821     
   2742449255.6419516     
   2694873053.9333868     
   2653231638.0033083     
   2617525007.8516903     
   2507034234.3118916     
   2356637816.7304187     
   2214478197.0172081     
   2085512151.0440297     
   1976573387.5914228     
   2515151573.8052144     
   2347444526.1449594     
   2183316645.8479233     
   2025853488.8951650     
   1879592844.0701196     
   2536317803.8988671     
   2356362681.6386027     
   2176121400.1210999     
   1997058931.0557020     
   1821440475.2497554     
   2570475976.1776714     
   2383491448.4067965     
   2193355986.2650633     
   2000446237.8799412     
   1805362988.6651897     
   2617525007.8516903     
   2428795773.6027107     
   2235160498.9067650     
   2036619183.7638993     
   1833171828.1740718     
   3128028232.2786431     
   2987083198.9235234     
   2872963785.2118707     
   2785669991.1436725     
   2725201816.7189469     
   2958376098.3040514     
   2856009567.2680831     
   2773051860.0151830     
   2708570924.8106232     
   2661920803.0747352     
   2823247718.9101615     
   2750991550.3730822     
   2698445582.4878402     
   2661099936.3320851     
   2635802975.1895885     
   2719973347.7303319     
   2665978463.0556121     
   2643009886.4737000     
   2639035157.6017003     
   2645580877.8722119     
   2654263653.1764841     
   2599789165.4501400     
   2602779726.8831177     
   2638375214.8185568     
   2688685980.2370224     
   2725201816.7189469     
   2705170741.6337724     
   2691570699.4522033     
   2684401690.1742382     
   2683663713.7998757     
   2661920803.0747352     
   2647017812.9495139     
   2638698079.1871176     
   2636962883.1359391     
   2641813925.9595842     
   2635802975.1895885     
   2623540264.7015824     
   2618117285.1684465     
   2619541404.2036591     
   2627821213.2661843     
   2645580877.8722119     
   2633199349.4525490     
   2628042769.5646853     
   2630132813.2058234     
   2639492908.5757909     
   2688685980.2370224     
   2673353750.3613386     
   2665766988.6811271     
   2665973615.0775452     
   2674023171.3151369     
   2683663713.7998757     
   2662501771.8095241     
   2652439045.7105532     
   2653475535.5029678     
   2665611241.1867652     
   2641813925.9595842     
   2625049158.4047031     
   2618084380.6622405     
   2620935966.2806311     
   2633619230.1151223     
   2627821213.2661843     
   2612643593.8634992     
   2606060111.0397754     
   2608123178.7168198     
   2618881646.6136093     
   2639492908.5757909     
   2623656405.9637742     
   2615306511.7380028     
   2614533161.9325371     
   2621420176.4622755     
   2674023171.3151369     
   2655927389.8508954     
   2644306062.5780163     
   2639273621.8737092     
   2640936892.0669365     
   2665611241.1867652     
   2662359941.8265095     
   2668777084.9689527     
   2684862670.6140876     
   2710616698.7619252     
   2633619230.1151223     
   2629925018.2879763     
   2635570983.6326442     
   2650574814.2909069     
   2674953543.3661323     
   2618881646.6136093     
   2611762801.6697912     
   2613713875.5617456     
   2624804417.3930798     
   2645102159.3866644     
   2621420176.4622755     
   2608081994.1046066     
   2603569194.9412184     
   2608034898.4308343     
   2621630824.9717922     
   2640936892.0669365     
   2618876929.3700390     
   2605378178.3498411     
   2600704608.0114069     
   2605123756.2622905     
   2710616698.7619252     
   2706877655.3523483     
   2714053341.3265285     
   2732143756.6844602     
   2761148901.4261546     
   2674953543.3661323     
   2670122579.6138620     
   2675658927.7467360     
   2691564393.1565981     
   2717840243.3373365     
   2645102159.3866644     
   2638078008.7788944     
   2641062539.7709913     
   2654061023.4072065     
   2677077466.1283822     
   2621630824.9717922     
   2611398509.4200411     
   2610980149.7266736     
   2620383750.9625950     
   2639616252.0976710     
   2605123756.2622905     
   2590765257.3205042     
   2586164644.2955003     
   2591329995.2359471     
   2606270311.0345635     
   2761148901.4261546     
   2758166946.2807226     
   2762974851.5160518     
   2775572617.1321354     
   2795960243.1289821     
   2717840243.3373365     
   2712456628.1929770     
   2715582680.6326685     
   2727221358.8780203     
   2747376926.8877873     
   2677077466.1283822     
   2669273610.0438218     
   2670827721.4969225     
   2681754774.1607270     
   2702074247.8044353     
   2639616252.0976710     
   2629161086.9122372     
   2629067303.6279778     
   2639376580.4625549     
   2660138727.4928493     
   2606270311.0345635     
   2592699325.6785927     
   2590677602.8252106     
   2600295449.4638748     
   2621653242.9165792     
   2795960243.1289821     
   2742449255.6419516     
   2694873053.9333868     
   2653231638.0033083     
   2617525007.8516903     
   2747376926.8877873     
   2694611137.8710370     
   2647511945.0723858     
   2606116298.3768225     
   2570475976.0970764     
   2702074247.8044353     
   2652161185.8286014     
   2607788419.3478117     
   2569104529.1632452     
   2536317803.7397475     
   2660138727.4928493     
   2615193714.0996590     
   2575803288.9574218     
   2542300573.4403019     
   2515151573.5694036     
   2621653242.9165792     
   2583793956.5128284     
   2551642940.5433879     
   2525784928.8607998     
   2507034234.0008755     
   2617525007.8516903     
   2428795773.6027107     
   2235160498.9067650     
   2036619183.7638993     
   1833171828.1740718     
   2570475976.0970764     
   2383491448.3535752     
   2193355986.2411103     
   2000446237.8893621     
   1805362988.7157304     
   2536317803.7397475     
   2356362681.5314918     
   2176121400.0693483     
   1997058931.0664971     
   1821440475.3361220     
   2515151573.5694036     
   2347444525.9829869     
   2183316645.7640419     
   2025853488.8982067     
   1879592844.1751359     
   2507034234.0008755     
   2356637816.5123372     
   2214478196.8965807     
   2085512151.0298128     
   1976573387.6975861     
   2654263653.1764841     
   2599789165.4501400     
   2602779726.8831177     
   2638375214.8185568     
   2688685980.2370224     
   2557914085.0392861     
   2590700936.0111785     
   2643895036.1211386     
   2710643941.4609127     
   2785963387.6514049     
   2695862781.5336709     
   2746827169.7581244     
   2802780132.7975354     
   2863966668.9860463     
   2930672891.4836311     
   3067274583.5316381     
   3063311626.0929523     
   3074510252.5156608     
   3094939810.5705729     
   3121553758.5359902     
   3645533448.0666571     
   3526447597.2544441     
   3450439358.6467609     
   3397892580.8442969     
   3356063480.6067405     
   2688685980.2370224     
   2673353750.3613386     
   2665766988.6811271     
   2665973615.0775452     
   2674023171.3151369     
   2785963387.6514049     
   2754206737.8525548     
   2730517017.0571752     
   2715139922.8292465     
   2708332484.2412648     
   2930672891.4836311     
   2879411796.5341134     
   2836386682.0196748     
   2801970695.1310682     
   2776584814.1242018     
   3121553758.5359902     
   3048040652.5870323     
   2982797430.9591727     
   2926238079.3643398     
   2878879487.6949010     
   3356063480.6067405     
   3257885546.8019934     
   3167921984.6809239     
   3086534635.6417952     
   3014249547.8154607     
   2674023171.3151369     
   2655927389.8508954     
   2644306062.5780163     
   2639273621.8737092     
   2640936892.0669365     
   2708332484.2412648     
   2676659262.0609531     
   2651687076.9341965     
   2633634543.5534606     
   2622719098.3447690     
   2776584814.1242018     
   2729644892.4097295     
   2689428793.8986211     
   2656251820.1687937     
   2630445939.1940765     
   2878879487.6949010     
   2815350478.8160729     
   2758361106.2648845     
   2708298125.7970715     
   2665592795.9916873     
   3014249547.8154607     
   2933184809.5919652     
   2858297455.5706329     
   2790005465.3468504     
   2728804354.0144248     
   2640936892.0669365     
   2618876929.3700390     
   2605378178.3498411     
   2600704608.0114069     
   2605123756.2622905     
   2622719098.3447690     
   2585757166.5333710     
   2557391064.9035296     
   2537944733.5295138     
   2527742900.9320588     
   2630445939.1940765     
   2578023095.9064007     
   2534106531.9574528     
   2499095732.2901325     
   2473399302.2113137     
   2665592795.9916873     
   2597459218.8511391     
   2537592565.3917165     
   2486469414.8042464     
   2444596209.5139332     
   2728804354.0144248     
   2645040076.5755172     
   2569158125.2025218     
   2501699054.4352417     
   2443264493.8491669     
   2605123756.2622905     
   2590765257.3205042     
   2586164644.2955003     
   2591329995.2359471     
   2606270311.0345635     
   2527742900.9320588     
   2503349438.9025526     
   2488868017.0001297     
   2484480718.1673245     
   2490339801.8224607     
   2473399302.2113137     
   2435450114.4405203     
   2407385818.6863708     
   2389596608.8752346     
   2382439021.6477995     
   2444596209.5139332     
   2389936357.5827975     
   2344830949.2948074     
   2309892811.8873420     
   2285737045.1185246     
   2443264493.8491669     
   2369369980.9142833     
   2304293861.4418936     
   2248841934.3689318     
   2203906344.4135995     
   2606270311.0345635     
   2592699325.6785927     
   2590677602.8252106     
   2600295449.4638748     
   2621653242.9165792     
   2490339801.8224607     
   2469759828.3511777     
   2461419501.0488582     
   2465465664.4631271     
   2482040409.0871491     
   2382439021.6477995     
   2352742494.7572403     
   2336147556.3474069     
   2332909730.7700148     
   2343257350.3955269     
   2285737045.1185246     
   2244459714.4802670     
   2217257831.3737779     
   2204574772.5808401     
   2206799375.5504742     
   2203906344.4135995     
   2148294170.2327952     
   2107731432.3434081     
   2082958387.1863959     
   2074638991.9109147     
   2621653242.9165792     
   2583793956.5128284     
   2551642940.5433879     
   2525784928.8607998     
   2507034234.0008755     
   2482040409.0871491     
   2449800491.6565342     
   2426013577.7020302     
   2411626975.6715345     
   2408018880.7184205     
   2343257350.3955269     
   2319031714.6554775     
   2306302847.7206602     
   2306477426.5895958     
   2321639279.7959828     
   2206799375.5504742     
   2192291124.6034422     
   2192807123.0237989     
   2210318931.2990217     
   2247735203.1095476     
   2074638991.9109147     
   2070582195.9557564     
   2085859961.5841894     
   2123111977.2337496     
   2186133935.9831247     
   2507034234.0008755     
   2356637816.5123372     
   2214478196.8965807     
   2085512151.0298128     
   1976573387.6975861     
   2408018880.7184205     
   2282607201.5282536     
   2167740832.4202304     
   2070138908.6907752     
   1998535963.9998450     
   2321639279.7959828     
   2224750829.8531985     
   2141206587.5201979     
   2079357759.4072647     
   2049356955.7786896     
   2247735203.1095476     
   2182858472.8914561     
   2134405423.9081295     
   2112038839.9527290     
   2126692176.7784219     
   2186133935.9831247     
   2156635801.1501541     
   2146691303.9347494     
   2166832277.4653969     
   2228147886.0219812     
   3645533448.0666571     
   3526447597.2544441     
   3450439358.6467609     
   3397892580.8442969     
   3356063480.6067405     
   3902041103.1776981     
   3790360939.1995354     
   3691593085.1149316     
   3598926684.3887472     
   3507932313.5572248     
   4145095685.7681837     
   4030429053.4728775     
   3916410270.7881579     
   3802252581.7501178     
   3687450331.4736199     
   4380864634.7842808     
   4251673292.0261002     
   4126610762.9320583     
   4005134658.8176165     
   3886870350.5775743     
   4626461676.8501863     
   4465724327.3866024     
   4327794747.0564880     
   4207223100.1132808     
   4100035917.1523232     
   3356063480.6067405     
   3257885546.8019934     
   3167921984.6809239     
   3086534635.6417952     
   3014249547.8154607     
   3507932313.5572248     
   3397673029.2927976     
   3292842349.1429143     
   3193828839.4648666     
   3101157505.5407043     
   3687450331.4736199     
   3566000617.8007498     
   3447803613.8345537     
   3333198736.4435349     
   3222622877.4373550     
   3886870350.5775743     
   3755992421.2851639     
   3626809261.2885756     
   3499569212.8225598     
   3374577912.3037281     
   4100035917.1523232     
   3961985021.8600273     
   3824674537.2458897     
   3688245871.7879362     
   3552865428.7041273     
   3014249547.8154607     
   2933184809.5919652     
   2858297455.5706329     
   2790005465.3468504     
   2728804354.0144248     
   3101157505.5407043     
   3006625857.1069608     
   2917423796.0712857     
   2833988808.8780189     
   2756844270.9534221     
   3222622877.4373550     
   3114728679.5301471     
   3011409457.9491100     
   2913086224.5034442     
   2820271735.5763640     
   3374577912.3037281     
   3253649087.9388714     
   3136673831.5659900     
   3024031027.3180742     
   2916193876.5087361     
   3552865428.7041273     
   3419320199.2922506     
   3289263648.8890233     
   3163018338.5740595     
   3041001480.5056624     
   2728804354.0144248     
   2645040076.5755172     
   2569158125.2025218     
   2501699054.4352417     
   2443264493.8491669     
   2756844270.9534221     
   2659944618.6386089     
   2569589072.4366713     
   2486384737.3930874     
   2411029032.7760119     
   2820271735.5763640     
   2709462006.6622901     
   2603628062.6306100     
   2503373011.1989832     
   2409420568.5525661     
   2916193876.5087361     
   2791705998.7907171     
   2670508819.4739761     
   2553129573.6567283     
   2440234736.3171873     
   3041001480.5056624     
   2903878330.9704304     
   2768381324.7095976     
   2634914332.5664830     
   2504022971.0992279     
   2443264493.8491669     
   2369369980.9142833     
   2304293861.4418936     
   2248841934.3689318     
   2203906344.4135995     
   2411029032.7760119     
   2318210431.7437515     
   2232948496.8758240     
   2156104282.1331816     
   2088648992.1238406     
   2409420568.5525661     
   2299235673.7246881     
   2195275383.0051904     
   2098334928.5079782     
   2009346544.3792441     
   2440234736.3171873     
   2314937966.7824211     
   2194629049.8257151     
   2079924050.8928440     
   1971585911.8159051     
   2504022971.0992279     
   2366324430.7828579     
   2232656647.3033056     
   2103390891.7171519     
   1979036034.9106953     
   2203906344.4135995     
   2148294170.2327952     
   2107731432.3434081     
   2082958387.1863959     
   2074638991.9109147     
   2088648992.1238406     
   2013703377.0445852     
   1951189031.9666123     
   1902174741.2569909     
   1867679571.3003728     
   2009346544.3792441     
   1913404459.8882902     
   1826239748.6170042     
   1749054531.5687895     
   1683139963.6838906     
   1971585911.8159051     
   1856083115.5158095     
   1744842123.0735178     
   1638788870.0398359     
   1539063171.0681431     
   1979036034.9106953     
   1849049979.7647252     
   1718851123.6435766     
   1588785627.0305462     
   1459375689.2206638     
   2074638991.9109147     
   2070582195.9557564     
   2085859961.5841894     
   2123111977.2337496     
   2186133935.9831247     
   1867679571.3003728     
   1856577502.2868078     
   1868515081.4299664     
   1905714757.8721416     
   1971209258.8915441     
   1683139963.6838906     
   1654066616.6896942     
   1652762685.7049792     
   1681613268.7576971     
   1743243671.7210183     
   1539063171.0681431     
   1477673466.8139896     
   1449022406.4104481     
   1457090894.4798830     
   1505201738.1700599     
   1459375689.2206638     
   1349893419.7165973     
   1275462806.4484491     
   1244220081.0937340     
   1263241141.8993738     
   2186133935.9831247     
   2156635801.1501541     
   2146691303.9347494     
   2166832277.4653969     
   2228147886.0219812     
   1971209258.8915441     
   1969247054.8560927     
   2003783453.0828664     
   2093499996.9139402     
   2257076095.6015558     
   1743243671.7210183     
   1787984498.9244044     
   1884825964.2732630     
   2060684331.0246184     
   2340805705.3463564     
   1505201738.1700599     
   1613562001.9783742     
   1789075958.9270544     
   2066500345.3062954     
   2476049600.8628163     
   1263241141.8993738     
   1447018156.5896754     
   1715966202.4208684     
   2110673573.8628194     
   2663579087.9435911     
   4626461676.8501863     
   4465724327.3866024     
   4327794747.0564880     
   4207223100.1132808     
   4100035917.1523232     
   4821116633.6897545     
   4686218672.4681053     
   4562175725.8920431     
   4447883809.5578680     
   4342634369.5313454     
   5197389960.7271490     
   5049086718.2388945     
   4906083222.0713806     
   4767676026.6480551     
   4633631462.5672674     
   5760703273.7239399     
   5555382551.0551224     
   5358084398.4422722     
   5164587406.5191345     
   4972030459.2616711     
   6513456288.1129389     
   6205748888.4243488     
   5917007900.1381884     
   5636693998.3533010     
   5356633799.7957191     
   4100035917.1523232     
   3961985021.8600273     
   3824674537.2458897     
   3688245871.7879362     
   3552865428.7041273     
   4342634369.5313454     
   4191886278.7502713     
   4042400868.8051534     
   3894306137.7721515     
   3747785056.5685139     
   4633631462.5672674     
   4466343152.3731928     
   4300724527.2147875     
   4136754919.7944813     
   3974510539.6228232     
   4972030459.2616711     
   4783665949.1071291     
   4597257265.6115818     
   4412528723.9821777     
   4229349820.6877165     
   5356633799.7957191     
   5142044756.1583347     
   4929604117.1255503     
   4718703914.3437386     
   4508930142.2717934     
   3552865428.7041273     
   3419320199.2922506     
   3289263648.8890233     
   3163018338.5740595     
   3041001480.5056624     
   3747785056.5685139     
   3601536988.5027862     
   3457709950.7611470     
   3316558206.9676766     
   3178428383.1140928     
   3974510539.6228232     
   3815738454.4112539     
   3658371685.0966887     
   3502565777.9459820     
   3348561084.6790042     
   4229349820.6877165     
   4058247363.2965674     
   3887637393.1911807     
   3717560461.5733395     
   3548131537.5762439     
   4508930142.2717934     
   4325650714.4328756     
   4142085585.4260082     
   3958155106.3865676     
   3773843592.3287954     
   3041001480.5056624     
   2903878330.9704304     
   2768381324.7095976     
   2634914332.5664830     
   2504022971.0992279     
   3178428383.1140928     
   3028502003.4532843     
   2879973392.7046533     
   2733073384.3271127     
   2588127567.4786000     
   3348561084.6790042     
   3187519567.5540204     
   3027799296.4920936     
   2869497220.3552275     
   2712776765.7082806     
   3548131537.5762439     
   3376987242.7094488     
   3207189026.1208844     
   3038740440.3023529     
   2871704486.2380033     
   3773843592.3287954     
   3592961532.9295168     
   3413495846.5427032     
   3235391352.0669174     
   3058664474.7273426     
   2504022971.0992279     
   2366324430.7828579     
   2232656647.3033056     
   2103390891.7171519     
   1979036034.9106953     
   2588127567.4786000     
   2441876872.4305358     
   2298073659.2476754     
   2157005395.7455411     
   2019062327.9972267     
   2712776765.7082806     
   2559231929.8621306     
   2406675605.4795828     
   2255260314.7276716     
   2105203258.0182362     
   2871704486.2380033     
   2712440925.3007417     
   2552952609.0226173     
   2393254874.8769093     
   2233402612.7635217     
   3058664474.7273426     
   2895331822.7358541     
   2730854670.2830238     
   2565137526.3592410     
   2398123475.1705513     
   1979036034.9106953     
   1849049979.7647252     
   1718851123.6435766     
   1588785627.0305462     
   1459375689.2206638     
   2019062327.9972267     
   1882350216.3810747     
   1745847778.8229048     
   1609689947.0272379     
   1474063575.4042702     
   2105203258.0182362     
   1964416152.6801600     
   1824599278.4586165     
   1685789415.7828743     
   1548052331.3422828     
   2233402612.7635217     
   2089346052.6736724     
   1947042092.8288550     
   1806488080.2950578     
   1667764385.5078847     
   2398123475.1705513     
   2249863887.1105213     
   2103931703.8833046     
   1960311096.5878394     
   1819174967.6675155     
   1459375689.2206638     
   1349893419.7165973     
   1275462806.4484491     
   1244220081.0937340     
   1263241141.8993738     
   1474063575.4042702     
   1329554224.7795458     
   1199538785.3551373     
   1088502009.6072638     
   1002362800.0776403     
   1548052331.3422828     
   1398127649.8662355     
   1244632056.0952561     
   1085272834.9069543     
   918000618.73027492     
   1667764385.5078847     
   1552596023.2513058     
   1428267860.6957660     
   1295112172.0827334     
   1159266688.1998620     
   1819174967.6675155     
   1779156191.9264815     
   1735556107.5251868     
   1697004352.4471939     
   1682070930.2205775     
   1263241141.8993738     
   1447018156.5896754     
   1715966202.4208684     
   2110673573.8628194     
   2663579087.9435911     
   1002362800.0776403     
   1164977442.9874604     
   1425596009.9631853     
   1808836977.2528057     
   2334801851.8814120     
   918000618.73027492     
   963312602.44192767     
   1145000292.8721766     
   1476494128.2265670     
   1957520598.2690110     
   1159266688.1998620     
   1008661188.3853172     
   985247552.89099312     
   1161431942.0503178     
   1544224423.6458681     
   1682070930.2205775     
   1384240171.9901462     
   1129590956.8111620     
   1009978858.2143131     
   1153059532.4392965     
 </DataArray>
 <DataArray  type="Float64" Name="strain" NumberOfComponents="3" format="ascii">
  0.10864352574361824       -1.9128191815169893E-002   3.1892748635861556E-002
  0.10389460998741651       -2.1804303183732721E-002   2.3614979712634820E-002
   9.9145694231214776E-002  -2.3507614773806973E-002   1.7120353006356726E-002
   9.4396778475012932E-002  -2.4238126585392525E-002   1.2408868517026939E-002
   8.9647862718811200E-002  -2.3995838618489862E-002   9.4805262446459038E-003
   9.5586023142240073E-002  -2.2431825675919947E-002   2.6289387793597685E-002
   9.2359848425017710E-002  -2.3395666473838450E-002   2.1220499351209343E-002
   8.9133673707795569E-002  -2.3868339582639564E-002   1.7413950769831932E-002
   8.5907498990573344E-002  -2.3849845002323400E-002   1.4869742049464618E-002
   8.2681324273351009E-002  -2.3340182732889958E-002   1.3587873190108180E-002
   8.5265818465866450E-002  -2.5735459536670224E-002   2.2639113566663538E-002
   8.3041582431685690E-002  -2.4987029763944180E-002   2.0297473515742848E-002
   8.0817346397504930E-002  -2.4229064391472127E-002   1.8697370969894517E-002
   7.8593110363324115E-002  -2.3461563419254282E-002   1.7838805929118171E-002
   7.6368874329143327E-002  -2.2684526847290443E-002   1.7721778393414794E-002
   7.7682911714497593E-002  -2.9039093397420446E-002   2.0941925955060128E-002
   7.5939812007420157E-002  -2.6578393054049854E-002   2.0845902206235140E-002
   7.4196712300342804E-002  -2.4589789200304760E-002   2.0970613606544571E-002
   7.2453612593265451E-002  -2.3073281836184994E-002   2.1316060155988279E-002
   7.0710512886188071E-002  -2.2028870961690622E-002   2.1882241854566324E-002
   7.2837302888133615E-002  -3.2342727258170612E-002   2.1197824958786360E-002
   7.1054537152221542E-002  -2.8169756344155694E-002   2.2865785422686191E-002
   6.9271771416309413E-002  -2.4950514009137406E-002   2.4233678679782183E-002
   6.7489005680397285E-002  -2.2685000253115848E-002   2.5301504730074434E-002
   6.5706239944485156E-002  -2.1373215076090746E-002   2.6069263573563040E-002
   8.9647862718811200E-002  -2.3995838618489862E-002   9.4805262446459038E-003
   8.6089242215716899E-002  -2.3270721308544295E-002   7.3158284435708154E-003
   8.2530621712622543E-002  -2.2552745091001275E-002   5.6908707902448286E-003
   7.8972001209528242E-002  -2.1841909965861446E-002   4.6056532846684428E-003
   7.5413380706433886E-002  -2.1138215933124038E-002   4.0601759268411586E-003
   8.2681324273351009E-002  -2.3340182732889958E-002   1.3587873190108180E-002
   7.9600291517626209E-002  -2.2584841201880118E-002   1.2011636360721917E-002
   7.6519258761901354E-002  -2.1829308836833788E-002   1.0850834878325499E-002
   7.3438226006176471E-002  -2.1073585637750837E-002   1.0105468742918275E-002
   7.0357193250451755E-002  -2.0317671604631604E-002   9.7755379545006460E-003
   7.6368874329143327E-002  -2.2684526847290443E-002   1.7721778393414794E-002
   7.3641124520028051E-002  -2.1898961095215691E-002   1.6741334462157004E-002
   7.0913374710912802E-002  -2.1105872582665844E-002   1.6052021077128817E-002
   6.8185624901797512E-002  -2.0305261309640558E-002   1.5653838238330477E-002
   6.5457875092682249E-002  -1.9497127276139559E-002   1.5546785945761421E-002
   7.0710512886188071E-002  -2.2028870961690622E-002   2.1882241854566324E-002
   6.8211741222922451E-002  -2.1213080988551555E-002   2.1504922747876069E-002
   6.5712969559656859E-002  -2.0382436328498073E-002   2.1294429386655402E-002
   6.3214197896391239E-002  -1.9536936981530001E-002   2.1250761770904805E-002
   6.0715426233125654E-002  -1.8676582947647652E-002   2.1373919900623414E-002
   6.5706239944485156E-002  -2.1373215076090746E-002   2.6069263573563040E-002
   6.3312141626309326E-002  -2.0527200881887364E-002   2.6302401217879190E-002
   6.0918043308133496E-002  -1.9659000074330260E-002   2.6578059806905197E-002
   5.8523944989957638E-002  -1.8768612653419687E-002   2.6896239340641212E-002
   5.6129846671781836E-002  -1.7856038619155357E-002   2.7256939819087056E-002
   7.5413380706433886E-002  -2.1138215933124038E-002   4.0601759268411586E-003
   7.2331059024894229E-002  -2.0411266027982433E-002   3.4091732234532435E-003
   6.9248737343354627E-002  -1.9630663285629291E-002   2.9958142770112328E-003
   6.6166415661814998E-002  -1.8796407706064985E-002   2.8200990875152654E-003
   6.3084093980275369E-002  -1.7908499289289392E-002   2.8820276549657020E-003
   7.0357193250451755E-002  -2.0317671604631604E-002   9.7755379545006460E-003
   6.7503374483611989E-002  -1.9548976255586215E-002   9.3117760245932102E-003
   6.4649555716772306E-002  -1.8754909108723461E-002   9.0673761671395126E-003
   6.1795736949932595E-002  -1.7935470164044093E-002   9.0423383821397335E-003
   5.8941918183092912E-002  -1.7090659421547416E-002   9.2366626695932208E-003
   6.5457875092682249E-002  -1.9497127276139559E-002   1.5546785945761421E-002
   6.2814277556050013E-002  -1.8686686483189913E-002   1.5241983749940569E-002
   6.0170680019417874E-002  -1.7879154931817659E-002   1.5138261942080442E-002
   5.7527082482785673E-002  -1.7074532622022763E-002   1.5235620522181900E-002
   5.4883484946153499E-002  -1.6272819553805606E-002   1.5534059490244528E-002
   6.0715426233125654E-002  -1.8676582947647652E-002   2.1373919900623414E-002
   5.8263768242208566E-002  -1.7824396710793597E-002   2.1199796399494319E-002
   5.5812110251291389E-002  -1.7003400754911732E-002   2.1208471601833714E-002
   5.3360452260374232E-002  -1.6213595080001652E-002   2.1399945507642276E-002
   5.0908794269457124E-002  -1.5454979686063602E-002   2.1774218116919382E-002
   5.6129846671781836E-002  -1.7856038619155357E-002   2.7256939819087056E-002
   5.3851846542087300E-002  -1.6962106938397392E-002   2.7185213973255129E-002
   5.1573846412392765E-002  -1.6127646578005889E-002   2.7278005146399775E-002
   4.9295846282698230E-002  -1.5352657537980478E-002   2.7535313338520537E-002
   4.7017846153003751E-002  -1.4637139818321543E-002   2.7957138549617955E-002
   6.3084093980275369E-002  -1.7908499289289392E-002   2.8820276549657020E-003
   6.0072281641422753E-002  -1.7040187009757179E-002   2.2544758629882145E-003
   5.7060469302570305E-002  -1.6264719841922654E-002   1.8181294609269094E-003
   5.4048656963717828E-002  -1.5582097785786807E-002   1.5729884487827306E-003
   5.1036844624865241E-002  -1.4992320841348272E-002   1.5190528265549563E-003
   5.8941918183092912E-002  -1.7090659421547416E-002   9.2366626695932208E-003
   5.6113781318326728E-002  -1.6257825528366798E-002   8.6142382179550947E-003
   5.3285644453560488E-002  -1.5474317131633886E-002   8.1679593245729265E-003
   5.0457507588794220E-002  -1.4740134231349025E-002   7.8978259894465774E-003
   4.7629370724028008E-002  -1.4055276827512619E-002   7.8038382125764638E-003
   5.4883484946153499E-002  -1.6272819553805606E-002   1.5534059490244528E-002
   5.2223963723812827E-002  -1.5475464046976084E-002   1.4960281994196190E-002
   4.9564442501472142E-002  -1.4683914421344688E-002   1.4547590224742404E-002
   4.6904921279131477E-002  -1.3898170676911691E-002   1.4295984181884040E-002
   4.4245400056790840E-002  -1.3118232813676856E-002   1.4205463865621104E-002
   5.0908794269457124E-002  -1.5454979686063602E-002   2.1774218116919382E-002
   4.8402828857881205E-002  -1.4693102565585536E-002   2.1292607191710208E-002
   4.5896863446305294E-002  -1.3893511711055705E-002   2.0957022161435534E-002
   4.3390898034729390E-002  -1.3056207122474245E-002   2.0767463026094966E-002
   4.0884932623153472E-002  -1.2181188799841147E-002   2.0723929785688780E-002
   4.7017846153003751E-002  -1.4637139818321543E-002   2.7957138549617955E-002
   4.4650376720531793E-002  -1.3910741084195044E-002   2.7611213810498192E-002
   4.2282907288059918E-002  -1.3103109000766708E-002   2.7396255134651853E-002
   3.9915437855588043E-002  -1.2214243568036683E-002   2.7312262522079064E-002
   3.7547968423116140E-002  -1.1244144786005439E-002   2.7359235972779894E-002
   5.1036844624865241E-002  -1.4992320841348272E-002   1.5190528265549563E-003
   4.8269051021158638E-002  -1.4398000943695255E-002   9.9951869593573051E-004
   4.5501257417452035E-002  -1.3701750027914794E-002   5.8528234915178334E-004
   4.2733463813745431E-002  -1.2903568094006765E-002   2.7634378620194910E-004
   3.9965670210038828E-002  -1.2003455141972541E-002   7.2703007087282501E-005
   4.7629370724028008E-002  -1.4055276827512619E-002   7.8038382125764638E-003
   4.4965372960676320E-002  -1.3368774245507753E-002   7.3835788075331532E-003
   4.2301375197324576E-002  -1.2629655810718621E-002   7.0656132993657250E-003
   3.9637377433972859E-002  -1.1837921523144557E-002   6.8499416880725694E-003
   3.6973379670621143E-002  -1.0993571382786227E-002   6.7365639736549632E-003
   4.4245400056790840E-002  -1.3118232813676856E-002   1.4205463865621104E-002
   4.1682194246834364E-002  -1.2339547547320029E-002   1.3835164020811197E-002
   3.9118988436877888E-002  -1.1557561593522253E-002   1.3564154185916971E-002
   3.6555782626921413E-002  -1.0772274952281911E-002   1.3392434360937691E-002
   3.3992576816964992E-002  -9.9836876236005789E-003   1.3320004545874564E-002
   4.0884932623153472E-002  -1.2181188799841147E-002   2.0723929785688780E-002
   3.8419514879632660E-002  -1.1310320849132416E-002   2.0354274335769557E-002
   3.5954097136111834E-002  -1.0485467376325316E-002   2.0080905008805806E-002
   3.3488679392590960E-002  -9.7066283814194847E-003   1.9903821804797984E-002
   3.1023261649070197E-002  -8.9738038644148199E-003   1.9823024723745863E-002
   3.7547968423116140E-002  -1.1244144786005439E-002   2.7359235972779894E-002
   3.5177334859071319E-002  -1.0281094150945025E-002   2.6940909752407927E-002
   3.2806701295026497E-002  -9.4133731591291570E-003   2.6615865768032210E-002
   3.0436067730981703E-002  -8.6409818105570857E-003   2.6384104019652660E-002
   2.8065434166936909E-002  -7.9639201052289499E-003   2.6245624507269083E-002
   3.9965670210038828E-002  -1.2003455141972541E-002   7.2703007087282501E-005
   3.7522946854612327E-002  -1.1139556334189615E-002  -2.6149965323063462E-004
   3.5080223499185825E-002  -1.0450016833037923E-002  -4.8829919952564360E-004
   3.2637500143759268E-002  -9.9348366385189624E-003  -6.0769563179757791E-004
   3.0194776788332822E-002  -9.5940157506309021E-003  -6.1968895004715918E-004
   3.6973379670621143E-002  -1.0993571382786227E-002   6.7365639736549632E-003
   3.4617440941307587E-002  -1.0178679387396472E-002   6.2502847865123501E-003
   3.2261502211994003E-002  -9.4753195347264119E-003   5.8301717375728312E-003
   2.9905563482680461E-002  -8.8834918247764488E-003   5.4762248268359626E-003
   2.7549624753366919E-002  -8.4031962575470409E-003   5.1884440543030763E-003
   3.3992576816964992E-002  -9.9836876236005789E-003   1.3320004545874564E-002
   3.1682185737944291E-002  -9.2178024406029957E-003   1.2744475995818905E-002
   2.9371794658923617E-002  -8.5006222364137907E-003   1.2193876608146165E-002
   2.7061403579902929E-002  -7.8321470110341573E-003   1.1668206382856455E-002
   2.4751012500882241E-002  -7.2123767644629577E-003   1.1167465319949055E-002
   3.1023261649070197E-002  -8.9738038644148199E-003   1.9823024723745863E-002
   2.8717181244522424E-002  -8.2569254938093528E-003   1.9221073974688641E-002
   2.6411100839974597E-002  -7.5259249381017246E-003   1.8602815412194065E-002
   2.4105020435426793E-002  -6.7808021972914218E-003   1.7968249036262332E-002
   2.1798940030878997E-002  -6.0215572713788745E-003   1.7317374846893135E-002
   2.8065434166936909E-002  -7.9639201052289499E-003   2.6245624507269083E-002
   2.5722427461041919E-002  -7.2960485470163761E-003   2.5680078723121280E-002
   2.3379420755146985E-002  -6.5512276397894365E-003   2.5056988149716131E-002
   2.1036414049252009E-002  -5.7294573835489082E-003   2.4376352787053773E-002
   1.8693407343357060E-002  -4.8307377782950134E-003   2.3638172635134347E-002
   3.0194776788332822E-002  -9.5940157506309021E-003  -6.1968895004715918E-004
   2.9594244961187788E-002  -9.1348027401647602E-003  -3.6061599330716732E-004
   2.8993713134042753E-002  -8.2644461779105560E-003  -1.7899011421342870E-003
   2.8393181306897719E-002  -6.9829460638674845E-003  -4.9075443965283516E-003
   2.7792649479752685E-002  -5.2903023980372943E-003  -9.7135457564887506E-003
   2.7549624753366919E-002  -8.4031962575470409E-003   5.1884440543030763E-003
   2.5531137001756798E-002  -7.8725223987489157E-003   5.8761751134482898E-003
   2.3512649250146650E-002  -7.1295598140926897E-003   5.4163524292310528E-003
   2.1494161498536626E-002  -6.1743085035784462E-003   3.8089760016500329E-003
   1.9475673746926492E-002  -5.0067684672070456E-003   1.0540458307062295E-003
   2.4751012500882241E-002  -7.2123767644629577E-003   1.1167465319949055E-002
   2.1855373187010668E-002  -6.6102420573322940E-003   1.2084999655571194E-002
   1.8959733873138984E-002  -5.9946734502746568E-003   1.2395784610032601E-002
   1.6064094559267328E-002  -5.3656709432889776E-003   1.2099820183334775E-002
   1.3168455245395727E-002  -4.7232345363756867E-003   1.1197106375476995E-002
   2.1798940030878997E-002  -6.0215572713788745E-003   1.7317374846893135E-002
   1.8566953516949265E-002  -5.3479617159165049E-003   1.8265857633060420E-002
   1.5334967003019589E-002  -4.8597870864569293E-003   1.9148395400271093E-002
   1.2102980489089914E-002  -4.5570333829992801E-003   1.9964988148525771E-002
   8.8709939751602934E-003  -4.4397006055451049E-003   2.0715635877824129E-002
   1.8693407343357060E-002  -4.8307377782950134E-003   2.3638172635134347E-002
   1.5665877991572819E-002  -4.0856813745003828E-003   2.4418749045917010E-002
   1.2638348639788605E-002  -3.7249007226383413E-003   2.5674184799946653E-002
   9.6108192880043491E-003  -3.7483958227098671E-003   2.7404479897223499E-002
   6.5832899362201491E-003  -4.1561666747139681E-003   2.9609634337747548E-002
   2.7792649479752685E-002  -5.2903023980372943E-003  -9.7135457564887506E-003
   2.3361212517205354E-002  -4.2063780589471911E-003  -4.1903021768745496E-003
   1.8929775554657913E-002  -4.7510359251244916E-003   2.6003233351317157E-003
   1.4498338592110527E-002  -6.9242759965690015E-003   1.0658330779529712E-002
   1.0066901629563141E-002  -1.0726098273281082E-002   1.9983720156319329E-002
   1.9475673746926492E-002  -5.0067684672070456E-003   1.0540458307062295E-003
   1.6238763001777401E-002  -4.6898910578124786E-003   6.7430928340818097E-003
   1.3001852256628366E-002  -6.2866276282309563E-003   1.3553810339863026E-002
   9.7649415114793581E-003  -9.7969781784630339E-003   2.1486198348048768E-002
   6.5280307663302395E-003  -1.5220942708507046E-002   3.0540256858638593E-002
   1.3168455245395727E-002  -4.7232345363756867E-003   1.1197106375476995E-002
   1.0980359287657948E-002  -5.1734040566782102E-003   1.6766925028069257E-002
   8.7922633299201414E-003  -7.8222193313382538E-003   2.3312702753079340E-002
   6.6041673721824595E-003  -1.2669680360356608E-002   3.0834439550507742E-002
   4.4160714144445556E-003  -1.9715787143733454E-002   3.9332135420354186E-002
   8.8709939751602934E-003  -4.4397006055451049E-003   2.0715635877824129E-002
   7.5860013748468430E-003  -5.6569170555432757E-003   2.5881194405087488E-002
   6.3010087745335522E-003  -9.3578110344453569E-003   3.1877000574782377E-002
   5.0160161742202093E-003  -1.5542382542250856E-002   3.8703054386907805E-002
   3.7310235739069220E-003  -2.4210631578959640E-002   4.6359355841464056E-002
   6.5832899362201491E-003  -4.1561666747139681E-003   2.9609634337747548E-002
   6.0556892633442660E-003  -6.1404300544088963E-003   3.4085900965137195E-002
   5.5280885904683275E-003  -1.0893402737552654E-002   3.9246703804970473E-002
   5.0004879175924444E-003  -1.8415084724144819E-002   4.5092042857248077E-002
   4.4728872447165058E-003  -2.8705476014185827E-002   5.1621918121969035E-002
   7.2837302888133615E-002  -3.2342727258170612E-002   2.1197824958786360E-002
   7.1054537152221542E-002  -2.8169756344155694E-002   2.2865785422686191E-002
   6.9271771416309413E-002  -2.4950514009137406E-002   2.4233678679782183E-002
   6.7489005680397285E-002  -2.2685000253115848E-002   2.5301504730074434E-002
   6.5706239944485156E-002  -2.1373215076090746E-002   2.6069263573563040E-002
   6.8697456317240863E-002  -2.3318704719954841E-002   3.4327328586872929E-002
   6.6730331473049187E-002  -2.1656580614661747E-002   3.4157673610255845E-002
   6.4763206628857359E-002  -2.0295828180329142E-002   3.3919367623883312E-002
   6.2796081784665642E-002  -1.9236447416957330E-002   3.3612410627755329E-002
   6.0828956940473883E-002  -1.8478438324545932E-002   3.3236802621872036E-002
   6.3231836332285546E-002  -1.4294682181739099E-002   4.4619806952219829E-002
   6.1311768576862602E-002  -1.5143404885167772E-002   4.3264893443121802E-002
   5.9391700821439575E-002  -1.5641142351520983E-002   4.2072745121316653E-002
   5.7471633066016568E-002  -1.5787894580798781E-002   4.1043361986804527E-002
   5.5551565310593604E-002  -1.5583661573001090E-002   4.0176744039585280E-002
   5.6440442933267727E-002  -5.2706596435233150E-003   5.2075260054826794E-002
   5.4798848463661856E-002  -8.6302291556738658E-003   5.0187444921283922E-002
   5.3157253994055950E-002  -1.0986456522712799E-002   4.8693811172082255E-002
   5.1515659524450010E-002  -1.2339341744640277E-002   4.7594358807222008E-002
   4.9874065054844145E-002  -1.2688884821456234E-002   4.6889087826702938E-002
   4.8323276120187442E-002   3.7533628946924136E-003   5.6693687894693867E-002
   4.7191571133446963E-002  -2.1170534261798490E-003   5.4925328044742150E-002
   4.6059866146706513E-002  -6.3317706939045315E-003   5.3782565776180180E-002
   4.4928161159966076E-002  -8.8907889084818212E-003   5.3265401089007791E-002
   4.3796456173225584E-002  -9.7941080699113781E-003   5.3373833983224928E-002
   6.5706239944485156E-002  -2.1373215076090746E-002   2.6069263573563040E-002
   6.3312141626309326E-002  -2.0527200881887364E-002   2.6302401217879190E-002
   6.0918043308133496E-002  -1.9659000074330260E-002   2.6578059806905197E-002
   5.8523944989957638E-002  -1.8768612653419687E-002   2.6896239340641212E-002
   5.6129846671781836E-002  -1.7856038619155357E-002   2.7256939819087056E-002
   6.0828956940473883E-002  -1.8478438324545932E-002   3.3236802621872036E-002
   5.8512664263237715E-002  -1.7851367840427956E-002   3.3135956870412708E-002
   5.6196371586001548E-002  -1.7184802901936302E-002   3.3148201456122683E-002
   5.3880078908765353E-002  -1.6478743509070651E-002   3.3273536379002391E-002
   5.1563786231529157E-002  -1.5733189661831182E-002   3.3511961639051346E-002
   5.5551565310593604E-002  -1.5583661573001090E-002   4.0176744039585280E-002
   5.3383647666756677E-002  -1.5175534798968743E-002   3.9759222733370597E-002
   5.1215730022919778E-002  -1.4710605729542171E-002   3.9525361156785045E-002
   4.9047812379082852E-002  -1.4188874364721724E-002   3.9475159309828478E-002
   4.6879894735245953E-002  -1.3610340704507035E-002   3.9608617192501222E-002
   4.9874065054844145E-002  -1.2688884821456234E-002   4.6889087826702938E-002
   4.7925091836866170E-002  -1.2499701757509349E-002   4.6172198806753217E-002
   4.5976118618888173E-002  -1.2236408557148099E-002   4.5709538908892205E-002
   4.4027145400910218E-002  -1.1899005220372589E-002   4.5501108133119798E-002
   4.2078172182932208E-002  -1.1487491747182818E-002   4.5546906479436385E-002
   4.3796456173225584E-002  -9.7941080699113781E-003   5.3373833983224928E-002
   4.2136996773566193E-002  -9.8238687160500660E-003   5.2374885090560347E-002
   4.0477537373906775E-002  -9.7622113847541103E-003   5.1700734712444074E-002
   3.8818077974247356E-002  -9.6091360760237679E-003   5.1351382848876234E-002
   3.7158618574587937E-002  -9.3646427898586571E-003   5.1326829499856785E-002
   5.6129846671781836E-002  -1.7856038619155357E-002   2.7256939819087056E-002
   5.3851846542087300E-002  -1.6962106938397392E-002   2.7185213973255129E-002
   5.1573846412392765E-002  -1.6127646578005889E-002   2.7278005146399775E-002
   4.9295846282698230E-002  -1.5352657537980478E-002   2.7535313338520537E-002
   4.7017846153003751E-002  -1.4637139818321543E-002   2.7957138549617955E-002
   5.1563786231529157E-002  -1.5733189661831182E-002   3.3511961639051346E-002
   4.9455349353965602E-002  -1.4984499381162697E-002   3.3281104516402538E-002
   4.7346912476401992E-002  -1.4269030688009804E-002   3.3224856879039422E-002
   4.5238475598838354E-002  -1.3586783582372509E-002   3.3343218726961540E-002
   4.3130038721274799E-002  -1.2937758064250959E-002   3.3636190060169324E-002
   4.6879894735245953E-002  -1.3610340704507035E-002   3.9608617192501222E-002
   4.4951113576122428E-002  -1.3006891823927835E-002   3.9244878525886151E-002
   4.3022332416998793E-002  -1.2410414798013678E-002   3.9065841810865629E-002
   4.1093551257875241E-002  -1.1820909626764489E-002   3.9071507047439759E-002
   3.9164770098751633E-002  -1.1238376310180292E-002   3.9261874235608465E-002
   4.2078172182932208E-002  -1.1487491747182818E-002   4.5546906479436385E-002
   4.0339139208557750E-002  -1.1029284266693001E-002   4.5076536001705671E-002
   3.8600106234183286E-002  -1.0551798908017544E-002   4.4800959941878563E-002
   3.6861073259808794E-002  -1.0055035671156438E-002   4.4720178299955282E-002
   3.5122040285434364E-002  -9.5389945561095563E-003   4.4834191075935476E-002
   3.7158618574587937E-002  -9.3646427898586571E-003   5.1326829499856785E-002
   3.5619426251271652E-002  -9.0516767094582506E-003   5.0776076943861104E-002
   3.4080233927955367E-002  -8.6931830180214803E-003   5.0430211272078057E-002
   3.2541041604639095E-002  -8.2891617155484466E-003   5.0289232484507826E-002
   3.1001849281322824E-002  -7.8396128020390421E-003   5.0353140581150369E-002
   4.7017846153003751E-002  -1.4637139818321543E-002   2.7957138549617955E-002
   4.4650376720531793E-002  -1.3910741084195044E-002   2.7611213810498192E-002
   4.2282907288059918E-002  -1.3103109000766708E-002   2.7396255134651853E-002
   3.9915437855588043E-002  -1.2214243568036683E-002   2.7312262522079064E-002
   3.7547968423116140E-002  -1.1244144786005439E-002   2.7359235972779894E-002
   4.3130038721274799E-002  -1.2937758064250959E-002   3.3636190060169324E-002
   4.0902154044711897E-002  -1.2279779888102971E-002   3.3287602949325534E-002
   3.8674269368149009E-002  -1.1570674808386458E-002   3.3087219287026293E-002
   3.6446384691586169E-002  -1.0810442825101654E-002   3.3035039073271530E-002
   3.4218500015023273E-002  -9.9990839382483321E-003   3.3131062308061288E-002
   3.9164770098751633E-002  -1.1238376310180292E-002   3.9261874235608465E-002
   3.7093707563368605E-002  -1.0648818692010981E-002   3.8880518307307835E-002
   3.5022645027985660E-002  -1.0038240616006326E-002   3.8664603212822508E-002
   3.2951582492602702E-002  -9.4066420821666257E-003   3.8614128952152535E-002
   3.0880519957219701E-002  -8.7540230904915584E-003   3.8729095525297796E-002
   3.5122040285434364E-002  -9.5389945561095563E-003   4.4834191075935476E-002
   3.3225037276502070E-002  -9.0178574959190599E-003   4.4389959884444691E-002
   3.1328034267569804E-002  -8.5058064236263019E-003   4.4128406912040230E-002
   2.9431031258637504E-002  -8.0028413392314313E-003   4.4049532158721628E-002
   2.7534028249705245E-002  -7.5089622427346181E-003   4.4153335624489504E-002
   3.1001849281322824E-002  -7.8396128020390421E-003   5.0353140581150369E-002
   2.9296143184112139E-002  -7.3868962998270837E-003   4.9815927680736283E-002
   2.7590437086901454E-002  -6.9733722312460278E-003   4.9478630384679367E-002
   2.5884730989690782E-002  -6.5990405962963669E-003   4.9341248692979234E-002
   2.4179024892480111E-002  -6.2639013949777889E-003   4.9403782605636271E-002
   3.7547968423116140E-002  -1.1244144786005439E-002   2.7359235972779894E-002
   3.5177334859071319E-002  -1.0281094150945025E-002   2.6940909752407927E-002
   3.2806701295026497E-002  -9.4133731591291570E-003   2.6615865768032210E-002
   3.0436067730981703E-002  -8.6409818105570857E-003   2.6384104019652660E-002
   2.8065434166936909E-002  -7.9639201052289499E-003   2.6245624507269083E-002
   3.4218500015023273E-002  -9.9990839382483321E-003   3.3131062308061288E-002
   3.1954669247981599E-002  -9.1868902943557651E-003   3.2645351482618601E-002
   2.9690838480939938E-002  -8.4241540399528636E-003   3.2279964015185819E-002
   2.7427007713898284E-002  -7.7108751750393431E-003   3.2034899905763192E-002
   2.5163176946856658E-002  -7.0470536996153355E-003   3.1910159154350637E-002
   3.0880519957219701E-002  -8.7540230904915584E-003   3.8729095525297796E-002
   2.8750533109194981E-002  -8.0926864377663943E-003   3.8221872348538771E-002
   2.6620546261170330E-002  -7.4349349207764592E-003   3.7862013651803861E-002
   2.4490559413145631E-002  -6.7807685395213785E-003   3.7649519435092690E-002
   2.2360572565120945E-002  -6.1301872940016655E-003   3.7584389698405524E-002
   2.7534028249705245E-002  -7.5089622427346181E-003   4.4153335624489504E-002
   2.5564926442711404E-002  -6.9984825811771900E-003   4.3670472350168806E-002
   2.3595824635717501E-002  -6.4457158016001659E-003   4.3362014677885793E-002
   2.1626722828723612E-002  -5.8506619040038579E-003   4.3227962607640780E-002
   1.9657621021729754E-002  -5.2133208883879123E-003   4.3268316139433147E-002
   2.4179024892480111E-002  -6.2639013949777889E-003   4.9403782605636271E-002
   2.2397849248530860E-002  -5.9042787245877637E-003   4.8991151487508489E-002
   2.0616673604581623E-002  -5.4564966824238448E-003   4.8779967093432297E-002
   1.8835497960632393E-002  -4.9205552684859696E-003   4.8770229423407557E-002
   1.7054322316683135E-002  -4.2964544827743811E-003   4.8961938477434130E-002
   2.8065434166936909E-002  -7.9639201052289499E-003   2.6245624507269083E-002
   2.5722427461041919E-002  -7.2960485470163761E-003   2.5680078723121280E-002
   2.3379420755146985E-002  -6.5512276397894365E-003   2.5056988149716131E-002
   2.1036414049252009E-002  -5.7294573835489082E-003   2.4376352787053773E-002
   1.8693407343357060E-002  -4.8307377782950134E-003   2.3638172635134347E-002
   2.5163176946856658E-002  -7.0470536996153355E-003   3.1910159154350637E-002
   2.2801790772121050E-002  -6.3956223978808291E-003   3.1534244724526483E-002
   2.0440404597385553E-002  -5.7195140540351463E-003   3.1179116146278107E-002
   1.8079018422649959E-002  -5.0187286680786203E-003   3.0844773419605842E-002
   1.5717632247914448E-002  -4.2932662400110289E-003   3.0531216544509521E-002
   2.2360572565120945E-002  -6.1301872940016655E-003   3.7584389698405524E-002
   2.0059137562377968E-002  -5.4951962487452821E-003   3.7345834316001775E-002
   1.7757702559634984E-002  -4.8878004682807452E-003   3.7206395426007510E-002
   1.5456267556892046E-002  -4.3079999526078883E-003   3.7166073028422036E-002
   1.3154832554149024E-002  -3.7557947017270443E-003   3.7224867123246103E-002
   1.9657621021729754E-002  -5.2133208883879123E-003   4.3268316139433147E-002
   1.7494467831812559E-002  -4.5947700996097351E-003   4.3114847497547473E-002
   1.5331314641895395E-002  -4.0560868825263441E-003   4.3138825988904395E-002
   1.3168161451978203E-002  -3.5972712371372673E-003   4.3340251613503571E-002
   1.1005008262061040E-002  -3.2183231634430598E-003   4.3719124371344793E-002
   1.7054322316683135E-002  -4.2964544827743811E-003   4.8961938477434130E-002
   1.5107781580424917E-002  -3.6943439504742437E-003   4.8841284269163676E-002
   1.3161240844166699E-002  -3.2243732967719985E-003   4.8976407834968705E-002
   1.1214700107908482E-002  -2.8865425216665769E-003   4.9367309174849466E-002
   9.2681593716502642E-003  -2.6808516251591863E-003   5.0013988288805544E-002
   1.8693407343357060E-002  -4.8307377782950134E-003   2.3638172635134347E-002
   1.5665877991572819E-002  -4.0856813745003828E-003   2.4418749045917010E-002
   1.2638348639788605E-002  -3.7249007226383413E-003   2.5674184799946653E-002
   9.6108192880043491E-003  -3.7483958227098671E-003   2.7404479897223499E-002
   6.5832899362201491E-003  -4.1561666747139681E-003   2.9609634337747548E-002
   1.5717632247914448E-002  -4.2932662400110289E-003   3.0531216544509521E-002
   1.3146944735565991E-002  -3.7748317732717029E-003   3.1295246494807305E-002
   1.0576257223217603E-002  -3.6951302713006118E-003   3.2498100780729400E-002
   8.0055697108691593E-003  -4.0541617340976652E-003   3.4139779402276221E-002
   5.4348821985207574E-003  -4.8519261616626341E-003   3.6220282359447076E-002
   1.3154832554149024E-002  -3.7557947017270443E-003   3.7224867123246103E-002
   1.1004951873613583E-002  -3.4639821720435227E-003   3.7917893400224195E-002
   8.8550711930781775E-003  -3.6653598199629794E-003   3.9013709005203970E-002
   6.7051905125427753E-003  -4.3599276454856818E-003   4.0512313938185378E-002
   4.5553098320073315E-003  -5.5476856486109116E-003   4.2413708199168204E-002
   1.1005008262061040E-002  -3.2183231634430598E-003   4.3719124371344793E-002
   9.2398994057157555E-003  -3.1531325708154256E-003   4.4286689762168242E-002
   7.4747905493704105E-003  -3.6355893686251875E-003   4.5221009473370641E-002
   5.7096816930250526E-003  -4.6656935568733671E-003   4.6522083504951829E-002
   3.9445728366797814E-003  -6.2434451355591614E-003   4.8189911856911467E-002
   9.2681593716502642E-003  -2.6808516251591863E-003   5.0013988288805544E-002
   7.8517873318722509E-003  -2.8422829695866070E-003   5.0401635580639370E-002
   6.4354152920942653E-003  -3.6058189172876176E-003   5.1120002185229219E-002
   5.0190432523162659E-003  -4.9714594682612190E-003   5.2169088102574868E-002
   3.6026712125382665E-003  -6.9392046225077442E-003   5.3548893332676317E-002
   6.5832899362201491E-003  -4.1561666747139681E-003   2.9609634337747548E-002
   6.0556892633442660E-003  -6.1404300544088963E-003   3.4085900965137195E-002
   5.5280885904683275E-003  -1.0893402737552654E-002   3.9246703804970473E-002
   5.0004879175924444E-003  -1.8415084724144819E-002   4.5092042857248077E-002
   4.4728872447165058E-003  -2.8705476014185827E-002   5.1621918121969035E-002
   5.4348821985207574E-003  -4.8519261616626341E-003   3.6220282359447076E-002
   5.4880504801508023E-003  -6.9869525672217048E-003   3.8359366952749663E-002
   5.5412187617808611E-003  -1.1357769964001091E-002   4.0975453242620252E-002
   5.5943870434109616E-003  -1.7964378352001549E-002   4.4068541229059149E-002
   5.6475553250409649E-003  -2.6806777731221976E-002   4.7638630912065771E-002
   4.5553098320073315E-003  -5.5476856486109116E-003   4.2413708199168204E-002
   4.9817125522673145E-003  -7.8334750800342356E-003   4.2748529070612606E-002
   5.4081152725273529E-003  -1.1822137190449764E-002   4.3352817122748813E-002
   5.8345179927873636E-003  -1.7513671979857950E-002   4.4226572355576622E-002
   6.2609207130473743E-003  -2.4908079448258347E-002   4.5369794769097416E-002
   3.9445728366797814E-003  -6.2434451355591614E-003   4.8189911856911467E-002
   4.5366754796937608E-003  -8.6799975928466833E-003   4.7253387318725061E-002
   5.1287781227077126E-003  -1.2286504416898318E-002   4.6378795445354906E-002
   5.7208807657215949E-003  -1.7062965607714406E-002   4.5566136236800170E-002
   6.3129834087356437E-003  -2.3009381165294607E-002   4.4815409693062080E-002
   3.6026712125382665E-003  -6.9392046225077442E-003   5.3548893332676317E-002
   4.1529392624301553E-003  -9.5265201056596860E-003   5.1873941697087811E-002
   4.7032073123219886E-003  -1.2750871643346789E-002   5.0053388210439087E-002
   5.2534753622138913E-003  -1.6612259235571060E-002   4.8087232872730562E-002
   5.8037434121057663E-003  -2.1110682882330867E-002   4.5975475683961875E-002
   4.8323276120187442E-002   3.7533628946924136E-003   5.6693687894693867E-002
   4.7191571133446963E-002  -2.1170534261798490E-003   5.4925328044742150E-002
   4.6059866146706513E-002  -6.3317706939045315E-003   5.3782565776180180E-002
   4.4928161159966076E-002  -8.8907889084818212E-003   5.3265401089007791E-002
   4.3796456173225584E-002  -9.7941080699113781E-003   5.3373833983224928E-002
   4.0198370155790586E-002  -3.0710733877111762E-003   4.9313711440817698E-002
   3.9568382917841941E-002  -6.0713868807153459E-003   5.0006495473331136E-002
   3.8938395679893198E-002  -8.1779422196002483E-003   5.1077117422038409E-002
   3.8308408441944559E-002  -9.3907394043658346E-003   5.2525577286939754E-002
   3.7678421203995824E-002  -9.7097784350121674E-003   5.4351875068034849E-002
   3.3383759302823460E-002  -9.8955096701148493E-003   4.5184808264323695E-002
   3.3007730148470818E-002  -1.0025720335250912E-002   4.7576795280273948E-002
   3.2631700994118114E-002  -1.0024113745295979E-002   5.0098860547222471E-002
   3.2255671839765437E-002  -9.8906899002499903E-003   5.2751004065169256E-002
   3.1879642685412782E-002  -9.6254488001129290E-003   5.5533225834114047E-002
   2.7879443561285831E-002  -1.6719945952518495E-002   4.4306978365211878E-002
   2.7509612825333502E-002  -1.3980053789786485E-002   4.7636227465570967E-002
   2.7139782089381087E-002  -1.1870285270991675E-002   5.0847795151732225E-002
   2.6769951353428717E-002  -1.0390640396134103E-002   5.3941681423696194E-002
   2.6400120617476347E-002  -9.5411191652137600E-003   5.6917886281462417E-002
   2.3685422931177869E-002  -2.3544382234922112E-002   4.6680221743482297E-002
   2.3074030948430052E-002  -1.7934387244322031E-002   5.0184792029221770E-002
   2.2462638965682236E-002  -1.3716456796687454E-002   5.3323921235567784E-002
   2.1851246982934419E-002  -1.0890590892018194E-002   5.6097609362520506E-002
   2.1239855000186603E-002  -9.4567895303144800E-003   5.8505856410079882E-002
   4.3796456173225584E-002  -9.7941080699113781E-003   5.3373833983224928E-002
   4.2136996773566193E-002  -9.8238687160500660E-003   5.2374885090560347E-002
   4.0477537373906775E-002  -9.7622113847541103E-003   5.1700734712444074E-002
   3.8818077974247356E-002  -9.6091360760237679E-003   5.1351382848876234E-002
   3.7158618574587937E-002  -9.3646427898586571E-003   5.1326829499856785E-002
   3.7678421203995824E-002  -9.7097784350121674E-003   5.4351875068034849E-002
   3.6324662773885533E-002  -9.5558271499682629E-003   5.3724905308365559E-002
   3.4970904343775248E-002  -9.3496533876629359E-003   5.3384538973246159E-002
   3.3617145913664923E-002  -9.0912571480965040E-003   5.3330776062676430E-002
   3.2263387483554631E-002  -8.7806384312685837E-003   5.3563616576656731E-002
   3.1879642685412782E-002  -9.6254488001129290E-003   5.5533225834114047E-002
   3.0793390134853028E-002  -9.2877855838863488E-003   5.5239039707266742E-002
   2.9707137584293289E-002  -8.9370953905718725E-003   5.5193261914970829E-002
   2.8620885033733556E-002  -8.5733782201691290E-003   5.5395892457226141E-002
   2.7534632483173824E-002  -8.1966340726784270E-003   5.5846931334032776E-002
   2.6400120617476347E-002  -9.5411191652137600E-003   5.6917886281462417E-002
   2.5543178856468635E-002  -9.0197440178046012E-003   5.6917288287263938E-002
   2.4686237095460910E-002  -8.5245373934805871E-003   5.7126903537618276E-002
   2.3829295334453205E-002  -8.0554992922419900E-003   5.7546732032525333E-002
   2.2972353573445469E-002  -7.6126297140883120E-003   5.8176773771985171E-002
   2.1239855000186603E-002  -9.4567895303144800E-003   5.8505856410079882E-002
   2.0574028938732350E-002  -8.7517024517226871E-003   5.8759651048357037E-002
   1.9908202877278118E-002  -8.1119793963896070E-003   5.9185463841188418E-002
   1.9242376815823876E-002  -7.5376203643145942E-003   5.9783294788573998E-002
   1.8576550754369620E-002  -7.0286253554981970E-003   6.0553143890513750E-002
   3.7158618574587937E-002  -9.3646427898586571E-003   5.1326829499856785E-002
   3.5619426251271652E-002  -9.0516767094582506E-003   5.0776076943861104E-002
   3.4080233927955367E-002  -8.6931830180214803E-003   5.0430211272078057E-002
   3.2541041604639095E-002  -8.2891617155484466E-003   5.0289232484507826E-002
   3.1001849281322824E-002  -7.8396128020390421E-003   5.0353140581150369E-002
   3.2263387483554631E-002  -8.7806384312685837E-003   5.3563616576656731E-002
   3.0921410146831363E-002  -8.4302387788844080E-003   5.3208101716137574E-002
   2.9579432810108115E-002  -8.0524997326487241E-003   5.3042129944591829E-002
   2.8237455473384850E-002  -7.6474212925619241E-003   5.3065701262019462E-002
   2.6895478136661599E-002  -7.2150034586235812E-003   5.3278815668420243E-002
   2.7534632483173824E-002  -8.1966340726784270E-003   5.5846931334032776E-002
   2.6374526337804141E-002  -7.8088008483105237E-003   5.5668465951805426E-002
   2.5214420192434465E-002  -7.4118164472761275E-003   5.5664199863311857E-002
   2.4054314047064800E-002  -7.0056808695752888E-003   5.5834133068552130E-002
   2.2894207901695107E-002  -6.5903941152081202E-003   5.6178265567526392E-002
   2.2972353573445469E-002  -7.6126297140883120E-003   5.8176773771985171E-002
   2.1978774824189969E-002  -7.1873629177366602E-003   5.8157169650864454E-002
   2.0985196074934431E-002  -6.7711331619034511E-003   5.8296421028238191E-002
   1.9991617325678900E-002  -6.3639404465888208E-003   5.8594527904106464E-002
   1.8998038576423362E-002  -5.9657847717926593E-003   5.9051490278469017E-002
   1.8576550754369620E-002  -7.0286253554981970E-003   6.0553143890513750E-002
   1.7734155605988816E-002  -6.5659249871627690E-003   6.0674212813314865E-002
   1.6891760457608013E-002  -6.1304498765307747E-003   6.0938793439370864E-002
   1.6049365309227209E-002  -5.7222000236022141E-003   6.1346885768682136E-002
   1.5206970160846406E-002  -5.3411754283771984E-003   6.1898489801248235E-002
   3.1001849281322824E-002  -7.8396128020390421E-003   5.0353140581150369E-002
   2.9296143184112139E-002  -7.3868962998270837E-003   4.9815927680736283E-002
   2.7590437086901454E-002  -6.9733722312460278E-003   4.9478630384679367E-002
   2.5884730989690782E-002  -6.5990405962963669E-003   4.9341248692979234E-002
   2.4179024892480111E-002  -6.2639013949777889E-003   4.9403782605636271E-002
   2.6895478136661599E-002  -7.2150034586235812E-003   5.3278815668420243E-002
   2.5390388655603446E-002  -6.7767595469184760E-003   5.2819964853522083E-002
   2.3885299174545307E-002  -6.3542028735308898E-003   5.2562431666571874E-002
   2.2380209693487148E-002  -5.9473334384614190E-003   5.2506216107569767E-002
   2.0875120212429016E-002  -5.5561512417092729E-003   5.2651318176515804E-002
   2.2894207901695107E-002  -6.5903941152081202E-003   5.6178265567526392E-002
   2.1591137060380530E-002  -6.1666227940098961E-003   5.5821282033457487E-002
   2.0288066219065926E-002  -5.7350335158158766E-003   5.5667018150927547E-002
   1.8984995377751321E-002  -5.2956262806263081E-003   5.5715473919936621E-002
   1.7681924536436751E-002  -4.8484010884410345E-003   5.5966649340484925E-002
   1.8998038576423362E-002  -5.9657847717926593E-003   5.9051490278469017E-002
   1.7898388398443384E-002  -5.5564860411012468E-003   5.8819879220542784E-002
   1.6798738220463388E-002  -5.1158641581007455E-003   5.8792389837746484E-002
   1.5699088042483385E-002  -4.6439191227912232E-003   5.8969022130080283E-002
   1.4599437864503415E-002  -4.1406509351725462E-003   5.9349776097544361E-002
   1.5206970160846406E-002  -5.3411754283771984E-003   6.1898489801248235E-002
   1.4312142669792013E-002  -4.9463492881926530E-003   6.1815756414777712E-002
   1.3417315178737649E-002  -4.4966948003856422E-003   6.1938546727028532E-002
   1.2522487687683277E-002  -3.9922119649562285E-003   6.2266860738000696E-002
   1.1627660196628892E-002  -3.4329007819042801E-003   6.2800698447693870E-002
   2.4179024892480111E-002  -6.2639013949777889E-003   4.9403782605636271E-002
   2.2397849248530860E-002  -5.9042787245877637E-003   4.8991151487508489E-002
   2.0616673604581623E-002  -5.4564966824238448E-003   4.8779967093432297E-002
   1.8835497960632393E-002  -4.9205552684859696E-003   4.8770229423407557E-002
   1.7054322316683135E-002  -4.2964544827743811E-003   4.8961938477434130E-002
   2.0875120212429016E-002  -5.5561512417092729E-003   5.2651318176515804E-002
   1.9296214877940657E-002  -5.1508434292234506E-003   5.2416268568636071E-002
   1.7717309543452311E-002  -4.7015971469513973E-003   5.2384312855626475E-002
   1.6138404208963966E-002  -4.2084123948936680E-003   5.2555451037487128E-002
   1.4559498874475607E-002  -3.6712891730501518E-003   5.2929683114218251E-002
   1.7681924536436751E-002  -4.8484010884410345E-003   5.5966649340484925E-002
   1.6306936682227956E-002  -4.3974081338589155E-003   5.5864960340865355E-002
   1.4931948828019233E-002  -3.9466976114789637E-003   5.5968012406934622E-002
   1.3556960973810485E-002  -3.4962695213012589E-003   5.6275805538692748E-002
   1.2181973119601716E-002  -3.0461238633258114E-003   5.6788339736139948E-002
   1.4599437864503415E-002  -4.1406509351725462E-003   5.9349776097544361E-002
   1.3430014661392922E-002  -3.6439728384943249E-003   5.9337226804196661E-002
   1.2260591458282399E-002  -3.1917980760065787E-003   5.9531065747356990E-002
   1.1091168255171924E-002  -2.7841266477088480E-003   5.9931292927024364E-002
   9.9217450520614169E-003  -2.4209585536014711E-003   6.0537908343199928E-002
   1.1627660196628892E-002  -3.4329007819042801E-003   6.2800698447693870E-002
   1.0665448815435352E-002  -2.8905375431300118E-003   6.2833067958630195E-002
   9.7032374342418126E-003  -2.4368985405341104E-003   6.3073472876892855E-002
   8.7410260530482731E-003  -2.0719837741164440E-003   6.3521913202481850E-002
   7.7788146718547335E-003  -1.7957932438772417E-003   6.4178388935397179E-002
   1.7054322316683135E-002  -4.2964544827743811E-003   4.8961938477434130E-002
   1.5107781580424917E-002  -3.6943439504742437E-003   4.8841284269163676E-002
   1.3161240844166699E-002  -3.2243732967719985E-003   4.8976407834968705E-002
   1.1214700107908482E-002  -2.8865425216665769E-003   4.9367309174849466E-002
   9.2681593716502642E-003  -2.6808516251591863E-003   5.0013988288805544E-002
   1.4559498874475607E-002  -3.6712891730501518E-003   5.2929683114218251E-002
   1.2869426308154991E-002  -3.1744858290921329E-003   5.2798657937066007E-002
   1.1179353741834347E-002  -2.8022607106911179E-003   5.2924791325713400E-002
   9.4892811755137099E-003  -2.5546138178478284E-003   5.3308083280160443E-002
   7.7992086091930868E-003  -2.4315451505614316E-003   5.3948533800406928E-002
   1.2181973119601716E-002  -3.0461238633258114E-003   5.6788339736139948E-002
   1.0749749514942723E-002  -2.6546277077096614E-003   5.6654505243146303E-002
   9.3175259102837374E-003  -2.3801481246107092E-003   5.6779210107676198E-002
   7.8853023056247515E-003  -2.2226851140286427E-003   5.7162454329729800E-002
   6.4530787009657586E-003  -2.1822386759636214E-003   5.7804237909307332E-002
   9.9217450520614169E-003  -2.4209585536014711E-003   6.0537908343199928E-002
   8.7487512007881404E-003  -2.1347695863272592E-003   6.0408826187404785E-002
   7.5757573495148518E-003  -1.9580355385300646E-003   6.0539664180857551E-002
   6.4027634982415822E-003  -1.8907564102094536E-003   6.0930422323558053E-002
   5.2297696469683144E-003  -1.9329322013657835E-003   6.1581100615506132E-002
   7.7788146718547335E-003  -1.7957932438772417E-003   6.4178388935397179E-002
   6.8664313656912196E-003  -1.6149114649451901E-003   6.4061620769841232E-002
   5.9540480595277334E-003  -1.5359229524494478E-003   6.4206153545257216E-002
   5.0416647533642195E-003  -1.5588277063905490E-003   6.4611987261644938E-002
   4.1292814472007056E-003  -1.6836257267680566E-003   6.5279121919004424E-002
   9.2681593716502642E-003  -2.6808516251591863E-003   5.0013988288805544E-002
   7.8517873318722509E-003  -2.8422829695866070E-003   5.0401635580639370E-002
   6.4354152920942653E-003  -3.6058189172876176E-003   5.1120002185229219E-002
   5.0190432523162659E-003  -4.9714594682612190E-003   5.2169088102574868E-002
   3.6026712125382665E-003  -6.9392046225077442E-003   5.3548893332676317E-002
   7.7992086091930868E-003  -2.4315451505614316E-003   5.3948533800406928E-002
   6.6865276680878327E-003  -2.6258011249105651E-003   5.3875885901894183E-002
   5.5738467269825787E-003  -3.3301281569735885E-003   5.4079900887971016E-002
   4.4611657858773246E-003  -4.5445262467509046E-003   5.4560578758637304E-002
   3.3484848447720705E-003  -6.2689953942416388E-003   5.5317919513893421E-002
   6.4530787009657586E-003  -2.1822386759636214E-003   5.7804237909307332E-002
   5.5900324303670007E-003  -2.4093192802344399E-003   5.7363328366006966E-002
   4.7269861597682566E-003  -3.0544373966601146E-003   5.7145025279129930E-002
   3.8639398891694883E-003  -4.1175930252402571E-003   5.7149328648676112E-002
   3.0008936185707547E-003  -5.5987861659755889E-003   5.7376238474645763E-002
   5.2297696469683144E-003  -1.9329322013657835E-003   6.1581100615506132E-002
   4.5623016187097618E-003  -2.1928374355581343E-003   6.0863962972977442E-002
   3.8948335904512577E-003  -2.7787466363465296E-003   6.0315375358705584E-002
   3.2273655621927301E-003  -3.6906598037298871E-003   5.9935337772691152E-002
   2.5598975339342009E-003  -4.9285769377095112E-003   5.9723850214933323E-002
   4.1292814472007056E-003  -1.6836257267680566E-003   6.5279121919004424E-002
   3.6033352331161644E-003  -1.9763555908821617E-003   6.4377789722806167E-002
   3.0773890190316094E-003  -2.5030558760326949E-003   6.3590951126698769E-002
   2.5514428049470544E-003  -3.2637265822194825E-003   6.2918606130682259E-002
   2.0254965908624856E-003  -4.2583677094433225E-003   6.2360754734756552E-002
   3.6026712125382665E-003  -6.9392046225077442E-003   5.3548893332676317E-002
   4.1529392624301553E-003  -9.5265201056596860E-003   5.1873941697087811E-002
   4.7032073123219886E-003  -1.2750871643346789E-002   5.0053388210439087E-002
   5.2534753622138913E-003  -1.6612259235571060E-002   4.8087232872730562E-002
   5.8037434121057663E-003  -2.1110682882330867E-002   4.5975475683961875E-002
   3.3484848447720705E-003  -6.2689953942416388E-003   5.5317919513893421E-002
   3.7709268785052624E-003  -8.5361376482133156E-003   5.2961183249879418E-002
   4.1933689122384821E-003  -1.1378555057431516E-002   5.0494396804608044E-002
   4.6158109459716254E-003  -1.4796247621897199E-002   4.7917560178079438E-002
   5.0382529797048381E-003  -1.8789215341609822E-002   4.5230673370293406E-002
   3.0008936185707547E-003  -5.5987861659755889E-003   5.7376238474645763E-002
   3.3310613059479716E-003  -7.5457551907672227E-003   5.4399478481495511E-002
   3.6612289933252024E-003  -1.0006238471516229E-002   5.1348219976890611E-002
   3.9913966807025060E-003  -1.2980236008223390E-002   4.8222462960831429E-002
   4.3215643680796778E-003  -1.6467747800888555E-002   4.5022207433316974E-002
   2.5598975339342009E-003  -4.9285769377095112E-003   5.9723850214933323E-002
   2.8333425447582793E-003  -6.5553727333208800E-003   5.6188827391935856E-002
   3.1067875555823958E-003  -8.6339218856009495E-003   5.2614857727287065E-002
   3.3802325664064542E-003  -1.1164224394549777E-002   4.9001941220986021E-002
   3.6536775772305630E-003  -1.4146280260167399E-002   4.5350077873033606E-002
   2.0254965908624856E-003  -4.2583677094433225E-003   6.2360754734756552E-002
   2.2777705949361682E-003  -5.5649902758747594E-003   5.8329229981201158E-002
   2.5300445990098647E-003  -7.2616052996855862E-003   5.4294310055797268E-002
   2.7823186030835334E-003  -9.3482127808760321E-003   5.0255994958543798E-002
   3.0345926071572160E-003  -1.1824812719446243E-002   4.6214284689441332E-002
   2.3685422931177869E-002  -2.3544382234922112E-002   4.6680221743482297E-002
   2.3074030948430052E-002  -1.7934387244322031E-002   5.0184792029221770E-002
   2.2462638965682236E-002  -1.3716456796687454E-002   5.3323921235567784E-002
   2.1851246982934419E-002  -1.0890590892018194E-002   5.6097609362520506E-002
   2.1239855000186603E-002  -9.4567895303144800E-003   5.8505856410079882E-002
   1.9550929196649747E-002  -1.7658286615935825E-002   5.6939579276074015E-002
   1.8703668404178739E-002  -1.3450790397622009E-002   5.8164424038711915E-002
   1.7856407611707745E-002  -1.0287342581346393E-002   5.9282972261296613E-002
   1.7009146819236737E-002  -8.1679431671087405E-003   6.0295223943828261E-002
   1.6161886026765750E-002  -7.0925921549091220E-003   6.1201179086307012E-002
   1.4225194141851742E-002  -1.1772190996949539E-002   6.5622429965915802E-002
   1.3401209078997806E-002  -8.9671935509220563E-003   6.4915565346379378E-002
   1.2577224016143862E-002  -6.8582283660053173E-003   6.4361548726130230E-002
   1.1753238953289925E-002  -5.4452954421992002E-003   6.3960380105168357E-002
   1.0929253890435985E-002  -4.7283947795037640E-003   6.3712059483493400E-002
   7.7082177667838411E-003  -5.8860953779632519E-003   7.2728773813007241E-002
   7.1666529728872299E-003  -4.4835967042220967E-003   7.0438215952224270E-002
   6.6250881789906031E-003  -3.4291141506643044E-003   6.8559650630068622E-002
   6.0835233850939831E-003  -2.7226477172896755E-003   6.7093077846540450E-002
   5.5419585911973658E-003  -2.3641974040984337E-003   6.6038497601639712E-002
   7.1446099036975852E-011   2.4102303486372989E-010   7.8258610817349028E-002
   8.5847037811781490E-011   1.4247786284116160E-010   7.4732375856246536E-002
   1.0024797311714018E-010   6.4676722311141077E-011   7.1877277973111858E-002
   1.1464891362666929E-010   7.6198110321445967E-012   6.9693317167944677E-002
   1.2904984719730450E-010  -2.8692992426471164E-011   6.8180493440745449E-002
   2.1239855000186603E-002  -9.4567895303144800E-003   5.8505856410079882E-002
   2.0574028938732350E-002  -8.7517024517226871E-003   5.8759651048357037E-002
   1.9908202877278118E-002  -8.1119793963896070E-003   5.9185463841188418E-002
   1.9242376815823876E-002  -7.5376203643145942E-003   5.9783294788573998E-002
   1.8576550754369620E-002  -7.0286253554981970E-003   6.0553143890513750E-002
   1.6161886026765750E-002  -7.0925921549091220E-003   6.1201179086307012E-002
   1.5666687709510935E-002  -6.5637768514746758E-003   6.1241726631945395E-002
   1.5171489392256130E-002  -6.0839845635319648E-003   6.1451511511428358E-002
   1.4676291075001313E-002  -5.6532152910810599E-003   6.1830533724756040E-002
   1.4181092757746511E-002  -5.2714690341221226E-003   6.2378793271928384E-002
   1.0929253890435985E-002  -4.7283947795037640E-003   6.3712059483493400E-002
   1.0601902496671079E-002  -4.3758512512263315E-003   6.3555700944259663E-002
   1.0274551102906178E-002  -4.0559897306742670E-003   6.3565798918160943E-002
   9.9471997091412703E-003  -3.7688102178473036E-003   6.3742353405197461E-002
   9.6198483153763711E-003  -3.5143127127457707E-003   6.4085364405369022E-002
   5.5419585911973658E-003  -2.3641974040984337E-003   6.6038497601639712E-002
   5.3796733002128153E-003  -2.1879256509782091E-003   6.5701573985300146E-002
   5.2173880092282673E-003  -2.0279948978164861E-003   6.5528326061386338E-002
   5.0551027182437255E-003  -1.8844051446136583E-003   6.5518753829898024E-002
   4.8928174272591714E-003  -1.7571563913695021E-003   6.5672857290835204E-002
   1.2904984719730450E-010  -2.8692992426471164E-011   6.8180493440745449E-002
   1.2013612327166356E-010  -5.0729948020133975E-011   6.7679345755066844E-002
   1.1122239934602263E-010  -6.4958941004000792E-011   6.7339092941104350E-002
   1.0230867802246690E-010  -7.1380071992033223E-011   6.7159734998857926E-002
   9.3394951494740752E-011  -6.9993288942526988E-011   6.7141271928327528E-002
   1.8576550754369620E-002  -7.0286253554981970E-003   6.0553143890513750E-002
   1.7734155605988816E-002  -6.5659249871627690E-003   6.0674212813314865E-002
   1.6891760457608013E-002  -6.1304498765307747E-003   6.0938793439370864E-002
   1.6049365309227209E-002  -5.7222000236022141E-003   6.1346885768682136E-002
   1.5206970160846406E-002  -5.3411754283771984E-003   6.1898489801248235E-002
   1.4181092757746511E-002  -5.2714690341221226E-003   6.2378793271928384E-002
   1.3498981082495032E-002  -4.9244437563252808E-003   6.2327025418588644E-002
   1.2816869407243546E-002  -4.5978374213611339E-003   6.2452312808252627E-002
   1.2134757731992064E-002  -4.2916500292297724E-003   6.2754655440920210E-002
   1.1452646056740595E-002  -4.0058815799312031E-003   6.3234053316591432E-002
   9.6198483153763711E-003  -3.5143127127457707E-003   6.4085364405369022E-002
   9.1315636530028693E-003  -3.2829625254877509E-003   6.3867566090759165E-002
   8.6432789906293675E-003  -3.0652249661915487E-003   6.3860366558901843E-002
   8.1549943282558726E-003  -2.8611000348573307E-003   6.4063765809796905E-002
   7.6667096658823777E-003  -2.6705877314848747E-003   6.4477763843444141E-002
   4.8928174272591714E-003  -1.7571563913695021E-003   6.5672857290835204E-002
   4.6319033175123243E-003  -1.6414812946501864E-003   6.5295834829826538E-002
   4.3709892077654789E-003  -1.5326125110220190E-003   6.5162954691318525E-002
   4.1100750980186292E-003  -1.4305500404848889E-003   6.5274216875311680E-002
   3.8491609882717864E-003  -1.3352938830386019E-003   6.5629621381805642E-002
   9.3394951494740752E-011  -6.9993288942526988E-011   6.7141271928327528E-002
   7.6023416728521198E-011  -6.3812732875589973E-011   6.6611831635790320E-002
   5.8651875023407740E-011  -5.5852295011149522E-011   6.6360077205502688E-002
   4.1280333318294282E-011  -4.6112384743945967E-011   6.6386008637464744E-002
   2.3908798552074728E-011  -3.4592495534724321E-011   6.6689625931676433E-002
   1.5206970160846406E-002  -5.3411754283771984E-003   6.1898489801248235E-002
   1.4312142669792013E-002  -4.9463492881926530E-003   6.1815756414777712E-002
   1.3417315178737649E-002  -4.4966948003856422E-003   6.1938546727028532E-002
   1.2522487687683277E-002  -3.9922119649562285E-003   6.2266860738000696E-002
   1.1627660196628892E-002  -3.4329007819042801E-003   6.2800698447693870E-002
   1.1452646056740595E-002  -4.0058815799312031E-003   6.3234053316591432E-002
   1.0767888057259069E-002  -3.7097619719491937E-003   6.3172228240131328E-002
   1.0083130057777556E-002  -3.3725211037682334E-003   6.3325018448095710E-002
   9.3983720582960506E-003  -2.9941589753883918E-003   6.3692423940484785E-002
   8.7136140588145172E-003  -2.5746755868092386E-003   6.4274444717298318E-002
   7.6667096658823777E-003  -2.6705877314848747E-003   6.4477763843444141E-002
   7.2011127436771745E-003  -2.4731746557055956E-003   6.4423139989570610E-002
   6.7355158214719747E-003  -2.2483474071508108E-003   6.4592223005825011E-002
   6.2699188992667767E-003  -1.9961059858203296E-003   6.4985012892207650E-002
   5.8043219770615717E-003  -1.7164503917141971E-003   6.5601509648718165E-002
   3.8491609882717864E-003  -1.3352938830386019E-003   6.5629621381805642E-002
   3.6118167290463306E-003  -1.2365873394621224E-003   6.5568491663095377E-002
   3.3744724698208809E-003  -1.1241737105332841E-003   6.5740160400216505E-002
   3.1371282105954307E-003  -9.9805299625243572E-004   6.6144627593169122E-002
   2.8997839513699754E-003  -8.5822519661904462E-004   6.6781893241953244E-002
   2.3908798552074728E-011  -3.4592495534724321E-011   6.6689625931676433E-002
   1.3366537043868476E-011  -2.3218649225498211E-011   6.6608283260705836E-002
   2.8242859440030799E-012  -1.3915993357649370E-011   6.6768830631270287E-002
  -7.7179668905857923E-012  -6.6844897672613257E-012   6.7171268043369578E-002
  -1.8260226664068568E-011  -1.5241141682054149E-012   6.7815595497004000E-002
   1.1627660196628892E-002  -3.4329007819042801E-003   6.2800698447693870E-002
   1.0665448815435352E-002  -2.8905375431300118E-003   6.2833067958630195E-002
   9.7032374342418126E-003  -2.4368985405341104E-003   6.3073472876892855E-002
   8.7410260530482731E-003  -2.0719837741164440E-003   6.3521913202481850E-002
   7.7788146718547335E-003  -1.7957932438772417E-003   6.4178388935397179E-002
   8.7136140588145172E-003  -2.5746755868092386E-003   6.4274444717298318E-002
   7.9675674445823241E-003  -2.1679031568551110E-003   6.4242063937117455E-002
   7.2215208303500894E-003  -1.8276739043503742E-003   6.4433977283533034E-002
   6.4754742161178616E-003  -1.5539878292944800E-003   6.4850184756544790E-002
   5.7294276018856477E-003  -1.3468449316876852E-003   6.5490686356153127E-002
   5.8043219770615717E-003  -1.7164503917141971E-003   6.5601509648718165E-002
   5.2906988490607071E-003  -1.4452687705802381E-003   6.5526559636149090E-002
   4.7770757210598355E-003  -1.2184492681662912E-003   6.5692162469446577E-002
   4.2634525930589570E-003  -1.0359918844722905E-003   6.6098318148610335E-002
   3.7498294650580855E-003  -8.9789661949835065E-004   6.6745026673640628E-002
   2.8997839513699754E-003  -8.5822519661904462E-004   6.6781893241953244E-002
   2.6348430288705114E-003  -7.2263438430540672E-004   6.6686555055725294E-002
   2.3699021063710440E-003  -6.0922463198249260E-004   6.6848028434633722E-002
   2.1049611838715714E-003  -5.1799593965032482E-004   6.7266313378678680E-002
   1.8400202613721127E-003  -4.4894830730907165E-004   6.7941409887859960E-002
  -1.8260226664068568E-011  -1.5241141682054149E-012   6.7815595497004000E-002
  -1.5988252388687840E-011   1.9696466679874902E-012   6.7722050195845984E-002
  -1.3716285052201016E-011   4.2016112811182893E-012   6.7901575179094564E-002
  -1.1444314246267240E-011   5.1718282434443097E-012   6.8354170446749574E-002
  -9.1723434403334636E-012   4.8804293939497256E-012   6.9079835998811290E-002
   7.7788146718547335E-003  -1.7957932438772417E-003   6.4178388935397179E-002
   6.8664313656912196E-003  -1.6149114649451901E-003   6.4061620769841232E-002
   5.9540480595277334E-003  -1.5359229524494478E-003   6.4206153545257216E-002
   5.0416647533642195E-003  -1.5588277063905490E-003   6.4611987261644938E-002
   4.1292814472007056E-003  -1.6836257267680566E-003   6.5279121919004424E-002
   5.7294276018856477E-003  -1.3468449316876852E-003   6.5490686356153127E-002
   5.0700439581729470E-003  -1.2111835976972296E-003   6.5346249237107912E-002
   4.4106603144602394E-003  -1.1519422134891044E-003   6.5446510501992683E-002
   3.7512766707475387E-003  -1.1691207790639965E-003   6.5791470150807080E-002
   3.0918930270348310E-003  -1.2627192944216770E-003   6.6381128183551685E-002
   3.7498294650580855E-003  -8.9789661949835065E-004   6.6745026673640628E-002
   3.3268429267541873E-003  -8.0745573044899155E-004   6.6598393917760096E-002
   2.9038563884502891E-003  -7.6796147452874719E-004   6.6679856988767480E-002
   2.4808698501463909E-003  -7.7941385173732960E-004   6.6989415886662490E-002
   2.0578833118424927E-003  -8.4181286207507533E-004   6.7527070611445500E-002
   1.8400202613721127E-003  -4.4894830730907165E-004   6.7941409887859960E-002
   1.6368282714350002E-003  -4.0372786320100329E-004   6.7818054811797840E-002
   1.4336362814979086E-003  -3.8398073556800832E-004   6.7906193005581594E-002
   1.2304442915608135E-003  -3.8970692441066442E-004   6.8205824469211182E-002
   1.0272523016237045E-003  -4.2090642972869574E-004   6.8716949202686339E-002
  -9.1723434403334636E-012   4.8804293939497256E-012   6.9079835998811290E-002
  -7.7846479262788648E-012   4.0472070139685457E-012   6.9005231919221144E-002
  -6.3969350649895063E-012   3.3920366515616251E-012   6.9125518552434873E-002
  -5.0092343467644795E-012   2.9159660797084541E-012   6.9440695898452337E-002
  -3.6215266896455489E-012   2.6179058920661191E-012   6.9950763957273732E-002
   4.1292814472007056E-003  -1.6836257267680566E-003   6.5279121919004424E-002
   3.6033352331161644E-003  -1.9763555908821617E-003   6.4377789722806167E-002
   3.0773890190316094E-003  -2.5030558760326949E-003   6.3590951126698769E-002
   2.5514428049470544E-003  -3.2637265822194825E-003   6.2918606130682259E-002
   2.0254965908624856E-003  -4.2583677094433225E-003   6.2360754734756552E-002
   3.0918930270348310E-003  -1.2627192944216770E-003   6.6381128183551685E-002
   2.6846886514331758E-003  -1.4822666925487504E-003   6.5282698812322348E-002
   2.2774842758314998E-003  -1.8772919064332649E-003   6.4307259517967952E-002
   1.8702799002298341E-003  -2.4477949360739715E-003   6.3454810300488523E-002
   1.4630755246281685E-003  -3.1937757814717305E-003   6.2725351159884202E-002
   2.0578833118424927E-003  -8.4181286207507533E-004   6.7527070611445500E-002
   1.7779172515078254E-003  -9.8817779421594976E-004   6.6290036670465041E-002
   1.4979511911731545E-003  -1.2515279368337379E-003   6.5184489283143618E-002
   1.2179851308384802E-003  -1.6318632899284639E-003   6.4210428449481105E-002
   9.3801907050380245E-004  -2.1291838535001939E-003   6.3367854169477905E-002
   1.0272523016237045E-003  -4.2090642972869574E-004   6.8716949202686339E-002
   8.8302103334012699E-004  -4.9408889588295479E-004   6.7399803297234204E-002
   7.3878976505655728E-004  -6.2576396723403732E-004   6.6222640422225448E-002
   5.9455849677298063E-004  -8.1593164378306569E-004   6.5185460577659740E-002
   4.5032722848941005E-004  -1.0645919255287406E-003   6.4288263763537107E-002
  -3.6215266896455489E-012   2.6179058920661191E-012   6.9950763957273732E-002
  -3.0698985020727321E-012   2.4502622153477205E-012   6.8611998692630016E-002
  -2.5182807228407711E-012   2.3652191316614335E-012   6.7421712935213429E-002
  -1.9666612088853341E-012   2.3627766410072581E-012   6.6379906685024470E-002
  -1.4150347560359933E-012   2.4429347433851945E-012   6.5486579942062528E-002
   2.0254965908624856E-003  -4.2583677094433225E-003   6.2360754734756552E-002
   2.2777705949361682E-003  -5.5649902758747594E-003   5.8329229981201158E-002
   2.5300445990098647E-003  -7.2616052996855862E-003   5.4294310055797268E-002
   2.7823186030835334E-003  -9.3482127808760321E-003   5.0255994958543798E-002
   3.0345926071572160E-003  -1.1824812719446243E-002   4.6214284689441332E-002
   1.4630755246281685E-003  -3.1937757814717305E-003   6.2725351159884202E-002
   1.6970360245651545E-003  -4.1737427062362720E-003   5.8375029285973379E-002
   1.9309965245021474E-003  -5.4462039739774926E-003   5.3991475575637882E-002
   2.1649570244391438E-003  -7.0111595846953784E-003   4.9574690028878043E-002
   2.3989175243761540E-003  -8.8686095383903041E-003   4.5124672645693975E-002
   9.3801907050380245E-004  -2.1291838535001939E-003   6.3367854169477905E-002
   1.1238294017287750E-003  -2.7824951365975625E-003   5.8796233289613642E-002
   1.3096397329537442E-003  -3.6308026482689409E-003   5.4161543908749707E-002
   1.4954500641787133E-003  -4.6741063885146657E-003   4.9463786026885691E-002
   1.6812603954036720E-003  -5.9124063573343655E-003   4.4702959644022822E-002
   4.5032722848941005E-004  -1.0645919255287406E-003   6.4288263763537107E-002
   5.5815072642700220E-004  -1.3912475669587421E-003   5.9592841992122295E-002
   6.6597422436461429E-004  -1.8154013225602852E-003   5.4804515055132480E-002
   7.7379772230220904E-004  -2.3370531923333163E-003   4.9923282952567434E-002
   8.8162122023981854E-004  -2.9562031762784269E-003   4.4949145684428066E-002
  -1.4150347560359933E-012   2.4429347433851945E-012   6.5486579942062528E-002
  -1.3401293963433147E-012   2.6803004260500529E-012   6.0764855393499850E-002
  -1.2652205672036843E-012   3.1479263640221689E-012   5.5920389014786354E-002
  -1.1903030644466739E-012   3.8469782914773987E-012   5.0953180805923204E-002
  -1.1154133172652791E-012   4.7775117195669736E-012   4.5863230766909346E-002
   7.1446099036975852E-011   2.4102303486372989E-010   7.8258610817349028E-002
   8.5847037811781490E-011   1.4247786284116160E-010   7.4732375856246536E-002
   1.0024797311714018E-010   6.4676722311141077E-011   7.1877277973111858E-002
   1.1464891362666929E-010   7.6198110321445967E-012   6.9693317167944677E-002
   1.2904984719730450E-010  -2.8692992426471164E-011   6.8180493440745449E-002
  -7.7082176272713424E-003   5.8860957562313354E-003   7.2728773749659859E-002
  -7.1666528060918173E-003   4.4835969276897647E-003   7.0438215917727753E-002
  -6.6250879849122802E-003   3.4291142521019613E-003   6.8559650621385193E-002
  -6.0835231637327500E-003   2.7226477294680224E-003   6.7093077860632136E-002
  -5.5419583425532180E-003   2.3641973597877119E-003   6.6038497635468540E-002
  -1.4225194012478310E-002   1.1772191271439636E-002   6.5622429885869540E-002
  -1.3401208926898372E-002   8.9671937129017221E-003   6.4915565315317475E-002
  -1.2577223841318406E-002   6.8582284395272211E-003   6.4361548737976670E-002
  -1.1753238755738469E-002   5.4452954513161764E-003   6.3960380153847182E-002
  -1.0929253670158508E-002   4.7283947482684996E-003   6.3712059562929038E-002
  -1.9550929084174801E-002   1.7658286786647950E-002   5.6939579225978060E-002
  -1.8703668276572601E-002   1.3450790498113638E-002   5.8164424049015506E-002
  -1.7856407468970412E-002   1.0287342626952498E-002   5.9282972322886270E-002
  -1.7009146661368234E-002   8.1679431731643860E-003   6.0295224047590072E-002
  -1.6161885853766024E-002   7.0925921367492734E-003   6.1201179223127025E-002
  -2.3685422842360825E-002   2.3544382301856237E-002   4.6680221769985375E-002
  -2.3074030855114558E-002   1.7934387283325609E-002   5.0184792118822097E-002
  -2.2462638867868288E-002   1.3716456814377664E-002   5.3323921376113914E-002
  -2.1851246880622038E-002   1.0890590895012570E-002   5.6097609541860660E-002
  -2.1239854893375768E-002   9.4567895252300471E-003   5.8505856616062446E-002
   1.2904984719730450E-010  -2.8692992426471164E-011   6.8180493440745449E-002
   1.2013612327166356E-010  -5.0729948020133975E-011   6.7679345755066844E-002
   1.1122239934602263E-010  -6.4958941004000792E-011   6.7339092941104350E-002
   1.0230867802246690E-010  -7.1380071992033223E-011   6.7159734998857926E-002
   9.3394951494740752E-011  -6.9993288942526988E-011   6.7141271928327528E-002
  -5.5419583425532180E-003   2.3641973597877119E-003   6.6038497635468540E-002
  -5.3796730687553597E-003   2.1879255725439223E-003   6.5701574014646727E-002
  -5.2173877949575082E-003   2.0279947972191431E-003   6.5528326087532132E-002
  -5.0551025211596542E-003   1.8844050338136069E-003   6.5518753854124617E-002
  -4.8928172473617984E-003   1.7571562823271436E-003   6.5672857314424238E-002
  -1.0929253670158508E-002   4.7283947482684996E-003   6.3712059562929038E-002
  -1.0601902291658021E-002   4.3758511958176954E-003   6.3555701011075355E-002
  -1.0274550913157534E-002   4.0559896593973452E-003   6.3565798974919763E-002
  -9.9471995346570499E-003   3.7688101390072320E-003   6.3742353454462553E-002
  -9.6198481561565515E-003   3.5143126346476039E-003   6.4085364449703197E-002
  -1.6161885853766024E-002   7.0925921367492734E-003   6.1201179223127025E-002
  -1.5666687548571850E-002   6.5637768190915172E-003   6.1241726744352576E-002
  -1.5171489243377677E-002   6.0839845215755993E-003   6.1451511603267450E-002
  -1.4676290938183505E-002   5.6532152442008840E-003   6.1830533799871482E-002
  -1.4181092632989330E-002   5.2714689869679116E-003   6.2378793334164649E-002
  -2.1239854893375768E-002   9.4567895252300471E-003   5.8505856616062446E-002
  -2.0574028839496845E-002   8.7517024423653667E-003   5.8759651214478514E-002
  -1.9908202785617939E-002   8.1119793837536175E-003   5.9185463972574931E-002
  -1.9242376731739036E-002   7.5376203493945880E-003   5.9783294890351599E-002
  -1.8576550677860112E-002   7.0286253392884412E-003   6.0553143967808476E-002
   9.3394951494740752E-011  -6.9993288942526988E-011   6.7141271928327528E-002
   7.6023416728521198E-011  -6.3812732875589973E-011   6.6611831635790320E-002
   5.8651875023407740E-011  -5.5852295011149522E-011   6.6360077205502688E-002
   4.1280333318294282E-011  -4.6112384743945967E-011   6.6386008637464744E-002
   2.3908798552074728E-011  -3.4592495534724321E-011   6.6689625931676433E-002
  -4.8928172473617984E-003   1.7571562823271436E-003   6.5672857314424238E-002
  -4.6319031709908219E-003   1.6414811947515762E-003   6.5295834844182887E-002
  -4.3709890946198419E-003   1.5326124230782001E-003   6.5162954699176989E-002
  -4.1100750182488663E-003   1.4305499673075636E-003   6.5274216879406599E-002
  -3.8491609418778855E-003   1.3352938274394099E-003   6.5629621384871384E-002
  -9.6198481561565515E-003   3.5143126346476039E-003   6.4085364449703197E-002
  -9.1315635230573150E-003   3.2829624533157187E-003   6.3867566115880681E-002
  -8.6432788899580663E-003   3.0652249020090144E-003   6.3860366570279201E-002
  -8.1549942568588246E-003   2.8610999807275085E-003   6.4063765812899021E-002
  -7.6667096237595812E-003   2.6705876894712877E-003   6.4477763843739808E-002
  -1.4181092632989330E-002   5.2714689869679116E-003   6.2378793334164649E-002
  -1.3498980980176066E-002   4.9244437118798889E-003   6.2327025450883512E-002
  -1.2816869327362802E-002   4.5978373809397247E-003   6.2452312818809280E-002
  -1.2134757674549544E-002   4.2916499941474551E-003   6.2754655437941939E-002
  -1.1452646021736273E-002   4.0058815515032348E-003   6.3234053308281496E-002
  -1.8576550677860112E-002   7.0286253392884412E-003   6.0553143967808476E-002
  -1.7734155542347082E-002   6.5659249704441425E-003   6.0674212849191611E-002
  -1.6891760406834044E-002   6.1304498598703516E-003   6.0938793444767214E-002
  -1.6049365271321021E-002   5.7222000075673254E-003   6.1346885754535702E-002
  -1.5206970135807976E-002   5.3411754135351264E-003   6.1898489778496713E-002
   2.3908798552074728E-011  -3.4592495534724321E-011   6.6689625931676433E-002
   1.3366537043868476E-011  -2.3218649225498211E-011   6.6608283260705836E-002
   2.8242859440030799E-012  -1.3915993357649370E-011   6.6768830631270287E-002
  -7.7179668905857923E-012  -6.6844897672613257E-012   6.7171268043369578E-002
  -1.8260226664068568E-011  -1.5241141682054149E-012   6.7815595497004000E-002
  -3.8491609418778855E-003   1.3352938274394099E-003   6.5629621384871384E-002
  -3.6118167029782974E-003   1.2365873013497064E-003   6.5568491660504519E-002
  -3.3744724640787076E-003   1.1241736869145730E-003   6.5740160393486374E-002
  -3.1371282251791239E-003   9.9805298413417273E-004   6.6144627583816951E-002
  -2.8997839862795367E-003   8.5822519300837730E-004   6.6781893231496470E-002
  -7.6667096237595812E-003   2.6705876894712877E-003   6.4477763843739808E-002
  -7.2011127196042884E-003   2.4731746259178400E-003   6.4423139979702324E-002
  -6.7355158154489940E-003   2.2483473877450352E-003   6.4592222988827636E-002
  -6.2699189112937065E-003   1.9961059749527815E-003   6.4985012871115425E-002
  -5.8043220071384068E-003   1.7164503875409798E-003   6.5601509626565913E-002
  -1.1452646021736273E-002   4.0058815515032348E-003   6.3234053308281496E-002
  -1.0767888036511431E-002   3.7097619504861401E-003   6.3172228218299431E-002
  -1.0083130051286587E-002   3.3725210885754940E-003   6.3325018417294029E-002
  -9.3983720660617345E-003   2.9941589657714171E-003   6.3692423905265041E-002
  -8.7136140808368959E-003   2.5746755820735268E-003   6.4274444682212634E-002
  -1.5206970135807976E-002   5.3411754135351264E-003   6.1898489778496713E-002
  -1.4312142653699712E-002   4.9463492750543847E-003   6.1815756376295994E-002
  -1.3417315171591462E-002   4.4966947894061332E-003   6.1938546678885570E-002
  -1.2522487689483199E-002   3.9922119565899868E-003   6.2266860686265510E-002
  -1.1627660207374942E-002   3.4329007766060737E-003   6.2800698398435828E-002
  -1.8260226664068568E-011  -1.5241141682054149E-012   6.7815595497004000E-002
  -1.5988252388687840E-011   1.9696466679874902E-012   6.7722050195845984E-002
  -1.3716285052201016E-011   4.2016112811182893E-012   6.7901575179094564E-002
  -1.1444314246267240E-011   5.1718282434443097E-012   6.8354170446749574E-002
  -9.1723434403334636E-012   4.8804293939497256E-012   6.9079835998811290E-002
  -2.8997839862795367E-003   8.5822519300837730E-004   6.6781893231496470E-002
  -2.6348430594369428E-003   7.2263438664604829E-004   6.6686555045968432E-002
  -2.3699021325943523E-003   6.0922463815571426E-004   6.6848028425175093E-002
  -2.1049612057517627E-003   5.1799594753793032E-004   6.7266313369116509E-002
  -1.8400202789091678E-003   4.4894831479225239E-004   6.7941409877792847E-002
  -5.8043220071384068E-003   1.7164503875409798E-003   6.5601509626565913E-002
  -5.2906988753969025E-003   1.4452687713225054E-003   6.5526559615801672E-002
  -4.7770757436553851E-003   1.2184492721101642E-003   6.5692162450100525E-002
  -4.2634526119138668E-003   1.0359918899042024E-003   6.6098318129462430E-002
  -3.7498294801723495E-003   8.9789662470424192E-004   6.6745026653887374E-002
  -8.7136140808368959E-003   2.5746755820735268E-003   6.4274444682212634E-002
  -7.9675674638681332E-003   2.1679031559989903E-003   6.4242063905346009E-002
  -7.2215208468993600E-003   1.8276739060644961E-003   6.4433977253870747E-002
  -6.4754742299306060E-003   1.5539878322705005E-003   6.4850184727786919E-002
  -5.7294276129618241E-003   1.3468449346159816E-003   6.5490686327094455E-002
  -1.1627660207374942E-002   3.4329007766060737E-003   6.2800698398435828E-002
  -1.0665448824850612E-002   2.8905375406754197E-003   6.2833067914601026E-002
  -9.7032374423263110E-003   2.4368985400187726E-003   6.3073472836485733E-002
  -8.7410260598020026E-003   2.0719837746365349E-003   6.3521913164090310E-002
  -7.7788146772776873E-003   1.7957932445281655E-003   6.4178388897414451E-002
  -9.1723434403334636E-012   4.8804293939497256E-012   6.9079835998811290E-002
  -7.7846479262788648E-012   4.0472070139685457E-012   6.9005231919221144E-002
  -6.3969350649895063E-012   3.3920366515616251E-012   6.9125518552434873E-002
  -5.0092343467644795E-012   2.9159660797084541E-012   6.9440695898452337E-002
  -3.6215266896455489E-012   2.6179058920661191E-012   6.9950763957273732E-002
  -1.8400202789091678E-003   4.4894831479225239E-004   6.7941409877792847E-002
  -1.6368282863250261E-003   4.0372786937881155E-004   6.7818054803554351E-002
  -1.4336362937408826E-003   3.8398074075729483E-004   6.7906192998904880E-002
  -1.2304443011567322E-003   3.8970692892881242E-004   6.8205824463844544E-002
  -1.0272523085725974E-003   4.2090643389158799E-004   6.8716949198373345E-002
  -3.7498294801723495E-003   8.9789662470424192E-004   6.6745026653887374E-002
  -3.3268429396064569E-003   8.0745573471052712E-004   6.6598393901614344E-002
  -2.9038563990405834E-003   7.6796147812267790E-004   6.6679856975715726E-002
  -2.4808698584746938E-003   7.7941385494121815E-004   6.6989415876191588E-002
  -2.0578833179088173E-003   8.4181286516549214E-004   6.7527070603041750E-002
  -5.7294276129618241E-003   1.3468449346159816E-003   6.5490686327094455E-002
  -5.0700439676289386E-003   1.2111836000421872E-003   6.5346249213400959E-002
  -4.4106603222960304E-003   1.1519422154878320E-003   6.5446510482866899E-002
  -3.7512766769631271E-003   1.1691207809535666E-003   6.5791470135492441E-002
  -3.0918930316302376E-003   1.2627192964394518E-003   6.6381128171278003E-002
  -7.7788146772776873E-003   1.7957932445281655E-003   6.4178388897414451E-002
  -6.8664313703924659E-003   1.6149114653738472E-003   6.4061620738914082E-002
  -5.9540480635072481E-003   1.5359229528529861E-003   6.4206153520358467E-002
  -5.0416647566220354E-003   1.5588277069664425E-003   6.4611987241747992E-002
  -4.1292814497368088E-003   1.6836257277131894E-003   6.5279121903082271E-002
  -3.6215266896455489E-012   2.6179058920661191E-012   6.9950763957273732E-002
  -3.0698985020727321E-012   2.4502622153477205E-012   6.8611998692630016E-002
  -2.5182807228407711E-012   2.3652191316614335E-012   6.7421712935213429E-002
  -1.9666612088853341E-012   2.3627766410072581E-012   6.6379906685024470E-002
  -1.4150347560359933E-012   2.4429347433851945E-012   6.5486579942062528E-002
  -1.0272523085725974E-003   4.2090643389158799E-004   6.8716949198373345E-002
  -8.8302103923795089E-004   4.9408889991436888E-004   6.7399803293605065E-002
  -7.3878976990330962E-004   6.2576397126412608E-004   6.6222640419175527E-002
  -5.9455850056866575E-004   8.1593164794041551E-004   6.5185460575084786E-002
  -4.5032723123402188E-004   1.0645919299441253E-003   6.4288263761333009E-002
  -2.0578833179088173E-003   8.4181286516549214E-004   6.7527070603041750E-002
  -1.7779172566796319E-003   9.8817779737869760E-004   6.6290036663392921E-002
  -1.4979511954504596E-003   1.2515279401630330E-003   6.5184489277194474E-002
  -1.2179851342212808E-003   1.6318632935184985E-003   6.4210428444446535E-002
  -9.3801907299210195E-004   2.1291838574453159E-003   6.3367854165148618E-002
  -3.0918930316302376E-003   1.2627192964394518E-003   6.6381128171278003E-002
  -2.6846886553949807E-003   1.4822666948430263E-003   6.5282698801993097E-002
  -2.2774842791597368E-003   1.8772919090619400E-003   6.4307259509270201E-002
  -1.8702799029244902E-003   2.4477949390965814E-003   6.3454810293109121E-002
  -1.4630755266892364E-003   3.1937757849465065E-003   6.2725351153509940E-002
  -4.1292814497368088E-003   1.6836257277131894E-003   6.5279121903082271E-002
  -3.6033352353839754E-003   1.9763555923073550E-003   6.4377789709405886E-002
  -3.0773890210311350E-003   2.5030558779608747E-003   6.3590951115402750E-002
  -2.5514428066783067E-003   3.2637265846743937E-003   6.2918606121072945E-002
  -2.0254965923254611E-003   4.2583677124476971E-003   6.2360754726416667E-002
  -1.4150347560359933E-012   2.4429347433851945E-012   6.5486579942062528E-002
  -1.3401293963433147E-012   2.6803004260500529E-012   6.0764855393499850E-002
  -1.2652205672036843E-012   3.1479263640221689E-012   5.5920389014786354E-002
  -1.1903030644466739E-012   3.8469782914773987E-012   5.0953180805923204E-002
  -1.1154133172652791E-012   4.7775117195669736E-012   4.5863230766909346E-002
  -4.5032723123402188E-004   1.0645919299441253E-003   6.4288263761333009E-002
  -5.5815072903685897E-004   1.3912475718973472E-003   5.9592841990505574E-002
  -6.6597422683968739E-004   1.8154013284233383E-003   5.4804515054073244E-002
  -7.7379772464249933E-004   2.3370531995219462E-003   4.9923282952035408E-002
  -8.8162122244535290E-004   2.9562031851937398E-003   4.4949145684393121E-002
  -9.3801907299210195E-004   2.1291838574453159E-003   6.3367854165148618E-002
  -1.1238294041273876E-003   2.7824951411149490E-003   5.8796233286398547E-002
  -1.3096397352626880E-003   3.6308026536989724E-003   5.4161543906588505E-002
  -1.4954500663979914E-003   4.6741063951970807E-003   4.9463786025718465E-002
  -1.6812603975332741E-003   5.9124063656097459E-003   4.4702959643789231E-002
  -1.4630755266892364E-003   3.1937757849465065E-003   6.2725351153509940E-002
  -1.6970360266117387E-003   4.1737427103324953E-003   5.8375029281178700E-002
  -1.9309965265342204E-003   5.4462039789738292E-003   5.3991475572332526E-002
  -2.1649570264567057E-003   7.0111595908720209E-003   4.9574690026971707E-002
  -2.3989175263792045E-003   8.8686095460257519E-003   4.5124672645096842E-002
  -2.0254965923254611E-003   4.2583677124476971E-003   6.2360754726416667E-002
  -2.2777705964898629E-003   5.5649902795495976E-003   5.8329229974845687E-002
  -2.5300446006542888E-003   7.2616053042499074E-003   5.4294310051305472E-002
  -2.7823186048186940E-003   9.3482127865468778E-003   5.0255994955795746E-002
  -3.0345926089831166E-003   1.1824812726441980E-002   4.6214284688316454E-002
  -2.3685422842360825E-002   2.3544382301856237E-002   4.6680221769985375E-002
  -2.3074030855114558E-002   1.7934387283325609E-002   5.0184792118822097E-002
  -2.2462638867868288E-002   1.3716456814377664E-002   5.3323921376113914E-002
  -2.1851246880622038E-002   1.0890590895012570E-002   5.6097609541860660E-002
  -2.1239854893375768E-002   9.4567895252300471E-003   5.8505856616062446E-002
  -2.7879443503391495E-002   1.6719945922444523E-002   4.4306978369109157E-002
  -2.7509612773557152E-002   1.3980053771904838E-002   4.7636227528686542E-002
  -2.7139782043722714E-002   1.1870285263396813E-002   5.0847795264985021E-002
  -2.6769951313888332E-002   1.0390640396920468E-002   5.3941681578004892E-002
  -2.6400120584053957E-002   9.5411191724757427E-003   5.6917886467746037E-002
  -3.3383759283622104E-002   9.8955095430328377E-003   4.5184808289999628E-002
  -3.3007730142933234E-002   1.0025720260484081E-002   4.7576795352766293E-002
  -3.2631701002244419E-002   1.0024113712415933E-002   5.0098860660520578E-002
  -3.2255671861555611E-002   9.8906898988284780E-003   5.2751004213262481E-002
  -3.1879642720866776E-002   9.6254488197215216E-003   5.5533226010991865E-002
  -4.0198370183052459E-002   3.0710731636211241E-003   4.9313711532656485E-002
  -3.9568382963242971E-002   6.0713867490633719E-003   5.0006495591061413E-002
  -3.8938395743433378E-002   8.1779421614350672E-003   5.1077117562720417E-002
  -3.8308408523623855E-002   9.3907394007364045E-003   5.2525577447633233E-002
  -3.7678421303814297E-002   9.7097784669671755E-003   5.4351875245799958E-002
  -4.8323276201682752E-002  -3.7533632157905616E-003   5.6693688097079697E-002
  -4.7191571234486140E-002   2.1170532376425522E-003   5.4925328243572047E-002
  -4.6059866267289598E-002   6.3317706104541877E-003   5.3782565971584678E-002
  -4.4928161300093035E-002   8.8907889026444108E-003   5.3265401281117411E-002
  -4.3796456332896458E-002   9.7941081142129960E-003   5.3373834172170342E-002
  -2.1239854893375768E-002   9.4567895252300471E-003   5.8505856616062446E-002
  -2.0574028839496845E-002   8.7517024423653667E-003   5.8759651214478514E-002
  -1.9908202785617939E-002   8.1119793837536175E-003   5.9185463972574931E-002
  -1.9242376731739036E-002   7.5376203493945880E-003   5.9783294890351599E-002
  -1.8576550677860112E-002   7.0286253392884412E-003   6.0553143967808476E-002
  -2.6400120584053957E-002   9.5411191724757427E-003   5.6917886467746037E-002
  -2.5543178825575136E-002   9.0197440294894210E-003   5.6917288437516159E-002
  -2.4686237067096301E-002   8.5245374073882191E-003   5.7126903656805797E-002
  -2.3829295308617493E-002   8.0554993061722584E-003   5.7546732125614918E-002
  -2.2972353550138647E-002   7.6126297258413134E-003   5.8176773843943735E-002
  -3.1879642720866776E-002   9.6254488197215216E-003   5.5533226010991865E-002
  -3.0793390167948787E-002   9.2877856166135447E-003   5.5239039848748242E-002
  -2.9707137615030781E-002   8.9370954310230497E-003   5.5193262025863353E-002
  -2.8620885062112758E-002   8.5733782629499860E-003   5.5395892542337413E-002
  -2.7534632509194763E-002   8.1966341123941022E-003   5.5846931398170208E-002
  -3.7678421303814297E-002   9.7097784669671755E-003   5.4351875245799958E-002
  -3.6324662866617820E-002   9.5558272037376893E-003   5.3724905448174903E-002
  -3.4970904429421336E-002   9.3496534546579045E-003   5.3384539079747780E-002
  -3.3617145992224859E-002   9.0912572197275748E-003   5.3330776140518829E-002
  -3.2263387555028375E-002   8.7806384989469605E-003   5.3563616630488094E-002
  -4.3796456332896458E-002   9.7941081142129960E-003   5.3373834172170342E-002
  -4.2136996921582223E-002   9.8238687908617783E-003   5.2374885235795976E-002
  -4.0477537510267995E-002   9.7622114782925234E-003   5.1700734818458965E-002
  -3.8818078098953782E-002   9.6091361765053666E-003   5.1351382920159366E-002
  -3.7158618687639533E-002   9.3646428854997632E-003   5.1326829540897123E-002
  -1.8576550677860112E-002   7.0286253392884412E-003   6.0553143967808476E-002
  -1.7734155542347082E-002   6.5659249704441425E-003   6.0674212849191611E-002
  -1.6891760406834044E-002   6.1304498598703516E-003   6.0938793444767214E-002
  -1.6049365271321021E-002   5.7222000075673254E-003   6.1346885754535702E-002
  -1.5206970135807976E-002   5.3411754135351264E-003   6.1898489778496713E-002
  -2.2972353550138647E-002   7.6126297258413134E-003   5.8176773843943735E-002
  -2.1978774803236352E-002   7.1873629261370309E-003   5.8157169685065346E-002
  -2.0985196056334067E-002   6.7711331668012242E-003   5.8296421034772936E-002
  -1.9991617309431779E-002   6.3639404478338102E-003   5.8594527893066427E-002
  -1.8998038562529490E-002   5.9657847692346500E-003   5.9051490259945660E-002
  -2.7534632509194763E-002   8.1966341123941022E-003   5.5846931398170208E-002
  -2.6374526356509942E-002   7.8088008818300997E-003   5.5668465981128137E-002
  -2.5214420203825146E-002   7.4118164737320830E-003   5.5664199867065278E-002
  -2.4054314051140332E-002   7.0056808881001249E-003   5.5834133055981471E-002
  -2.2894207898455504E-002   6.5903941249341458E-003   5.6178265547876929E-002
  -3.2263387555028375E-002   8.7806384989469605E-003   5.3563616630488094E-002
  -3.0921410202167827E-002   8.4302388375230228E-003   5.3208101737379929E-002
  -2.9579432849307256E-002   8.0524997806630597E-003   5.3042129941644159E-002
  -2.8237455496446705E-002   7.6474213283664137E-003   5.3065701243280909E-002
  -2.6895478143586136E-002   7.2150034806336555E-003   5.3278815642289812E-002
  -3.7158618687639533E-002   9.3646428854997632E-003   5.1326829540897123E-002
  -3.5619426340209981E-002   9.0516767932160291E-003   5.0776076953820637E-002
  -3.4080233992780429E-002   8.6931830875938282E-003   5.0430211258509855E-002
  -3.2541041645350877E-002   8.2891617686328724E-003   5.0289232454964708E-002
  -3.1001849297921324E-002   7.8396128363331097E-003   5.0353140543185015E-002
  -1.5206970135807976E-002   5.3411754135351264E-003   6.1898489778496713E-002
  -1.4312142653699712E-002   4.9463492750543847E-003   6.1815756376295994E-002
  -1.3417315171591462E-002   4.4966947894061332E-003   6.1938546678885570E-002
  -1.2522487689483199E-002   3.9922119565899868E-003   6.2266860686265510E-002
  -1.1627660207374942E-002   3.4329007766060737E-003   6.2800698398435828E-002
  -1.8998038562529490E-002   5.9657847692346500E-003   5.9051490259945660E-002
  -1.7898388387574182E-002   5.5564860353284340E-003   5.8819879187521906E-002
  -1.6798738212618916E-002   5.1158641504392144E-003   5.8792389796001709E-002
  -1.5699088037663615E-002   4.6439191145672479E-003   5.8969022085385223E-002
  -1.4599437862708342E-002   4.1406509277124859E-003   5.9349776055672543E-002
  -2.2894207898455504E-002   6.5903941249341458E-003   5.6178265547876929E-002
  -2.1591137054539876E-002   6.1666227956023445E-003   5.5821282001414702E-002
  -2.0288066210624227E-002   5.7350335114725662E-003   5.5667018111969634E-002
  -1.8984995366708592E-002   5.2956262725447293E-003   5.5715473879541649E-002
  -1.7681924522792918E-002   4.8484010788188980E-003   5.5966649304130561E-002
  -2.6895478143586136E-002   7.2150034806336555E-003   5.3278815642289812E-002
  -2.5390388654596769E-002   6.7767595558762689E-003   5.2819964817974442E-002
  -2.3885299165607415E-002   6.3542028725056716E-003   5.2562431626789329E-002
  -2.2380209676618031E-002   5.9473334305219895E-003   5.2506216068734610E-002
  -2.0875120187628670E-002   5.5561512299252547E-003   5.2651318143810272E-002
  -3.1001849297921324E-002   7.8396128363331097E-003   5.0353140543185015E-002
  -2.9296143187744858E-002   7.3868963161501933E-003   4.9815927637200885E-002
  -2.7590437077568447E-002   6.9733722335389575E-003   4.9478630340460711E-002
  -2.5884730967392001E-002   6.5990405884995725E-003   4.9341248652963979E-002
  -2.4179024857215570E-002   6.2639013810317223E-003   4.9403782574711119E-002
  -1.1627660207374942E-002   3.4329007766060737E-003   6.2800698398435828E-002
  -1.0665448824850612E-002   2.8905375406754197E-003   6.2833067914601026E-002
  -9.7032374423263110E-003   2.4368985400187726E-003   6.3073472836485733E-002
  -8.7410260598020026E-003   2.0719837746365349E-003   6.3521913164090310E-002
  -7.7788146772776873E-003   1.7957932445281655E-003   6.4178388897414451E-002
  -1.4599437862708342E-002   4.1406509277124859E-003   5.9349776055672543E-002
  -1.3430014659877497E-002   3.6439728323607867E-003   5.9337226766304763E-002
  -1.2260591457046669E-002   3.1917980709981059E-003   5.9531065711830478E-002
  -1.1091168254215838E-002   2.7841266436238986E-003   5.9931292892249341E-002
  -9.9217450513849961E-003   2.4209585502388276E-003   6.0537908307561838E-002
  -1.7681924522792918E-002   4.8484010788188980E-003   5.5966649304130561E-002
  -1.6306936670481900E-002   4.3974081240460150E-003   5.5864960307944786E-002
  -1.4931948818170867E-002   3.9466976019767730E-003   5.5968012375826021E-002
  -1.3556960965859809E-002   3.4962695126112622E-003   5.6275805507774224E-002
  -1.2181973113548789E-002   3.0461238559494341E-003   5.6788339703789631E-002
  -2.0875120187628670E-002   5.5561512299252547E-003   5.2651318143810272E-002
  -1.9296214856663794E-002   5.1508434157310906E-003   5.2416268539521166E-002
  -1.7717309525698940E-002   4.7015971329558842E-003   5.2384312828472869E-002
  -1.6138404194734085E-002   4.2084123815986814E-003   5.2555451010665041E-002
  -1.4559498863769213E-002   3.6712891616601240E-003   5.2929683086098120E-002
  -2.4179024857215570E-002   6.2639013810317223E-003   4.9403782574711119E-002
  -2.2397849218423221E-002   5.9042787074166103E-003   4.8991151461033722E-002
  -2.0616673579630845E-002   5.4564966639347456E-003   4.8779967069770558E-002
  -1.8835497940838462E-002   4.9205552505860381E-003   4.8770229400921766E-002
  -1.7054322302046121E-002   4.2964544673707028E-003   4.8961938454487264E-002
  -7.7788146772776873E-003   1.7957932445281655E-003   6.4178388897414451E-002
  -6.8664313703924659E-003   1.6149114653738472E-003   6.4061620738914082E-002
  -5.9540480635072481E-003   1.5359229528529861E-003   6.4206153520358467E-002
  -5.0416647566220354E-003   1.5588277069664425E-003   6.4611987241747992E-002
  -4.1292814497368088E-003   1.6836257277131894E-003   6.5279121903082271E-002
  -9.9217450513849961E-003   2.4209585502388276E-003   6.0537908307561838E-002
  -8.7487512003622606E-003   2.1347695835995939E-003   6.0408826158265538E-002
  -7.5757573493394972E-003   1.9580355364627045E-003   6.0539664157299278E-002
  -6.4027634983167617E-003   1.8907564088289988E-003   6.0930422304663195E-002
  -5.2297696472939983E-003   1.9329322006977900E-003   6.1581100600357264E-002
  -1.2181973113548789E-002   3.0461238559494341E-003   5.6788339703789631E-002
  -1.0749749510003430E-002   2.6546277018253406E-003   5.6654505216566481E-002
  -9.3175259064580927E-003   2.3801481200727559E-003   5.6779210086058712E-002
  -7.8853023029127195E-003   2.2226851106916662E-003   5.7162454312265951E-002
  -6.4530786993673688E-003   2.1822386736823352E-003   5.7804237895188432E-002
  -1.4559498863769213E-002   3.6712891616601240E-003   5.2929683086098120E-002
  -1.2869426299316103E-002   3.1744858200510317E-003   5.2798657913817056E-002
  -1.1179353734862977E-002   2.8022607036826408E-003   5.2924791306636174E-002
  -9.4892811704098828E-003   2.5546138125543336E-003   5.3308083264555835E-002
  -7.7992086059567450E-003   2.4315451466666305E-003   5.3948533787575574E-002
  -1.7054322302046121E-002   4.2964544673707028E-003   4.8961938454487264E-002
  -1.5107781568300171E-002   3.6943439382769450E-003   4.8841284250017214E-002
  -1.3161240834554208E-002   3.2243732872925535E-003   4.8976407819032397E-002
  -1.1214700100808273E-002   2.8865425144169524E-003   4.9367309161533091E-002
  -9.2681593670622953E-003   2.6808516196513699E-003   5.0013988277519128E-002
  -4.1292814497368088E-003   1.6836257277131894E-003   6.5279121903082271E-002
  -3.6033352353839754E-003   1.9763555923073550E-003   6.4377789709405886E-002
  -3.0773890210311350E-003   2.5030558779608747E-003   6.3590951115402750E-002
  -2.5514428066783067E-003   3.2637265846743937E-003   6.2918606121072945E-002
  -2.0254965923254611E-003   4.2583677124476971E-003   6.2360754726416667E-002
  -5.2297696472939983E-003   1.9329322006977900E-003   6.1581100600357264E-002
  -4.5623016191590794E-003   2.1928374356138258E-003   6.0863962960098994E-002
  -3.8948335910241536E-003   2.7787466371210490E-003   6.0315375347731515E-002
  -3.2273655628892468E-003   3.6906598052192860E-003   5.9935337763255048E-002
  -2.5598975347543088E-003   4.9285769399091128E-003   5.9723850206669260E-002
  -6.4530786993673688E-003   2.1822386736823352E-003   5.7804237895188432E-002
  -5.5900324292328940E-003   2.4093192789201856E-003   5.7363328353879944E-002
  -4.7269861590983507E-003   3.0544373962806542E-003   5.7145025268679636E-002
  -3.8639398889638225E-003   4.1175930257642858E-003   5.7149328639587806E-002
  -3.0008936188293325E-003   5.5987861673705286E-003   5.7376238466604168E-002
  -7.7992086059567450E-003   2.4315451466666305E-003   5.3948533787575574E-002
  -6.6865276656052075E-003   2.6258011222267119E-003   5.3875885890748466E-002
  -5.5738467252536431E-003   3.3301281554405995E-003   5.4079900878246975E-002
  -4.4611657849020925E-003   4.5445262463091208E-003   5.4560578750071184E-002
  -3.3484848445505411E-003   6.2689953948318333E-003   5.5317919506221336E-002
  -9.2681593670622953E-003   2.6808516196513699E-003   5.0013988277519128E-002
  -7.8517873282762385E-003   2.8422829655330162E-003   5.0401635570704761E-002
  -6.4354152894901123E-003   3.6058189146003505E-003   5.1120002176433477E-002
  -5.0190432507040417E-003   4.9714594668541015E-003   5.2169088094705524E-002
  -3.6026712119179294E-003   6.9392046222933601E-003   5.3548893325521041E-002
  -2.0254965923254611E-003   4.2583677124476971E-003   6.2360754726416667E-002
  -2.2777705964898629E-003   5.5649902795495976E-003   5.8329229974845687E-002
  -2.5300446006542888E-003   7.2616053042499074E-003   5.4294310051305472E-002
  -2.7823186048186940E-003   9.3482127865468778E-003   5.0255994955795746E-002
  -3.0345926089831166E-003   1.1824812726441980E-002   4.6214284688316454E-002
  -2.5598975347543088E-003   4.9285769399091128E-003   5.9723850206669260E-002
  -2.8333425457788310E-003   6.5553727362779313E-003   5.6188827385743600E-002
  -3.1067875568033775E-003   8.6339218894143366E-003   5.2614857723067010E-002
  -3.3802325678279378E-003   1.1164224399317378E-002   4.9001941218639489E-002
  -3.6536775788524253E-003   1.4146280265987521E-002   4.5350077872460925E-002
  -3.0008936188293325E-003   5.5987861673705286E-003   5.7376238466604168E-002
  -3.3310613064956567E-003   7.5457551930062650E-003   5.4399478475493118E-002
  -3.6612289941619532E-003   1.0006238474578877E-002   5.1348219972849607E-002
  -3.9913966818282843E-003   1.2980236012087712E-002   4.8222462958673870E-002
  -4.3215643694945668E-003   1.6467747805533062E-002   4.5022207432964589E-002
  -3.3484848445505411E-003   6.2689953948318333E-003   5.5317919506221336E-002
  -3.7709268786402859E-003   8.5361376497348207E-003   5.2961183244094635E-002
  -4.1933689127300585E-003   1.1378555059743473E-002   5.0494396800653638E-002
  -4.6158109468198375E-003   1.4796247624858018E-002   4.7917560175897898E-002
  -5.0382529809096027E-003   1.8789215345078603E-002   4.5230673369828556E-002
  -3.6026712119179294E-003   6.9392046222933601E-003   5.3548893325521041E-002
  -4.1529392622127737E-003   9.5265201064629323E-003   5.1873941691547576E-002
  -4.7032073125076457E-003   1.2750871644908013E-002   5.0053388206478311E-002
  -5.2534753628025385E-003   1.6612259237628477E-002   4.8087232870313079E-002
  -5.8037434130973620E-003   2.1110682884624143E-002   4.5975475683052380E-002
  -4.8323276201682752E-002  -3.7533632157905616E-003   5.6693688097079697E-002
  -4.7191571234486140E-002   2.1170532376425522E-003   5.4925328243572047E-002
  -4.6059866267289598E-002   6.3317706104541877E-003   5.3782565971584678E-002
  -4.4928161300093035E-002   8.8907889026444108E-003   5.3265401281117411E-002
  -4.3796456332896458E-002   9.7941081142129960E-003   5.3373834172170342E-002
  -5.6440443050450914E-002   5.2706592720797030E-003   5.2075260122834921E-002
  -5.4798848601466985E-002   8.6302289324313441E-003   5.0187445000534486E-002
  -5.3157254152483076E-002   1.0986456417436521E-002   4.8693811260288683E-002
  -5.1515659703499181E-002   1.2339341727095280E-002   4.7594358902097331E-002
  -4.9874065254515265E-002   1.2688884861407623E-002   4.6889087925960526E-002
  -6.3231836440295036E-002   1.4294681759950023E-002   4.4619806902871026E-002
  -6.1311768708989398E-002   1.5143404627220108E-002   4.3264893417053016E-002
  -5.9391700977683870E-002   1.5641142224418862E-002   4.2072745113823813E-002
  -5.7471633246378308E-002   1.5787894551546236E-002   4.1043361993183425E-002
  -5.5551565515072732E-002   1.5583661608602251E-002   4.0176744055131872E-002
  -6.8697456371215035E-002   2.3318704247820302E-002   3.4327328437188095E-002
  -6.6730331557053463E-002   2.1656580322008886E-002   3.4157673493127400E-002
  -6.4763206742891891E-002   2.0295828031401172E-002   3.3919367532189916E-002
  -6.2796081928730429E-002   1.9236447375997175E-002   3.3612410554375576E-002
  -6.0828957114568823E-002   1.8478438355796878E-002   3.3236802559684489E-002
  -7.2837302843210994E-002   3.2342726735690608E-002   2.1197824725786019E-002
  -7.1054537145659125E-002   2.8169756016797554E-002   2.2865785228757929E-002
  -6.9271771448107339E-002   2.4950513838383551E-002   2.4233678515387297E-002
  -6.7489005750555442E-002   2.2685000200448089E-002   2.5301504585674053E-002
  -6.5706240053003628E-002   2.1373215102991561E-002   2.6069263439618295E-002
  -4.3796456332896458E-002   9.7941081142129960E-003   5.3373834172170342E-002
  -4.2136996921582223E-002   9.8238687908617783E-003   5.2374885235795976E-002
  -4.0477537510267995E-002   9.7622114782925234E-003   5.1700734818458965E-002
  -3.8818078098953782E-002   9.6091361765053666E-003   5.1351382920159366E-002
  -3.7158618687639533E-002   9.3646428854997632E-003   5.1326829540897123E-002
  -4.9874065254515265E-002   1.2688884861407623E-002   4.6889087925960526E-002
  -4.7925092022038374E-002   1.2499701833274368E-002   4.6172198883391413E-002
  -4.5976118789561531E-002   1.2236408655596831E-002   4.5709538964110175E-002
  -4.4027145557084660E-002   1.1899005328374665E-002   4.5501108168116922E-002
  -4.2078172324607810E-002   1.1487491851607967E-002   4.5546906495411460E-002
  -5.5551565515072732E-002   1.5583661608602251E-002   4.0176744055131872E-002
  -5.3383647857182720E-002   1.5175534875687152E-002   3.9759222746041656E-002
  -5.1215730199292736E-002   1.4710605832901034E-002   3.9525361164489771E-002
  -4.9047812541402731E-002   1.4188874480243965E-002   3.9475159310476335E-002
  -4.6879894883512740E-002   1.3610340817716005E-002   3.9608617184001230E-002
  -6.0828957114568823E-002   1.8478438355796878E-002   3.3236802559684489E-002
  -5.8512664427015214E-002   1.7851367918099839E-002   3.3135956823746648E-002
  -5.6196371739461591E-002   1.7184803010205262E-002   3.3148201419597685E-002
  -5.3880079051907968E-002   1.6478743632113376E-002   3.3273536347237682E-002
  -5.1563786364354366E-002   1.5733189783824042E-002   3.3511961606666432E-002
  -6.5706240053003628E-002   2.1373215102991561E-002   2.6069263439618295E-002
  -6.3312141731535834E-002   2.0527200960512526E-002   2.6302401116506530E-002
  -6.0918043410068096E-002   1.9659000187509518E-002   2.6578059729434000E-002
  -5.8523945088600357E-002   1.8768612783982723E-002   2.6896239278400944E-002
  -5.6129846767132591E-002   1.7856038749932190E-002   2.7256939763407206E-002
  -3.7158618687639533E-002   9.3646428854997632E-003   5.1326829540897123E-002
  -3.5619426340209981E-002   9.0516767932160291E-003   5.0776076953820637E-002
  -3.4080233992780429E-002   8.6931830875938282E-003   5.0430211258509855E-002
  -3.2541041645350877E-002   8.2891617686328724E-003   5.0289232454964708E-002
  -3.1001849297921324E-002   7.8396128363331097E-003   5.0353140543185015E-002
  -4.2078172324607810E-002   1.1487491851607967E-002   4.5546906495411460E-002
  -4.0339139320873255E-002   1.1029284359655472E-002   4.5076536003854889E-002
  -3.8600106317138776E-002   1.0551798986876373E-002   4.4800959933142800E-002
  -3.6861073313404255E-002   1.0055035733270618E-002   4.4720178283274938E-002
  -3.5122040309669755E-002   9.5389945988378910E-003   4.4834191054251571E-002
  -4.6879894883512740E-002   1.3610340817716005E-002   3.9608617184001230E-002
  -4.4951113694394543E-002   1.3006891926095041E-002   3.9244878520476603E-002
  -4.3022332505276359E-002   1.2410414886159189E-002   3.9065841806874897E-002
  -4.1093551316158147E-002   1.1820909697908362E-002   3.9071507043196341E-002
  -3.9164770127039970E-002   1.1238376361342478E-002   3.9261874229440677E-002
  -5.1563786364354366E-002   1.5733189783824042E-002   3.3511961606666432E-002
  -4.9455349460773790E-002   1.4984499492534491E-002   3.3281104503685544E-002
  -4.7346912557193248E-002   1.4269030785441953E-002   3.3224856879706194E-002
  -4.5238475653612664E-002   1.3586783662545995E-002   3.3343218734728688E-002
  -4.3130038750032178E-002   1.2937758123847051E-002   3.3636190068752778E-002
  -5.6129846767132591E-002   1.7856038749932190E-002   2.7256939763407206E-002
  -5.3851846620010996E-002   1.6962107058974080E-002   2.7185213953481779E-002
  -5.1573846472889373E-002   1.6127646684724536E-002   2.7278005151636586E-002
  -4.9295846325767737E-002   1.5352657627183904E-002   2.7535313357871891E-002
  -4.7017846178646100E-002   1.4637139886351735E-002   2.7957138572187734E-002
  -3.1001849297921324E-002   7.8396128363331097E-003   5.0353140543185015E-002
  -2.9296143187744858E-002   7.3868963161501933E-003   4.9815927637200885E-002
  -2.7590437077568447E-002   6.9733722335389575E-003   4.9478630340460711E-002
  -2.5884730967392001E-002   6.5990405884995725E-003   4.9341248652963979E-002
  -2.4179024857215570E-002   6.2639013810317223E-003   4.9403782574711119E-002
  -3.5122040309669755E-002   9.5389945988378910E-003   4.4834191054251571E-002
  -3.3225037284275297E-002   9.0178575198518185E-003   4.4389959863265743E-002
  -3.1328034258880845E-002   8.5058064325861105E-003   4.4128406893472277E-002
  -2.9431031233486369E-002   8.0028413370405935E-003   4.4049532144871006E-002
  -2.7534028208091990E-002   7.5089622332151773E-003   4.4153335617461986E-002
  -3.9164770127039970E-002   1.1238376361342478E-002   3.9261874229440677E-002
  -3.7093707574479086E-002   1.0648818723553555E-002   3.8880518307601808E-002
  -3.5022645021918195E-002   1.0038240631633256E-002   3.8664603218903644E-002
  -3.2951582469357310E-002   9.4066420855816683E-003   3.8614128963346234E-002
  -3.0880519916796405E-002   8.7540230853986323E-003   3.8729095540929487E-002
  -4.3130038750032178E-002   1.2937758123847051E-002   3.3636190068752778E-002
  -4.0902154058356295E-002   1.2279779927255180E-002   3.3287602970209128E-002
  -3.8674269366680405E-002   1.1570674830680406E-002   3.3087219316754631E-002
  -3.6446384675004495E-002   1.0810442834122771E-002   3.3035039108389425E-002
  -3.4218499983328626E-002   9.9990839375821428E-003   3.3131062345113364E-002
  -4.7017846178646100E-002   1.4637139886351735E-002   2.7957138572187734E-002
  -4.4650376735906799E-002   1.3910741130956972E-002   2.7611213851087613E-002
  -4.2282907293167540E-002   1.3103109029727611E-002   2.7396255187025431E-002
  -3.9915437850428233E-002   1.2214243582663833E-002   2.7312262580000912E-002
  -3.7547968407688953E-002   1.1244144789765542E-002   2.7359236030014000E-002
  -2.4179024857215570E-002   6.2639013810317223E-003   4.9403782574711119E-002
  -2.2397849218423221E-002   5.9042787074166103E-003   4.8991151461033722E-002
  -2.0616673579630845E-002   5.4564966639347456E-003   4.8779967069770558E-002
  -1.8835497940838462E-002   4.9205552505860381E-003   4.8770229400921766E-002
  -1.7054322302046121E-002   4.2964544673707028E-003   4.8961938454487264E-002
  -2.7534028208091990E-002   7.5089622332151773E-003   4.4153335617461986E-002
  -2.5564926407246218E-002   6.9984825673087281E-003   4.3670472342720978E-002
  -2.3595824606400452E-002   6.4457157855190295E-003   4.3362014669672488E-002
  -2.1626722805554676E-002   5.8506618878470321E-003   4.3227962598316433E-002
  -1.9657621004708914E-002   5.2133208742922710E-003   4.3268316128652895E-002
  -3.0880519916796405E-002   8.7540230853986323E-003   3.8729095540929487E-002
  -2.8750533074619035E-002   8.0926864272007348E-003   3.8221872359108761E-002
  -2.6620546232441613E-002   7.4349349071037713E-003   3.7862013658258753E-002
  -2.4490559390264274E-002   6.7807685251081405E-003   3.7649519438379554E-002
  -2.2360572548086821E-002   6.1301872812135061E-003   3.7584389699470977E-002
  -3.4218499983328626E-002   9.9990839375821428E-003   3.3131062345113364E-002
  -3.1954669220541493E-002   9.1868902870926861E-003   3.2645351510196992E-002
  -2.9690838457754321E-002   8.4241540286883396E-003   3.2279964035529615E-002
  -2.7427007694967132E-002   7.7108751623688587E-003   3.2034899921110971E-002
  -2.5163176932180023E-002   7.0470536881347412E-003   3.1910159166941322E-002
  -3.7547968407688953E-002   1.1244144789765542E-002   2.7359236030014000E-002
  -3.5177334845013786E-002   1.0281094146984804E-002   2.6940909795985735E-002
  -3.2806701282338577E-002   9.4133731502727136E-003   2.6615865801484728E-002
  -3.0436067719663375E-002   8.6409817996303331E-003   2.6384104046510787E-002
  -2.8065434156988200E-002   7.9639200950561984E-003   2.6245624531063827E-002
  -1.7054322302046121E-002   4.2964544673707028E-003   4.8961938454487264E-002
  -1.5107781568300171E-002   3.6943439382769450E-003   4.8841284250017214E-002
  -1.3161240834554208E-002   3.2243732872925535E-003   4.8976407819032397E-002
  -1.1214700100808273E-002   2.8865425144169524E-003   4.9367309161533091E-002
  -9.2681593670622953E-003   2.6808516196513699E-003   5.0013988277519128E-002
  -1.9657621004708914E-002   5.2133208742922710E-003   4.3268316128652895E-002
  -1.7494467817698214E-002   4.5947700884254039E-003   4.3114847487931152E-002
  -1.5331314630687466E-002   4.0560868738170608E-003   4.3138825980253287E-002
  -1.3168161443676794E-002   3.5972712304679286E-003   4.3340251605619523E-002
  -1.1005008256666018E-002   3.2183231583773342E-003   4.3719124364030137E-002
  -2.2360572548086821E-002   6.1301872812135061E-003   3.7584389699470977E-002
  -2.0059137548252705E-002   5.4951962385734743E-003   3.7345834315646892E-002
  -1.7757702548418561E-002   4.8878004603419983E-003   3.7206395424425401E-002
  -1.5456267548584410E-002   4.3079999465184572E-003   3.7166073025806858E-002
  -1.3154832548750307E-002   3.7557946971033540E-003   3.7224867119790811E-002
  -2.5163176932180023E-002   7.0470536881347412E-003   3.1910159166941322E-002
  -2.2801790759963685E-002   6.3956223887219055E-003   3.1534244733164428E-002
  -2.0440404587747377E-002   5.7195140468668318E-003   3.1179116151548603E-002
  -1.8079018415531140E-002   5.0187286625688766E-003   3.0844773422094580E-002
  -1.5717632243314787E-002   4.2932662358293461E-003   3.0531216544801988E-002
  -2.8065434156988200E-002   7.9639200950561984E-003   2.6245624531063827E-002
  -2.5722427452831126E-002   7.2960485388701146E-003   2.5680078740483503E-002
  -2.3379420748674024E-002   6.5512276333915265E-003   2.5056988161622995E-002
  -2.1036414044516949E-002   5.7294573786199274E-003   2.4376352794482942E-002
  -1.8693407340359847E-002   4.8307377745554492E-003   2.3638172639063093E-002
  -9.2681593670622953E-003   2.6808516196513699E-003   5.0013988277519128E-002
  -7.8517873282762385E-003   2.8422829655330162E-003   5.0401635570704761E-002
  -6.4354152894901123E-003   3.6058189146003505E-003   5.1120002176433477E-002
  -5.0190432507040417E-003   4.9714594668541015E-003   5.2169088094705524E-002
  -3.6026712119179294E-003   6.9392046222933601E-003   5.3548893325521041E-002
  -1.1005008256666018E-002   3.2183231583773342E-003   4.3719124364030137E-002
  -9.2398994014445401E-003   3.1531325670860477E-003   4.4286689755389741E-002
  -7.4747905462230688E-003   3.6355893661332850E-003   4.5221009467076967E-002
  -5.7096816910016251E-003   4.6656935555201562E-003   4.6522083499092037E-002
  -3.9445728357800636E-003   6.2434451352459952E-003   4.8189911851434064E-002
  -1.3154832548750307E-002   3.7557946971033540E-003   3.7224867119790811E-002
  -1.1004951869309117E-002   3.4639821686386352E-003   3.7917893396478164E-002
  -8.8550711898679642E-003   3.6653598176660945E-003   3.9013709001277222E-002
  -6.7051905104267250E-003   4.3599276441865405E-003   4.0512313934187937E-002
  -4.5553098309856210E-003   5.5476856481988523E-003   4.2413708195210842E-002
  -1.5717632243314787E-002   4.2932662358293461E-003   3.0531216544801988E-002
  -1.3146944731869755E-002   3.7748317701910561E-003   3.1295246493970058E-002
  -1.0576257220424639E-002   3.6951302691990776E-003   3.2498100779034117E-002
  -8.0055697089796065E-003   4.0541617328520938E-003   3.4139779399994456E-002
  -5.4348821975344908E-003   4.8519261611514874E-003   3.6220282356850694E-002
  -1.8693407340359847E-002   4.8307377745554492E-003   2.3638172639063093E-002
  -1.5665877989126609E-002   4.0856813717443652E-003   2.4418749047865340E-002
  -1.2638348637893287E-002   3.7249007207318385E-003   2.5674184800347777E-002
  -9.6108192866600078E-003   3.7483958215190905E-003   2.7404479896510597E-002
  -6.5832899354267282E-003   4.1561666741044556E-003   2.9609634336353774E-002
  -3.6026712119179294E-003   6.9392046222933601E-003   5.3548893325521041E-002
  -4.1529392622127737E-003   9.5265201064629323E-003   5.1873941691547576E-002
  -4.7032073125076457E-003   1.2750871644908013E-002   5.0053388206478311E-002
  -5.2534753628025385E-003   1.6612259237628477E-002   4.8087232870313079E-002
  -5.8037434130973620E-003   2.1110682884624143E-002   4.5975475683052380E-002
  -3.9445728357800636E-003   6.2434451352459952E-003   4.8189911851434064E-002
  -4.5366754792151021E-003   8.6799975934039320E-003   4.7253387314473760E-002
  -5.1287781226502099E-003   1.2286504418087763E-002   4.6378795442328535E-002
  -5.7208807660852935E-003   1.7062965609296432E-002   4.5566136234999111E-002
  -6.3129834095203008E-003   2.3009381167030440E-002   4.4815409692485320E-002
  -4.5553098309856210E-003   5.5476856481988523E-003   4.2413708195210842E-002
  -4.9817125516492949E-003   7.8334750803452646E-003   4.2748529067512808E-002
  -5.4081152723129758E-003   1.1822137191266874E-002   4.3352817120542120E-002
  -5.8345179929766757E-003   1.7513671980964061E-002   4.4226572354297805E-002
  -6.2609207136403305E-003   2.4908079449436293E-002   4.5369794768781557E-002
  -5.4348821975344908E-003   4.8519261611514874E-003   3.6220282356850694E-002
  -5.4880504795152933E-003   6.9869525672862087E-003   3.8359366950665469E-002
  -5.5412187614961817E-003   1.1357769964446304E-002   4.0975453241118780E-002
  -5.5943870434770390E-003   1.7964378352631632E-002   4.4068541228210883E-002
  -5.6475553254578155E-003   2.6806777731842257E-002   4.7638630911941399E-002
  -6.5832899354267282E-003   4.1561666741044556E-003   2.9609634336353774E-002
  -6.0556892628131909E-003   6.1404300542273749E-003   3.4085900963931270E-002
  -5.5280885901996535E-003   1.0893402737625762E-002   3.9246703804058869E-002
  -5.0004879175861022E-003   1.8415084724299820E-002   4.5092042856736764E-002
  -4.4728872449725232E-003   2.8705476014248443E-002   5.1621918121964594E-002
  -7.2837302843210994E-002   3.2342726735690608E-002   2.1197824725786019E-002
  -7.1054537145659125E-002   2.8169756016797554E-002   2.2865785228757929E-002
  -6.9271771448107339E-002   2.4950513838383551E-002   2.4233678515387297E-002
  -6.7489005750555442E-002   2.2685000200448089E-002   2.5301504585674053E-002
  -6.5706240053003628E-002   2.1373215102991561E-002   2.6069263439618295E-002
  -7.7682911581611558E-002   2.9039093058712051E-002   2.0941926057348959E-002
  -7.5939811914859517E-002   2.6578392829167657E-002   2.0845902259711530E-002
  -7.4196712248107408E-002   2.4589789070306942E-002   2.0970613616817013E-002
  -7.2453612581355409E-002   2.3073281782129969E-002   2.1316060128665618E-002
  -7.0710512914603271E-002   2.2028870964636765E-002   2.1882241795257329E-002
  -8.5265818311745650E-002   2.5735459381733411E-002   2.2639113913158052E-002
  -8.3041582304707845E-002   2.4987029641537456E-002   2.0297473745116076E-002
  -8.0817346297669929E-002   2.4229064302230437E-002   1.8697371102902781E-002
  -7.8593110290631998E-002   2.3461563363811846E-002   1.7838805986518071E-002
  -7.6368874283594138E-002   2.2684526826282109E-002   1.7721778395961993E-002
  -9.5586023033613243E-002   2.2431825704754896E-002   2.6289388293213135E-002
  -9.2359848315203802E-002   2.3395666453907574E-002   2.1220499684971795E-002
  -8.9133673596794652E-002   2.3868339534153880E-002   1.7413950973644607E-002
  -8.5907498878385280E-002   2.3849844945493949E-002   1.4869742159231467E-002
  -8.2681324159975991E-002   2.3340182687927438E-002   1.3587873241732645E-002
 -0.10864352574721403        1.9128192027776270E-002   3.1892749197514281E-002
 -0.10389460994634780        2.1804303266277358E-002   2.3614980079278425E-002
  -9.9145694145481578E-002   2.3507614766077350E-002   1.7120353229042151E-002
  -9.4396778344615295E-002   2.4238126527175614E-002   1.2408868646805904E-002
  -8.9647862543749013E-002   2.3995838549572657E-002   9.4805263325691280E-003
  -6.5706240053003628E-002   2.1373215102991561E-002   2.6069263439618295E-002
  -6.3312141731535834E-002   2.0527200960512526E-002   2.6302401116506530E-002
  -6.0918043410068096E-002   1.9659000187509518E-002   2.6578059729434000E-002
  -5.8523945088600357E-002   1.8768612783982723E-002   2.6896239278400944E-002
  -5.6129846767132591E-002   1.7856038749932190E-002   2.7256939763407206E-002
  -7.0710512914603271E-002   2.2028870964636765E-002   2.1882241795257329E-002
  -6.8211741256383185E-002   2.1213081032538744E-002   2.1504922700258416E-002
  -6.5712969598163140E-002   2.0382436400546579E-002   2.1294429342724797E-002
  -6.3214197939943081E-002   1.9536937068660783E-002   2.1250761722656462E-002
  -6.0715426281722995E-002   1.8676583036881134E-002   2.1373919840053351E-002
  -7.6368874283594138E-002   2.2684526826282109E-002   1.7721778395961993E-002
  -7.3641124487195855E-002   2.1898961104564851E-002   1.6741334459706263E-002
  -7.0913374690797587E-002   2.1105872613583584E-002   1.6052021062341430E-002
  -6.8185624894399360E-002   2.0305261353338957E-002   1.5653838203867974E-002
  -6.5457875098001078E-002   1.9497127323830327E-002   1.5546785884285375E-002
  -8.2681324159975991E-002   2.3340182687927438E-002   1.3587873241732645E-002
  -7.9600291423973707E-002   2.2584841176591069E-002   1.2011636394849897E-002
  -7.6519258687971381E-002   2.1829308826620951E-002   1.0850834888284124E-002
  -7.3438225951969069E-002   2.1073585638016909E-002   1.0105468722035183E-002
  -7.0357193215966812E-002   2.0317671610779339E-002   9.7755378961034319E-003
  -8.9647862543749013E-002   2.3995838549572657E-002   9.4805263325691280E-003
  -8.6089242066716809E-002   2.3270721248617177E-002   7.3158285056895145E-003
  -8.2530621589684605E-002   2.2552745039657790E-002   5.6908708205526681E-003
  -7.8972001112652457E-002   2.1841909922694892E-002   4.6056532771586792E-003
  -7.5413380635620197E-002   2.1138215897728352E-002   4.0601758755077766E-003
  -5.6129846767132591E-002   1.7856038749932190E-002   2.7256939763407206E-002
  -5.3851846620010996E-002   1.6962107058974080E-002   2.7185213953481779E-002
  -5.1573846472889373E-002   1.6127646684724536E-002   2.7278005151636586E-002
  -4.9295846325767737E-002   1.5352657627183904E-002   2.7535313357871891E-002
  -4.7017846178646100E-002   1.4637139886351735E-002   2.7957138572187734E-002
  -6.0715426281722995E-002   1.8676583036881134E-002   2.1373919840053351E-002
  -5.8263768284171361E-002   1.7824396794288461E-002   2.1199796368277762E-002
  -5.5812110286619823E-002   1.7003400829962920E-002   2.1208471589281727E-002
  -5.3360452289068230E-002   1.6213595143904618E-002   2.1399945503065350E-002
  -5.0908794291516637E-002   1.5454979736113594E-002   2.1774218109628263E-002
  -6.5457875098001078E-002   1.9497127323830327E-002   1.5546785884285375E-002
  -6.2814277565320320E-002   1.8686686529602717E-002   1.5241983712218424E-002
  -6.0170680032639617E-002   1.7879154975201088E-002   1.5138261917629924E-002
  -5.7527082499958894E-002   1.7074532660625225E-002   1.5235620500520405E-002
  -5.4883484967278150E-002   1.6272819585875398E-002   1.5534059460889454E-002
  -7.0357193215966812E-002   2.0317671610779339E-002   9.7755378961034319E-003
  -6.7503374463457805E-002   1.9548976264916813E-002   9.3117759853035033E-003
  -6.4649555710948811E-002   1.8754909120439364E-002   9.0673761366815760E-003
  -6.1795736958439818E-002   1.7935470177345939E-002   9.0423383502371175E-003
  -5.8941918205930796E-002   1.7090659435637229E-002   9.2366626259708443E-003
  -7.5413380635620197E-002   2.1138215897728352E-002   4.0601758755077766E-003
  -7.2331058978583718E-002   2.0411266000231409E-002   3.4091731875333098E-003
  -6.9248737321547349E-002   1.9630663265677500E-002   2.9958142464360793E-003
  -6.6166415664510952E-002   1.8796407694066868E-002   2.8200990522159047E-003
  -6.3084094007474500E-002   1.7908499285399060E-002   2.8820276048725502E-003
  -4.7017846178646100E-002   1.4637139886351735E-002   2.7957138572187734E-002
  -4.4650376735906799E-002   1.3910741130956972E-002   2.7611213851087613E-002
  -4.2282907293167540E-002   1.3103109029727611E-002   2.7396255187025431E-002
  -3.9915437850428233E-002   1.2214243582663833E-002   2.7312262580000912E-002
  -3.7547968407688953E-002   1.1244144789765542E-002   2.7359236030014000E-002
  -5.0908794291516637E-002   1.5454979736113594E-002   2.1774218109628263E-002
  -4.8402828875175705E-002   1.4693102601478769E-002   2.1292607203306502E-002
  -4.5896863458834723E-002   1.3893511734889161E-002   2.0957022187150537E-002
  -4.3390898042493783E-002   1.3056207136344557E-002   2.0767463061159966E-002
  -4.0884932626152809E-002   1.2181188805844956E-002   2.0723929825335163E-002
  -5.4883484967278150E-002   1.6272819585875398E-002   1.5534059460889454E-002
  -5.2223963744207604E-002   1.5475464072000761E-002   1.4960281983225368E-002
  -4.9564442521137078E-002   1.4683914440050599E-002   1.4547590228854906E-002
  -4.6904921298066574E-002   1.3898170690025337E-002   1.4295984197778056E-002
  -4.4245400074996007E-002   1.3118232821924369E-002   1.4205463889994802E-002
  -5.8941918205930796E-002   1.7090659435637229E-002   9.2366626259708443E-003
  -5.6113781343002780E-002   1.6257825542522711E-002   8.6142381908440556E-003
  -5.3285644480074640E-002   1.5474317145212205E-002   8.1679593121387825E-003
  -5.0457507617146596E-002   1.4740134243705922E-002   7.8978259898549244E-003
  -4.7629370754218470E-002   1.4055276838003783E-002   7.8038382239926721E-003
  -6.3084094007474500E-002   1.7908499285399060E-002   2.8820276048725502E-003
  -6.0072281671560868E-002   1.7040187013044439E-002   2.2544758261625053E-003
  -5.7060469335647401E-002   1.6264719850373754E-002   1.8181294370019085E-003
  -5.4048656999733824E-002   1.5582097797386882E-002   1.5729884373907391E-003
  -5.1036844663820302E-002   1.4992320854082974E-002   1.5190528273292259E-003
  -3.7547968407688953E-002   1.1244144789765542E-002   2.7359236030014000E-002
  -3.5177334845013786E-002   1.0281094146984804E-002   2.6940909795985735E-002
  -3.2806701282338577E-002   9.4133731502727136E-003   2.6615865801484728E-002
  -3.0436067719663375E-002   8.6409817996303331E-003   2.6384104046510787E-002
  -2.8065434156988200E-002   7.9639200950561984E-003   2.6245624531063827E-002
  -4.0884932626152809E-002   1.2181188805844956E-002   2.0723929825335163E-002
  -3.8419514880862204E-002   1.1310320849276245E-002   2.0354274366958747E-002
  -3.5954097135571669E-002   1.0485467372524815E-002   2.0080905034286389E-002
  -3.3488679390281127E-002   9.7066283755900956E-003   1.9903821827317439E-002
  -3.1023261644990530E-002   8.9738038584723512E-003   1.9823024746052464E-002
  -4.4245400074996007E-002   1.3118232821924369E-002   1.4205463889994802E-002
  -4.1682194260913449E-002   1.2339547551567936E-002   1.3835164041018311E-002
  -3.9118988446830857E-002   1.1557561594777013E-002   1.3564154203922346E-002
  -3.6555782632748217E-002   1.0772274951550021E-002   1.3392434378706505E-002
  -3.3992576818665646E-002   9.9836876218884485E-003   1.3320004565370858E-002
  -4.7629370754218470E-002   1.4055276838003783E-002   7.8038382239926721E-003
  -4.4965372985167291E-002   1.3368774253859836E-002   7.3835788181641215E-003
  -4.2301375216116148E-002   1.2629655817028941E-002   7.0656133103923595E-003
  -3.9637377447064984E-002   1.1837921527509976E-002   6.8499417006775854E-003
  -3.6973379678013819E-002   1.0993571385304296E-002   6.7365639890195964E-003
  -5.1036844663820302E-002   1.4992320854082974E-002   1.5190528273292259E-003
  -4.8269051053623890E-002   1.4398000956151291E-002   9.9951869839620677E-004
  -4.5501257443427534E-002   1.3701750039280924E-002   5.8528235369681436E-004
  -4.2733463833231095E-002   1.2903568103469779E-002   2.7634379323046576E-004
  -3.9965670223034766E-002   1.2003455148720699E-002   7.2703016998243442E-005
  -2.8065434156988200E-002   7.9639200950561984E-003   2.6245624531063827E-002
  -2.5722427452831126E-002   7.2960485388701146E-003   2.5680078740483503E-002
  -2.3379420748674024E-002   6.5512276333915265E-003   2.5056988161622995E-002
  -2.1036414044516949E-002   5.7294573786199274E-003   2.4376352794482942E-002
  -1.8693407340359847E-002   4.8307377745554492E-003   2.3638172639063093E-002
  -3.1023261644990530E-002   8.9738038584723512E-003   1.9823024746052464E-002
  -2.8717181241125350E-002   8.2569254887068233E-003   1.9221073990584592E-002
  -2.6411100837260337E-002   7.5259249338298639E-003   1.8602815422812585E-002
  -2.4105020433395269E-002   6.7808021938408902E-003   1.7968249042736403E-002
  -2.1798940029530145E-002   6.0215572687406516E-003   1.7317374850356004E-002
  -3.3992576818665646E-002   9.9836876218884485E-003   1.3320004565370858E-002
  -3.1682185739116957E-002   9.2178024385434765E-003   1.2744476009196870E-002
  -2.9371794659568205E-002   8.5006222342681043E-003   1.2193876616694257E-002
  -2.7061403580019516E-002   7.8321470090621896E-003   1.1668206387862944E-002
  -2.4751012500470765E-002   7.2123767629255764E-003   1.1167465322703379E-002
  -3.6973379678013819E-002   1.0993571385304296E-002   6.7365639890195964E-003
  -3.4617440946805744E-002   1.0178679388380490E-002   6.2502847963201574E-003
  -3.2261502215597690E-002   9.4753195347061156E-003   5.8301717432680290E-003
  -2.9905563484389705E-002   8.8834918242833762E-003   5.4762248298628313E-003
  -2.7549624753181571E-002   8.4031962571107510E-003   5.1884440561053499E-003
  -3.9965670223034766E-002   1.2003455148720699E-002   7.2703016998243442E-005
  -3.7522946864191775E-002   1.1139556338217060E-002  -2.6149964804539350E-004
  -3.5080223505348729E-002   1.0450016835145015E-002  -4.8829919746573580E-004
  -3.2637500146505710E-002   9.9348366395042575E-003  -6.0769563126344961E-004
  -3.0194776787662692E-002   9.5940157512957036E-003  -6.1968894943853492E-004
  -1.8693407340359847E-002   4.8307377745554492E-003   2.3638172639063093E-002
  -1.5665877989126609E-002   4.0856813717443652E-003   2.4418749047865340E-002
  -1.2638348637893287E-002   3.7249007207318385E-003   2.5674184800347777E-002
  -9.6108192866600078E-003   3.7483958215190905E-003   2.7404479896510597E-002
  -6.5832899354267282E-003   4.1561666741044556E-003   2.9609634336353774E-002
  -2.1798940029530145E-002   6.0215572687406516E-003   1.7317374850356004E-002
  -1.8566953515802204E-002   5.3479617140234081E-003   1.8265857635041127E-002
  -1.5334967002074276E-002   4.8597870851846414E-003   1.9148395401035301E-002
  -1.2102980488346293E-002   4.5570333822243236E-003   1.9964988148338525E-002
  -8.8709939746184074E-003   4.4397006051429821E-003   2.0715635876950911E-002
  -2.4751012500470765E-002   7.2123767629255764E-003   1.1167465322703379E-002
  -2.1855373186619384E-002   6.6102420563023956E-003   1.2084999657351048E-002
  -1.8959733872767989E-002   5.9946734496375553E-003   1.2395784610936156E-002
  -1.6064094558916605E-002   5.3656709429302230E-003   1.2099820183459314E-002
  -1.3168455245065158E-002   4.7232345361816752E-003   1.1197106374920301E-002
  -2.7549624753181571E-002   8.4031962571107510E-003   5.1884440561053499E-003
  -2.5531137001578035E-002   7.8725223985815218E-003   5.8761751147946156E-003
  -2.3512649249974441E-002   7.1295598140903582E-003   5.4163524300506471E-003
  -2.1494161498370946E-002   6.1743085036360112E-003   3.8089760018730177E-003
  -1.9475673746767310E-002   5.0067684672199519E-003   1.0540458302622860E-003
  -3.0194776787662692E-002   9.5940157512957036E-003  -6.1968894943853492E-004
  -2.9594244960678306E-002   9.1348027408606480E-003  -3.6061599262771082E-004
  -2.8993713133693755E-002   8.2644461785436607E-003  -1.7899011416216970E-003
  -2.8393181306709259E-002   6.9829460643421742E-003  -4.9075443964204102E-003
  -2.7792649479724818E-002   5.2903023982591169E-003  -9.7135457570239891E-003
  -6.5832899354267282E-003   4.1561666741044556E-003   2.9609634336353774E-002
  -6.0556892628131909E-003   6.1404300542273749E-003   3.4085900963931270E-002
  -5.5280885901996535E-003   1.0893402737625762E-002   3.9246703804058869E-002
  -5.0004879175861022E-003   1.8415084724299820E-002   4.5092042856736764E-002
  -4.4728872449725232E-003   2.8705476014248443E-002   5.1621918121964594E-002
  -8.8709939746184074E-003   4.4397006051429821E-003   2.0715635876950911E-002
  -7.5860013744729893E-003   5.6569170554049975E-003   2.5881194404296481E-002
  -6.3010087743276683E-003   9.3578110344754994E-003   3.1877000574155712E-002
  -5.0160161741823750E-003   1.5542382542354426E-002   3.8703054386528685E-002
  -3.7310235740369291E-003   2.4210631579041575E-002   4.6359355841414374E-002
  -1.3168455245065158E-002   4.7232345361816752E-003   1.1197106374920301E-002
  -1.0980359287424690E-002   5.1734040565823980E-003   1.6766925027567631E-002
  -8.7922633297842223E-003   7.8222193313251115E-003   2.3312702752691442E-002
  -6.6041673721438758E-003   1.2669680360409250E-002   3.0834439550292018E-002
  -4.4160714145032864E-003   1.9715787143834929E-002   3.9332135420369729E-002
  -1.9475673746767310E-002   5.0067684672199519E-003   1.0540458302622860E-003
  -1.6238763001668387E-002   4.6898910577606867E-003   6.7430928337439758E-003
  -1.3001852256569494E-002   6.2866276281747860E-003   1.3553810339665535E-002
  -9.7649415114706463E-003   9.7969781784641875E-003   2.1486198348027875E-002
  -6.5280307663716786E-003   1.5220942708628282E-002   3.0540256858829690E-002
  -2.7792649479724818E-002   5.2903023982591169E-003  -9.7135457570239891E-003
  -2.3361212517204133E-002   4.2063780589371991E-003  -4.1903021771741988E-003
  -1.8929775554683503E-002   4.7510359250242939E-003   2.6003233350787580E-003
  -1.4498338592162874E-002   6.9242759965191941E-003   1.0658330779734881E-002
  -1.0066901629642189E-002   1.0726098273421414E-002   1.9983720156794504E-002
 </DataArray>
 </PointData>
 </Piece>
 </UnstructuredGrid>
 </VTKFile>
