 <VTKFile type="UnstructuredGrid"  version="0.1"   >
 <UnstructuredGrid>
 <Piece  NumberOfPoints="           100 "  NumberOfCells="           64 ">
 <Points>
 <DataArray  type="Float64" NumberOfComponents="3"  format="ascii" >
   0.0000000000000000        0.0000000000000000        0.0000000000000000     
  0.12500000000000000        0.0000000000000000        0.0000000000000000     
  0.25000000000000000        0.0000000000000000        0.0000000000000000     
  0.37500000000000000        0.0000000000000000        0.0000000000000000     
  0.50000000000000000        0.0000000000000000        0.0000000000000000     
   0.0000000000000000       0.12500000000000000        0.0000000000000000     
  0.12500000000000000       0.12500000000000000        0.0000000000000000     
  0.25000000000000000       0.12500000000000000        0.0000000000000000     
  0.37500000000000000       0.12500000000000000        0.0000000000000000     
  0.50000000000000000       0.12500000000000000        0.0000000000000000     
   0.0000000000000000       0.25000000000000000        0.0000000000000000     
  0.12500000000000000       0.25000000000000000        0.0000000000000000     
  0.25000000000000000       0.25000000000000000        0.0000000000000000     
  0.37500000000000000       0.25000000000000000        0.0000000000000000     
  0.50000000000000000       0.25000000000000000        0.0000000000000000     
   0.0000000000000000       0.37500000000000000        0.0000000000000000     
  0.12500000000000000       0.37500000000000000        0.0000000000000000     
  0.25000000000000000       0.37500000000000000        0.0000000000000000     
  0.37500000000000000       0.37500000000000000        0.0000000000000000     
  0.50000000000000000       0.37500000000000000        0.0000000000000000     
   0.0000000000000000       0.50000000000000000        0.0000000000000000     
  0.12500000000000000       0.50000000000000000        0.0000000000000000     
  0.25000000000000000       0.50000000000000000        0.0000000000000000     
  0.37500000000000000       0.50000000000000000        0.0000000000000000     
  0.50000000000000000       0.50000000000000000        0.0000000000000000     
  0.50000000000000000        0.0000000000000000        0.0000000000000000     
  0.62500000000000000        0.0000000000000000        0.0000000000000000     
  0.75000000000000000        0.0000000000000000        0.0000000000000000     
  0.87500000000000000        0.0000000000000000        0.0000000000000000     
   1.0000000000000000        0.0000000000000000        0.0000000000000000     
  0.50000000000000000       0.12500000000000000        0.0000000000000000     
  0.62500000000000000       0.12500000000000000        0.0000000000000000     
  0.75000000000000000       0.12500000000000000        0.0000000000000000     
  0.87500000000000000       0.12500000000000000        0.0000000000000000     
   1.0000000000000000       0.12500000000000000        0.0000000000000000     
  0.50000000000000000       0.25000000000000000        0.0000000000000000     
  0.62500000000000000       0.25000000000000000        0.0000000000000000     
  0.75000000000000000       0.25000000000000000        0.0000000000000000     
  0.87500000000000000       0.25000000000000000        0.0000000000000000     
   1.0000000000000000       0.25000000000000000        0.0000000000000000     
  0.50000000000000000       0.37500000000000000        0.0000000000000000     
  0.62500000000000000       0.37500000000000000        0.0000000000000000     
  0.75000000000000000       0.37500000000000000        0.0000000000000000     
  0.87500000000000000       0.37500000000000000        0.0000000000000000     
   1.0000000000000000       0.37500000000000000        0.0000000000000000     
  0.50000000000000000       0.50000000000000000        0.0000000000000000     
  0.62500000000000000       0.50000000000000000        0.0000000000000000     
  0.75000000000000000       0.50000000000000000        0.0000000000000000     
  0.87500000000000000       0.50000000000000000        0.0000000000000000     
   1.0000000000000000       0.50000000000000000        0.0000000000000000     
   0.0000000000000000       0.50000000000000000        0.0000000000000000     
  0.12500000000000000       0.50000000000000000        0.0000000000000000     
  0.25000000000000000       0.50000000000000000        0.0000000000000000     
  0.37500000000000000       0.50000000000000000        0.0000000000000000     
  0.50000000000000000       0.50000000000000000        0.0000000000000000     
   0.0000000000000000       0.62500000000000000        0.0000000000000000     
  0.12500000000000000       0.62500000000000000        0.0000000000000000     
  0.25000000000000000       0.62500000000000000        0.0000000000000000     
  0.37500000000000000       0.62500000000000000        0.0000000000000000     
  0.50000000000000000       0.62500000000000000        0.0000000000000000     
   0.0000000000000000       0.75000000000000000        0.0000000000000000     
  0.12500000000000000       0.75000000000000000        0.0000000000000000     
  0.25000000000000000       0.75000000000000000        0.0000000000000000     
  0.37500000000000000       0.75000000000000000        0.0000000000000000     
  0.50000000000000000       0.75000000000000000        0.0000000000000000     
   0.0000000000000000       0.87500000000000000        0.0000000000000000     
  0.12500000000000000       0.87500000000000000        0.0000000000000000     
  0.25000000000000000       0.87500000000000000        0.0000000000000000     
  0.37500000000000000       0.87500000000000000        0.0000000000000000     
  0.50000000000000000       0.87500000000000000        0.0000000000000000     
   0.0000000000000000        1.0000000000000000        0.0000000000000000     
  0.12500000000000000        1.0000000000000000        0.0000000000000000     
  0.25000000000000000        1.0000000000000000        0.0000000000000000     
  0.37500000000000000        1.0000000000000000        0.0000000000000000     
  0.50000000000000000        1.0000000000000000        0.0000000000000000     
  0.50000000000000000       0.50000000000000000        0.0000000000000000     
  0.62500000000000000       0.50000000000000000        0.0000000000000000     
  0.75000000000000000       0.50000000000000000        0.0000000000000000     
  0.87500000000000000       0.50000000000000000        0.0000000000000000     
   1.0000000000000000       0.50000000000000000        0.0000000000000000     
  0.50000000000000000       0.62500000000000000        0.0000000000000000     
  0.62500000000000000       0.62500000000000000        0.0000000000000000     
  0.75000000000000000       0.62500000000000000        0.0000000000000000     
  0.87500000000000000       0.62500000000000000        0.0000000000000000     
   1.0000000000000000       0.62500000000000000        0.0000000000000000     
  0.50000000000000000       0.75000000000000000        0.0000000000000000     
  0.62500000000000000       0.75000000000000000        0.0000000000000000     
  0.75000000000000000       0.75000000000000000        0.0000000000000000     
  0.87500000000000000       0.75000000000000000        0.0000000000000000     
   1.0000000000000000       0.75000000000000000        0.0000000000000000     
  0.50000000000000000       0.87500000000000000        0.0000000000000000     
  0.62500000000000000       0.87500000000000000        0.0000000000000000     
  0.75000000000000000       0.87500000000000000        0.0000000000000000     
  0.87500000000000000       0.87500000000000000        0.0000000000000000     
   1.0000000000000000       0.87500000000000000        0.0000000000000000     
  0.50000000000000000        1.0000000000000000        0.0000000000000000     
  0.62500000000000000        1.0000000000000000        0.0000000000000000     
  0.75000000000000000        1.0000000000000000        0.0000000000000000     
  0.87500000000000000        1.0000000000000000        0.0000000000000000     
   1.0000000000000000        1.0000000000000000        0.0000000000000000     
 </DataArray>
 </Points>
 <Cells>
 <DataArray  type="Int32"  Name="connectivity"  format="ascii">
           0           1           6           5
           1           2           7           6
           2           3           8           7
           3           4           9           8
           5           6          11          10
           6           7          12          11
           7           8          13          12
           8           9          14          13
          10          11          16          15
          11          12          17          16
          12          13          18          17
          13          14          19          18
          15          16          21          20
          16          17          22          21
          17          18          23          22
          18          19          24          23
          25          26          31          30
          26          27          32          31
          27          28          33          32
          28          29          34          33
          30          31          36          35
          31          32          37          36
          32          33          38          37
          33          34          39          38
          35          36          41          40
          36          37          42          41
          37          38          43          42
          38          39          44          43
          40          41          46          45
          41          42          47          46
          42          43          48          47
          43          44          49          48
          50          51          56          55
          51          52          57          56
          52          53          58          57
          53          54          59          58
          55          56          61          60
          56          57          62          61
          57          58          63          62
          58          59          64          63
          60          61          66          65
          61          62          67          66
          62          63          68          67
          63          64          69          68
          65          66          71          70
          66          67          72          71
          67          68          73          72
          68          69          74          73
          75          76          81          80
          76          77          82          81
          77          78          83          82
          78          79          84          83
          80          81          86          85
          81          82          87          86
          82          83          88          87
          83          84          89          88
          85          86          91          90
          86          87          92          91
          87          88          93          92
          88          89          94          93
          90          91          96          95
          91          92          97          96
          92          93          98          97
          93          94          99          98
 </DataArray>
 <DataArray  type="Int32"  Name="offsets"  format="ascii"> 
           4
           8
          12
          16
          20
          24
          28
          32
          36
          40
          44
          48
          52
          56
          60
          64
          68
          72
          76
          80
          84
          88
          92
          96
         100
         104
         108
         112
         116
         120
         124
         128
         132
         136
         140
         144
         148
         152
         156
         160
         164
         168
         172
         176
         180
         184
         188
         192
         196
         200
         204
         208
         212
         216
         220
         224
         228
         232
         236
         240
         244
         248
         252
         256
 </DataArray>
 <DataArray  type="UInt8"  Name="types"  format="ascii">
 9
 9
 9
 9
 9
 9
 9
 9
 9
 9
 9
 9
 9
 9
 9
 9
 9
 9
 9
 9
 9
 9
 9
 9
 9
 9
 9
 9
 9
 9
 9
 9
 9
 9
 9
 9
 9
 9
 9
 9
 9
 9
 9
 9
 9
 9
 9
 9
 9
 9
 9
 9
 9
 9
 9
 9
 9
 9
 9
 9
 9
 9
 9
 9
 </DataArray>
 </Cells> 
 <PointData>
 <DataArray  type="Float64" Name="disp" NumberOfComponents="3" format="ascii">
   0.0000000000000000        0.0000000000000000        0.0000000000000000     
   1.9062561044330968E-002   1.1356129101168943E-002   0.0000000000000000     
   3.6190672665133435E-002   2.5499989608127147E-002   0.0000000000000000     
   5.1384334862407399E-002   4.2431581520874603E-002   0.0000000000000000     
   6.4643547636152862E-002   6.2150904839411325E-002   0.0000000000000000     
   0.0000000000000000        0.0000000000000000        0.0000000000000000     
   1.2669982085251951E-002   9.2230907489157035E-003   0.0000000000000000     
   2.4475051551785667E-002   2.2036809311403574E-002   0.0000000000000000     
   3.5415208399601140E-002   3.8441155687463605E-002   0.0000000000000000     
   4.5490452628698379E-002   5.8436129877095809E-002   0.0000000000000000     
   0.0000000000000000        0.0000000000000000        0.0000000000000000     
   7.3620289248371197E-003   7.6994919258776724E-003   0.0000000000000000     
   1.4538065736480841E-002   1.9563109099458159E-002   0.0000000000000000     
   2.1528110434931160E-002   3.5590851520741457E-002   0.0000000000000000     
   2.8332163020188091E-002   5.5782719189727568E-002   0.0000000000000000     
   0.0000000000000000        0.0000000000000000        0.0000000000000000     
   3.1387015630864731E-003   6.7853326320548484E-003   0.0000000000000000     
   6.3797152192189600E-003   1.8078888972290905E-002   0.0000000000000000     
   9.7230409683974599E-003   3.3880669020708173E-002   0.0000000000000000     
   1.3168678810621970E-002   5.4190672777306638E-002   0.0000000000000000     
   0.0000000000000000        0.0000000000000000        0.0000000000000000     
   1.3010426069826053E-017   6.4806128674472305E-003   0.0000000000000000     
   2.4719809532669501E-017   1.7584148929901806E-002   0.0000000000000000     
   3.3393426912553537E-017   3.3310608187363734E-002   0.0000000000000000     
   4.2500725161431774E-017   5.3659990639833004E-002   0.0000000000000000     
   6.4643547636152862E-002   6.2150904839411325E-002   0.0000000000000000     
   7.6193493167699827E-002   8.4444664058831970E-002   0.0000000000000000     
   8.6259353638378222E-002  0.10909956367423122        0.0000000000000000     
   9.4841129048188103E-002  0.13611560368560902        0.0000000000000000     
  0.10193881939712945       0.16549278409296547        0.0000000000000000     
   4.5490452628698379E-002   5.8436129877095809E-002   0.0000000000000000     
   5.4488519430643742E-002   8.1388715016382049E-002   0.0000000000000000     
   6.2197143997003539E-002  0.10666589424140428        0.0000000000000000     
   6.8616326327777796E-002  0.13426766755216241        0.0000000000000000     
   7.3746066422966522E-002  0.16419403494865653        0.0000000000000000     
   2.8332163020188091E-002   5.5782719189727568E-002   0.0000000000000000     
   3.4554612657008418E-002   7.9205894271774990E-002   0.0000000000000000     
   3.9799848510148957E-002  0.10492755893224216        0.0000000000000000     
   4.4067870579609709E-002  0.13294771317112911        0.0000000000000000     
   4.7358678865390663E-002  0.16326635698843586        0.0000000000000000     
   1.3168678810621970E-002   5.4190672777306638E-002   0.0000000000000000     
   1.6391772846793856E-002   7.7896201825010739E-002   0.0000000000000000     
   1.9067467177814466E-002  0.10388455774674492        0.0000000000000000     
   2.1195761803683807E-002  0.13215574054250914        0.0000000000000000     
   2.2776656724401878E-002  0.16270975021230347        0.0000000000000000     
   4.2500725161431774E-017   5.3659990639833004E-002   0.0000000000000000     
   5.5077470362263625E-017   7.7459637676089349E-002   0.0000000000000000     
   8.1315162936412833E-017  0.10353689068491252        0.0000000000000000     
   1.1790698625779861E-016  0.13189174966630252        0.0000000000000000     
   1.7000290064572710E-016  0.16252421462025932        0.0000000000000000     
   0.0000000000000000        0.0000000000000000        0.0000000000000000     
   1.3010426069826053E-017   6.4806128674472305E-003   0.0000000000000000     
   2.4719809532669501E-017   1.7584148929901806E-002   0.0000000000000000     
   3.3393426912553537E-017   3.3310608187363734E-002   0.0000000000000000     
   4.2500725161431774E-017   5.3659990639833004E-002   0.0000000000000000     
   0.0000000000000000        0.0000000000000000        0.0000000000000000     
  -3.1387015630864479E-003   6.7853326320548276E-003   0.0000000000000000     
  -6.3797152192189115E-003   1.8078888972290881E-002   0.0000000000000000     
  -9.7230409683973923E-003   3.3880669020708153E-002   0.0000000000000000     
  -1.3168678810621887E-002   5.4190672777306659E-002   0.0000000000000000     
   0.0000000000000000        0.0000000000000000        0.0000000000000000     
  -7.3620289248370963E-003   7.6994919258776429E-003   0.0000000000000000     
  -1.4538065736480794E-002   1.9563109099458124E-002   0.0000000000000000     
  -2.1528110434931094E-002   3.5590851520741443E-002   0.0000000000000000     
  -2.8332163020188001E-002   5.5782719189727589E-002   0.0000000000000000     
   0.0000000000000000        0.0000000000000000        0.0000000000000000     
  -1.2669982085251929E-002   9.2230907489156792E-003   0.0000000000000000     
  -2.4475051551785625E-002   2.2036809311403539E-002   0.0000000000000000     
  -3.5415208399601085E-002   3.8441155687463584E-002   0.0000000000000000     
  -4.5490452628698323E-002   5.8436129877095802E-002   0.0000000000000000     
   0.0000000000000000        0.0000000000000000        0.0000000000000000     
  -1.9062561044330951E-002   1.1356129101168936E-002   0.0000000000000000     
  -3.6190672665133400E-002   2.5499989608127129E-002   0.0000000000000000     
  -5.1384334862407344E-002   4.2431581520874589E-002   0.0000000000000000     
  -6.4643547636152793E-002   6.2150904839411297E-002   0.0000000000000000     
   4.2500725161431774E-017   5.3659990639833004E-002   0.0000000000000000     
   5.5077470362263625E-017   7.7459637676089349E-002   0.0000000000000000     
   8.1315162936412833E-017  0.10353689068491252        0.0000000000000000     
   1.1790698625779861E-016  0.13189174966630252        0.0000000000000000     
   1.7000290064572710E-016  0.16252421462025932        0.0000000000000000     
  -1.3168678810621887E-002   5.4190672777306659E-002   0.0000000000000000     
  -1.6391772846793752E-002   7.7896201825010780E-002   0.0000000000000000     
  -1.9067467177814313E-002  0.10388455774674497        0.0000000000000000     
  -2.1195761803683582E-002  0.13215574054250920        0.0000000000000000     
  -2.2776656724401559E-002  0.16270975021230344        0.0000000000000000     
  -2.8332163020188001E-002   5.5782719189727589E-002   0.0000000000000000     
  -3.4554612657008307E-002   7.9205894271775018E-002   0.0000000000000000     
  -3.9799848510148818E-002  0.10492755893224222        0.0000000000000000     
  -4.4067870579609515E-002  0.13294771317112919        0.0000000000000000     
  -4.7358678865390413E-002  0.16326635698843583        0.0000000000000000     
  -4.5490452628698323E-002   5.8436129877095802E-002   0.0000000000000000     
  -5.4488519430643645E-002   8.1388715016382090E-002   0.0000000000000000     
  -6.2197143997003441E-002  0.10666589424140427        0.0000000000000000     
  -6.8616326327777685E-002  0.13426766755216241        0.0000000000000000     
  -7.3746066422966383E-002  0.16419403494865650        0.0000000000000000     
  -6.4643547636152793E-002   6.2150904839411297E-002   0.0000000000000000     
  -7.6193493167699730E-002   8.4444664058831942E-002   0.0000000000000000     
  -8.6259353638378153E-002  0.10909956367423118        0.0000000000000000     
  -9.4841129048188075E-002  0.13611560368560896        0.0000000000000000     
 -0.10193881939712948       0.16549278409296539        0.0000000000000000     
 </DataArray>
 <DataArray  type="Float64" Name="stress" NumberOfComponents="3" format="ascii">
   10565161717.500774        3169548515.2502322        1839187088.9121807     
   9159037660.2242451        1577587401.9740694        1073557466.8896855     
   7898115590.6660671        469632914.42574716        541437682.61235511     
   6782395508.8262444       -154314947.39473248        242827736.08018956     
   5811877414.7047710       -294256183.48737144        177727627.29318979     
   6911176296.0585852        2073352888.8175757        1371281878.5470071     
   6165642303.0852623        972099768.85567415        954117894.63782084     
   5529009800.9007015        233851618.18965387        698349970.14418209     
   5001278789.5049076       -141391563.18048382        603978105.06609154     
   4582449268.8978767       -153629775.25473857        671002299.40354896     
   3932320869.3277287        1179696260.7983186        1037063871.1433105     
   3641337574.0015607        507339324.15386283        926014945.59624755     
   3422955272.5345697        76985700.373330235        904248301.13511527     
   3277173964.9267559       -111364610.54327774        971763937.75991356     
   3203993651.1781182       -57711608.595963597        1128561855.4706433     
   1628595437.3082023        488578631.19246072        836533066.70109117     
   1586123472.9731412        183306067.86863631        989248619.76496589     
   1579952005.5676694       -964839.02322328091        1159132675.5851541     
   1610081035.0917876       -64234089.483117700        1346185234.1616561     
   1676510561.5454946       -6501683.5110477209        1550406295.4944708     
   7.3201518107153178E-006   2.1960455432145953E-006   769689465.22034907     
   4.3749344806228267E-006  -5.1927326907261783E-006   1143818917.1439757     
   2.9966871475115834E-006  -7.0113329062007653E-006   1463003093.4942989     
   3.4656343728855332E-006  -2.4991455791270263E-006   1727241994.2713187     
   5.6845553905086144E-006   7.8462877221104809E-006   1936535619.4750350     
   5811877414.7047710       -294256183.48737144        177727627.29318979     
   5148210484.5896845       -131943186.48133779        163167175.13418251     
   4477934237.4574070        8338753.8007216454        173686725.18531764     
   3801048673.3079371        126589637.35880804        209286277.44659430     
   3117553792.1412697        222809464.19290340        269965831.91801548     
   4582449268.8978767       -153629775.25473857        671002299.40354896     
   3991664289.8078399       -59805461.951325655        608389278.79542136     
   3395922322.9549041        17495558.809096098        592564376.08163881     
   2795223368.3390789        78273287.026543140        623527591.26220000     
   2189567425.9603519        122527722.70099914        701278924.33710968     
   3203993651.1781182       -57711608.595963597        1128561855.4706433     
   2748113810.7822790       -13769022.694431186        1019823983.8767430     
   2288929311.8778415        19158034.845108747        979582345.86139107     
   1826440154.4648070        41069564.022658944        1007836941.4245877     
   1360646338.5431740        51965564.838213503        1104587770.5663323     
   1676510561.5454946       -6501683.5110477209        1550406295.4944708     
   1417559047.5130043        6166131.2893512845        1397471290.3781462     
   1156955204.2262146        13326181.908752561        1334740634.5245721     
   894699031.68512428        14978468.347152352        1362214327.9337492     
   630790529.88973331        11122990.604548931        1479892370.6056771     
   5.6845553905086144E-006   7.8462877221104809E-006   1936535619.4750350     
   1.5132126321213071E-005   1.9735815545920754E-005   1741331198.2996321     
   2.1848937494404588E-005   2.1828921454297164E-005   1658039242.0711832     
   2.6113068895861312E-005   1.7481151599534413E-005   1686659750.7896872     
   3.0195626219200686E-005   9.0586878657602050E-006   1827192724.4551458     
   7.3201518107153178E-006   2.1960455432145953E-006   769689465.22034907     
   4.3749344806228267E-006  -5.1927326907261783E-006   1143818917.1439757     
   2.9966871475115834E-006  -7.0113329062007653E-006   1463003093.4942989     
   3.4656343728855332E-006  -2.4991455791270263E-006   1727241994.2713187     
   5.6845553905086144E-006   7.8462877221104809E-006   1936535619.4750350     
  -1628595437.3081880       -488578631.19245636        836533066.70108581     
  -1586123472.9731307       -183306067.86864024        989248619.76496351     
  -1579952005.5676615        964839.02321660519        1159132675.5851548     
  -1610081035.0917797        64234089.483115792        1346185234.1616595     
  -1676510561.5454855        6501683.5110547543        1550406295.4944785     
  -3932320869.3277149       -1179696260.7983146        1037063871.1433032     
  -3641337574.0015483       -507339324.15385985        926014945.59624386     
  -3422955272.5345588       -76985700.373329163        904248301.13511550     
  -3277173964.9267473        111364610.54327869        971763937.75991774     
  -3203993651.1781125        57711608.595960975        1128561855.4706516     
  -6911176296.0585747       -2073352888.8175724        1371281878.5470009     
  -6165642303.0852499       -972099768.85566473        954117894.63781714     
  -5529009800.9006929       -233851618.18964553        698349970.14418113     
  -5001278789.5048981        141391563.18048501        603978105.06609392     
  -4582449268.8978720        153629775.25472784        671002299.40355444     
  -10565161717.500765       -3169548515.2502298        1839187088.9121792     
  -9159037660.2242317       -1577587401.9740543        1073557466.8896832     
  -7898115590.6660547       -469632914.42573166        541437682.61235249     
  -6782395508.8262329        154314947.39473963        242827736.08018747     
  -5811877414.7047663        294256183.48735452        177727627.29318771     
   5.6845553905086144E-006   7.8462877221104809E-006   1936535619.4750350     
   1.5132126321213071E-005   1.9735815545920754E-005   1741331198.2996321     
   2.1848937494404588E-005   2.1828921454297164E-005   1658039242.0711832     
   2.6113068895861312E-005   1.7481151599534413E-005   1686659750.7896872     
   3.0195626219200686E-005   9.0586878657602050E-006   1827192724.4551458     
  -1676510561.5454855        6501683.5110547543        1550406295.4944785     
  -1417559047.5129812       -6166131.2893322706        1397471290.3781490     
  -1156955204.2261791       -13326181.908726871        1334740634.5245693     
  -894699031.68507957       -14978468.347132504        1362214327.9337392     
  -630790529.88968122       -11122990.604539990        1479892370.6056588     
  -3203993651.1781125        57711608.595960975        1128561855.4706516     
  -2748113810.7822657        13769022.694430709        1019823983.8767452     
  -2288929311.8778210       -19158034.845107913        979582345.86138487     
  -1826440154.4647810       -41069564.022657871        1007836941.4245701     
  -1360646338.5431409       -51965564.838213503        1104587770.5663033     
  -4582449268.8978720        153629775.25472784        671002299.40355444     
  -3991664289.8078380        59805461.951306581        608389278.79542112     
  -3395922322.9549079       -17495558.809123993        592564376.08163071     
  -2795223368.3390765       -78273287.026564002        623527591.26218212     
  -2189567425.9603519       -122527722.70101488        701278924.33707392     
  -5811877414.7047663        294256183.48735452        177727627.29318771     
  -5148210484.5896988        131943186.48129678        163167175.13417739     
  -4477934237.4574347       -8338753.8007719517        173686725.18530580     
  -3801048673.3079758       -126589637.35885572        209286277.44657108     
  -3117553792.1413126       -222809464.19293642        269965831.91797704     
 </DataArray>
 <DataArray  type="Float64" Name="VM" NumberOfComponents="1" format="ascii">
   9916134061.0365620     
   8682462055.7444000     
   7731172886.8895702     
   6873734274.4333763     
   5972390474.5531540     
   6585976361.1406822     
   5974740695.8906736     
   5549301407.4980640     
   5180182273.3025007     
   4803870972.3075495     
   3929680760.5426493     
   3773837544.4978170     
   3729882834.2387314     
   3734997714.5044956     
   3778196548.4827795     
   2048096180.0671523     
   2279140457.3149190     
   2555100653.3968534     
   2852464390.8595500     
   3167476774.8576832     
   1333141259.8121629     
   1981152479.1517820     
   2533995689.5625663     
   2991670891.0445156     
   3354178083.5976300     
   5972390474.5531540     
   5223085493.7704401     
   4483873929.3364410     
   3756890312.1847715     
   3048411039.4463453     
   4803870972.3075495     
   4157655152.3993120     
   3539290688.6567202     
   2960906792.9526629     
   2452817203.6276908     
   3778196548.4827795     
   3272656538.4556465     
   2841559035.9039993     
   2511924590.3436861     
   2333172636.4858985     
   3167476774.8576832     
   2803488691.1591358     
   2582228266.5465040     
   2520752490.1048870     
   2638417787.6355801     
   3354178083.5976300     
   3016074108.2597585     
   2871808208.2102818     
   2921380383.4491987     
   3164790633.9765124     
   1333141259.8121629     
   1981152479.1517820     
   2533995689.5625663     
   2991670891.0445156     
   3354178083.5976300     
   2048096180.0671370     
   2279140457.3149085     
   2555100653.3968472     
   2852464390.8595495     
   3167476774.8576918     
   3929680760.5426321     
   3773837544.4978046     
   3729882834.2387223     
   3734997714.5044918     
   3778196548.4827814     
   6585976361.1406689     
   5974740695.8906631     
   5549301407.4980583     
   5180182273.3024940     
   4803870972.3075409     
   9916134061.0365543     
   8682462055.7443924     
   7731172886.8895636     
   6873734274.4333677     
   5972390474.5531397     
   3354178083.5976300     
   3016074108.2597585     
   2871808208.2102818     
   2921380383.4491987     
   3164790633.9765124     
   3167476774.8576918     
   2803488691.1591330     
   2582228266.5464892     
   2520752490.1048589     
   2638417787.6355381     
   3778196548.4827814     
   3272656538.4556370     
   2841559035.9039769     
   2511924590.3436465     
   2333172636.4858384     
   4803870972.3075409     
   4157655152.3993006     
   3539290688.6567063     
   2960906792.9526401     
   2452817203.6276541     
   5972390474.5531397     
   5223085493.7704325     
   4483873929.3364429     
   3756890312.1847835     
   3048411039.4463630     
 </DataArray>
 <DataArray  type="Float64" Name="strain" NumberOfComponents="3" format="ascii">
  0.16023828604876175        0.0000000000000000        7.9698107186194495E-002
  0.14476269066053374       -1.9502064934886737E-002   4.6520823565219707E-002
  0.12928709527230572       -3.1663362712901218E-002   2.3462299579868721E-002
  0.11381149988407772       -3.6483893334043428E-002   1.0522535230141548E-002
   9.8335904495849710E-002  -3.3963656798313382E-002   7.7015305160382241E-003
  0.10481950715688855        0.0000000000000000        5.9422214737036974E-002
   9.7900206207142668E-002  -1.4626548701165077E-002   4.1345108767638902E-002
   9.0980905257396757E-002  -2.3747522034675943E-002   3.0261832039581223E-002
   8.4061604307650875E-002  -2.7362920000532601E-002   2.6172384552863966E-002
   7.7142303357904979E-002  -2.5472742598735030E-002   2.9076766307487120E-002
   5.9640199851470552E-002   0.0000000000000000        4.4939434416210122E-002
   5.8152262945923364E-002  -9.7510324674434240E-003   4.0127314309170728E-002
   5.6664326040376183E-002  -1.5831681356450678E-002   3.9184093049188330E-002
   5.5176389134828988E-002  -1.8241946667021742E-002   4.2109770636262922E-002
   5.3688452229281786E-002  -1.6981828399156650E-002   4.8904347070394538E-002
   2.4700364132507736E-002   0.0000000000000000        3.6249766223713953E-002
   2.5518860876875840E-002  -4.8755162337217675E-003   4.2867440189815191E-002
   2.6337357621243940E-002  -7.9158406782254016E-003   5.0229082608690009E-002
   2.7155854365612048E-002  -9.1209733335108987E-003   5.8334693480338429E-002
   2.7974351109980148E-002  -8.4909141995782693E-003   6.7184272804760400E-002
   1.1102230246251565E-016   0.0000000000000000        3.3353210159548459E-002
   9.8879238130678004E-017  -1.0842021724855044E-016   4.9565486409572285E-002
   8.5001450322863548E-017  -1.3183898417423734E-016   6.3396800718086288E-002
   7.0256300777060687E-017  -5.8980598183211441E-017   7.4847153085090476E-002
   5.5511151231257827E-017   1.0234868508263162E-016   8.3916543510584848E-002
   9.8335904495849710E-002  -3.3963656798313382E-002   7.7015305160382241E-003
   8.6463224008901440E-002  -2.7940105530970722E-002   7.0705775891479090E-003
   7.4590543521953184E-002  -2.2250691957275009E-002   7.5264247580304304E-003
   6.2717863035004914E-002  -1.6895416077226218E-002   9.0690720226857535E-003
   5.0845182548056644E-002  -1.1874277890824625E-002   1.1698519383114003E-002
   7.7142303357904979E-002  -2.5472742598735030E-002   2.9076766307487120E-002
   6.6826765473220626E-002  -2.0955079148227959E-002   2.6363535414468259E-002
   5.6511227588536259E-002  -1.6688018967956256E-002   2.5677789630204347E-002
   4.6195689703851940E-002  -1.2671562057919677E-002   2.7019528954695334E-002
   3.5880151819167538E-002  -8.9057084181184409E-003   3.0388753387941420E-002
   5.3688452229281786E-002  -1.6981828399156650E-002   4.8904347070394538E-002
   4.5870741959843475E-002  -1.3970052765485250E-002   4.4192372634658861E-002
   3.8053031690405144E-002  -1.1125345978637393E-002   4.2448568320660282E-002
   3.0235321420966823E-002  -8.4477080386130537E-003   4.3672934128398802E-002
   2.2417611151528502E-002  -5.9371389454123125E-003   4.7865470057874407E-002
   2.7974351109980148E-002  -8.4909141995782693E-003   6.7184272804760400E-002
   2.3595153468769982E-002  -6.9850263827425001E-003   6.0557089249719663E-002
   1.9215955827559812E-002  -5.5626729893185302E-003   5.7838760829398123E-002
   1.4836758186349643E-002  -4.2238540193064158E-003   5.9029287543795800E-002
   1.0457560545139476E-002  -2.9685694727061840E-003   6.4128669392912674E-002
   5.5511151231257827E-017   1.0234868508263162E-016   8.3916543510584848E-002
   1.5352302762394743E-016   2.5326962749261384E-016   7.5457685259650728E-002
   2.5500435096859064E-016   2.5457067009959644E-016   7.1848367156417944E-002
   3.4781205693334982E-016   1.6078718217960031E-016   7.3088589200886442E-002
   4.5796699765787707E-016   0.0000000000000000        7.9178351393056318E-002
   1.1102230246251565E-016   0.0000000000000000        3.3353210159548459E-002
   9.8879238130678004E-017  -1.0842021724855044E-016   4.9565486409572285E-002
   8.5001450322863548E-017  -1.3183898417423734E-016   6.3396800718086288E-002
   7.0256300777060687E-017  -5.8980598183211441E-017   7.4847153085090476E-002
   5.5511151231257827E-017   1.0234868508263162E-016   8.3916543510584848E-002
  -2.4700364132507518E-002   0.0000000000000000        3.6249766223713717E-002
  -2.5518860876875646E-002   4.8755162337216504E-003   4.2867440189815087E-002
  -2.6337357621243774E-002   7.9158406782252506E-003   5.0229082608690037E-002
  -2.7155854365611909E-002   9.1209733335108276E-003   5.8334693480338574E-002
  -2.7974351109980033E-002   8.4909141995783421E-003   6.7184272804760733E-002
  -5.9640199851470344E-002   0.0000000000000000        4.4939434416209803E-002
  -5.8152262945923176E-002   9.7510324674434101E-003   4.0127314309170568E-002
  -5.6664326040376002E-002   1.5831681356450640E-002   3.9184093049188337E-002
  -5.5176389134828856E-002   1.8241946667021718E-002   4.2109770636263102E-002
  -5.3688452229281675E-002   1.6981828399156577E-002   4.8904347070394906E-002
 -0.10481950715688838        0.0000000000000000        5.9422214737036710E-002
  -9.7900206207142501E-002   1.4626548701165169E-002   4.1345108767638743E-002
  -9.0980905257396646E-002   2.3747522034676036E-002   3.0261832039581184E-002
  -8.4061604307650722E-002   2.7362920000532569E-002   2.6172384552864070E-002
  -7.7142303357904840E-002   2.5472742598734825E-002   2.9076766307487359E-002
 -0.16023828604876161        0.0000000000000000        7.9698107186194439E-002
 -0.14476269066053360        1.9502064934886924E-002   4.6520823565219610E-002
 -0.12928709527230559        3.1663362712901412E-002   2.3462299579868607E-002
 -0.11381149988407757        3.6483893334043484E-002   1.0522535230141458E-002
  -9.8335904495849558E-002   3.3963656798313077E-002   7.7015305160381339E-003
   5.5511151231257827E-017   1.0234868508263162E-016   8.3916543510584848E-002
   1.5352302762394743E-016   2.5326962749261384E-016   7.5457685259650728E-002
   2.5500435096859064E-016   2.5457067009959644E-016   7.1848367156417944E-002
   3.4781205693334982E-016   1.6078718217960031E-016   7.3088589200886442E-002
   4.5796699765787707E-016   0.0000000000000000        7.9178351393056318E-002
  -2.7974351109980033E-002   8.4909141995783421E-003   6.7184272804760733E-002
  -2.3595153468769690E-002   6.9850263827427005E-003   6.0557089249719788E-002
  -1.9215955827559351E-002   5.5626729893187808E-003   5.7838760829397998E-002
  -1.4836758186348997E-002   4.2238540193065234E-003   5.9029287543795363E-002
  -1.0457560545138654E-002   2.9685694727060730E-003   6.4128669392911883E-002
  -5.3688452229281675E-002   1.6981828399156577E-002   4.8904347070394906E-002
  -4.5870741959843246E-002   1.3970052765485174E-002   4.4192372634658958E-002
  -3.8053031690404811E-002   1.1125345978637307E-002   4.2448568320660011E-002
  -3.0235321420966396E-002   8.4477080386129409E-003   4.3672934128398039E-002
  -2.2417611151527947E-002   5.9371389454121459E-003   4.7865470057873137E-002
  -7.7142303357904840E-002   2.5472742598734825E-002   2.9076766307487359E-002
  -6.6826765473220501E-002   2.0955079148227633E-002   2.6363535414468248E-002
  -5.6511227588536175E-002   1.6688018967955805E-002   2.5677789630203996E-002
  -4.6195689703851794E-002   1.2671562057919318E-002   2.7019528954694561E-002
  -3.5880151819167455E-002   8.9057084181181773E-003   3.0388753387939872E-002
  -9.8335904495849558E-002   3.3963656798313077E-002   7.7015305160381339E-003
  -8.6463224008901468E-002   2.7940105530970108E-002   7.0705775891476870E-003
  -7.4590543521953379E-002   2.2250691957274308E-002   7.5264247580299187E-003
  -6.2717863035005317E-002   1.6895416077225618E-002   9.0690720226847474E-003
  -5.0845182548057200E-002   1.1874277890824292E-002   1.1698519383112338E-002
 </DataArray>
 </PointData>
 </Piece>
 <Piece  NumberOfPoints="           100 "  NumberOfCells="           64 ">
 <Points>
 <DataArray  type="Float64" NumberOfComponents="3"  format="ascii" >
  0.50000000000000000        0.0000000000000000        0.0000000000000000     
  0.62500000000000000        0.0000000000000000        0.0000000000000000     
  0.75000000000000000        0.0000000000000000        0.0000000000000000     
  0.87500000000000000        0.0000000000000000        0.0000000000000000     
   1.0000000000000000        0.0000000000000000        0.0000000000000000     
  0.50000000000000000       0.12500000000000000        0.0000000000000000     
  0.62500000000000000       0.12500000000000000        0.0000000000000000     
  0.75000000000000000       0.12500000000000000        0.0000000000000000     
  0.87500000000000000       0.12500000000000000        0.0000000000000000     
   1.0000000000000000       0.12500000000000000        0.0000000000000000     
  0.50000000000000000       0.25000000000000000        0.0000000000000000     
  0.62500000000000000       0.25000000000000000        0.0000000000000000     
  0.75000000000000000       0.25000000000000000        0.0000000000000000     
  0.87500000000000000       0.25000000000000000        0.0000000000000000     
   1.0000000000000000       0.25000000000000000        0.0000000000000000     
  0.50000000000000000       0.37500000000000000        0.0000000000000000     
  0.62500000000000000       0.37500000000000000        0.0000000000000000     
  0.75000000000000000       0.37500000000000000        0.0000000000000000     
  0.87500000000000000       0.37500000000000000        0.0000000000000000     
   1.0000000000000000       0.37500000000000000        0.0000000000000000     
  0.50000000000000000       0.50000000000000000        0.0000000000000000     
  0.62500000000000000       0.50000000000000000        0.0000000000000000     
  0.75000000000000000       0.50000000000000000        0.0000000000000000     
  0.87500000000000000       0.50000000000000000        0.0000000000000000     
   1.0000000000000000       0.50000000000000000        0.0000000000000000     
   1.0000000000000000        0.0000000000000000        0.0000000000000000     
   1.1250000000000000        0.0000000000000000        0.0000000000000000     
   1.2500000000000000        0.0000000000000000        0.0000000000000000     
   1.3750000000000000        0.0000000000000000        0.0000000000000000     
   1.5000000000000000        0.0000000000000000        0.0000000000000000     
   1.0000000000000000       0.12500000000000000        0.0000000000000000     
   1.1250000000000000       0.12500000000000000        0.0000000000000000     
   1.2500000000000000       0.12500000000000000        0.0000000000000000     
   1.3750000000000000       0.12500000000000000        0.0000000000000000     
   1.5000000000000000       0.12500000000000000        0.0000000000000000     
   1.0000000000000000       0.25000000000000000        0.0000000000000000     
   1.1250000000000000       0.25000000000000000        0.0000000000000000     
   1.2500000000000000       0.25000000000000000        0.0000000000000000     
   1.3750000000000000       0.25000000000000000        0.0000000000000000     
   1.5000000000000000       0.25000000000000000        0.0000000000000000     
   1.0000000000000000       0.37500000000000000        0.0000000000000000     
   1.1250000000000000       0.37500000000000000        0.0000000000000000     
   1.2500000000000000       0.37500000000000000        0.0000000000000000     
   1.3750000000000000       0.37500000000000000        0.0000000000000000     
   1.5000000000000000       0.37500000000000000        0.0000000000000000     
   1.0000000000000000       0.50000000000000000        0.0000000000000000     
   1.1250000000000000       0.50000000000000000        0.0000000000000000     
   1.2500000000000000       0.50000000000000000        0.0000000000000000     
   1.3750000000000000       0.50000000000000000        0.0000000000000000     
   1.5000000000000000       0.50000000000000000        0.0000000000000000     
  0.50000000000000000       0.50000000000000000        0.0000000000000000     
  0.62500000000000000       0.50000000000000000        0.0000000000000000     
  0.75000000000000000       0.50000000000000000        0.0000000000000000     
  0.87500000000000000       0.50000000000000000        0.0000000000000000     
   1.0000000000000000       0.50000000000000000        0.0000000000000000     
  0.50000000000000000       0.62500000000000000        0.0000000000000000     
  0.62500000000000000       0.62500000000000000        0.0000000000000000     
  0.75000000000000000       0.62500000000000000        0.0000000000000000     
  0.87500000000000000       0.62500000000000000        0.0000000000000000     
   1.0000000000000000       0.62500000000000000        0.0000000000000000     
  0.50000000000000000       0.75000000000000000        0.0000000000000000     
  0.62500000000000000       0.75000000000000000        0.0000000000000000     
  0.75000000000000000       0.75000000000000000        0.0000000000000000     
  0.87500000000000000       0.75000000000000000        0.0000000000000000     
   1.0000000000000000       0.75000000000000000        0.0000000000000000     
  0.50000000000000000       0.87500000000000000        0.0000000000000000     
  0.62500000000000000       0.87500000000000000        0.0000000000000000     
  0.75000000000000000       0.87500000000000000        0.0000000000000000     
  0.87500000000000000       0.87500000000000000        0.0000000000000000     
   1.0000000000000000       0.87500000000000000        0.0000000000000000     
  0.50000000000000000        1.0000000000000000        0.0000000000000000     
  0.62500000000000000        1.0000000000000000        0.0000000000000000     
  0.75000000000000000        1.0000000000000000        0.0000000000000000     
  0.87500000000000000        1.0000000000000000        0.0000000000000000     
   1.0000000000000000        1.0000000000000000        0.0000000000000000     
   1.0000000000000000       0.50000000000000000        0.0000000000000000     
   1.1250000000000000       0.50000000000000000        0.0000000000000000     
   1.2500000000000000       0.50000000000000000        0.0000000000000000     
   1.3750000000000000       0.50000000000000000        0.0000000000000000     
   1.5000000000000000       0.50000000000000000        0.0000000000000000     
   1.0000000000000000       0.62500000000000000        0.0000000000000000     
   1.1250000000000000       0.62500000000000000        0.0000000000000000     
   1.2500000000000000       0.62500000000000000        0.0000000000000000     
   1.3750000000000000       0.62500000000000000        0.0000000000000000     
   1.5000000000000000       0.62500000000000000        0.0000000000000000     
   1.0000000000000000       0.75000000000000000        0.0000000000000000     
   1.1250000000000000       0.75000000000000000        0.0000000000000000     
   1.2500000000000000       0.75000000000000000        0.0000000000000000     
   1.3750000000000000       0.75000000000000000        0.0000000000000000     
   1.5000000000000000       0.75000000000000000        0.0000000000000000     
   1.0000000000000000       0.87500000000000000        0.0000000000000000     
   1.1250000000000000       0.87500000000000000        0.0000000000000000     
   1.2500000000000000       0.87500000000000000        0.0000000000000000     
   1.3750000000000000       0.87500000000000000        0.0000000000000000     
   1.5000000000000000       0.87500000000000000        0.0000000000000000     
   1.0000000000000000        1.0000000000000000        0.0000000000000000     
   1.1250000000000000        1.0000000000000000        0.0000000000000000     
   1.2500000000000000        1.0000000000000000        0.0000000000000000     
   1.3750000000000000        1.0000000000000000        0.0000000000000000     
   1.5000000000000000        1.0000000000000000        0.0000000000000000     
 </DataArray>
 </Points>
 <Cells>
 <DataArray  type="Int32"  Name="connectivity"  format="ascii">
           0           1           6           5
           1           2           7           6
           2           3           8           7
           3           4           9           8
           5           6          11          10
           6           7          12          11
           7           8          13          12
           8           9          14          13
          10          11          16          15
          11          12          17          16
          12          13          18          17
          13          14          19          18
          15          16          21          20
          16          17          22          21
          17          18          23          22
          18          19          24          23
          25          26          31          30
          26          27          32          31
          27          28          33          32
          28          29          34          33
          30          31          36          35
          31          32          37          36
          32          33          38          37
          33          34          39          38
          35          36          41          40
          36          37          42          41
          37          38          43          42
          38          39          44          43
          40          41          46          45
          41          42          47          46
          42          43          48          47
          43          44          49          48
          50          51          56          55
          51          52          57          56
          52          53          58          57
          53          54          59          58
          55          56          61          60
          56          57          62          61
          57          58          63          62
          58          59          64          63
          60          61          66          65
          61          62          67          66
          62          63          68          67
          63          64          69          68
          65          66          71          70
          66          67          72          71
          67          68          73          72
          68          69          74          73
          75          76          81          80
          76          77          82          81
          77          78          83          82
          78          79          84          83
          80          81          86          85
          81          82          87          86
          82          83          88          87
          83          84          89          88
          85          86          91          90
          86          87          92          91
          87          88          93          92
          88          89          94          93
          90          91          96          95
          91          92          97          96
          92          93          98          97
          93          94          99          98
 </DataArray>
 <DataArray  type="Int32"  Name="offsets"  format="ascii"> 
           4
           8
          12
          16
          20
          24
          28
          32
          36
          40
          44
          48
          52
          56
          60
          64
          68
          72
          76
          80
          84
          88
          92
          96
         100
         104
         108
         112
         116
         120
         124
         128
         132
         136
         140
         144
         148
         152
         156
         160
         164
         168
         172
         176
         180
         184
         188
         192
         196
         200
         204
         208
         212
         216
         220
         224
         228
         232
         236
         240
         244
         248
         252
         256
 </DataArray>
 <DataArray  type="UInt8"  Name="types"  format="ascii">
 9
 9
 9
 9
 9
 9
 9
 9
 9
 9
 9
 9
 9
 9
 9
 9
 9
 9
 9
 9
 9
 9
 9
 9
 9
 9
 9
 9
 9
 9
 9
 9
 9
 9
 9
 9
 9
 9
 9
 9
 9
 9
 9
 9
 9
 9
 9
 9
 9
 9
 9
 9
 9
 9
 9
 9
 9
 9
 9
 9
 9
 9
 9
 9
 </DataArray>
 </Cells> 
 <PointData>
 <DataArray  type="Float64" Name="disp" NumberOfComponents="3" format="ascii">
   6.4643547636152779E-002   6.2150904839411464E-002   0.0000000000000000     
   7.6193493167699911E-002   8.4444664058831859E-002   0.0000000000000000     
   8.6259353638378430E-002  0.10909956367423101        0.0000000000000000     
   9.4841129048188325E-002  0.13611560368560890        0.0000000000000000     
  0.10193881939712961       0.16549278409296556        0.0000000000000000     
   4.5490452628698393E-002   5.8436129877095754E-002   0.0000000000000000     
   5.4488519430643791E-002   8.1388715016381979E-002   0.0000000000000000     
   6.2197143997003615E-002  0.10666589424140419        0.0000000000000000     
   6.8616326327777907E-002  0.13426766755216241        0.0000000000000000     
   7.3746066422966605E-002  0.16419403494865661        0.0000000000000000     
   2.8332163020188143E-002   5.5782719189727416E-002   0.0000000000000000     
   3.4554612657008446E-002   7.9205894271774921E-002   0.0000000000000000     
   3.9799848510148964E-002  0.10492755893224219        0.0000000000000000     
   4.4067870579609709E-002  0.13294771317112916        0.0000000000000000     
   4.7358678865390691E-002  0.16326635698843589        0.0000000000000000     
   1.3168678810622027E-002   5.4190672777306423E-002   0.0000000000000000     
   1.6391772846793863E-002   7.7896201825010711E-002   0.0000000000000000     
   1.9067467177814452E-002  0.10388455774674496        0.0000000000000000     
   2.1195761803683780E-002  0.13215574054250925        0.0000000000000000     
   2.2776656724401854E-002  0.16270975021230347        0.0000000000000000     
   4.3368086899420177E-017   5.3659990639832802E-002   0.0000000000000000     
   6.4184768611141862E-017   7.7459637676089321E-002   0.0000000000000000     
   7.8496237287950521E-017  0.10353689068491258        0.0000000000000000     
   9.2482445313013528E-017  0.13189174966630257        0.0000000000000000     
   9.7144514654701197E-017  0.16252421462025926        0.0000000000000000     
  0.10193881939712961       0.16549278409296556        0.0000000000000000     
  0.10758227955077551       0.19675737584356301        0.0000000000000000     
  0.11180136437469926       0.22943564988466325        0.0000000000000000     
  0.11459607386890089       0.26352760621626631        0.0000000000000000     
  0.11596640803338035       0.29903324483837218        0.0000000000000000     
   7.3746066422966605E-002  0.16419403494865661        0.0000000000000000     
   7.7721011082087565E-002  0.19581450796901778        0.0000000000000000     
   8.0675807104658576E-002  0.22849859815137694        0.0000000000000000     
   8.2610454490679636E-002  0.26224630549573408        0.0000000000000000     
   8.3524953240150759E-002  0.29705763000208918        0.0000000000000000     
   4.7358678865390691E-002  0.16326635698843589        0.0000000000000000     
   4.9836875000729017E-002  0.19514103091577115        0.0000000000000000     
   5.1667060618861831E-002  0.22782927548474385        0.0000000000000000     
   5.2849235719789098E-002  0.26133109069535387        0.0000000000000000     
   5.3383400303510853E-002  0.29564647654760129        0.0000000000000000     
   2.2776656724401854E-002  0.16270975021230347        0.0000000000000000     
   2.3929871306699869E-002  0.19473694468382319        0.0000000000000000     
   2.4775124917309002E-002  0.22742768188476395        0.0000000000000000     
   2.5312417556229268E-002  0.26078196181512575        0.0000000000000000     
   2.5541749223460655E-002  0.29479978447490857        0.0000000000000000     
   9.7144514654701197E-017  0.16252421462025926        0.0000000000000000     
   1.0668549377257364E-016  0.19460224927317382        0.0000000000000000     
   1.2186432418737070E-016  0.22729381735143733        0.0000000000000000     
   1.3715157481941631E-016  0.26059891885504965        0.0000000000000000     
   1.6306400674181987E-016  0.29451755378401101        0.0000000000000000     
   4.3368086899420177E-017   5.3659990639832802E-002   0.0000000000000000     
   6.4184768611141862E-017   7.7459637676089321E-002   0.0000000000000000     
   7.8496237287950521E-017  0.10353689068491258        0.0000000000000000     
   9.2482445313013528E-017  0.13189174966630257        0.0000000000000000     
   9.7144514654701197E-017  0.16252421462025926        0.0000000000000000     
  -1.3168678810621949E-002   5.4190672777306499E-002   0.0000000000000000     
  -1.6391772846793735E-002   7.7896201825010752E-002   0.0000000000000000     
  -1.9067467177814285E-002  0.10388455774674499        0.0000000000000000     
  -2.1195761803683599E-002  0.13215574054250920        0.0000000000000000     
  -2.2776656724401656E-002  0.16270975021230338        0.0000000000000000     
  -2.8332163020188091E-002   5.5782719189727471E-002   0.0000000000000000     
  -3.4554612657008321E-002   7.9205894271774976E-002   0.0000000000000000     
  -3.9799848510148804E-002  0.10492755893224222        0.0000000000000000     
  -4.4067870579609536E-002  0.13294771317112913        0.0000000000000000     
  -4.7358678865390511E-002  0.16326635698843578        0.0000000000000000     
  -4.5490452628698379E-002   5.8436129877095712E-002   0.0000000000000000     
  -5.4488519430643693E-002   8.1388715016382007E-002   0.0000000000000000     
  -6.2197143997003483E-002  0.10666589424140424        0.0000000000000000     
  -6.8616326327777727E-002  0.13426766755216241        0.0000000000000000     
  -7.3746066422966466E-002  0.16419403494865648        0.0000000000000000     
  -6.4643547636152821E-002   6.2150904839411214E-002   0.0000000000000000     
  -7.6193493167699827E-002   8.4444664058831831E-002   0.0000000000000000     
  -8.6259353638378292E-002  0.10909956367423107        0.0000000000000000     
  -9.4841129048188172E-002  0.13611560368560893        0.0000000000000000     
 -0.10193881939712948       0.16549278409296544        0.0000000000000000     
   9.7144514654701197E-017  0.16252421462025926        0.0000000000000000     
   1.0668549377257364E-016  0.19460224927317382        0.0000000000000000     
   1.2186432418737070E-016  0.22729381735143733        0.0000000000000000     
   1.3715157481941631E-016  0.26059891885504965        0.0000000000000000     
   1.6306400674181987E-016  0.29451755378401101        0.0000000000000000     
  -2.2776656724401656E-002  0.16270975021230338        0.0000000000000000     
  -2.3929871306699668E-002  0.19473694468382308        0.0000000000000000     
  -2.4775124917308790E-002  0.22742768188476384        0.0000000000000000     
  -2.5312417556229011E-002  0.26078196181512570        0.0000000000000000     
  -2.5541749223460357E-002  0.29479978447490862        0.0000000000000000     
  -4.7358678865390511E-002  0.16326635698843578        0.0000000000000000     
  -4.9836875000728857E-002  0.19514103091577095        0.0000000000000000     
  -5.1667060618861643E-002  0.22782927548474366        0.0000000000000000     
  -5.2849235719788903E-002  0.26133109069535376        0.0000000000000000     
  -5.3383400303510638E-002  0.29564647654760140        0.0000000000000000     
  -7.3746066422966466E-002  0.16419403494865648        0.0000000000000000     
  -7.7721011082087427E-002  0.19581450796901756        0.0000000000000000     
  -8.0675807104658478E-002  0.22849859815137666        0.0000000000000000     
  -8.2610454490679538E-002  0.26224630549573408        0.0000000000000000     
  -8.3524953240150648E-002  0.29705763000208940        0.0000000000000000     
 -0.10193881939712948       0.16549278409296544        0.0000000000000000     
 -0.10758227955077546       0.19675737584356276        0.0000000000000000     
 -0.11180136437469926       0.22943564988466306        0.0000000000000000     
 -0.11459607386890092       0.26352760621626631        0.0000000000000000     
 -0.11596640803338043       0.29903324483837257        0.0000000000000000     
 </DataArray>
 <DataArray  type="Float64" Name="stress" NumberOfComponents="3" format="ascii">
   5811877414.7048588       -294256183.48744941        177727627.29315135     
   5148210484.5897665       -131943186.48130083        163167175.13413984     
   4477934237.4574623        8338753.8008086681        173686725.18528855     
   3801048673.3079419        126589637.35886717        209286277.44659430     
   3117553792.1412086        222809464.19287670        269965831.91805965     
   4582449268.8978815       -153629775.25480723        671002299.40355086     
   3991664289.8078628       -59805461.951305628        608389278.79541266     
   3395922322.9549327        17495558.809160709        592564376.08162642     
   2795223368.3390923        78273287.026586175        623527591.26219678     
   2189567425.9603424        122527722.70098281        701278924.33712411     
   3203993651.1780820       -57711608.596014857        1128561855.4706688     
   2748113810.7822680       -13769022.694424987        1019823983.8767527     
   2288929311.8778481        19158034.845142841        979582345.86139107     
   1826440154.4648206        41069564.022685170        1007836941.4245783     
   1360646338.5431848        51965564.838199198        1104587770.5663192     
   1676510561.5454621       -6501683.5110660791        1550406295.4945045     
   1417559047.5129867        6166131.2893516421        1397471290.3781691     
   1156955204.2262073        13326181.908758819        1334740634.5245814     
   894699031.68512309        14978468.347151399        1362214327.9337423     
   630790529.88973629        11122990.604532808        1479892370.6056495     
   2.1960455432145955E-005   3.5731491026054141E-005   1936535619.4750586     
   1.5921330188305814E-005   2.3927746231275692E-005   1741331198.2996559     
   8.6698048008159536E-006   7.3887782339407737E-006   1658039242.0711989     
   1.6298775516045823E-006  -9.1387520261899047E-006   1686659750.7896843     
  -5.6731176533043723E-006  -2.5849286081588465E-005   1827192724.4551141     
   3117553792.1412086        222809464.19287670        269965831.91805965     
   2430595254.4491272        211948199.44136894        207064289.26083940     
   1680328235.1184912       -9941337.4386583567        221751235.23489231     
   866752734.14930701       -442859146.44718099        314026669.84022558     
  -10131248.458435178       -1086805227.5842247        483890593.07683170     
   2189567425.9603424        122527722.70098281        701278924.33712411     
   1699737284.4011655        121998402.65031183        605460798.70835614     
   1162425781.6130784       -36802121.496730924        581307117.31189156     
   577632917.59607244       -353873849.74016559        628817880.14773250     
  -54641307.649844140       -829216782.07997394        747993087.21587443     
   1360646338.5431848        51965564.838199198        1104587770.5663192     
   1051018751.9769907        56690437.146395981        994318035.77725387     
   709736924.59152412       -44098826.609652311        949788700.82151902     
   336800856.38677698       -250402226.42996681        970999765.69911504     
  -67789452.637239069       -562219762.31451225        1057951230.4100369     
   630790529.88973629        11122990.604532808        1479892370.6056495     
   484439657.17659950        16024302.929610908        1373636000.4675322     
   322261664.05382860       -31831452.777426168        1327195985.7637682     
   144256550.52142236       -132444276.51657987        1340572326.4943645     
  -49575683.420620881       -285814168.28785652        1413765022.6593180     
  -5.6731176533043723E-006  -2.5849286081588465E-005   1827192724.4551141     
  -6.0848761926571087E-006  -3.5548487230786261E-005   1743414692.7791893     
  -2.9509361986946130E-006  -3.4816472049714733E-005   1713528972.1386471     
   4.5007495898694964E-006  -1.7957247410661014E-005   1737535562.5334864     
   1.6836349164645232E-005   1.1712242897144508E-005   1815434463.9637144     
   2.1960455432145955E-005   3.5731491026054141E-005   1936535619.4750586     
   1.5921330188305814E-005   2.3927746231275692E-005   1741331198.2996559     
   8.6698048008159536E-006   7.3887782339407737E-006   1658039242.0711989     
   1.6298775516045823E-006  -9.1387520261899047E-006   1686659750.7896843     
  -5.6731176533043723E-006  -2.5849286081588465E-005   1827192724.4551141     
  -1676510561.5454292        6501683.5110900402        1550406295.4944992     
  -1417559047.5129583       -6166131.2893273830        1397471290.3781631     
  -1156955204.2261879       -13326181.908743322        1334740634.5245743     
  -894699031.68511677       -14978468.347156823        1362214327.9337327     
  -630790529.88974357       -11122990.604565352        1479892370.6056368     
  -3203993651.1780539        57711608.595992804        1128561855.4706686     
  -2748113810.7822433        13769022.694427848        1019823983.8767503     
  -2288929311.8778296       -19158034.845130682        979582345.86138177     
  -1826440154.4648137       -41069564.022678971        1007836941.4245631     
  -1360646338.5431952       -51965564.838218510        1104587770.5662928     
  -4582449268.8978510        153629775.25474286        671002299.40356553     
  -3991664289.8078341        59805461.951292515        608389278.79541695     
  -3395922322.9549117       -17495558.809144497        592564376.08162141     
  -2795223368.3390865       -78273287.026566744        623527591.26217818     
  -2189567425.9603581       -122527722.70098376        701278924.33708572     
  -5811877414.7048206        294256183.48734283        177727627.29319108     
  -5148210484.5897341        131943186.48126197        163167175.13416481     
  -4477934237.4574385       -8338753.8007984161        173686725.18529209     
  -3801048673.3079429       -126589637.35884571        209286277.44657663     
  -3117553792.1412373       -222809464.19286704        269965831.91801387     
  -5.6731176533043723E-006  -2.5849286081588465E-005   1827192724.4551141     
  -6.0848761926571087E-006  -3.5548487230786261E-005   1743414692.7791893     
  -2.9509361986946130E-006  -3.4816472049714733E-005   1713528972.1386471     
   4.5007495898694964E-006  -1.7957247410661014E-005   1737535562.5334864     
   1.6836349164645232E-005   1.1712242897144508E-005   1815434463.9637144     
  -630790529.88974357       -11122990.604565352        1479892370.6056368     
  -484439657.17660773       -16024302.929663152        1373636000.4675252     
  -322261664.05382872        31831452.777383566        1327195985.7637711     
  -144256550.52140921        132444276.51656526        1340572326.4943728     
   49575683.420656383        285814168.28789717        1413765022.6593318     
  -1360646338.5431952       -51965564.838218510        1104587770.5662928     
  -1051018751.9770001       -56690437.146426022        994318035.77724087     
  -709736924.59152389        44098826.609632671        949788700.82152009     
  -336800856.38676667        250402226.42996532        970999765.69912410     
   67789452.637272939        562219762.31457222        1057951230.4100648     
  -2189567425.9603581       -122527722.70098376        701278924.33708572     
  -1699737284.4011800       -121998402.65031952        605460798.70833826     
  -1162425781.6130838        36802121.496733308        581307117.31189370     
  -577632917.59606767        353873849.74018574        628817880.14775276     
   54641307.649869025        829216782.08004308        747993087.21591198     
  -3117553792.1412373       -222809464.19286704        269965831.91801387     
  -2430595254.4491568       -211948199.44136786        207064289.26081666     
  -1680328235.1185141        9941337.4386627674        221751235.23489478     
  -866752734.14931750        442859146.44721556        314026669.84024513     
   10131248.458443224        1086805227.5843072        483890593.07687783     
 </DataArray>
 <DataArray  type="Float64" Name="VM" NumberOfComponents="1" format="ascii">
   5972390474.5532799     
   5223085493.7704992     
   4483873929.3364496     
   3756890312.1847486     
   3048411039.4463091     
   4803870972.3075905     
   4157655152.3993201     
   3539290688.6567106     
   2960906792.9526544     
   2452817203.6277013     
   3778196548.4827943     
   3272656538.4556437     
   2841559035.9039912     
   2511924590.3436756     
   2333172636.4858899     
   3167476774.8577199     
   2803488691.1591606     
   2582228266.5465140     
   2520752490.1048760     
   2638417787.6355362     
   3354178083.5976715     
   3016074108.2598000     
   2871808208.2103095     
   2921380383.4491940     
   3164790633.9764576     
   3048411039.4463091     
   2359275715.5760994     
   1728533294.1265876     
   1275567383.5145571     
   1368461862.5734103     
   2452817203.6277013     
   1948428481.8612759     
   1552134569.7663193     
   1359974798.4750698     
   1524387624.7381802     
   2333172636.4858899     
   2003565965.7191958     
   1800906855.6806872     
   1757553245.6030824     
   1907971781.4619367     
   2638417787.6355362     
   2426479618.1409316     
   2323676275.2862864     
   2334279306.5322037     
   2462960144.2859845     
   3164790633.9764576     
   3019682826.5556407     
   2967919239.9854121     
   3009499874.2657685     
   3144424729.3967233     
   3354178083.5976715     
   3016074108.2598000     
   2871808208.2103095     
   2921380383.4491940     
   3164790633.9764576     
   3167476774.8577018     
   2803488691.1591439     
   2582228266.5464973     
   2520752490.1048570     
   2638417787.6355128     
   3778196548.4827600     
   3272656538.4556217     
   2841559035.9039717     
   2511924590.3436542     
   2333172636.4858532     
   4803870972.3075333     
   4157655152.3992877     
   3539290688.6566958     
   2960906792.9526458     
   2452817203.6276817     
   5972390474.5531874     
   5223085493.7704487     
   4483873929.3364315     
   3756890312.1847563     
   3048411039.4463286     
   3164790633.9764576     
   3019682826.5556407     
   2967919239.9854121     
   3009499874.2657685     
   3144424729.3967233     
   2638417787.6355128     
   2426479618.1409163     
   2323676275.2862878     
   2334279306.5322156     
   2462960144.2860117     
   2333172636.4858532     
   2003565965.7191744     
   1800906855.6806846     
   1757553245.6030941     
   1907971781.4619961     
   2452817203.6276817     
   1948428481.8612685     
   1552134569.7663267     
   1359974798.4751046     
   1524387624.7382660     
   3048411039.4463286     
   2359275715.5761232     
   1728533294.1266131     
   1275567383.5146043     
   1368461862.5735211     
 </DataArray>
 <DataArray  type="Float64" Name="strain" NumberOfComponents="3" format="ascii">
   9.8335904495851556E-002  -3.3963656798315117E-002   7.7015305160365588E-003
   8.6463224008902606E-002  -2.7940105530970510E-002   7.0705775891460598E-003
   7.4590543521953656E-002  -2.2250691957273833E-002   7.5264247580291710E-003
   6.2717863035004692E-002  -1.6895416077225257E-002   9.0690720226857535E-003
   5.0845182548055756E-002  -1.1874277890824764E-002   1.1698519383115918E-002
   7.7142303357905395E-002  -2.5472742598736192E-002   2.9076766307487206E-002
   6.6826765473220903E-002  -2.0955079148227737E-002   2.6363535414467884E-002
   5.6511227588536411E-002  -1.6688018967955319E-002   2.5677789630203812E-002
   4.6195689703851947E-002  -1.2671562057919026E-002   2.7019528954695192E-002
   3.5880151819167455E-002  -8.9057084181186630E-003   3.0388753387942044E-002
   5.3688452229281439E-002  -1.6981828399157323E-002   4.8904347070395648E-002
   4.5870741959843253E-002  -1.3970052765485089E-002   4.4192372634659284E-002
   3.8053031690405088E-002  -1.1125345978636861E-002   4.2448568320660282E-002
   3.0235321420966920E-002  -8.4477080386126842E-003   4.3672934128398393E-002
   2.2417611151528752E-002  -5.9371389454126039E-003   4.7865470057873831E-002
   2.7974351109979697E-002  -8.4909141995784115E-003   6.7184272804761858E-002
   2.3595153468769687E-002  -6.9850263827424056E-003   6.0557089249720655E-002
   1.9215955827559660E-002  -5.5626729893183888E-003   5.7838760829398525E-002
   1.4836758186349629E-002  -4.2238540193064254E-003   5.9029287543795501E-002
   1.0457560545139608E-002  -2.9685694727064685E-003   6.4128669392911480E-002
   1.8735013540549517E-016   4.8572257327350599E-016   8.3916543510585875E-002
   1.4571677198205180E-016   3.1918911957973251E-016   7.5457685259651755E-002
   1.0755285551056204E-016   7.9797279894933126E-017   7.1848367156418624E-002
   7.2858385991025898E-017  -1.6046192152785466E-016   7.3088589200886317E-002
   3.4694469519536142E-017  -4.0245584642661925E-016   7.9178351393054944E-002
   5.0845182548055756E-002  -1.1874277890824764E-002   1.1698519383115918E-002
   3.9450179910278604E-002  -8.6205062815561534E-003   8.9727858679697070E-003
   2.8055177272501480E-002  -8.5673301329034293E-003   9.6092201935119997E-003
   1.6660174634724356E-002  -1.1714749444866219E-002   1.3607822359743109E-002
   5.2651719969472044E-003  -1.8062764217444904E-002   2.0968592366662708E-002
   3.5880151819167455E-002  -8.9057084181186630E-003   3.0388753387942044E-002
   2.7718962726767868E-002  -6.4653797111672989E-003   2.6236634610695433E-002
   1.9557773634368295E-002  -6.4254975996775737E-003   2.5189975083515302E-002
   1.1396584541968700E-002  -8.7860620836497892E-003   2.7248774806401744E-002
   3.2353954495691339E-003  -1.3547073163083678E-002   3.2413033779354561E-002
   2.2417611151528752E-002  -5.9371389454126039E-003   4.7865470057873831E-002
   1.7233527013884531E-002  -4.3102531407783543E-003   4.3087114883680999E-002
   1.2049442876240331E-002  -4.2836650664518257E-003   4.1157510368932490E-002
   6.8653587385961168E-003  -5.8573747224333313E-003   4.2076656513628317E-002
   1.6812746009519097E-003  -9.0313821087223412E-003   4.5844553317768266E-002
   1.0457560545139608E-002  -2.9685694727064685E-003   6.4128669392911480E-002
   7.9938727716286039E-003  -2.1551265703894824E-003   5.9524226686926390E-002
   5.5301849981176081E-003  -2.1418325332262459E-003   5.7511826049763293E-002
   3.0664972246066055E-003  -2.9286873612167767E-003   5.8091467481422458E-002
   6.0280945109560113E-004  -4.5156910543611706E-003   6.1263150981903783E-002
   3.4694469519536142E-017  -4.0245584642661925E-016   7.9178351393054944E-002
   7.6327832942979512E-017  -5.6205040621648550E-016   7.5547970020431537E-002
   1.2490009027033011E-016  -5.6551985316843911E-016   7.4252922126008036E-002
   1.6479873021779667E-016  -3.2179120479369772E-016   7.5293207709784413E-002
   2.2204460492503131E-016   1.1102230246251565E-016   7.8668826771760958E-002
   1.8735013540549517E-016   4.8572257327350599E-016   8.3916543510585875E-002
   1.4571677198205180E-016   3.1918911957973251E-016   7.5457685259651755E-002
   1.0755285551056204E-016   7.9797279894933126E-017   7.1848367156418624E-002
   7.2858385991025898E-017  -1.6046192152785466E-016   7.3088589200886317E-002
   3.4694469519536142E-017  -4.0245584642661925E-016   7.9178351393054944E-002
  -2.7974351109979270E-002   8.4909141995786475E-003   6.7184272804761636E-002
  -2.3595153468769337E-002   6.9850263827426692E-003   6.0557089249720399E-002
  -1.9215955827559417E-002   5.5626729893185518E-003   5.7838760829398220E-002
  -1.4836758186349495E-002   4.2238540193063031E-003   5.9029287543795085E-002
  -1.0457560545139567E-002   2.9685694727059619E-003   6.4128669392910925E-002
  -5.3688452229280863E-002   1.6981828399156816E-002   4.8904347070395635E-002
  -4.5870741959842858E-002   1.3970052765485012E-002   4.4192372634659180E-002
  -3.8053031690404845E-002   1.1125345978636970E-002   4.2448568320659880E-002
  -3.0235321420966837E-002   8.4477080386127536E-003   4.3672934128397733E-002
  -2.2417611151528825E-002   5.9371389454123333E-003   4.7865470057872686E-002
  -7.7142303357904562E-002   2.5472742598734967E-002   2.9076766307487838E-002
  -6.6826765473220376E-002   2.0955079148227383E-002   2.6363535414468068E-002
  -5.6511227588536141E-002   1.6688018967955486E-002   2.5677789630203597E-002
  -4.6195689703851947E-002   1.2671562057919321E-002   2.7019528954694387E-002
  -3.5880151819167719E-002   8.9057084181187289E-003   3.0388753387940382E-002
  -9.8335904495850390E-002   3.3963656798313147E-002   7.7015305160382797E-003
  -8.6463224008901884E-002   2.7940105530969706E-002   7.0705775891471423E-003
  -7.4590543521953323E-002   2.2250691957273888E-002   7.5264247580293236E-003
  -6.2717863035004817E-002   1.6895416077225618E-002   9.0690720226849868E-003
  -5.0845182548056284E-002   1.1874277890825069E-002   1.1698519383113934E-002
   3.4694469519536142E-017  -4.0245584642661925E-016   7.9178351393054944E-002
   7.6327832942979512E-017  -5.6205040621648550E-016   7.5547970020431537E-002
   1.2490009027033011E-016  -5.6551985316843911E-016   7.4252922126008036E-002
   1.6479873021779667E-016  -3.2179120479369772E-016   7.5293207709784413E-002
   2.2204460492503131E-016   1.1102230246251565E-016   7.8668826771760958E-002
  -1.0457560545139567E-002   2.9685694727059619E-003   6.4128669392910925E-002
  -7.9938727716284807E-003   2.1551265703886532E-003   5.9524226686926092E-002
  -5.5301849981173965E-003   2.1418325332255364E-003   5.7511826049763418E-002
  -3.0664972246063132E-003   2.9286873612164675E-003   5.8091467481422826E-002
  -6.0280945109521256E-004   4.5156910543616702E-003   6.1263150981904380E-002
  -2.2417611151528825E-002   5.9371389454123333E-003   4.7865470057872686E-002
  -1.7233527013884538E-002   4.3102531407778998E-003   4.3087114883680437E-002
  -1.2049442876240228E-002   4.2836650664514978E-003   4.1157510368932539E-002
  -6.8653587385959381E-003   5.8573747224332558E-003   4.2076656513628713E-002
  -1.6812746009516460E-003   9.0313821087231738E-003   4.5844553317769474E-002
  -3.5880151819167719E-002   8.9057084181187289E-003   3.0388753387940382E-002
  -2.7718962726768073E-002   6.4653797111672417E-003   2.6236634610694656E-002
  -1.9557773634368395E-002   6.4254975996776405E-003   2.5189975083515392E-002
  -1.1396584541968723E-002   8.7860620836501015E-003   2.7248774806402622E-002
  -3.2353954495690646E-003   1.3547073163084705E-002   3.2413033779356185E-002
  -5.0845182548056284E-002   1.1874277890825069E-002   1.1698519383113934E-002
  -3.9450179910279104E-002   8.6205062815563199E-003   8.9727858679687217E-003
  -2.8055177272501883E-002   8.5673301329036167E-003   9.6092201935121073E-003
  -1.6660174634724703E-002   1.1714749444866848E-002   1.3607822359743955E-002
  -5.2651719969474819E-003   1.8062764217446237E-002   2.0968592366664707E-002
 </DataArray>
 </PointData>
 </Piece>
 </UnstructuredGrid>
 </VTKFile>
