 <VTKFile type="UnstructuredGrid"  version="0.1"   >
 <UnstructuredGrid>
 <Piece  NumberOfPoints="          1600 "  NumberOfCells="         1024 ">
 <Points>
 <DataArray  type="Float64" NumberOfComponents="3"  format="ascii" >
   0.0000000000000000        0.0000000000000000        0.0000000000000000     
   3.1250000000000000E-002   0.0000000000000000        0.0000000000000000     
   6.2500000000000000E-002   0.0000000000000000        0.0000000000000000     
   9.3750000000000000E-002   0.0000000000000000        0.0000000000000000     
  0.12500000000000000        0.0000000000000000        0.0000000000000000     
   0.0000000000000000        3.1250000000000000E-002   0.0000000000000000     
   3.1250000000000000E-002   3.1250000000000000E-002   0.0000000000000000     
   6.2500000000000000E-002   3.1250000000000000E-002   0.0000000000000000     
   9.3750000000000000E-002   3.1250000000000000E-002   0.0000000000000000     
  0.12500000000000000        3.1250000000000000E-002   0.0000000000000000     
   0.0000000000000000        6.2500000000000000E-002   0.0000000000000000     
   3.1250000000000000E-002   6.2500000000000000E-002   0.0000000000000000     
   6.2500000000000000E-002   6.2500000000000000E-002   0.0000000000000000     
   9.3750000000000000E-002   6.2500000000000000E-002   0.0000000000000000     
  0.12500000000000000        6.2500000000000000E-002   0.0000000000000000     
   0.0000000000000000        9.3750000000000000E-002   0.0000000000000000     
   3.1250000000000000E-002   9.3750000000000000E-002   0.0000000000000000     
   6.2500000000000000E-002   9.3750000000000000E-002   0.0000000000000000     
   9.3750000000000000E-002   9.3750000000000000E-002   0.0000000000000000     
  0.12500000000000000        9.3750000000000000E-002   0.0000000000000000     
   0.0000000000000000       0.12500000000000000        0.0000000000000000     
   3.1250000000000000E-002  0.12500000000000000        0.0000000000000000     
   6.2500000000000000E-002  0.12500000000000000        0.0000000000000000     
   9.3750000000000000E-002  0.12500000000000000        0.0000000000000000     
  0.12500000000000000       0.12500000000000000        0.0000000000000000     
  0.12500000000000000        0.0000000000000000        0.0000000000000000     
  0.15625000000000000        0.0000000000000000        0.0000000000000000     
  0.18750000000000000        0.0000000000000000        0.0000000000000000     
  0.21875000000000000        0.0000000000000000        0.0000000000000000     
  0.25000000000000000        0.0000000000000000        0.0000000000000000     
  0.12500000000000000        3.1250000000000000E-002   0.0000000000000000     
  0.15625000000000000        3.1250000000000000E-002   0.0000000000000000     
  0.18750000000000000        3.1250000000000000E-002   0.0000000000000000     
  0.21875000000000000        3.1250000000000000E-002   0.0000000000000000     
  0.25000000000000000        3.1250000000000000E-002   0.0000000000000000     
  0.12500000000000000        6.2500000000000000E-002   0.0000000000000000     
  0.15625000000000000        6.2500000000000000E-002   0.0000000000000000     
  0.18750000000000000        6.2500000000000000E-002   0.0000000000000000     
  0.21875000000000000        6.2500000000000000E-002   0.0000000000000000     
  0.25000000000000000        6.2500000000000000E-002   0.0000000000000000     
  0.12500000000000000        9.3750000000000000E-002   0.0000000000000000     
  0.15625000000000000        9.3750000000000000E-002   0.0000000000000000     
  0.18750000000000000        9.3750000000000000E-002   0.0000000000000000     
  0.21875000000000000        9.3750000000000000E-002   0.0000000000000000     
  0.25000000000000000        9.3750000000000000E-002   0.0000000000000000     
  0.12500000000000000       0.12500000000000000        0.0000000000000000     
  0.15625000000000000       0.12500000000000000        0.0000000000000000     
  0.18750000000000000       0.12500000000000000        0.0000000000000000     
  0.21875000000000000       0.12500000000000000        0.0000000000000000     
  0.25000000000000000       0.12500000000000000        0.0000000000000000     
  0.25000000000000000        0.0000000000000000        0.0000000000000000     
  0.28125000000000000        0.0000000000000000        0.0000000000000000     
  0.31250000000000000        0.0000000000000000        0.0000000000000000     
  0.34375000000000000        0.0000000000000000        0.0000000000000000     
  0.37500000000000000        0.0000000000000000        0.0000000000000000     
  0.25000000000000000        3.1250000000000000E-002   0.0000000000000000     
  0.28125000000000000        3.1250000000000000E-002   0.0000000000000000     
  0.31250000000000000        3.1250000000000000E-002   0.0000000000000000     
  0.34375000000000000        3.1250000000000000E-002   0.0000000000000000     
  0.37500000000000000        3.1250000000000000E-002   0.0000000000000000     
  0.25000000000000000        6.2500000000000000E-002   0.0000000000000000     
  0.28125000000000000        6.2500000000000000E-002   0.0000000000000000     
  0.31250000000000000        6.2500000000000000E-002   0.0000000000000000     
  0.34375000000000000        6.2500000000000000E-002   0.0000000000000000     
  0.37500000000000000        6.2500000000000000E-002   0.0000000000000000     
  0.25000000000000000        9.3750000000000000E-002   0.0000000000000000     
  0.28125000000000000        9.3750000000000000E-002   0.0000000000000000     
  0.31250000000000000        9.3750000000000000E-002   0.0000000000000000     
  0.34375000000000000        9.3750000000000000E-002   0.0000000000000000     
  0.37500000000000000        9.3750000000000000E-002   0.0000000000000000     
  0.25000000000000000       0.12500000000000000        0.0000000000000000     
  0.28125000000000000       0.12500000000000000        0.0000000000000000     
  0.31250000000000000       0.12500000000000000        0.0000000000000000     
  0.34375000000000000       0.12500000000000000        0.0000000000000000     
  0.37500000000000000       0.12500000000000000        0.0000000000000000     
  0.37500000000000000        0.0000000000000000        0.0000000000000000     
  0.40625000000000000        0.0000000000000000        0.0000000000000000     
  0.43750000000000000        0.0000000000000000        0.0000000000000000     
  0.46875000000000000        0.0000000000000000        0.0000000000000000     
  0.50000000000000000        0.0000000000000000        0.0000000000000000     
  0.37500000000000000        3.1250000000000000E-002   0.0000000000000000     
  0.40625000000000000        3.1250000000000000E-002   0.0000000000000000     
  0.43750000000000000        3.1250000000000000E-002   0.0000000000000000     
  0.46875000000000000        3.1250000000000000E-002   0.0000000000000000     
  0.50000000000000000        3.1250000000000000E-002   0.0000000000000000     
  0.37500000000000000        6.2500000000000000E-002   0.0000000000000000     
  0.40625000000000000        6.2500000000000000E-002   0.0000000000000000     
  0.43750000000000000        6.2500000000000000E-002   0.0000000000000000     
  0.46875000000000000        6.2500000000000000E-002   0.0000000000000000     
  0.50000000000000000        6.2500000000000000E-002   0.0000000000000000     
  0.37500000000000000        9.3750000000000000E-002   0.0000000000000000     
  0.40625000000000000        9.3750000000000000E-002   0.0000000000000000     
  0.43750000000000000        9.3750000000000000E-002   0.0000000000000000     
  0.46875000000000000        9.3750000000000000E-002   0.0000000000000000     
  0.50000000000000000        9.3750000000000000E-002   0.0000000000000000     
  0.37500000000000000       0.12500000000000000        0.0000000000000000     
  0.40625000000000000       0.12500000000000000        0.0000000000000000     
  0.43750000000000000       0.12500000000000000        0.0000000000000000     
  0.46875000000000000       0.12500000000000000        0.0000000000000000     
  0.50000000000000000       0.12500000000000000        0.0000000000000000     
  0.50000000000000000        0.0000000000000000        0.0000000000000000     
  0.53125000000000000        0.0000000000000000        0.0000000000000000     
  0.56250000000000000        0.0000000000000000        0.0000000000000000     
  0.59375000000000000        0.0000000000000000        0.0000000000000000     
  0.62500000000000000        0.0000000000000000        0.0000000000000000     
  0.50000000000000000        3.1250000000000000E-002   0.0000000000000000     
  0.53125000000000000        3.1250000000000000E-002   0.0000000000000000     
  0.56250000000000000        3.1250000000000000E-002   0.0000000000000000     
  0.59375000000000000        3.1250000000000000E-002   0.0000000000000000     
  0.62500000000000000        3.1250000000000000E-002   0.0000000000000000     
  0.50000000000000000        6.2500000000000000E-002   0.0000000000000000     
  0.53125000000000000        6.2500000000000000E-002   0.0000000000000000     
  0.56250000000000000        6.2500000000000000E-002   0.0000000000000000     
  0.59375000000000000        6.2500000000000000E-002   0.0000000000000000     
  0.62500000000000000        6.2500000000000000E-002   0.0000000000000000     
  0.50000000000000000        9.3750000000000000E-002   0.0000000000000000     
  0.53125000000000000        9.3750000000000000E-002   0.0000000000000000     
  0.56250000000000000        9.3750000000000000E-002   0.0000000000000000     
  0.59375000000000000        9.3750000000000000E-002   0.0000000000000000     
  0.62500000000000000        9.3750000000000000E-002   0.0000000000000000     
  0.50000000000000000       0.12500000000000000        0.0000000000000000     
  0.53125000000000000       0.12500000000000000        0.0000000000000000     
  0.56250000000000000       0.12500000000000000        0.0000000000000000     
  0.59375000000000000       0.12500000000000000        0.0000000000000000     
  0.62500000000000000       0.12500000000000000        0.0000000000000000     
  0.62500000000000000        0.0000000000000000        0.0000000000000000     
  0.65625000000000000        0.0000000000000000        0.0000000000000000     
  0.68750000000000000        0.0000000000000000        0.0000000000000000     
  0.71875000000000000        0.0000000000000000        0.0000000000000000     
  0.75000000000000000        0.0000000000000000        0.0000000000000000     
  0.62500000000000000        3.1250000000000000E-002   0.0000000000000000     
  0.65625000000000000        3.1250000000000000E-002   0.0000000000000000     
  0.68750000000000000        3.1250000000000000E-002   0.0000000000000000     
  0.71875000000000000        3.1250000000000000E-002   0.0000000000000000     
  0.75000000000000000        3.1250000000000000E-002   0.0000000000000000     
  0.62500000000000000        6.2500000000000000E-002   0.0000000000000000     
  0.65625000000000000        6.2500000000000000E-002   0.0000000000000000     
  0.68750000000000000        6.2500000000000000E-002   0.0000000000000000     
  0.71875000000000000        6.2500000000000000E-002   0.0000000000000000     
  0.75000000000000000        6.2500000000000000E-002   0.0000000000000000     
  0.62500000000000000        9.3750000000000000E-002   0.0000000000000000     
  0.65625000000000000        9.3750000000000000E-002   0.0000000000000000     
  0.68750000000000000        9.3750000000000000E-002   0.0000000000000000     
  0.71875000000000000        9.3750000000000000E-002   0.0000000000000000     
  0.75000000000000000        9.3750000000000000E-002   0.0000000000000000     
  0.62500000000000000       0.12500000000000000        0.0000000000000000     
  0.65625000000000000       0.12500000000000000        0.0000000000000000     
  0.68750000000000000       0.12500000000000000        0.0000000000000000     
  0.71875000000000000       0.12500000000000000        0.0000000000000000     
  0.75000000000000000       0.12500000000000000        0.0000000000000000     
  0.75000000000000000        0.0000000000000000        0.0000000000000000     
  0.78125000000000000        0.0000000000000000        0.0000000000000000     
  0.81250000000000000        0.0000000000000000        0.0000000000000000     
  0.84375000000000000        0.0000000000000000        0.0000000000000000     
  0.87500000000000000        0.0000000000000000        0.0000000000000000     
  0.75000000000000000        3.1250000000000000E-002   0.0000000000000000     
  0.78125000000000000        3.1250000000000000E-002   0.0000000000000000     
  0.81250000000000000        3.1250000000000000E-002   0.0000000000000000     
  0.84375000000000000        3.1250000000000000E-002   0.0000000000000000     
  0.87500000000000000        3.1250000000000000E-002   0.0000000000000000     
  0.75000000000000000        6.2500000000000000E-002   0.0000000000000000     
  0.78125000000000000        6.2500000000000000E-002   0.0000000000000000     
  0.81250000000000000        6.2500000000000000E-002   0.0000000000000000     
  0.84375000000000000        6.2500000000000000E-002   0.0000000000000000     
  0.87500000000000000        6.2500000000000000E-002   0.0000000000000000     
  0.75000000000000000        9.3750000000000000E-002   0.0000000000000000     
  0.78125000000000000        9.3750000000000000E-002   0.0000000000000000     
  0.81250000000000000        9.3750000000000000E-002   0.0000000000000000     
  0.84375000000000000        9.3750000000000000E-002   0.0000000000000000     
  0.87500000000000000        9.3750000000000000E-002   0.0000000000000000     
  0.75000000000000000       0.12500000000000000        0.0000000000000000     
  0.78125000000000000       0.12500000000000000        0.0000000000000000     
  0.81250000000000000       0.12500000000000000        0.0000000000000000     
  0.84375000000000000       0.12500000000000000        0.0000000000000000     
  0.87500000000000000       0.12500000000000000        0.0000000000000000     
  0.87500000000000000        0.0000000000000000        0.0000000000000000     
  0.90625000000000000        0.0000000000000000        0.0000000000000000     
  0.93750000000000000        0.0000000000000000        0.0000000000000000     
  0.96875000000000000        0.0000000000000000        0.0000000000000000     
   1.0000000000000000        0.0000000000000000        0.0000000000000000     
  0.87500000000000000        3.1250000000000000E-002   0.0000000000000000     
  0.90625000000000000        3.1250000000000000E-002   0.0000000000000000     
  0.93750000000000000        3.1250000000000000E-002   0.0000000000000000     
  0.96875000000000000        3.1250000000000000E-002   0.0000000000000000     
   1.0000000000000000        3.1250000000000000E-002   0.0000000000000000     
  0.87500000000000000        6.2500000000000000E-002   0.0000000000000000     
  0.90625000000000000        6.2500000000000000E-002   0.0000000000000000     
  0.93750000000000000        6.2500000000000000E-002   0.0000000000000000     
  0.96875000000000000        6.2500000000000000E-002   0.0000000000000000     
   1.0000000000000000        6.2500000000000000E-002   0.0000000000000000     
  0.87500000000000000        9.3750000000000000E-002   0.0000000000000000     
  0.90625000000000000        9.3750000000000000E-002   0.0000000000000000     
  0.93750000000000000        9.3750000000000000E-002   0.0000000000000000     
  0.96875000000000000        9.3750000000000000E-002   0.0000000000000000     
   1.0000000000000000        9.3750000000000000E-002   0.0000000000000000     
  0.87500000000000000       0.12500000000000000        0.0000000000000000     
  0.90625000000000000       0.12500000000000000        0.0000000000000000     
  0.93750000000000000       0.12500000000000000        0.0000000000000000     
  0.96875000000000000       0.12500000000000000        0.0000000000000000     
   1.0000000000000000       0.12500000000000000        0.0000000000000000     
   0.0000000000000000       0.12500000000000000        0.0000000000000000     
   3.1250000000000000E-002  0.12500000000000000        0.0000000000000000     
   6.2500000000000000E-002  0.12500000000000000        0.0000000000000000     
   9.3750000000000000E-002  0.12500000000000000        0.0000000000000000     
  0.12500000000000000       0.12500000000000000        0.0000000000000000     
   0.0000000000000000       0.15625000000000000        0.0000000000000000     
   3.1250000000000000E-002  0.15625000000000000        0.0000000000000000     
   6.2500000000000000E-002  0.15625000000000000        0.0000000000000000     
   9.3750000000000000E-002  0.15625000000000000        0.0000000000000000     
  0.12500000000000000       0.15625000000000000        0.0000000000000000     
   0.0000000000000000       0.18750000000000000        0.0000000000000000     
   3.1250000000000000E-002  0.18750000000000000        0.0000000000000000     
   6.2500000000000000E-002  0.18750000000000000        0.0000000000000000     
   9.3750000000000000E-002  0.18750000000000000        0.0000000000000000     
  0.12500000000000000       0.18750000000000000        0.0000000000000000     
   0.0000000000000000       0.21875000000000000        0.0000000000000000     
   3.1250000000000000E-002  0.21875000000000000        0.0000000000000000     
   6.2500000000000000E-002  0.21875000000000000        0.0000000000000000     
   9.3750000000000000E-002  0.21875000000000000        0.0000000000000000     
  0.12500000000000000       0.21875000000000000        0.0000000000000000     
   0.0000000000000000       0.25000000000000000        0.0000000000000000     
   3.1250000000000000E-002  0.25000000000000000        0.0000000000000000     
   6.2500000000000000E-002  0.25000000000000000        0.0000000000000000     
   9.3750000000000000E-002  0.25000000000000000        0.0000000000000000     
  0.12500000000000000       0.25000000000000000        0.0000000000000000     
  0.12500000000000000       0.12500000000000000        0.0000000000000000     
  0.15625000000000000       0.12500000000000000        0.0000000000000000     
  0.18750000000000000       0.12500000000000000        0.0000000000000000     
  0.21875000000000000       0.12500000000000000        0.0000000000000000     
  0.25000000000000000       0.12500000000000000        0.0000000000000000     
  0.12500000000000000       0.15625000000000000        0.0000000000000000     
  0.15625000000000000       0.15625000000000000        0.0000000000000000     
  0.18750000000000000       0.15625000000000000        0.0000000000000000     
  0.21875000000000000       0.15625000000000000        0.0000000000000000     
  0.25000000000000000       0.15625000000000000        0.0000000000000000     
  0.12500000000000000       0.18750000000000000        0.0000000000000000     
  0.15625000000000000       0.18750000000000000        0.0000000000000000     
  0.18750000000000000       0.18750000000000000        0.0000000000000000     
  0.21875000000000000       0.18750000000000000        0.0000000000000000     
  0.25000000000000000       0.18750000000000000        0.0000000000000000     
  0.12500000000000000       0.21875000000000000        0.0000000000000000     
  0.15625000000000000       0.21875000000000000        0.0000000000000000     
  0.18750000000000000       0.21875000000000000        0.0000000000000000     
  0.21875000000000000       0.21875000000000000        0.0000000000000000     
  0.25000000000000000       0.21875000000000000        0.0000000000000000     
  0.12500000000000000       0.25000000000000000        0.0000000000000000     
  0.15625000000000000       0.25000000000000000        0.0000000000000000     
  0.18750000000000000       0.25000000000000000        0.0000000000000000     
  0.21875000000000000       0.25000000000000000        0.0000000000000000     
  0.25000000000000000       0.25000000000000000        0.0000000000000000     
  0.25000000000000000       0.12500000000000000        0.0000000000000000     
  0.28125000000000000       0.12500000000000000        0.0000000000000000     
  0.31250000000000000       0.12500000000000000        0.0000000000000000     
  0.34375000000000000       0.12500000000000000        0.0000000000000000     
  0.37500000000000000       0.12500000000000000        0.0000000000000000     
  0.25000000000000000       0.15625000000000000        0.0000000000000000     
  0.28125000000000000       0.15625000000000000        0.0000000000000000     
  0.31250000000000000       0.15625000000000000        0.0000000000000000     
  0.34375000000000000       0.15625000000000000        0.0000000000000000     
  0.37500000000000000       0.15625000000000000        0.0000000000000000     
  0.25000000000000000       0.18750000000000000        0.0000000000000000     
  0.28125000000000000       0.18750000000000000        0.0000000000000000     
  0.31250000000000000       0.18750000000000000        0.0000000000000000     
  0.34375000000000000       0.18750000000000000        0.0000000000000000     
  0.37500000000000000       0.18750000000000000        0.0000000000000000     
  0.25000000000000000       0.21875000000000000        0.0000000000000000     
  0.28125000000000000       0.21875000000000000        0.0000000000000000     
  0.31250000000000000       0.21875000000000000        0.0000000000000000     
  0.34375000000000000       0.21875000000000000        0.0000000000000000     
  0.37500000000000000       0.21875000000000000        0.0000000000000000     
  0.25000000000000000       0.25000000000000000        0.0000000000000000     
  0.28125000000000000       0.25000000000000000        0.0000000000000000     
  0.31250000000000000       0.25000000000000000        0.0000000000000000     
  0.34375000000000000       0.25000000000000000        0.0000000000000000     
  0.37500000000000000       0.25000000000000000        0.0000000000000000     
  0.37500000000000000       0.12500000000000000        0.0000000000000000     
  0.40625000000000000       0.12500000000000000        0.0000000000000000     
  0.43750000000000000       0.12500000000000000        0.0000000000000000     
  0.46875000000000000       0.12500000000000000        0.0000000000000000     
  0.50000000000000000       0.12500000000000000        0.0000000000000000     
  0.37500000000000000       0.15625000000000000        0.0000000000000000     
  0.40625000000000000       0.15625000000000000        0.0000000000000000     
  0.43750000000000000       0.15625000000000000        0.0000000000000000     
  0.46875000000000000       0.15625000000000000        0.0000000000000000     
  0.50000000000000000       0.15625000000000000        0.0000000000000000     
  0.37500000000000000       0.18750000000000000        0.0000000000000000     
  0.40625000000000000       0.18750000000000000        0.0000000000000000     
  0.43750000000000000       0.18750000000000000        0.0000000000000000     
  0.46875000000000000       0.18750000000000000        0.0000000000000000     
  0.50000000000000000       0.18750000000000000        0.0000000000000000     
  0.37500000000000000       0.21875000000000000        0.0000000000000000     
  0.40625000000000000       0.21875000000000000        0.0000000000000000     
  0.43750000000000000       0.21875000000000000        0.0000000000000000     
  0.46875000000000000       0.21875000000000000        0.0000000000000000     
  0.50000000000000000       0.21875000000000000        0.0000000000000000     
  0.37500000000000000       0.25000000000000000        0.0000000000000000     
  0.40625000000000000       0.25000000000000000        0.0000000000000000     
  0.43750000000000000       0.25000000000000000        0.0000000000000000     
  0.46875000000000000       0.25000000000000000        0.0000000000000000     
  0.50000000000000000       0.25000000000000000        0.0000000000000000     
  0.50000000000000000       0.12500000000000000        0.0000000000000000     
  0.53125000000000000       0.12500000000000000        0.0000000000000000     
  0.56250000000000000       0.12500000000000000        0.0000000000000000     
  0.59375000000000000       0.12500000000000000        0.0000000000000000     
  0.62500000000000000       0.12500000000000000        0.0000000000000000     
  0.50000000000000000       0.15625000000000000        0.0000000000000000     
  0.53125000000000000       0.15625000000000000        0.0000000000000000     
  0.56250000000000000       0.15625000000000000        0.0000000000000000     
  0.59375000000000000       0.15625000000000000        0.0000000000000000     
  0.62500000000000000       0.15625000000000000        0.0000000000000000     
  0.50000000000000000       0.18750000000000000        0.0000000000000000     
  0.53125000000000000       0.18750000000000000        0.0000000000000000     
  0.56250000000000000       0.18750000000000000        0.0000000000000000     
  0.59375000000000000       0.18750000000000000        0.0000000000000000     
  0.62500000000000000       0.18750000000000000        0.0000000000000000     
  0.50000000000000000       0.21875000000000000        0.0000000000000000     
  0.53125000000000000       0.21875000000000000        0.0000000000000000     
  0.56250000000000000       0.21875000000000000        0.0000000000000000     
  0.59375000000000000       0.21875000000000000        0.0000000000000000     
  0.62500000000000000       0.21875000000000000        0.0000000000000000     
  0.50000000000000000       0.25000000000000000        0.0000000000000000     
  0.53125000000000000       0.25000000000000000        0.0000000000000000     
  0.56250000000000000       0.25000000000000000        0.0000000000000000     
  0.59375000000000000       0.25000000000000000        0.0000000000000000     
  0.62500000000000000       0.25000000000000000        0.0000000000000000     
  0.62500000000000000       0.12500000000000000        0.0000000000000000     
  0.65625000000000000       0.12500000000000000        0.0000000000000000     
  0.68750000000000000       0.12500000000000000        0.0000000000000000     
  0.71875000000000000       0.12500000000000000        0.0000000000000000     
  0.75000000000000000       0.12500000000000000        0.0000000000000000     
  0.62500000000000000       0.15625000000000000        0.0000000000000000     
  0.65625000000000000       0.15625000000000000        0.0000000000000000     
  0.68750000000000000       0.15625000000000000        0.0000000000000000     
  0.71875000000000000       0.15625000000000000        0.0000000000000000     
  0.75000000000000000       0.15625000000000000        0.0000000000000000     
  0.62500000000000000       0.18750000000000000        0.0000000000000000     
  0.65625000000000000       0.18750000000000000        0.0000000000000000     
  0.68750000000000000       0.18750000000000000        0.0000000000000000     
  0.71875000000000000       0.18750000000000000        0.0000000000000000     
  0.75000000000000000       0.18750000000000000        0.0000000000000000     
  0.62500000000000000       0.21875000000000000        0.0000000000000000     
  0.65625000000000000       0.21875000000000000        0.0000000000000000     
  0.68750000000000000       0.21875000000000000        0.0000000000000000     
  0.71875000000000000       0.21875000000000000        0.0000000000000000     
  0.75000000000000000       0.21875000000000000        0.0000000000000000     
  0.62500000000000000       0.25000000000000000        0.0000000000000000     
  0.65625000000000000       0.25000000000000000        0.0000000000000000     
  0.68750000000000000       0.25000000000000000        0.0000000000000000     
  0.71875000000000000       0.25000000000000000        0.0000000000000000     
  0.75000000000000000       0.25000000000000000        0.0000000000000000     
  0.75000000000000000       0.12500000000000000        0.0000000000000000     
  0.78125000000000000       0.12500000000000000        0.0000000000000000     
  0.81250000000000000       0.12500000000000000        0.0000000000000000     
  0.84375000000000000       0.12500000000000000        0.0000000000000000     
  0.87500000000000000       0.12500000000000000        0.0000000000000000     
  0.75000000000000000       0.15625000000000000        0.0000000000000000     
  0.78125000000000000       0.15625000000000000        0.0000000000000000     
  0.81250000000000000       0.15625000000000000        0.0000000000000000     
  0.84375000000000000       0.15625000000000000        0.0000000000000000     
  0.87500000000000000       0.15625000000000000        0.0000000000000000     
  0.75000000000000000       0.18750000000000000        0.0000000000000000     
  0.78125000000000000       0.18750000000000000        0.0000000000000000     
  0.81250000000000000       0.18750000000000000        0.0000000000000000     
  0.84375000000000000       0.18750000000000000        0.0000000000000000     
  0.87500000000000000       0.18750000000000000        0.0000000000000000     
  0.75000000000000000       0.21875000000000000        0.0000000000000000     
  0.78125000000000000       0.21875000000000000        0.0000000000000000     
  0.81250000000000000       0.21875000000000000        0.0000000000000000     
  0.84375000000000000       0.21875000000000000        0.0000000000000000     
  0.87500000000000000       0.21875000000000000        0.0000000000000000     
  0.75000000000000000       0.25000000000000000        0.0000000000000000     
  0.78125000000000000       0.25000000000000000        0.0000000000000000     
  0.81250000000000000       0.25000000000000000        0.0000000000000000     
  0.84375000000000000       0.25000000000000000        0.0000000000000000     
  0.87500000000000000       0.25000000000000000        0.0000000000000000     
  0.87500000000000000       0.12500000000000000        0.0000000000000000     
  0.90625000000000000       0.12500000000000000        0.0000000000000000     
  0.93750000000000000       0.12500000000000000        0.0000000000000000     
  0.96875000000000000       0.12500000000000000        0.0000000000000000     
   1.0000000000000000       0.12500000000000000        0.0000000000000000     
  0.87500000000000000       0.15625000000000000        0.0000000000000000     
  0.90625000000000000       0.15625000000000000        0.0000000000000000     
  0.93750000000000000       0.15625000000000000        0.0000000000000000     
  0.96875000000000000       0.15625000000000000        0.0000000000000000     
   1.0000000000000000       0.15625000000000000        0.0000000000000000     
  0.87500000000000000       0.18750000000000000        0.0000000000000000     
  0.90625000000000000       0.18750000000000000        0.0000000000000000     
  0.93750000000000000       0.18750000000000000        0.0000000000000000     
  0.96875000000000000       0.18750000000000000        0.0000000000000000     
   1.0000000000000000       0.18750000000000000        0.0000000000000000     
  0.87500000000000000       0.21875000000000000        0.0000000000000000     
  0.90625000000000000       0.21875000000000000        0.0000000000000000     
  0.93750000000000000       0.21875000000000000        0.0000000000000000     
  0.96875000000000000       0.21875000000000000        0.0000000000000000     
   1.0000000000000000       0.21875000000000000        0.0000000000000000     
  0.87500000000000000       0.25000000000000000        0.0000000000000000     
  0.90625000000000000       0.25000000000000000        0.0000000000000000     
  0.93750000000000000       0.25000000000000000        0.0000000000000000     
  0.96875000000000000       0.25000000000000000        0.0000000000000000     
   1.0000000000000000       0.25000000000000000        0.0000000000000000     
   0.0000000000000000       0.25000000000000000        0.0000000000000000     
   3.1250000000000000E-002  0.25000000000000000        0.0000000000000000     
   6.2500000000000000E-002  0.25000000000000000        0.0000000000000000     
   9.3750000000000000E-002  0.25000000000000000        0.0000000000000000     
  0.12500000000000000       0.25000000000000000        0.0000000000000000     
   0.0000000000000000       0.28125000000000000        0.0000000000000000     
   3.1250000000000000E-002  0.28125000000000000        0.0000000000000000     
   6.2500000000000000E-002  0.28125000000000000        0.0000000000000000     
   9.3750000000000000E-002  0.28125000000000000        0.0000000000000000     
  0.12500000000000000       0.28125000000000000        0.0000000000000000     
   0.0000000000000000       0.31250000000000000        0.0000000000000000     
   3.1250000000000000E-002  0.31250000000000000        0.0000000000000000     
   6.2500000000000000E-002  0.31250000000000000        0.0000000000000000     
   9.3750000000000000E-002  0.31250000000000000        0.0000000000000000     
  0.12500000000000000       0.31250000000000000        0.0000000000000000     
   0.0000000000000000       0.34375000000000000        0.0000000000000000     
   3.1250000000000000E-002  0.34375000000000000        0.0000000000000000     
   6.2500000000000000E-002  0.34375000000000000        0.0000000000000000     
   9.3750000000000000E-002  0.34375000000000000        0.0000000000000000     
  0.12500000000000000       0.34375000000000000        0.0000000000000000     
   0.0000000000000000       0.37500000000000000        0.0000000000000000     
   3.1250000000000000E-002  0.37500000000000000        0.0000000000000000     
   6.2500000000000000E-002  0.37500000000000000        0.0000000000000000     
   9.3750000000000000E-002  0.37500000000000000        0.0000000000000000     
  0.12500000000000000       0.37500000000000000        0.0000000000000000     
  0.12500000000000000       0.25000000000000000        0.0000000000000000     
  0.15625000000000000       0.25000000000000000        0.0000000000000000     
  0.18750000000000000       0.25000000000000000        0.0000000000000000     
  0.21875000000000000       0.25000000000000000        0.0000000000000000     
  0.25000000000000000       0.25000000000000000        0.0000000000000000     
  0.12500000000000000       0.28125000000000000        0.0000000000000000     
  0.15625000000000000       0.28125000000000000        0.0000000000000000     
  0.18750000000000000       0.28125000000000000        0.0000000000000000     
  0.21875000000000000       0.28125000000000000        0.0000000000000000     
  0.25000000000000000       0.28125000000000000        0.0000000000000000     
  0.12500000000000000       0.31250000000000000        0.0000000000000000     
  0.15625000000000000       0.31250000000000000        0.0000000000000000     
  0.18750000000000000       0.31250000000000000        0.0000000000000000     
  0.21875000000000000       0.31250000000000000        0.0000000000000000     
  0.25000000000000000       0.31250000000000000        0.0000000000000000     
  0.12500000000000000       0.34375000000000000        0.0000000000000000     
  0.15625000000000000       0.34375000000000000        0.0000000000000000     
  0.18750000000000000       0.34375000000000000        0.0000000000000000     
  0.21875000000000000       0.34375000000000000        0.0000000000000000     
  0.25000000000000000       0.34375000000000000        0.0000000000000000     
  0.12500000000000000       0.37500000000000000        0.0000000000000000     
  0.15625000000000000       0.37500000000000000        0.0000000000000000     
  0.18750000000000000       0.37500000000000000        0.0000000000000000     
  0.21875000000000000       0.37500000000000000        0.0000000000000000     
  0.25000000000000000       0.37500000000000000        0.0000000000000000     
  0.25000000000000000       0.25000000000000000        0.0000000000000000     
  0.28125000000000000       0.25000000000000000        0.0000000000000000     
  0.31250000000000000       0.25000000000000000        0.0000000000000000     
  0.34375000000000000       0.25000000000000000        0.0000000000000000     
  0.37500000000000000       0.25000000000000000        0.0000000000000000     
  0.25000000000000000       0.28125000000000000        0.0000000000000000     
  0.28125000000000000       0.28125000000000000        0.0000000000000000     
  0.31250000000000000       0.28125000000000000        0.0000000000000000     
  0.34375000000000000       0.28125000000000000        0.0000000000000000     
  0.37500000000000000       0.28125000000000000        0.0000000000000000     
  0.25000000000000000       0.31250000000000000        0.0000000000000000     
  0.28125000000000000       0.31250000000000000        0.0000000000000000     
  0.31250000000000000       0.31250000000000000        0.0000000000000000     
  0.34375000000000000       0.31250000000000000        0.0000000000000000     
  0.37500000000000000       0.31250000000000000        0.0000000000000000     
  0.25000000000000000       0.34375000000000000        0.0000000000000000     
  0.28125000000000000       0.34375000000000000        0.0000000000000000     
  0.31250000000000000       0.34375000000000000        0.0000000000000000     
  0.34375000000000000       0.34375000000000000        0.0000000000000000     
  0.37500000000000000       0.34375000000000000        0.0000000000000000     
  0.25000000000000000       0.37500000000000000        0.0000000000000000     
  0.28125000000000000       0.37500000000000000        0.0000000000000000     
  0.31250000000000000       0.37500000000000000        0.0000000000000000     
  0.34375000000000000       0.37500000000000000        0.0000000000000000     
  0.37500000000000000       0.37500000000000000        0.0000000000000000     
  0.37500000000000000       0.25000000000000000        0.0000000000000000     
  0.40625000000000000       0.25000000000000000        0.0000000000000000     
  0.43750000000000000       0.25000000000000000        0.0000000000000000     
  0.46875000000000000       0.25000000000000000        0.0000000000000000     
  0.50000000000000000       0.25000000000000000        0.0000000000000000     
  0.37500000000000000       0.28125000000000000        0.0000000000000000     
  0.40625000000000000       0.28125000000000000        0.0000000000000000     
  0.43750000000000000       0.28125000000000000        0.0000000000000000     
  0.46875000000000000       0.28125000000000000        0.0000000000000000     
  0.50000000000000000       0.28125000000000000        0.0000000000000000     
  0.37500000000000000       0.31250000000000000        0.0000000000000000     
  0.40625000000000000       0.31250000000000000        0.0000000000000000     
  0.43750000000000000       0.31250000000000000        0.0000000000000000     
  0.46875000000000000       0.31250000000000000        0.0000000000000000     
  0.50000000000000000       0.31250000000000000        0.0000000000000000     
  0.37500000000000000       0.34375000000000000        0.0000000000000000     
  0.40625000000000000       0.34375000000000000        0.0000000000000000     
  0.43750000000000000       0.34375000000000000        0.0000000000000000     
  0.46875000000000000       0.34375000000000000        0.0000000000000000     
  0.50000000000000000       0.34375000000000000        0.0000000000000000     
  0.37500000000000000       0.37500000000000000        0.0000000000000000     
  0.40625000000000000       0.37500000000000000        0.0000000000000000     
  0.43750000000000000       0.37500000000000000        0.0000000000000000     
  0.46875000000000000       0.37500000000000000        0.0000000000000000     
  0.50000000000000000       0.37500000000000000        0.0000000000000000     
  0.50000000000000000       0.25000000000000000        0.0000000000000000     
  0.53125000000000000       0.25000000000000000        0.0000000000000000     
  0.56250000000000000       0.25000000000000000        0.0000000000000000     
  0.59375000000000000       0.25000000000000000        0.0000000000000000     
  0.62500000000000000       0.25000000000000000        0.0000000000000000     
  0.50000000000000000       0.28125000000000000        0.0000000000000000     
  0.53125000000000000       0.28125000000000000        0.0000000000000000     
  0.56250000000000000       0.28125000000000000        0.0000000000000000     
  0.59375000000000000       0.28125000000000000        0.0000000000000000     
  0.62500000000000000       0.28125000000000000        0.0000000000000000     
  0.50000000000000000       0.31250000000000000        0.0000000000000000     
  0.53125000000000000       0.31250000000000000        0.0000000000000000     
  0.56250000000000000       0.31250000000000000        0.0000000000000000     
  0.59375000000000000       0.31250000000000000        0.0000000000000000     
  0.62500000000000000       0.31250000000000000        0.0000000000000000     
  0.50000000000000000       0.34375000000000000        0.0000000000000000     
  0.53125000000000000       0.34375000000000000        0.0000000000000000     
  0.56250000000000000       0.34375000000000000        0.0000000000000000     
  0.59375000000000000       0.34375000000000000        0.0000000000000000     
  0.62500000000000000       0.34375000000000000        0.0000000000000000     
  0.50000000000000000       0.37500000000000000        0.0000000000000000     
  0.53125000000000000       0.37500000000000000        0.0000000000000000     
  0.56250000000000000       0.37500000000000000        0.0000000000000000     
  0.59375000000000000       0.37500000000000000        0.0000000000000000     
  0.62500000000000000       0.37500000000000000        0.0000000000000000     
  0.62500000000000000       0.25000000000000000        0.0000000000000000     
  0.65625000000000000       0.25000000000000000        0.0000000000000000     
  0.68750000000000000       0.25000000000000000        0.0000000000000000     
  0.71875000000000000       0.25000000000000000        0.0000000000000000     
  0.75000000000000000       0.25000000000000000        0.0000000000000000     
  0.62500000000000000       0.28125000000000000        0.0000000000000000     
  0.65625000000000000       0.28125000000000000        0.0000000000000000     
  0.68750000000000000       0.28125000000000000        0.0000000000000000     
  0.71875000000000000       0.28125000000000000        0.0000000000000000     
  0.75000000000000000       0.28125000000000000        0.0000000000000000     
  0.62500000000000000       0.31250000000000000        0.0000000000000000     
  0.65625000000000000       0.31250000000000000        0.0000000000000000     
  0.68750000000000000       0.31250000000000000        0.0000000000000000     
  0.71875000000000000       0.31250000000000000        0.0000000000000000     
  0.75000000000000000       0.31250000000000000        0.0000000000000000     
  0.62500000000000000       0.34375000000000000        0.0000000000000000     
  0.65625000000000000       0.34375000000000000        0.0000000000000000     
  0.68750000000000000       0.34375000000000000        0.0000000000000000     
  0.71875000000000000       0.34375000000000000        0.0000000000000000     
  0.75000000000000000       0.34375000000000000        0.0000000000000000     
  0.62500000000000000       0.37500000000000000        0.0000000000000000     
  0.65625000000000000       0.37500000000000000        0.0000000000000000     
  0.68750000000000000       0.37500000000000000        0.0000000000000000     
  0.71875000000000000       0.37500000000000000        0.0000000000000000     
  0.75000000000000000       0.37500000000000000        0.0000000000000000     
  0.75000000000000000       0.25000000000000000        0.0000000000000000     
  0.78125000000000000       0.25000000000000000        0.0000000000000000     
  0.81250000000000000       0.25000000000000000        0.0000000000000000     
  0.84375000000000000       0.25000000000000000        0.0000000000000000     
  0.87500000000000000       0.25000000000000000        0.0000000000000000     
  0.75000000000000000       0.28125000000000000        0.0000000000000000     
  0.78125000000000000       0.28125000000000000        0.0000000000000000     
  0.81250000000000000       0.28125000000000000        0.0000000000000000     
  0.84375000000000000       0.28125000000000000        0.0000000000000000     
  0.87500000000000000       0.28125000000000000        0.0000000000000000     
  0.75000000000000000       0.31250000000000000        0.0000000000000000     
  0.78125000000000000       0.31250000000000000        0.0000000000000000     
  0.81250000000000000       0.31250000000000000        0.0000000000000000     
  0.84375000000000000       0.31250000000000000        0.0000000000000000     
  0.87500000000000000       0.31250000000000000        0.0000000000000000     
  0.75000000000000000       0.34375000000000000        0.0000000000000000     
  0.78125000000000000       0.34375000000000000        0.0000000000000000     
  0.81250000000000000       0.34375000000000000        0.0000000000000000     
  0.84375000000000000       0.34375000000000000        0.0000000000000000     
  0.87500000000000000       0.34375000000000000        0.0000000000000000     
  0.75000000000000000       0.37500000000000000        0.0000000000000000     
  0.78125000000000000       0.37500000000000000        0.0000000000000000     
  0.81250000000000000       0.37500000000000000        0.0000000000000000     
  0.84375000000000000       0.37500000000000000        0.0000000000000000     
  0.87500000000000000       0.37500000000000000        0.0000000000000000     
  0.87500000000000000       0.25000000000000000        0.0000000000000000     
  0.90625000000000000       0.25000000000000000        0.0000000000000000     
  0.93750000000000000       0.25000000000000000        0.0000000000000000     
  0.96875000000000000       0.25000000000000000        0.0000000000000000     
   1.0000000000000000       0.25000000000000000        0.0000000000000000     
  0.87500000000000000       0.28125000000000000        0.0000000000000000     
  0.90625000000000000       0.28125000000000000        0.0000000000000000     
  0.93750000000000000       0.28125000000000000        0.0000000000000000     
  0.96875000000000000       0.28125000000000000        0.0000000000000000     
   1.0000000000000000       0.28125000000000000        0.0000000000000000     
  0.87500000000000000       0.31250000000000000        0.0000000000000000     
  0.90625000000000000       0.31250000000000000        0.0000000000000000     
  0.93750000000000000       0.31250000000000000        0.0000000000000000     
  0.96875000000000000       0.31250000000000000        0.0000000000000000     
   1.0000000000000000       0.31250000000000000        0.0000000000000000     
  0.87500000000000000       0.34375000000000000        0.0000000000000000     
  0.90625000000000000       0.34375000000000000        0.0000000000000000     
  0.93750000000000000       0.34375000000000000        0.0000000000000000     
  0.96875000000000000       0.34375000000000000        0.0000000000000000     
   1.0000000000000000       0.34375000000000000        0.0000000000000000     
  0.87500000000000000       0.37500000000000000        0.0000000000000000     
  0.90625000000000000       0.37500000000000000        0.0000000000000000     
  0.93750000000000000       0.37500000000000000        0.0000000000000000     
  0.96875000000000000       0.37500000000000000        0.0000000000000000     
   1.0000000000000000       0.37500000000000000        0.0000000000000000     
   0.0000000000000000       0.37500000000000000        0.0000000000000000     
   3.1250000000000000E-002  0.37500000000000000        0.0000000000000000     
   6.2500000000000000E-002  0.37500000000000000        0.0000000000000000     
   9.3750000000000000E-002  0.37500000000000000        0.0000000000000000     
  0.12500000000000000       0.37500000000000000        0.0000000000000000     
   0.0000000000000000       0.40625000000000000        0.0000000000000000     
   3.1250000000000000E-002  0.40625000000000000        0.0000000000000000     
   6.2500000000000000E-002  0.40625000000000000        0.0000000000000000     
   9.3750000000000000E-002  0.40625000000000000        0.0000000000000000     
  0.12500000000000000       0.40625000000000000        0.0000000000000000     
   0.0000000000000000       0.43750000000000000        0.0000000000000000     
   3.1250000000000000E-002  0.43750000000000000        0.0000000000000000     
   6.2500000000000000E-002  0.43750000000000000        0.0000000000000000     
   9.3750000000000000E-002  0.43750000000000000        0.0000000000000000     
  0.12500000000000000       0.43750000000000000        0.0000000000000000     
   0.0000000000000000       0.46875000000000000        0.0000000000000000     
   3.1250000000000000E-002  0.46875000000000000        0.0000000000000000     
   6.2500000000000000E-002  0.46875000000000000        0.0000000000000000     
   9.3750000000000000E-002  0.46875000000000000        0.0000000000000000     
  0.12500000000000000       0.46875000000000000        0.0000000000000000     
   0.0000000000000000       0.50000000000000000        0.0000000000000000     
   3.1250000000000000E-002  0.50000000000000000        0.0000000000000000     
   6.2500000000000000E-002  0.50000000000000000        0.0000000000000000     
   9.3750000000000000E-002  0.50000000000000000        0.0000000000000000     
  0.12500000000000000       0.50000000000000000        0.0000000000000000     
  0.12500000000000000       0.37500000000000000        0.0000000000000000     
  0.15625000000000000       0.37500000000000000        0.0000000000000000     
  0.18750000000000000       0.37500000000000000        0.0000000000000000     
  0.21875000000000000       0.37500000000000000        0.0000000000000000     
  0.25000000000000000       0.37500000000000000        0.0000000000000000     
  0.12500000000000000       0.40625000000000000        0.0000000000000000     
  0.15625000000000000       0.40625000000000000        0.0000000000000000     
  0.18750000000000000       0.40625000000000000        0.0000000000000000     
  0.21875000000000000       0.40625000000000000        0.0000000000000000     
  0.25000000000000000       0.40625000000000000        0.0000000000000000     
  0.12500000000000000       0.43750000000000000        0.0000000000000000     
  0.15625000000000000       0.43750000000000000        0.0000000000000000     
  0.18750000000000000       0.43750000000000000        0.0000000000000000     
  0.21875000000000000       0.43750000000000000        0.0000000000000000     
  0.25000000000000000       0.43750000000000000        0.0000000000000000     
  0.12500000000000000       0.46875000000000000        0.0000000000000000     
  0.15625000000000000       0.46875000000000000        0.0000000000000000     
  0.18750000000000000       0.46875000000000000        0.0000000000000000     
  0.21875000000000000       0.46875000000000000        0.0000000000000000     
  0.25000000000000000       0.46875000000000000        0.0000000000000000     
  0.12500000000000000       0.50000000000000000        0.0000000000000000     
  0.15625000000000000       0.50000000000000000        0.0000000000000000     
  0.18750000000000000       0.50000000000000000        0.0000000000000000     
  0.21875000000000000       0.50000000000000000        0.0000000000000000     
  0.25000000000000000       0.50000000000000000        0.0000000000000000     
  0.25000000000000000       0.37500000000000000        0.0000000000000000     
  0.28125000000000000       0.37500000000000000        0.0000000000000000     
  0.31250000000000000       0.37500000000000000        0.0000000000000000     
  0.34375000000000000       0.37500000000000000        0.0000000000000000     
  0.37500000000000000       0.37500000000000000        0.0000000000000000     
  0.25000000000000000       0.40625000000000000        0.0000000000000000     
  0.28125000000000000       0.40625000000000000        0.0000000000000000     
  0.31250000000000000       0.40625000000000000        0.0000000000000000     
  0.34375000000000000       0.40625000000000000        0.0000000000000000     
  0.37500000000000000       0.40625000000000000        0.0000000000000000     
  0.25000000000000000       0.43750000000000000        0.0000000000000000     
  0.28125000000000000       0.43750000000000000        0.0000000000000000     
  0.31250000000000000       0.43750000000000000        0.0000000000000000     
  0.34375000000000000       0.43750000000000000        0.0000000000000000     
  0.37500000000000000       0.43750000000000000        0.0000000000000000     
  0.25000000000000000       0.46875000000000000        0.0000000000000000     
  0.28125000000000000       0.46875000000000000        0.0000000000000000     
  0.31250000000000000       0.46875000000000000        0.0000000000000000     
  0.34375000000000000       0.46875000000000000        0.0000000000000000     
  0.37500000000000000       0.46875000000000000        0.0000000000000000     
  0.25000000000000000       0.50000000000000000        0.0000000000000000     
  0.28125000000000000       0.50000000000000000        0.0000000000000000     
  0.31250000000000000       0.50000000000000000        0.0000000000000000     
  0.34375000000000000       0.50000000000000000        0.0000000000000000     
  0.37500000000000000       0.50000000000000000        0.0000000000000000     
  0.37500000000000000       0.37500000000000000        0.0000000000000000     
  0.40625000000000000       0.37500000000000000        0.0000000000000000     
  0.43750000000000000       0.37500000000000000        0.0000000000000000     
  0.46875000000000000       0.37500000000000000        0.0000000000000000     
  0.50000000000000000       0.37500000000000000        0.0000000000000000     
  0.37500000000000000       0.40625000000000000        0.0000000000000000     
  0.40625000000000000       0.40625000000000000        0.0000000000000000     
  0.43750000000000000       0.40625000000000000        0.0000000000000000     
  0.46875000000000000       0.40625000000000000        0.0000000000000000     
  0.50000000000000000       0.40625000000000000        0.0000000000000000     
  0.37500000000000000       0.43750000000000000        0.0000000000000000     
  0.40625000000000000       0.43750000000000000        0.0000000000000000     
  0.43750000000000000       0.43750000000000000        0.0000000000000000     
  0.46875000000000000       0.43750000000000000        0.0000000000000000     
  0.50000000000000000       0.43750000000000000        0.0000000000000000     
  0.37500000000000000       0.46875000000000000        0.0000000000000000     
  0.40625000000000000       0.46875000000000000        0.0000000000000000     
  0.43750000000000000       0.46875000000000000        0.0000000000000000     
  0.46875000000000000       0.46875000000000000        0.0000000000000000     
  0.50000000000000000       0.46875000000000000        0.0000000000000000     
  0.37500000000000000       0.50000000000000000        0.0000000000000000     
  0.40625000000000000       0.50000000000000000        0.0000000000000000     
  0.43750000000000000       0.50000000000000000        0.0000000000000000     
  0.46875000000000000       0.50000000000000000        0.0000000000000000     
  0.50000000000000000       0.50000000000000000        0.0000000000000000     
  0.50000000000000000       0.37500000000000000        0.0000000000000000     
  0.53125000000000000       0.37500000000000000        0.0000000000000000     
  0.56250000000000000       0.37500000000000000        0.0000000000000000     
  0.59375000000000000       0.37500000000000000        0.0000000000000000     
  0.62500000000000000       0.37500000000000000        0.0000000000000000     
  0.50000000000000000       0.40625000000000000        0.0000000000000000     
  0.53125000000000000       0.40625000000000000        0.0000000000000000     
  0.56250000000000000       0.40625000000000000        0.0000000000000000     
  0.59375000000000000       0.40625000000000000        0.0000000000000000     
  0.62500000000000000       0.40625000000000000        0.0000000000000000     
  0.50000000000000000       0.43750000000000000        0.0000000000000000     
  0.53125000000000000       0.43750000000000000        0.0000000000000000     
  0.56250000000000000       0.43750000000000000        0.0000000000000000     
  0.59375000000000000       0.43750000000000000        0.0000000000000000     
  0.62500000000000000       0.43750000000000000        0.0000000000000000     
  0.50000000000000000       0.46875000000000000        0.0000000000000000     
  0.53125000000000000       0.46875000000000000        0.0000000000000000     
  0.56250000000000000       0.46875000000000000        0.0000000000000000     
  0.59375000000000000       0.46875000000000000        0.0000000000000000     
  0.62500000000000000       0.46875000000000000        0.0000000000000000     
  0.50000000000000000       0.50000000000000000        0.0000000000000000     
  0.53125000000000000       0.50000000000000000        0.0000000000000000     
  0.56250000000000000       0.50000000000000000        0.0000000000000000     
  0.59375000000000000       0.50000000000000000        0.0000000000000000     
  0.62500000000000000       0.50000000000000000        0.0000000000000000     
  0.62500000000000000       0.37500000000000000        0.0000000000000000     
  0.65625000000000000       0.37500000000000000        0.0000000000000000     
  0.68750000000000000       0.37500000000000000        0.0000000000000000     
  0.71875000000000000       0.37500000000000000        0.0000000000000000     
  0.75000000000000000       0.37500000000000000        0.0000000000000000     
  0.62500000000000000       0.40625000000000000        0.0000000000000000     
  0.65625000000000000       0.40625000000000000        0.0000000000000000     
  0.68750000000000000       0.40625000000000000        0.0000000000000000     
  0.71875000000000000       0.40625000000000000        0.0000000000000000     
  0.75000000000000000       0.40625000000000000        0.0000000000000000     
  0.62500000000000000       0.43750000000000000        0.0000000000000000     
  0.65625000000000000       0.43750000000000000        0.0000000000000000     
  0.68750000000000000       0.43750000000000000        0.0000000000000000     
  0.71875000000000000       0.43750000000000000        0.0000000000000000     
  0.75000000000000000       0.43750000000000000        0.0000000000000000     
  0.62500000000000000       0.46875000000000000        0.0000000000000000     
  0.65625000000000000       0.46875000000000000        0.0000000000000000     
  0.68750000000000000       0.46875000000000000        0.0000000000000000     
  0.71875000000000000       0.46875000000000000        0.0000000000000000     
  0.75000000000000000       0.46875000000000000        0.0000000000000000     
  0.62500000000000000       0.50000000000000000        0.0000000000000000     
  0.65625000000000000       0.50000000000000000        0.0000000000000000     
  0.68750000000000000       0.50000000000000000        0.0000000000000000     
  0.71875000000000000       0.50000000000000000        0.0000000000000000     
  0.75000000000000000       0.50000000000000000        0.0000000000000000     
  0.75000000000000000       0.37500000000000000        0.0000000000000000     
  0.78125000000000000       0.37500000000000000        0.0000000000000000     
  0.81250000000000000       0.37500000000000000        0.0000000000000000     
  0.84375000000000000       0.37500000000000000        0.0000000000000000     
  0.87500000000000000       0.37500000000000000        0.0000000000000000     
  0.75000000000000000       0.40625000000000000        0.0000000000000000     
  0.78125000000000000       0.40625000000000000        0.0000000000000000     
  0.81250000000000000       0.40625000000000000        0.0000000000000000     
  0.84375000000000000       0.40625000000000000        0.0000000000000000     
  0.87500000000000000       0.40625000000000000        0.0000000000000000     
  0.75000000000000000       0.43750000000000000        0.0000000000000000     
  0.78125000000000000       0.43750000000000000        0.0000000000000000     
  0.81250000000000000       0.43750000000000000        0.0000000000000000     
  0.84375000000000000       0.43750000000000000        0.0000000000000000     
  0.87500000000000000       0.43750000000000000        0.0000000000000000     
  0.75000000000000000       0.46875000000000000        0.0000000000000000     
  0.78125000000000000       0.46875000000000000        0.0000000000000000     
  0.81250000000000000       0.46875000000000000        0.0000000000000000     
  0.84375000000000000       0.46875000000000000        0.0000000000000000     
  0.87500000000000000       0.46875000000000000        0.0000000000000000     
  0.75000000000000000       0.50000000000000000        0.0000000000000000     
  0.78125000000000000       0.50000000000000000        0.0000000000000000     
  0.81250000000000000       0.50000000000000000        0.0000000000000000     
  0.84375000000000000       0.50000000000000000        0.0000000000000000     
  0.87500000000000000       0.50000000000000000        0.0000000000000000     
  0.87500000000000000       0.37500000000000000        0.0000000000000000     
  0.90625000000000000       0.37500000000000000        0.0000000000000000     
  0.93750000000000000       0.37500000000000000        0.0000000000000000     
  0.96875000000000000       0.37500000000000000        0.0000000000000000     
   1.0000000000000000       0.37500000000000000        0.0000000000000000     
  0.87500000000000000       0.40625000000000000        0.0000000000000000     
  0.90625000000000000       0.40625000000000000        0.0000000000000000     
  0.93750000000000000       0.40625000000000000        0.0000000000000000     
  0.96875000000000000       0.40625000000000000        0.0000000000000000     
   1.0000000000000000       0.40625000000000000        0.0000000000000000     
  0.87500000000000000       0.43750000000000000        0.0000000000000000     
  0.90625000000000000       0.43750000000000000        0.0000000000000000     
  0.93750000000000000       0.43750000000000000        0.0000000000000000     
  0.96875000000000000       0.43750000000000000        0.0000000000000000     
   1.0000000000000000       0.43750000000000000        0.0000000000000000     
  0.87500000000000000       0.46875000000000000        0.0000000000000000     
  0.90625000000000000       0.46875000000000000        0.0000000000000000     
  0.93750000000000000       0.46875000000000000        0.0000000000000000     
  0.96875000000000000       0.46875000000000000        0.0000000000000000     
   1.0000000000000000       0.46875000000000000        0.0000000000000000     
  0.87500000000000000       0.50000000000000000        0.0000000000000000     
  0.90625000000000000       0.50000000000000000        0.0000000000000000     
  0.93750000000000000       0.50000000000000000        0.0000000000000000     
  0.96875000000000000       0.50000000000000000        0.0000000000000000     
   1.0000000000000000       0.50000000000000000        0.0000000000000000     
   0.0000000000000000       0.50000000000000000        0.0000000000000000     
   3.1250000000000000E-002  0.50000000000000000        0.0000000000000000     
   6.2500000000000000E-002  0.50000000000000000        0.0000000000000000     
   9.3750000000000000E-002  0.50000000000000000        0.0000000000000000     
  0.12500000000000000       0.50000000000000000        0.0000000000000000     
   0.0000000000000000       0.53125000000000000        0.0000000000000000     
   3.1250000000000000E-002  0.53125000000000000        0.0000000000000000     
   6.2500000000000000E-002  0.53125000000000000        0.0000000000000000     
   9.3750000000000000E-002  0.53125000000000000        0.0000000000000000     
  0.12500000000000000       0.53125000000000000        0.0000000000000000     
   0.0000000000000000       0.56250000000000000        0.0000000000000000     
   3.1250000000000000E-002  0.56250000000000000        0.0000000000000000     
   6.2500000000000000E-002  0.56250000000000000        0.0000000000000000     
   9.3750000000000000E-002  0.56250000000000000        0.0000000000000000     
  0.12500000000000000       0.56250000000000000        0.0000000000000000     
   0.0000000000000000       0.59375000000000000        0.0000000000000000     
   3.1250000000000000E-002  0.59375000000000000        0.0000000000000000     
   6.2500000000000000E-002  0.59375000000000000        0.0000000000000000     
   9.3750000000000000E-002  0.59375000000000000        0.0000000000000000     
  0.12500000000000000       0.59375000000000000        0.0000000000000000     
   0.0000000000000000       0.62500000000000000        0.0000000000000000     
   3.1250000000000000E-002  0.62500000000000000        0.0000000000000000     
   6.2500000000000000E-002  0.62500000000000000        0.0000000000000000     
   9.3750000000000000E-002  0.62500000000000000        0.0000000000000000     
  0.12500000000000000       0.62500000000000000        0.0000000000000000     
  0.12500000000000000       0.50000000000000000        0.0000000000000000     
  0.15625000000000000       0.50000000000000000        0.0000000000000000     
  0.18750000000000000       0.50000000000000000        0.0000000000000000     
  0.21875000000000000       0.50000000000000000        0.0000000000000000     
  0.25000000000000000       0.50000000000000000        0.0000000000000000     
  0.12500000000000000       0.53125000000000000        0.0000000000000000     
  0.15625000000000000       0.53125000000000000        0.0000000000000000     
  0.18750000000000000       0.53125000000000000        0.0000000000000000     
  0.21875000000000000       0.53125000000000000        0.0000000000000000     
  0.25000000000000000       0.53125000000000000        0.0000000000000000     
  0.12500000000000000       0.56250000000000000        0.0000000000000000     
  0.15625000000000000       0.56250000000000000        0.0000000000000000     
  0.18750000000000000       0.56250000000000000        0.0000000000000000     
  0.21875000000000000       0.56250000000000000        0.0000000000000000     
  0.25000000000000000       0.56250000000000000        0.0000000000000000     
  0.12500000000000000       0.59375000000000000        0.0000000000000000     
  0.15625000000000000       0.59375000000000000        0.0000000000000000     
  0.18750000000000000       0.59375000000000000        0.0000000000000000     
  0.21875000000000000       0.59375000000000000        0.0000000000000000     
  0.25000000000000000       0.59375000000000000        0.0000000000000000     
  0.12500000000000000       0.62500000000000000        0.0000000000000000     
  0.15625000000000000       0.62500000000000000        0.0000000000000000     
  0.18750000000000000       0.62500000000000000        0.0000000000000000     
  0.21875000000000000       0.62500000000000000        0.0000000000000000     
  0.25000000000000000       0.62500000000000000        0.0000000000000000     
  0.25000000000000000       0.50000000000000000        0.0000000000000000     
  0.28125000000000000       0.50000000000000000        0.0000000000000000     
  0.31250000000000000       0.50000000000000000        0.0000000000000000     
  0.34375000000000000       0.50000000000000000        0.0000000000000000     
  0.37500000000000000       0.50000000000000000        0.0000000000000000     
  0.25000000000000000       0.53125000000000000        0.0000000000000000     
  0.28125000000000000       0.53125000000000000        0.0000000000000000     
  0.31250000000000000       0.53125000000000000        0.0000000000000000     
  0.34375000000000000       0.53125000000000000        0.0000000000000000     
  0.37500000000000000       0.53125000000000000        0.0000000000000000     
  0.25000000000000000       0.56250000000000000        0.0000000000000000     
  0.28125000000000000       0.56250000000000000        0.0000000000000000     
  0.31250000000000000       0.56250000000000000        0.0000000000000000     
  0.34375000000000000       0.56250000000000000        0.0000000000000000     
  0.37500000000000000       0.56250000000000000        0.0000000000000000     
  0.25000000000000000       0.59375000000000000        0.0000000000000000     
  0.28125000000000000       0.59375000000000000        0.0000000000000000     
  0.31250000000000000       0.59375000000000000        0.0000000000000000     
  0.34375000000000000       0.59375000000000000        0.0000000000000000     
  0.37500000000000000       0.59375000000000000        0.0000000000000000     
  0.25000000000000000       0.62500000000000000        0.0000000000000000     
  0.28125000000000000       0.62500000000000000        0.0000000000000000     
  0.31250000000000000       0.62500000000000000        0.0000000000000000     
  0.34375000000000000       0.62500000000000000        0.0000000000000000     
  0.37500000000000000       0.62500000000000000        0.0000000000000000     
  0.37500000000000000       0.50000000000000000        0.0000000000000000     
  0.40625000000000000       0.50000000000000000        0.0000000000000000     
  0.43750000000000000       0.50000000000000000        0.0000000000000000     
  0.46875000000000000       0.50000000000000000        0.0000000000000000     
  0.50000000000000000       0.50000000000000000        0.0000000000000000     
  0.37500000000000000       0.53125000000000000        0.0000000000000000     
  0.40625000000000000       0.53125000000000000        0.0000000000000000     
  0.43750000000000000       0.53125000000000000        0.0000000000000000     
  0.46875000000000000       0.53125000000000000        0.0000000000000000     
  0.50000000000000000       0.53125000000000000        0.0000000000000000     
  0.37500000000000000       0.56250000000000000        0.0000000000000000     
  0.40625000000000000       0.56250000000000000        0.0000000000000000     
  0.43750000000000000       0.56250000000000000        0.0000000000000000     
  0.46875000000000000       0.56250000000000000        0.0000000000000000     
  0.50000000000000000       0.56250000000000000        0.0000000000000000     
  0.37500000000000000       0.59375000000000000        0.0000000000000000     
  0.40625000000000000       0.59375000000000000        0.0000000000000000     
  0.43750000000000000       0.59375000000000000        0.0000000000000000     
  0.46875000000000000       0.59375000000000000        0.0000000000000000     
  0.50000000000000000       0.59375000000000000        0.0000000000000000     
  0.37500000000000000       0.62500000000000000        0.0000000000000000     
  0.40625000000000000       0.62500000000000000        0.0000000000000000     
  0.43750000000000000       0.62500000000000000        0.0000000000000000     
  0.46875000000000000       0.62500000000000000        0.0000000000000000     
  0.50000000000000000       0.62500000000000000        0.0000000000000000     
  0.50000000000000000       0.50000000000000000        0.0000000000000000     
  0.53125000000000000       0.50000000000000000        0.0000000000000000     
  0.56250000000000000       0.50000000000000000        0.0000000000000000     
  0.59375000000000000       0.50000000000000000        0.0000000000000000     
  0.62500000000000000       0.50000000000000000        0.0000000000000000     
  0.50000000000000000       0.53125000000000000        0.0000000000000000     
  0.53125000000000000       0.53125000000000000        0.0000000000000000     
  0.56250000000000000       0.53125000000000000        0.0000000000000000     
  0.59375000000000000       0.53125000000000000        0.0000000000000000     
  0.62500000000000000       0.53125000000000000        0.0000000000000000     
  0.50000000000000000       0.56250000000000000        0.0000000000000000     
  0.53125000000000000       0.56250000000000000        0.0000000000000000     
  0.56250000000000000       0.56250000000000000        0.0000000000000000     
  0.59375000000000000       0.56250000000000000        0.0000000000000000     
  0.62500000000000000       0.56250000000000000        0.0000000000000000     
  0.50000000000000000       0.59375000000000000        0.0000000000000000     
  0.53125000000000000       0.59375000000000000        0.0000000000000000     
  0.56250000000000000       0.59375000000000000        0.0000000000000000     
  0.59375000000000000       0.59375000000000000        0.0000000000000000     
  0.62500000000000000       0.59375000000000000        0.0000000000000000     
  0.50000000000000000       0.62500000000000000        0.0000000000000000     
  0.53125000000000000       0.62500000000000000        0.0000000000000000     
  0.56250000000000000       0.62500000000000000        0.0000000000000000     
  0.59375000000000000       0.62500000000000000        0.0000000000000000     
  0.62500000000000000       0.62500000000000000        0.0000000000000000     
  0.62500000000000000       0.50000000000000000        0.0000000000000000     
  0.65625000000000000       0.50000000000000000        0.0000000000000000     
  0.68750000000000000       0.50000000000000000        0.0000000000000000     
  0.71875000000000000       0.50000000000000000        0.0000000000000000     
  0.75000000000000000       0.50000000000000000        0.0000000000000000     
  0.62500000000000000       0.53125000000000000        0.0000000000000000     
  0.65625000000000000       0.53125000000000000        0.0000000000000000     
  0.68750000000000000       0.53125000000000000        0.0000000000000000     
  0.71875000000000000       0.53125000000000000        0.0000000000000000     
  0.75000000000000000       0.53125000000000000        0.0000000000000000     
  0.62500000000000000       0.56250000000000000        0.0000000000000000     
  0.65625000000000000       0.56250000000000000        0.0000000000000000     
  0.68750000000000000       0.56250000000000000        0.0000000000000000     
  0.71875000000000000       0.56250000000000000        0.0000000000000000     
  0.75000000000000000       0.56250000000000000        0.0000000000000000     
  0.62500000000000000       0.59375000000000000        0.0000000000000000     
  0.65625000000000000       0.59375000000000000        0.0000000000000000     
  0.68750000000000000       0.59375000000000000        0.0000000000000000     
  0.71875000000000000       0.59375000000000000        0.0000000000000000     
  0.75000000000000000       0.59375000000000000        0.0000000000000000     
  0.62500000000000000       0.62500000000000000        0.0000000000000000     
  0.65625000000000000       0.62500000000000000        0.0000000000000000     
  0.68750000000000000       0.62500000000000000        0.0000000000000000     
  0.71875000000000000       0.62500000000000000        0.0000000000000000     
  0.75000000000000000       0.62500000000000000        0.0000000000000000     
  0.75000000000000000       0.50000000000000000        0.0000000000000000     
  0.78125000000000000       0.50000000000000000        0.0000000000000000     
  0.81250000000000000       0.50000000000000000        0.0000000000000000     
  0.84375000000000000       0.50000000000000000        0.0000000000000000     
  0.87500000000000000       0.50000000000000000        0.0000000000000000     
  0.75000000000000000       0.53125000000000000        0.0000000000000000     
  0.78125000000000000       0.53125000000000000        0.0000000000000000     
  0.81250000000000000       0.53125000000000000        0.0000000000000000     
  0.84375000000000000       0.53125000000000000        0.0000000000000000     
  0.87500000000000000       0.53125000000000000        0.0000000000000000     
  0.75000000000000000       0.56250000000000000        0.0000000000000000     
  0.78125000000000000       0.56250000000000000        0.0000000000000000     
  0.81250000000000000       0.56250000000000000        0.0000000000000000     
  0.84375000000000000       0.56250000000000000        0.0000000000000000     
  0.87500000000000000       0.56250000000000000        0.0000000000000000     
  0.75000000000000000       0.59375000000000000        0.0000000000000000     
  0.78125000000000000       0.59375000000000000        0.0000000000000000     
  0.81250000000000000       0.59375000000000000        0.0000000000000000     
  0.84375000000000000       0.59375000000000000        0.0000000000000000     
  0.87500000000000000       0.59375000000000000        0.0000000000000000     
  0.75000000000000000       0.62500000000000000        0.0000000000000000     
  0.78125000000000000       0.62500000000000000        0.0000000000000000     
  0.81250000000000000       0.62500000000000000        0.0000000000000000     
  0.84375000000000000       0.62500000000000000        0.0000000000000000     
  0.87500000000000000       0.62500000000000000        0.0000000000000000     
  0.87500000000000000       0.50000000000000000        0.0000000000000000     
  0.90625000000000000       0.50000000000000000        0.0000000000000000     
  0.93750000000000000       0.50000000000000000        0.0000000000000000     
  0.96875000000000000       0.50000000000000000        0.0000000000000000     
   1.0000000000000000       0.50000000000000000        0.0000000000000000     
  0.87500000000000000       0.53125000000000000        0.0000000000000000     
  0.90625000000000000       0.53125000000000000        0.0000000000000000     
  0.93750000000000000       0.53125000000000000        0.0000000000000000     
  0.96875000000000000       0.53125000000000000        0.0000000000000000     
   1.0000000000000000       0.53125000000000000        0.0000000000000000     
  0.87500000000000000       0.56250000000000000        0.0000000000000000     
  0.90625000000000000       0.56250000000000000        0.0000000000000000     
  0.93750000000000000       0.56250000000000000        0.0000000000000000     
  0.96875000000000000       0.56250000000000000        0.0000000000000000     
   1.0000000000000000       0.56250000000000000        0.0000000000000000     
  0.87500000000000000       0.59375000000000000        0.0000000000000000     
  0.90625000000000000       0.59375000000000000        0.0000000000000000     
  0.93750000000000000       0.59375000000000000        0.0000000000000000     
  0.96875000000000000       0.59375000000000000        0.0000000000000000     
   1.0000000000000000       0.59375000000000000        0.0000000000000000     
  0.87500000000000000       0.62500000000000000        0.0000000000000000     
  0.90625000000000000       0.62500000000000000        0.0000000000000000     
  0.93750000000000000       0.62500000000000000        0.0000000000000000     
  0.96875000000000000       0.62500000000000000        0.0000000000000000     
   1.0000000000000000       0.62500000000000000        0.0000000000000000     
   0.0000000000000000       0.62500000000000000        0.0000000000000000     
   3.1250000000000000E-002  0.62500000000000000        0.0000000000000000     
   6.2500000000000000E-002  0.62500000000000000        0.0000000000000000     
   9.3750000000000000E-002  0.62500000000000000        0.0000000000000000     
  0.12500000000000000       0.62500000000000000        0.0000000000000000     
   0.0000000000000000       0.65625000000000000        0.0000000000000000     
   3.1250000000000000E-002  0.65625000000000000        0.0000000000000000     
   6.2500000000000000E-002  0.65625000000000000        0.0000000000000000     
   9.3750000000000000E-002  0.65625000000000000        0.0000000000000000     
  0.12500000000000000       0.65625000000000000        0.0000000000000000     
   0.0000000000000000       0.68750000000000000        0.0000000000000000     
   3.1250000000000000E-002  0.68750000000000000        0.0000000000000000     
   6.2500000000000000E-002  0.68750000000000000        0.0000000000000000     
   9.3750000000000000E-002  0.68750000000000000        0.0000000000000000     
  0.12500000000000000       0.68750000000000000        0.0000000000000000     
   0.0000000000000000       0.71875000000000000        0.0000000000000000     
   3.1250000000000000E-002  0.71875000000000000        0.0000000000000000     
   6.2500000000000000E-002  0.71875000000000000        0.0000000000000000     
   9.3750000000000000E-002  0.71875000000000000        0.0000000000000000     
  0.12500000000000000       0.71875000000000000        0.0000000000000000     
   0.0000000000000000       0.75000000000000000        0.0000000000000000     
   3.1250000000000000E-002  0.75000000000000000        0.0000000000000000     
   6.2500000000000000E-002  0.75000000000000000        0.0000000000000000     
   9.3750000000000000E-002  0.75000000000000000        0.0000000000000000     
  0.12500000000000000       0.75000000000000000        0.0000000000000000     
  0.12500000000000000       0.62500000000000000        0.0000000000000000     
  0.15625000000000000       0.62500000000000000        0.0000000000000000     
  0.18750000000000000       0.62500000000000000        0.0000000000000000     
  0.21875000000000000       0.62500000000000000        0.0000000000000000     
  0.25000000000000000       0.62500000000000000        0.0000000000000000     
  0.12500000000000000       0.65625000000000000        0.0000000000000000     
  0.15625000000000000       0.65625000000000000        0.0000000000000000     
  0.18750000000000000       0.65625000000000000        0.0000000000000000     
  0.21875000000000000       0.65625000000000000        0.0000000000000000     
  0.25000000000000000       0.65625000000000000        0.0000000000000000     
  0.12500000000000000       0.68750000000000000        0.0000000000000000     
  0.15625000000000000       0.68750000000000000        0.0000000000000000     
  0.18750000000000000       0.68750000000000000        0.0000000000000000     
  0.21875000000000000       0.68750000000000000        0.0000000000000000     
  0.25000000000000000       0.68750000000000000        0.0000000000000000     
  0.12500000000000000       0.71875000000000000        0.0000000000000000     
  0.15625000000000000       0.71875000000000000        0.0000000000000000     
  0.18750000000000000       0.71875000000000000        0.0000000000000000     
  0.21875000000000000       0.71875000000000000        0.0000000000000000     
  0.25000000000000000       0.71875000000000000        0.0000000000000000     
  0.12500000000000000       0.75000000000000000        0.0000000000000000     
  0.15625000000000000       0.75000000000000000        0.0000000000000000     
  0.18750000000000000       0.75000000000000000        0.0000000000000000     
  0.21875000000000000       0.75000000000000000        0.0000000000000000     
  0.25000000000000000       0.75000000000000000        0.0000000000000000     
  0.25000000000000000       0.62500000000000000        0.0000000000000000     
  0.28125000000000000       0.62500000000000000        0.0000000000000000     
  0.31250000000000000       0.62500000000000000        0.0000000000000000     
  0.34375000000000000       0.62500000000000000        0.0000000000000000     
  0.37500000000000000       0.62500000000000000        0.0000000000000000     
  0.25000000000000000       0.65625000000000000        0.0000000000000000     
  0.28125000000000000       0.65625000000000000        0.0000000000000000     
  0.31250000000000000       0.65625000000000000        0.0000000000000000     
  0.34375000000000000       0.65625000000000000        0.0000000000000000     
  0.37500000000000000       0.65625000000000000        0.0000000000000000     
  0.25000000000000000       0.68750000000000000        0.0000000000000000     
  0.28125000000000000       0.68750000000000000        0.0000000000000000     
  0.31250000000000000       0.68750000000000000        0.0000000000000000     
  0.34375000000000000       0.68750000000000000        0.0000000000000000     
  0.37500000000000000       0.68750000000000000        0.0000000000000000     
  0.25000000000000000       0.71875000000000000        0.0000000000000000     
  0.28125000000000000       0.71875000000000000        0.0000000000000000     
  0.31250000000000000       0.71875000000000000        0.0000000000000000     
  0.34375000000000000       0.71875000000000000        0.0000000000000000     
  0.37500000000000000       0.71875000000000000        0.0000000000000000     
  0.25000000000000000       0.75000000000000000        0.0000000000000000     
  0.28125000000000000       0.75000000000000000        0.0000000000000000     
  0.31250000000000000       0.75000000000000000        0.0000000000000000     
  0.34375000000000000       0.75000000000000000        0.0000000000000000     
  0.37500000000000000       0.75000000000000000        0.0000000000000000     
  0.37500000000000000       0.62500000000000000        0.0000000000000000     
  0.40625000000000000       0.62500000000000000        0.0000000000000000     
  0.43750000000000000       0.62500000000000000        0.0000000000000000     
  0.46875000000000000       0.62500000000000000        0.0000000000000000     
  0.50000000000000000       0.62500000000000000        0.0000000000000000     
  0.37500000000000000       0.65625000000000000        0.0000000000000000     
  0.40625000000000000       0.65625000000000000        0.0000000000000000     
  0.43750000000000000       0.65625000000000000        0.0000000000000000     
  0.46875000000000000       0.65625000000000000        0.0000000000000000     
  0.50000000000000000       0.65625000000000000        0.0000000000000000     
  0.37500000000000000       0.68750000000000000        0.0000000000000000     
  0.40625000000000000       0.68750000000000000        0.0000000000000000     
  0.43750000000000000       0.68750000000000000        0.0000000000000000     
  0.46875000000000000       0.68750000000000000        0.0000000000000000     
  0.50000000000000000       0.68750000000000000        0.0000000000000000     
  0.37500000000000000       0.71875000000000000        0.0000000000000000     
  0.40625000000000000       0.71875000000000000        0.0000000000000000     
  0.43750000000000000       0.71875000000000000        0.0000000000000000     
  0.46875000000000000       0.71875000000000000        0.0000000000000000     
  0.50000000000000000       0.71875000000000000        0.0000000000000000     
  0.37500000000000000       0.75000000000000000        0.0000000000000000     
  0.40625000000000000       0.75000000000000000        0.0000000000000000     
  0.43750000000000000       0.75000000000000000        0.0000000000000000     
  0.46875000000000000       0.75000000000000000        0.0000000000000000     
  0.50000000000000000       0.75000000000000000        0.0000000000000000     
  0.50000000000000000       0.62500000000000000        0.0000000000000000     
  0.53125000000000000       0.62500000000000000        0.0000000000000000     
  0.56250000000000000       0.62500000000000000        0.0000000000000000     
  0.59375000000000000       0.62500000000000000        0.0000000000000000     
  0.62500000000000000       0.62500000000000000        0.0000000000000000     
  0.50000000000000000       0.65625000000000000        0.0000000000000000     
  0.53125000000000000       0.65625000000000000        0.0000000000000000     
  0.56250000000000000       0.65625000000000000        0.0000000000000000     
  0.59375000000000000       0.65625000000000000        0.0000000000000000     
  0.62500000000000000       0.65625000000000000        0.0000000000000000     
  0.50000000000000000       0.68750000000000000        0.0000000000000000     
  0.53125000000000000       0.68750000000000000        0.0000000000000000     
  0.56250000000000000       0.68750000000000000        0.0000000000000000     
  0.59375000000000000       0.68750000000000000        0.0000000000000000     
  0.62500000000000000       0.68750000000000000        0.0000000000000000     
  0.50000000000000000       0.71875000000000000        0.0000000000000000     
  0.53125000000000000       0.71875000000000000        0.0000000000000000     
  0.56250000000000000       0.71875000000000000        0.0000000000000000     
  0.59375000000000000       0.71875000000000000        0.0000000000000000     
  0.62500000000000000       0.71875000000000000        0.0000000000000000     
  0.50000000000000000       0.75000000000000000        0.0000000000000000     
  0.53125000000000000       0.75000000000000000        0.0000000000000000     
  0.56250000000000000       0.75000000000000000        0.0000000000000000     
  0.59375000000000000       0.75000000000000000        0.0000000000000000     
  0.62500000000000000       0.75000000000000000        0.0000000000000000     
  0.62500000000000000       0.62500000000000000        0.0000000000000000     
  0.65625000000000000       0.62500000000000000        0.0000000000000000     
  0.68750000000000000       0.62500000000000000        0.0000000000000000     
  0.71875000000000000       0.62500000000000000        0.0000000000000000     
  0.75000000000000000       0.62500000000000000        0.0000000000000000     
  0.62500000000000000       0.65625000000000000        0.0000000000000000     
  0.65625000000000000       0.65625000000000000        0.0000000000000000     
  0.68750000000000000       0.65625000000000000        0.0000000000000000     
  0.71875000000000000       0.65625000000000000        0.0000000000000000     
  0.75000000000000000       0.65625000000000000        0.0000000000000000     
  0.62500000000000000       0.68750000000000000        0.0000000000000000     
  0.65625000000000000       0.68750000000000000        0.0000000000000000     
  0.68750000000000000       0.68750000000000000        0.0000000000000000     
  0.71875000000000000       0.68750000000000000        0.0000000000000000     
  0.75000000000000000       0.68750000000000000        0.0000000000000000     
  0.62500000000000000       0.71875000000000000        0.0000000000000000     
  0.65625000000000000       0.71875000000000000        0.0000000000000000     
  0.68750000000000000       0.71875000000000000        0.0000000000000000     
  0.71875000000000000       0.71875000000000000        0.0000000000000000     
  0.75000000000000000       0.71875000000000000        0.0000000000000000     
  0.62500000000000000       0.75000000000000000        0.0000000000000000     
  0.65625000000000000       0.75000000000000000        0.0000000000000000     
  0.68750000000000000       0.75000000000000000        0.0000000000000000     
  0.71875000000000000       0.75000000000000000        0.0000000000000000     
  0.75000000000000000       0.75000000000000000        0.0000000000000000     
  0.75000000000000000       0.62500000000000000        0.0000000000000000     
  0.78125000000000000       0.62500000000000000        0.0000000000000000     
  0.81250000000000000       0.62500000000000000        0.0000000000000000     
  0.84375000000000000       0.62500000000000000        0.0000000000000000     
  0.87500000000000000       0.62500000000000000        0.0000000000000000     
  0.75000000000000000       0.65625000000000000        0.0000000000000000     
  0.78125000000000000       0.65625000000000000        0.0000000000000000     
  0.81250000000000000       0.65625000000000000        0.0000000000000000     
  0.84375000000000000       0.65625000000000000        0.0000000000000000     
  0.87500000000000000       0.65625000000000000        0.0000000000000000     
  0.75000000000000000       0.68750000000000000        0.0000000000000000     
  0.78125000000000000       0.68750000000000000        0.0000000000000000     
  0.81250000000000000       0.68750000000000000        0.0000000000000000     
  0.84375000000000000       0.68750000000000000        0.0000000000000000     
  0.87500000000000000       0.68750000000000000        0.0000000000000000     
  0.75000000000000000       0.71875000000000000        0.0000000000000000     
  0.78125000000000000       0.71875000000000000        0.0000000000000000     
  0.81250000000000000       0.71875000000000000        0.0000000000000000     
  0.84375000000000000       0.71875000000000000        0.0000000000000000     
  0.87500000000000000       0.71875000000000000        0.0000000000000000     
  0.75000000000000000       0.75000000000000000        0.0000000000000000     
  0.78125000000000000       0.75000000000000000        0.0000000000000000     
  0.81250000000000000       0.75000000000000000        0.0000000000000000     
  0.84375000000000000       0.75000000000000000        0.0000000000000000     
  0.87500000000000000       0.75000000000000000        0.0000000000000000     
  0.87500000000000000       0.62500000000000000        0.0000000000000000     
  0.90625000000000000       0.62500000000000000        0.0000000000000000     
  0.93750000000000000       0.62500000000000000        0.0000000000000000     
  0.96875000000000000       0.62500000000000000        0.0000000000000000     
   1.0000000000000000       0.62500000000000000        0.0000000000000000     
  0.87500000000000000       0.65625000000000000        0.0000000000000000     
  0.90625000000000000       0.65625000000000000        0.0000000000000000     
  0.93750000000000000       0.65625000000000000        0.0000000000000000     
  0.96875000000000000       0.65625000000000000        0.0000000000000000     
   1.0000000000000000       0.65625000000000000        0.0000000000000000     
  0.87500000000000000       0.68750000000000000        0.0000000000000000     
  0.90625000000000000       0.68750000000000000        0.0000000000000000     
  0.93750000000000000       0.68750000000000000        0.0000000000000000     
  0.96875000000000000       0.68750000000000000        0.0000000000000000     
   1.0000000000000000       0.68750000000000000        0.0000000000000000     
  0.87500000000000000       0.71875000000000000        0.0000000000000000     
  0.90625000000000000       0.71875000000000000        0.0000000000000000     
  0.93750000000000000       0.71875000000000000        0.0000000000000000     
  0.96875000000000000       0.71875000000000000        0.0000000000000000     
   1.0000000000000000       0.71875000000000000        0.0000000000000000     
  0.87500000000000000       0.75000000000000000        0.0000000000000000     
  0.90625000000000000       0.75000000000000000        0.0000000000000000     
  0.93750000000000000       0.75000000000000000        0.0000000000000000     
  0.96875000000000000       0.75000000000000000        0.0000000000000000     
   1.0000000000000000       0.75000000000000000        0.0000000000000000     
   0.0000000000000000       0.75000000000000000        0.0000000000000000     
   3.1250000000000000E-002  0.75000000000000000        0.0000000000000000     
   6.2500000000000000E-002  0.75000000000000000        0.0000000000000000     
   9.3750000000000000E-002  0.75000000000000000        0.0000000000000000     
  0.12500000000000000       0.75000000000000000        0.0000000000000000     
   0.0000000000000000       0.78125000000000000        0.0000000000000000     
   3.1250000000000000E-002  0.78125000000000000        0.0000000000000000     
   6.2500000000000000E-002  0.78125000000000000        0.0000000000000000     
   9.3750000000000000E-002  0.78125000000000000        0.0000000000000000     
  0.12500000000000000       0.78125000000000000        0.0000000000000000     
   0.0000000000000000       0.81250000000000000        0.0000000000000000     
   3.1250000000000000E-002  0.81250000000000000        0.0000000000000000     
   6.2500000000000000E-002  0.81250000000000000        0.0000000000000000     
   9.3750000000000000E-002  0.81250000000000000        0.0000000000000000     
  0.12500000000000000       0.81250000000000000        0.0000000000000000     
   0.0000000000000000       0.84375000000000000        0.0000000000000000     
   3.1250000000000000E-002  0.84375000000000000        0.0000000000000000     
   6.2500000000000000E-002  0.84375000000000000        0.0000000000000000     
   9.3750000000000000E-002  0.84375000000000000        0.0000000000000000     
  0.12500000000000000       0.84375000000000000        0.0000000000000000     
   0.0000000000000000       0.87500000000000000        0.0000000000000000     
   3.1250000000000000E-002  0.87500000000000000        0.0000000000000000     
   6.2500000000000000E-002  0.87500000000000000        0.0000000000000000     
   9.3750000000000000E-002  0.87500000000000000        0.0000000000000000     
  0.12500000000000000       0.87500000000000000        0.0000000000000000     
  0.12500000000000000       0.75000000000000000        0.0000000000000000     
  0.15625000000000000       0.75000000000000000        0.0000000000000000     
  0.18750000000000000       0.75000000000000000        0.0000000000000000     
  0.21875000000000000       0.75000000000000000        0.0000000000000000     
  0.25000000000000000       0.75000000000000000        0.0000000000000000     
  0.12500000000000000       0.78125000000000000        0.0000000000000000     
  0.15625000000000000       0.78125000000000000        0.0000000000000000     
  0.18750000000000000       0.78125000000000000        0.0000000000000000     
  0.21875000000000000       0.78125000000000000        0.0000000000000000     
  0.25000000000000000       0.78125000000000000        0.0000000000000000     
  0.12500000000000000       0.81250000000000000        0.0000000000000000     
  0.15625000000000000       0.81250000000000000        0.0000000000000000     
  0.18750000000000000       0.81250000000000000        0.0000000000000000     
  0.21875000000000000       0.81250000000000000        0.0000000000000000     
  0.25000000000000000       0.81250000000000000        0.0000000000000000     
  0.12500000000000000       0.84375000000000000        0.0000000000000000     
  0.15625000000000000       0.84375000000000000        0.0000000000000000     
  0.18750000000000000       0.84375000000000000        0.0000000000000000     
  0.21875000000000000       0.84375000000000000        0.0000000000000000     
  0.25000000000000000       0.84375000000000000        0.0000000000000000     
  0.12500000000000000       0.87500000000000000        0.0000000000000000     
  0.15625000000000000       0.87500000000000000        0.0000000000000000     
  0.18750000000000000       0.87500000000000000        0.0000000000000000     
  0.21875000000000000       0.87500000000000000        0.0000000000000000     
  0.25000000000000000       0.87500000000000000        0.0000000000000000     
  0.25000000000000000       0.75000000000000000        0.0000000000000000     
  0.28125000000000000       0.75000000000000000        0.0000000000000000     
  0.31250000000000000       0.75000000000000000        0.0000000000000000     
  0.34375000000000000       0.75000000000000000        0.0000000000000000     
  0.37500000000000000       0.75000000000000000        0.0000000000000000     
  0.25000000000000000       0.78125000000000000        0.0000000000000000     
  0.28125000000000000       0.78125000000000000        0.0000000000000000     
  0.31250000000000000       0.78125000000000000        0.0000000000000000     
  0.34375000000000000       0.78125000000000000        0.0000000000000000     
  0.37500000000000000       0.78125000000000000        0.0000000000000000     
  0.25000000000000000       0.81250000000000000        0.0000000000000000     
  0.28125000000000000       0.81250000000000000        0.0000000000000000     
  0.31250000000000000       0.81250000000000000        0.0000000000000000     
  0.34375000000000000       0.81250000000000000        0.0000000000000000     
  0.37500000000000000       0.81250000000000000        0.0000000000000000     
  0.25000000000000000       0.84375000000000000        0.0000000000000000     
  0.28125000000000000       0.84375000000000000        0.0000000000000000     
  0.31250000000000000       0.84375000000000000        0.0000000000000000     
  0.34375000000000000       0.84375000000000000        0.0000000000000000     
  0.37500000000000000       0.84375000000000000        0.0000000000000000     
  0.25000000000000000       0.87500000000000000        0.0000000000000000     
  0.28125000000000000       0.87500000000000000        0.0000000000000000     
  0.31250000000000000       0.87500000000000000        0.0000000000000000     
  0.34375000000000000       0.87500000000000000        0.0000000000000000     
  0.37500000000000000       0.87500000000000000        0.0000000000000000     
  0.37500000000000000       0.75000000000000000        0.0000000000000000     
  0.40625000000000000       0.75000000000000000        0.0000000000000000     
  0.43750000000000000       0.75000000000000000        0.0000000000000000     
  0.46875000000000000       0.75000000000000000        0.0000000000000000     
  0.50000000000000000       0.75000000000000000        0.0000000000000000     
  0.37500000000000000       0.78125000000000000        0.0000000000000000     
  0.40625000000000000       0.78125000000000000        0.0000000000000000     
  0.43750000000000000       0.78125000000000000        0.0000000000000000     
  0.46875000000000000       0.78125000000000000        0.0000000000000000     
  0.50000000000000000       0.78125000000000000        0.0000000000000000     
  0.37500000000000000       0.81250000000000000        0.0000000000000000     
  0.40625000000000000       0.81250000000000000        0.0000000000000000     
  0.43750000000000000       0.81250000000000000        0.0000000000000000     
  0.46875000000000000       0.81250000000000000        0.0000000000000000     
  0.50000000000000000       0.81250000000000000        0.0000000000000000     
  0.37500000000000000       0.84375000000000000        0.0000000000000000     
  0.40625000000000000       0.84375000000000000        0.0000000000000000     
  0.43750000000000000       0.84375000000000000        0.0000000000000000     
  0.46875000000000000       0.84375000000000000        0.0000000000000000     
  0.50000000000000000       0.84375000000000000        0.0000000000000000     
  0.37500000000000000       0.87500000000000000        0.0000000000000000     
  0.40625000000000000       0.87500000000000000        0.0000000000000000     
  0.43750000000000000       0.87500000000000000        0.0000000000000000     
  0.46875000000000000       0.87500000000000000        0.0000000000000000     
  0.50000000000000000       0.87500000000000000        0.0000000000000000     
  0.50000000000000000       0.75000000000000000        0.0000000000000000     
  0.53125000000000000       0.75000000000000000        0.0000000000000000     
  0.56250000000000000       0.75000000000000000        0.0000000000000000     
  0.59375000000000000       0.75000000000000000        0.0000000000000000     
  0.62500000000000000       0.75000000000000000        0.0000000000000000     
  0.50000000000000000       0.78125000000000000        0.0000000000000000     
  0.53125000000000000       0.78125000000000000        0.0000000000000000     
  0.56250000000000000       0.78125000000000000        0.0000000000000000     
  0.59375000000000000       0.78125000000000000        0.0000000000000000     
  0.62500000000000000       0.78125000000000000        0.0000000000000000     
  0.50000000000000000       0.81250000000000000        0.0000000000000000     
  0.53125000000000000       0.81250000000000000        0.0000000000000000     
  0.56250000000000000       0.81250000000000000        0.0000000000000000     
  0.59375000000000000       0.81250000000000000        0.0000000000000000     
  0.62500000000000000       0.81250000000000000        0.0000000000000000     
  0.50000000000000000       0.84375000000000000        0.0000000000000000     
  0.53125000000000000       0.84375000000000000        0.0000000000000000     
  0.56250000000000000       0.84375000000000000        0.0000000000000000     
  0.59375000000000000       0.84375000000000000        0.0000000000000000     
  0.62500000000000000       0.84375000000000000        0.0000000000000000     
  0.50000000000000000       0.87500000000000000        0.0000000000000000     
  0.53125000000000000       0.87500000000000000        0.0000000000000000     
  0.56250000000000000       0.87500000000000000        0.0000000000000000     
  0.59375000000000000       0.87500000000000000        0.0000000000000000     
  0.62500000000000000       0.87500000000000000        0.0000000000000000     
  0.62500000000000000       0.75000000000000000        0.0000000000000000     
  0.65625000000000000       0.75000000000000000        0.0000000000000000     
  0.68750000000000000       0.75000000000000000        0.0000000000000000     
  0.71875000000000000       0.75000000000000000        0.0000000000000000     
  0.75000000000000000       0.75000000000000000        0.0000000000000000     
  0.62500000000000000       0.78125000000000000        0.0000000000000000     
  0.65625000000000000       0.78125000000000000        0.0000000000000000     
  0.68750000000000000       0.78125000000000000        0.0000000000000000     
  0.71875000000000000       0.78125000000000000        0.0000000000000000     
  0.75000000000000000       0.78125000000000000        0.0000000000000000     
  0.62500000000000000       0.81250000000000000        0.0000000000000000     
  0.65625000000000000       0.81250000000000000        0.0000000000000000     
  0.68750000000000000       0.81250000000000000        0.0000000000000000     
  0.71875000000000000       0.81250000000000000        0.0000000000000000     
  0.75000000000000000       0.81250000000000000        0.0000000000000000     
  0.62500000000000000       0.84375000000000000        0.0000000000000000     
  0.65625000000000000       0.84375000000000000        0.0000000000000000     
  0.68750000000000000       0.84375000000000000        0.0000000000000000     
  0.71875000000000000       0.84375000000000000        0.0000000000000000     
  0.75000000000000000       0.84375000000000000        0.0000000000000000     
  0.62500000000000000       0.87500000000000000        0.0000000000000000     
  0.65625000000000000       0.87500000000000000        0.0000000000000000     
  0.68750000000000000       0.87500000000000000        0.0000000000000000     
  0.71875000000000000       0.87500000000000000        0.0000000000000000     
  0.75000000000000000       0.87500000000000000        0.0000000000000000     
  0.75000000000000000       0.75000000000000000        0.0000000000000000     
  0.78125000000000000       0.75000000000000000        0.0000000000000000     
  0.81250000000000000       0.75000000000000000        0.0000000000000000     
  0.84375000000000000       0.75000000000000000        0.0000000000000000     
  0.87500000000000000       0.75000000000000000        0.0000000000000000     
  0.75000000000000000       0.78125000000000000        0.0000000000000000     
  0.78125000000000000       0.78125000000000000        0.0000000000000000     
  0.81250000000000000       0.78125000000000000        0.0000000000000000     
  0.84375000000000000       0.78125000000000000        0.0000000000000000     
  0.87500000000000000       0.78125000000000000        0.0000000000000000     
  0.75000000000000000       0.81250000000000000        0.0000000000000000     
  0.78125000000000000       0.81250000000000000        0.0000000000000000     
  0.81250000000000000       0.81250000000000000        0.0000000000000000     
  0.84375000000000000       0.81250000000000000        0.0000000000000000     
  0.87500000000000000       0.81250000000000000        0.0000000000000000     
  0.75000000000000000       0.84375000000000000        0.0000000000000000     
  0.78125000000000000       0.84375000000000000        0.0000000000000000     
  0.81250000000000000       0.84375000000000000        0.0000000000000000     
  0.84375000000000000       0.84375000000000000        0.0000000000000000     
  0.87500000000000000       0.84375000000000000        0.0000000000000000     
  0.75000000000000000       0.87500000000000000        0.0000000000000000     
  0.78125000000000000       0.87500000000000000        0.0000000000000000     
  0.81250000000000000       0.87500000000000000        0.0000000000000000     
  0.84375000000000000       0.87500000000000000        0.0000000000000000     
  0.87500000000000000       0.87500000000000000        0.0000000000000000     
  0.87500000000000000       0.75000000000000000        0.0000000000000000     
  0.90625000000000000       0.75000000000000000        0.0000000000000000     
  0.93750000000000000       0.75000000000000000        0.0000000000000000     
  0.96875000000000000       0.75000000000000000        0.0000000000000000     
   1.0000000000000000       0.75000000000000000        0.0000000000000000     
  0.87500000000000000       0.78125000000000000        0.0000000000000000     
  0.90625000000000000       0.78125000000000000        0.0000000000000000     
  0.93750000000000000       0.78125000000000000        0.0000000000000000     
  0.96875000000000000       0.78125000000000000        0.0000000000000000     
   1.0000000000000000       0.78125000000000000        0.0000000000000000     
  0.87500000000000000       0.81250000000000000        0.0000000000000000     
  0.90625000000000000       0.81250000000000000        0.0000000000000000     
  0.93750000000000000       0.81250000000000000        0.0000000000000000     
  0.96875000000000000       0.81250000000000000        0.0000000000000000     
   1.0000000000000000       0.81250000000000000        0.0000000000000000     
  0.87500000000000000       0.84375000000000000        0.0000000000000000     
  0.90625000000000000       0.84375000000000000        0.0000000000000000     
  0.93750000000000000       0.84375000000000000        0.0000000000000000     
  0.96875000000000000       0.84375000000000000        0.0000000000000000     
   1.0000000000000000       0.84375000000000000        0.0000000000000000     
  0.87500000000000000       0.87500000000000000        0.0000000000000000     
  0.90625000000000000       0.87500000000000000        0.0000000000000000     
  0.93750000000000000       0.87500000000000000        0.0000000000000000     
  0.96875000000000000       0.87500000000000000        0.0000000000000000     
   1.0000000000000000       0.87500000000000000        0.0000000000000000     
   0.0000000000000000       0.87500000000000000        0.0000000000000000     
   3.1250000000000000E-002  0.87500000000000000        0.0000000000000000     
   6.2500000000000000E-002  0.87500000000000000        0.0000000000000000     
   9.3750000000000000E-002  0.87500000000000000        0.0000000000000000     
  0.12500000000000000       0.87500000000000000        0.0000000000000000     
   0.0000000000000000       0.90625000000000000        0.0000000000000000     
   3.1250000000000000E-002  0.90625000000000000        0.0000000000000000     
   6.2500000000000000E-002  0.90625000000000000        0.0000000000000000     
   9.3750000000000000E-002  0.90625000000000000        0.0000000000000000     
  0.12500000000000000       0.90625000000000000        0.0000000000000000     
   0.0000000000000000       0.93750000000000000        0.0000000000000000     
   3.1250000000000000E-002  0.93750000000000000        0.0000000000000000     
   6.2500000000000000E-002  0.93750000000000000        0.0000000000000000     
   9.3750000000000000E-002  0.93750000000000000        0.0000000000000000     
  0.12500000000000000       0.93750000000000000        0.0000000000000000     
   0.0000000000000000       0.96875000000000000        0.0000000000000000     
   3.1250000000000000E-002  0.96875000000000000        0.0000000000000000     
   6.2500000000000000E-002  0.96875000000000000        0.0000000000000000     
   9.3750000000000000E-002  0.96875000000000000        0.0000000000000000     
  0.12500000000000000       0.96875000000000000        0.0000000000000000     
   0.0000000000000000        1.0000000000000000        0.0000000000000000     
   3.1250000000000000E-002   1.0000000000000000        0.0000000000000000     
   6.2500000000000000E-002   1.0000000000000000        0.0000000000000000     
   9.3750000000000000E-002   1.0000000000000000        0.0000000000000000     
  0.12500000000000000        1.0000000000000000        0.0000000000000000     
  0.12500000000000000       0.87500000000000000        0.0000000000000000     
  0.15625000000000000       0.87500000000000000        0.0000000000000000     
  0.18750000000000000       0.87500000000000000        0.0000000000000000     
  0.21875000000000000       0.87500000000000000        0.0000000000000000     
  0.25000000000000000       0.87500000000000000        0.0000000000000000     
  0.12500000000000000       0.90625000000000000        0.0000000000000000     
  0.15625000000000000       0.90625000000000000        0.0000000000000000     
  0.18750000000000000       0.90625000000000000        0.0000000000000000     
  0.21875000000000000       0.90625000000000000        0.0000000000000000     
  0.25000000000000000       0.90625000000000000        0.0000000000000000     
  0.12500000000000000       0.93750000000000000        0.0000000000000000     
  0.15625000000000000       0.93750000000000000        0.0000000000000000     
  0.18750000000000000       0.93750000000000000        0.0000000000000000     
  0.21875000000000000       0.93750000000000000        0.0000000000000000     
  0.25000000000000000       0.93750000000000000        0.0000000000000000     
  0.12500000000000000       0.96875000000000000        0.0000000000000000     
  0.15625000000000000       0.96875000000000000        0.0000000000000000     
  0.18750000000000000       0.96875000000000000        0.0000000000000000     
  0.21875000000000000       0.96875000000000000        0.0000000000000000     
  0.25000000000000000       0.96875000000000000        0.0000000000000000     
  0.12500000000000000        1.0000000000000000        0.0000000000000000     
  0.15625000000000000        1.0000000000000000        0.0000000000000000     
  0.18750000000000000        1.0000000000000000        0.0000000000000000     
  0.21875000000000000        1.0000000000000000        0.0000000000000000     
  0.25000000000000000        1.0000000000000000        0.0000000000000000     
  0.25000000000000000       0.87500000000000000        0.0000000000000000     
  0.28125000000000000       0.87500000000000000        0.0000000000000000     
  0.31250000000000000       0.87500000000000000        0.0000000000000000     
  0.34375000000000000       0.87500000000000000        0.0000000000000000     
  0.37500000000000000       0.87500000000000000        0.0000000000000000     
  0.25000000000000000       0.90625000000000000        0.0000000000000000     
  0.28125000000000000       0.90625000000000000        0.0000000000000000     
  0.31250000000000000       0.90625000000000000        0.0000000000000000     
  0.34375000000000000       0.90625000000000000        0.0000000000000000     
  0.37500000000000000       0.90625000000000000        0.0000000000000000     
  0.25000000000000000       0.93750000000000000        0.0000000000000000     
  0.28125000000000000       0.93750000000000000        0.0000000000000000     
  0.31250000000000000       0.93750000000000000        0.0000000000000000     
  0.34375000000000000       0.93750000000000000        0.0000000000000000     
  0.37500000000000000       0.93750000000000000        0.0000000000000000     
  0.25000000000000000       0.96875000000000000        0.0000000000000000     
  0.28125000000000000       0.96875000000000000        0.0000000000000000     
  0.31250000000000000       0.96875000000000000        0.0000000000000000     
  0.34375000000000000       0.96875000000000000        0.0000000000000000     
  0.37500000000000000       0.96875000000000000        0.0000000000000000     
  0.25000000000000000        1.0000000000000000        0.0000000000000000     
  0.28125000000000000        1.0000000000000000        0.0000000000000000     
  0.31250000000000000        1.0000000000000000        0.0000000000000000     
  0.34375000000000000        1.0000000000000000        0.0000000000000000     
  0.37500000000000000        1.0000000000000000        0.0000000000000000     
  0.37500000000000000       0.87500000000000000        0.0000000000000000     
  0.40625000000000000       0.87500000000000000        0.0000000000000000     
  0.43750000000000000       0.87500000000000000        0.0000000000000000     
  0.46875000000000000       0.87500000000000000        0.0000000000000000     
  0.50000000000000000       0.87500000000000000        0.0000000000000000     
  0.37500000000000000       0.90625000000000000        0.0000000000000000     
  0.40625000000000000       0.90625000000000000        0.0000000000000000     
  0.43750000000000000       0.90625000000000000        0.0000000000000000     
  0.46875000000000000       0.90625000000000000        0.0000000000000000     
  0.50000000000000000       0.90625000000000000        0.0000000000000000     
  0.37500000000000000       0.93750000000000000        0.0000000000000000     
  0.40625000000000000       0.93750000000000000        0.0000000000000000     
  0.43750000000000000       0.93750000000000000        0.0000000000000000     
  0.46875000000000000       0.93750000000000000        0.0000000000000000     
  0.50000000000000000       0.93750000000000000        0.0000000000000000     
  0.37500000000000000       0.96875000000000000        0.0000000000000000     
  0.40625000000000000       0.96875000000000000        0.0000000000000000     
  0.43750000000000000       0.96875000000000000        0.0000000000000000     
  0.46875000000000000       0.96875000000000000        0.0000000000000000     
  0.50000000000000000       0.96875000000000000        0.0000000000000000     
  0.37500000000000000        1.0000000000000000        0.0000000000000000     
  0.40625000000000000        1.0000000000000000        0.0000000000000000     
  0.43750000000000000        1.0000000000000000        0.0000000000000000     
  0.46875000000000000        1.0000000000000000        0.0000000000000000     
  0.50000000000000000        1.0000000000000000        0.0000000000000000     
  0.50000000000000000       0.87500000000000000        0.0000000000000000     
  0.53125000000000000       0.87500000000000000        0.0000000000000000     
  0.56250000000000000       0.87500000000000000        0.0000000000000000     
  0.59375000000000000       0.87500000000000000        0.0000000000000000     
  0.62500000000000000       0.87500000000000000        0.0000000000000000     
  0.50000000000000000       0.90625000000000000        0.0000000000000000     
  0.53125000000000000       0.90625000000000000        0.0000000000000000     
  0.56250000000000000       0.90625000000000000        0.0000000000000000     
  0.59375000000000000       0.90625000000000000        0.0000000000000000     
  0.62500000000000000       0.90625000000000000        0.0000000000000000     
  0.50000000000000000       0.93750000000000000        0.0000000000000000     
  0.53125000000000000       0.93750000000000000        0.0000000000000000     
  0.56250000000000000       0.93750000000000000        0.0000000000000000     
  0.59375000000000000       0.93750000000000000        0.0000000000000000     
  0.62500000000000000       0.93750000000000000        0.0000000000000000     
  0.50000000000000000       0.96875000000000000        0.0000000000000000     
  0.53125000000000000       0.96875000000000000        0.0000000000000000     
  0.56250000000000000       0.96875000000000000        0.0000000000000000     
  0.59375000000000000       0.96875000000000000        0.0000000000000000     
  0.62500000000000000       0.96875000000000000        0.0000000000000000     
  0.50000000000000000        1.0000000000000000        0.0000000000000000     
  0.53125000000000000        1.0000000000000000        0.0000000000000000     
  0.56250000000000000        1.0000000000000000        0.0000000000000000     
  0.59375000000000000        1.0000000000000000        0.0000000000000000     
  0.62500000000000000        1.0000000000000000        0.0000000000000000     
  0.62500000000000000       0.87500000000000000        0.0000000000000000     
  0.65625000000000000       0.87500000000000000        0.0000000000000000     
  0.68750000000000000       0.87500000000000000        0.0000000000000000     
  0.71875000000000000       0.87500000000000000        0.0000000000000000     
  0.75000000000000000       0.87500000000000000        0.0000000000000000     
  0.62500000000000000       0.90625000000000000        0.0000000000000000     
  0.65625000000000000       0.90625000000000000        0.0000000000000000     
  0.68750000000000000       0.90625000000000000        0.0000000000000000     
  0.71875000000000000       0.90625000000000000        0.0000000000000000     
  0.75000000000000000       0.90625000000000000        0.0000000000000000     
  0.62500000000000000       0.93750000000000000        0.0000000000000000     
  0.65625000000000000       0.93750000000000000        0.0000000000000000     
  0.68750000000000000       0.93750000000000000        0.0000000000000000     
  0.71875000000000000       0.93750000000000000        0.0000000000000000     
  0.75000000000000000       0.93750000000000000        0.0000000000000000     
  0.62500000000000000       0.96875000000000000        0.0000000000000000     
  0.65625000000000000       0.96875000000000000        0.0000000000000000     
  0.68750000000000000       0.96875000000000000        0.0000000000000000     
  0.71875000000000000       0.96875000000000000        0.0000000000000000     
  0.75000000000000000       0.96875000000000000        0.0000000000000000     
  0.62500000000000000        1.0000000000000000        0.0000000000000000     
  0.65625000000000000        1.0000000000000000        0.0000000000000000     
  0.68750000000000000        1.0000000000000000        0.0000000000000000     
  0.71875000000000000        1.0000000000000000        0.0000000000000000     
  0.75000000000000000        1.0000000000000000        0.0000000000000000     
  0.75000000000000000       0.87500000000000000        0.0000000000000000     
  0.78125000000000000       0.87500000000000000        0.0000000000000000     
  0.81250000000000000       0.87500000000000000        0.0000000000000000     
  0.84375000000000000       0.87500000000000000        0.0000000000000000     
  0.87500000000000000       0.87500000000000000        0.0000000000000000     
  0.75000000000000000       0.90625000000000000        0.0000000000000000     
  0.78125000000000000       0.90625000000000000        0.0000000000000000     
  0.81250000000000000       0.90625000000000000        0.0000000000000000     
  0.84375000000000000       0.90625000000000000        0.0000000000000000     
  0.87500000000000000       0.90625000000000000        0.0000000000000000     
  0.75000000000000000       0.93750000000000000        0.0000000000000000     
  0.78125000000000000       0.93750000000000000        0.0000000000000000     
  0.81250000000000000       0.93750000000000000        0.0000000000000000     
  0.84375000000000000       0.93750000000000000        0.0000000000000000     
  0.87500000000000000       0.93750000000000000        0.0000000000000000     
  0.75000000000000000       0.96875000000000000        0.0000000000000000     
  0.78125000000000000       0.96875000000000000        0.0000000000000000     
  0.81250000000000000       0.96875000000000000        0.0000000000000000     
  0.84375000000000000       0.96875000000000000        0.0000000000000000     
  0.87500000000000000       0.96875000000000000        0.0000000000000000     
  0.75000000000000000        1.0000000000000000        0.0000000000000000     
  0.78125000000000000        1.0000000000000000        0.0000000000000000     
  0.81250000000000000        1.0000000000000000        0.0000000000000000     
  0.84375000000000000        1.0000000000000000        0.0000000000000000     
  0.87500000000000000        1.0000000000000000        0.0000000000000000     
  0.87500000000000000       0.87500000000000000        0.0000000000000000     
  0.90625000000000000       0.87500000000000000        0.0000000000000000     
  0.93750000000000000       0.87500000000000000        0.0000000000000000     
  0.96875000000000000       0.87500000000000000        0.0000000000000000     
   1.0000000000000000       0.87500000000000000        0.0000000000000000     
  0.87500000000000000       0.90625000000000000        0.0000000000000000     
  0.90625000000000000       0.90625000000000000        0.0000000000000000     
  0.93750000000000000       0.90625000000000000        0.0000000000000000     
  0.96875000000000000       0.90625000000000000        0.0000000000000000     
   1.0000000000000000       0.90625000000000000        0.0000000000000000     
  0.87500000000000000       0.93750000000000000        0.0000000000000000     
  0.90625000000000000       0.93750000000000000        0.0000000000000000     
  0.93750000000000000       0.93750000000000000        0.0000000000000000     
  0.96875000000000000       0.93750000000000000        0.0000000000000000     
   1.0000000000000000       0.93750000000000000        0.0000000000000000     
  0.87500000000000000       0.96875000000000000        0.0000000000000000     
  0.90625000000000000       0.96875000000000000        0.0000000000000000     
  0.93750000000000000       0.96875000000000000        0.0000000000000000     
  0.96875000000000000       0.96875000000000000        0.0000000000000000     
   1.0000000000000000       0.96875000000000000        0.0000000000000000     
  0.87500000000000000        1.0000000000000000        0.0000000000000000     
  0.90625000000000000        1.0000000000000000        0.0000000000000000     
  0.93750000000000000        1.0000000000000000        0.0000000000000000     
  0.96875000000000000        1.0000000000000000        0.0000000000000000     
   1.0000000000000000        1.0000000000000000        0.0000000000000000     
 </DataArray>
 </Points>
 <Cells>
 <DataArray  type="Int32"  Name="connectivity"  format="ascii">
           0           1           6           5
           1           2           7           6
           2           3           8           7
           3           4           9           8
           5           6          11          10
           6           7          12          11
           7           8          13          12
           8           9          14          13
          10          11          16          15
          11          12          17          16
          12          13          18          17
          13          14          19          18
          15          16          21          20
          16          17          22          21
          17          18          23          22
          18          19          24          23
          25          26          31          30
          26          27          32          31
          27          28          33          32
          28          29          34          33
          30          31          36          35
          31          32          37          36
          32          33          38          37
          33          34          39          38
          35          36          41          40
          36          37          42          41
          37          38          43          42
          38          39          44          43
          40          41          46          45
          41          42          47          46
          42          43          48          47
          43          44          49          48
          50          51          56          55
          51          52          57          56
          52          53          58          57
          53          54          59          58
          55          56          61          60
          56          57          62          61
          57          58          63          62
          58          59          64          63
          60          61          66          65
          61          62          67          66
          62          63          68          67
          63          64          69          68
          65          66          71          70
          66          67          72          71
          67          68          73          72
          68          69          74          73
          75          76          81          80
          76          77          82          81
          77          78          83          82
          78          79          84          83
          80          81          86          85
          81          82          87          86
          82          83          88          87
          83          84          89          88
          85          86          91          90
          86          87          92          91
          87          88          93          92
          88          89          94          93
          90          91          96          95
          91          92          97          96
          92          93          98          97
          93          94          99          98
         100         101         106         105
         101         102         107         106
         102         103         108         107
         103         104         109         108
         105         106         111         110
         106         107         112         111
         107         108         113         112
         108         109         114         113
         110         111         116         115
         111         112         117         116
         112         113         118         117
         113         114         119         118
         115         116         121         120
         116         117         122         121
         117         118         123         122
         118         119         124         123
         125         126         131         130
         126         127         132         131
         127         128         133         132
         128         129         134         133
         130         131         136         135
         131         132         137         136
         132         133         138         137
         133         134         139         138
         135         136         141         140
         136         137         142         141
         137         138         143         142
         138         139         144         143
         140         141         146         145
         141         142         147         146
         142         143         148         147
         143         144         149         148
         150         151         156         155
         151         152         157         156
         152         153         158         157
         153         154         159         158
         155         156         161         160
         156         157         162         161
         157         158         163         162
         158         159         164         163
         160         161         166         165
         161         162         167         166
         162         163         168         167
         163         164         169         168
         165         166         171         170
         166         167         172         171
         167         168         173         172
         168         169         174         173
         175         176         181         180
         176         177         182         181
         177         178         183         182
         178         179         184         183
         180         181         186         185
         181         182         187         186
         182         183         188         187
         183         184         189         188
         185         186         191         190
         186         187         192         191
         187         188         193         192
         188         189         194         193
         190         191         196         195
         191         192         197         196
         192         193         198         197
         193         194         199         198
         200         201         206         205
         201         202         207         206
         202         203         208         207
         203         204         209         208
         205         206         211         210
         206         207         212         211
         207         208         213         212
         208         209         214         213
         210         211         216         215
         211         212         217         216
         212         213         218         217
         213         214         219         218
         215         216         221         220
         216         217         222         221
         217         218         223         222
         218         219         224         223
         225         226         231         230
         226         227         232         231
         227         228         233         232
         228         229         234         233
         230         231         236         235
         231         232         237         236
         232         233         238         237
         233         234         239         238
         235         236         241         240
         236         237         242         241
         237         238         243         242
         238         239         244         243
         240         241         246         245
         241         242         247         246
         242         243         248         247
         243         244         249         248
         250         251         256         255
         251         252         257         256
         252         253         258         257
         253         254         259         258
         255         256         261         260
         256         257         262         261
         257         258         263         262
         258         259         264         263
         260         261         266         265
         261         262         267         266
         262         263         268         267
         263         264         269         268
         265         266         271         270
         266         267         272         271
         267         268         273         272
         268         269         274         273
         275         276         281         280
         276         277         282         281
         277         278         283         282
         278         279         284         283
         280         281         286         285
         281         282         287         286
         282         283         288         287
         283         284         289         288
         285         286         291         290
         286         287         292         291
         287         288         293         292
         288         289         294         293
         290         291         296         295
         291         292         297         296
         292         293         298         297
         293         294         299         298
         300         301         306         305
         301         302         307         306
         302         303         308         307
         303         304         309         308
         305         306         311         310
         306         307         312         311
         307         308         313         312
         308         309         314         313
         310         311         316         315
         311         312         317         316
         312         313         318         317
         313         314         319         318
         315         316         321         320
         316         317         322         321
         317         318         323         322
         318         319         324         323
         325         326         331         330
         326         327         332         331
         327         328         333         332
         328         329         334         333
         330         331         336         335
         331         332         337         336
         332         333         338         337
         333         334         339         338
         335         336         341         340
         336         337         342         341
         337         338         343         342
         338         339         344         343
         340         341         346         345
         341         342         347         346
         342         343         348         347
         343         344         349         348
         350         351         356         355
         351         352         357         356
         352         353         358         357
         353         354         359         358
         355         356         361         360
         356         357         362         361
         357         358         363         362
         358         359         364         363
         360         361         366         365
         361         362         367         366
         362         363         368         367
         363         364         369         368
         365         366         371         370
         366         367         372         371
         367         368         373         372
         368         369         374         373
         375         376         381         380
         376         377         382         381
         377         378         383         382
         378         379         384         383
         380         381         386         385
         381         382         387         386
         382         383         388         387
         383         384         389         388
         385         386         391         390
         386         387         392         391
         387         388         393         392
         388         389         394         393
         390         391         396         395
         391         392         397         396
         392         393         398         397
         393         394         399         398
         400         401         406         405
         401         402         407         406
         402         403         408         407
         403         404         409         408
         405         406         411         410
         406         407         412         411
         407         408         413         412
         408         409         414         413
         410         411         416         415
         411         412         417         416
         412         413         418         417
         413         414         419         418
         415         416         421         420
         416         417         422         421
         417         418         423         422
         418         419         424         423
         425         426         431         430
         426         427         432         431
         427         428         433         432
         428         429         434         433
         430         431         436         435
         431         432         437         436
         432         433         438         437
         433         434         439         438
         435         436         441         440
         436         437         442         441
         437         438         443         442
         438         439         444         443
         440         441         446         445
         441         442         447         446
         442         443         448         447
         443         444         449         448
         450         451         456         455
         451         452         457         456
         452         453         458         457
         453         454         459         458
         455         456         461         460
         456         457         462         461
         457         458         463         462
         458         459         464         463
         460         461         466         465
         461         462         467         466
         462         463         468         467
         463         464         469         468
         465         466         471         470
         466         467         472         471
         467         468         473         472
         468         469         474         473
         475         476         481         480
         476         477         482         481
         477         478         483         482
         478         479         484         483
         480         481         486         485
         481         482         487         486
         482         483         488         487
         483         484         489         488
         485         486         491         490
         486         487         492         491
         487         488         493         492
         488         489         494         493
         490         491         496         495
         491         492         497         496
         492         493         498         497
         493         494         499         498
         500         501         506         505
         501         502         507         506
         502         503         508         507
         503         504         509         508
         505         506         511         510
         506         507         512         511
         507         508         513         512
         508         509         514         513
         510         511         516         515
         511         512         517         516
         512         513         518         517
         513         514         519         518
         515         516         521         520
         516         517         522         521
         517         518         523         522
         518         519         524         523
         525         526         531         530
         526         527         532         531
         527         528         533         532
         528         529         534         533
         530         531         536         535
         531         532         537         536
         532         533         538         537
         533         534         539         538
         535         536         541         540
         536         537         542         541
         537         538         543         542
         538         539         544         543
         540         541         546         545
         541         542         547         546
         542         543         548         547
         543         544         549         548
         550         551         556         555
         551         552         557         556
         552         553         558         557
         553         554         559         558
         555         556         561         560
         556         557         562         561
         557         558         563         562
         558         559         564         563
         560         561         566         565
         561         562         567         566
         562         563         568         567
         563         564         569         568
         565         566         571         570
         566         567         572         571
         567         568         573         572
         568         569         574         573
         575         576         581         580
         576         577         582         581
         577         578         583         582
         578         579         584         583
         580         581         586         585
         581         582         587         586
         582         583         588         587
         583         584         589         588
         585         586         591         590
         586         587         592         591
         587         588         593         592
         588         589         594         593
         590         591         596         595
         591         592         597         596
         592         593         598         597
         593         594         599         598
         600         601         606         605
         601         602         607         606
         602         603         608         607
         603         604         609         608
         605         606         611         610
         606         607         612         611
         607         608         613         612
         608         609         614         613
         610         611         616         615
         611         612         617         616
         612         613         618         617
         613         614         619         618
         615         616         621         620
         616         617         622         621
         617         618         623         622
         618         619         624         623
         625         626         631         630
         626         627         632         631
         627         628         633         632
         628         629         634         633
         630         631         636         635
         631         632         637         636
         632         633         638         637
         633         634         639         638
         635         636         641         640
         636         637         642         641
         637         638         643         642
         638         639         644         643
         640         641         646         645
         641         642         647         646
         642         643         648         647
         643         644         649         648
         650         651         656         655
         651         652         657         656
         652         653         658         657
         653         654         659         658
         655         656         661         660
         656         657         662         661
         657         658         663         662
         658         659         664         663
         660         661         666         665
         661         662         667         666
         662         663         668         667
         663         664         669         668
         665         666         671         670
         666         667         672         671
         667         668         673         672
         668         669         674         673
         675         676         681         680
         676         677         682         681
         677         678         683         682
         678         679         684         683
         680         681         686         685
         681         682         687         686
         682         683         688         687
         683         684         689         688
         685         686         691         690
         686         687         692         691
         687         688         693         692
         688         689         694         693
         690         691         696         695
         691         692         697         696
         692         693         698         697
         693         694         699         698
         700         701         706         705
         701         702         707         706
         702         703         708         707
         703         704         709         708
         705         706         711         710
         706         707         712         711
         707         708         713         712
         708         709         714         713
         710         711         716         715
         711         712         717         716
         712         713         718         717
         713         714         719         718
         715         716         721         720
         716         717         722         721
         717         718         723         722
         718         719         724         723
         725         726         731         730
         726         727         732         731
         727         728         733         732
         728         729         734         733
         730         731         736         735
         731         732         737         736
         732         733         738         737
         733         734         739         738
         735         736         741         740
         736         737         742         741
         737         738         743         742
         738         739         744         743
         740         741         746         745
         741         742         747         746
         742         743         748         747
         743         744         749         748
         750         751         756         755
         751         752         757         756
         752         753         758         757
         753         754         759         758
         755         756         761         760
         756         757         762         761
         757         758         763         762
         758         759         764         763
         760         761         766         765
         761         762         767         766
         762         763         768         767
         763         764         769         768
         765         766         771         770
         766         767         772         771
         767         768         773         772
         768         769         774         773
         775         776         781         780
         776         777         782         781
         777         778         783         782
         778         779         784         783
         780         781         786         785
         781         782         787         786
         782         783         788         787
         783         784         789         788
         785         786         791         790
         786         787         792         791
         787         788         793         792
         788         789         794         793
         790         791         796         795
         791         792         797         796
         792         793         798         797
         793         794         799         798
         800         801         806         805
         801         802         807         806
         802         803         808         807
         803         804         809         808
         805         806         811         810
         806         807         812         811
         807         808         813         812
         808         809         814         813
         810         811         816         815
         811         812         817         816
         812         813         818         817
         813         814         819         818
         815         816         821         820
         816         817         822         821
         817         818         823         822
         818         819         824         823
         825         826         831         830
         826         827         832         831
         827         828         833         832
         828         829         834         833
         830         831         836         835
         831         832         837         836
         832         833         838         837
         833         834         839         838
         835         836         841         840
         836         837         842         841
         837         838         843         842
         838         839         844         843
         840         841         846         845
         841         842         847         846
         842         843         848         847
         843         844         849         848
         850         851         856         855
         851         852         857         856
         852         853         858         857
         853         854         859         858
         855         856         861         860
         856         857         862         861
         857         858         863         862
         858         859         864         863
         860         861         866         865
         861         862         867         866
         862         863         868         867
         863         864         869         868
         865         866         871         870
         866         867         872         871
         867         868         873         872
         868         869         874         873
         875         876         881         880
         876         877         882         881
         877         878         883         882
         878         879         884         883
         880         881         886         885
         881         882         887         886
         882         883         888         887
         883         884         889         888
         885         886         891         890
         886         887         892         891
         887         888         893         892
         888         889         894         893
         890         891         896         895
         891         892         897         896
         892         893         898         897
         893         894         899         898
         900         901         906         905
         901         902         907         906
         902         903         908         907
         903         904         909         908
         905         906         911         910
         906         907         912         911
         907         908         913         912
         908         909         914         913
         910         911         916         915
         911         912         917         916
         912         913         918         917
         913         914         919         918
         915         916         921         920
         916         917         922         921
         917         918         923         922
         918         919         924         923
         925         926         931         930
         926         927         932         931
         927         928         933         932
         928         929         934         933
         930         931         936         935
         931         932         937         936
         932         933         938         937
         933         934         939         938
         935         936         941         940
         936         937         942         941
         937         938         943         942
         938         939         944         943
         940         941         946         945
         941         942         947         946
         942         943         948         947
         943         944         949         948
         950         951         956         955
         951         952         957         956
         952         953         958         957
         953         954         959         958
         955         956         961         960
         956         957         962         961
         957         958         963         962
         958         959         964         963
         960         961         966         965
         961         962         967         966
         962         963         968         967
         963         964         969         968
         965         966         971         970
         966         967         972         971
         967         968         973         972
         968         969         974         973
         975         976         981         980
         976         977         982         981
         977         978         983         982
         978         979         984         983
         980         981         986         985
         981         982         987         986
         982         983         988         987
         983         984         989         988
         985         986         991         990
         986         987         992         991
         987         988         993         992
         988         989         994         993
         990         991         996         995
         991         992         997         996
         992         993         998         997
         993         994         999         998
        1000        1001        1006        1005
        1001        1002        1007        1006
        1002        1003        1008        1007
        1003        1004        1009        1008
        1005        1006        1011        1010
        1006        1007        1012        1011
        1007        1008        1013        1012
        1008        1009        1014        1013
        1010        1011        1016        1015
        1011        1012        1017        1016
        1012        1013        1018        1017
        1013        1014        1019        1018
        1015        1016        1021        1020
        1016        1017        1022        1021
        1017        1018        1023        1022
        1018        1019        1024        1023
        1025        1026        1031        1030
        1026        1027        1032        1031
        1027        1028        1033        1032
        1028        1029        1034        1033
        1030        1031        1036        1035
        1031        1032        1037        1036
        1032        1033        1038        1037
        1033        1034        1039        1038
        1035        1036        1041        1040
        1036        1037        1042        1041
        1037        1038        1043        1042
        1038        1039        1044        1043
        1040        1041        1046        1045
        1041        1042        1047        1046
        1042        1043        1048        1047
        1043        1044        1049        1048
        1050        1051        1056        1055
        1051        1052        1057        1056
        1052        1053        1058        1057
        1053        1054        1059        1058
        1055        1056        1061        1060
        1056        1057        1062        1061
        1057        1058        1063        1062
        1058        1059        1064        1063
        1060        1061        1066        1065
        1061        1062        1067        1066
        1062        1063        1068        1067
        1063        1064        1069        1068
        1065        1066        1071        1070
        1066        1067        1072        1071
        1067        1068        1073        1072
        1068        1069        1074        1073
        1075        1076        1081        1080
        1076        1077        1082        1081
        1077        1078        1083        1082
        1078        1079        1084        1083
        1080        1081        1086        1085
        1081        1082        1087        1086
        1082        1083        1088        1087
        1083        1084        1089        1088
        1085        1086        1091        1090
        1086        1087        1092        1091
        1087        1088        1093        1092
        1088        1089        1094        1093
        1090        1091        1096        1095
        1091        1092        1097        1096
        1092        1093        1098        1097
        1093        1094        1099        1098
        1100        1101        1106        1105
        1101        1102        1107        1106
        1102        1103        1108        1107
        1103        1104        1109        1108
        1105        1106        1111        1110
        1106        1107        1112        1111
        1107        1108        1113        1112
        1108        1109        1114        1113
        1110        1111        1116        1115
        1111        1112        1117        1116
        1112        1113        1118        1117
        1113        1114        1119        1118
        1115        1116        1121        1120
        1116        1117        1122        1121
        1117        1118        1123        1122
        1118        1119        1124        1123
        1125        1126        1131        1130
        1126        1127        1132        1131
        1127        1128        1133        1132
        1128        1129        1134        1133
        1130        1131        1136        1135
        1131        1132        1137        1136
        1132        1133        1138        1137
        1133        1134        1139        1138
        1135        1136        1141        1140
        1136        1137        1142        1141
        1137        1138        1143        1142
        1138        1139        1144        1143
        1140        1141        1146        1145
        1141        1142        1147        1146
        1142        1143        1148        1147
        1143        1144        1149        1148
        1150        1151        1156        1155
        1151        1152        1157        1156
        1152        1153        1158        1157
        1153        1154        1159        1158
        1155        1156        1161        1160
        1156        1157        1162        1161
        1157        1158        1163        1162
        1158        1159        1164        1163
        1160        1161        1166        1165
        1161        1162        1167        1166
        1162        1163        1168        1167
        1163        1164        1169        1168
        1165        1166        1171        1170
        1166        1167        1172        1171
        1167        1168        1173        1172
        1168        1169        1174        1173
        1175        1176        1181        1180
        1176        1177        1182        1181
        1177        1178        1183        1182
        1178        1179        1184        1183
        1180        1181        1186        1185
        1181        1182        1187        1186
        1182        1183        1188        1187
        1183        1184        1189        1188
        1185        1186        1191        1190
        1186        1187        1192        1191
        1187        1188        1193        1192
        1188        1189        1194        1193
        1190        1191        1196        1195
        1191        1192        1197        1196
        1192        1193        1198        1197
        1193        1194        1199        1198
        1200        1201        1206        1205
        1201        1202        1207        1206
        1202        1203        1208        1207
        1203        1204        1209        1208
        1205        1206        1211        1210
        1206        1207        1212        1211
        1207        1208        1213        1212
        1208        1209        1214        1213
        1210        1211        1216        1215
        1211        1212        1217        1216
        1212        1213        1218        1217
        1213        1214        1219        1218
        1215        1216        1221        1220
        1216        1217        1222        1221
        1217        1218        1223        1222
        1218        1219        1224        1223
        1225        1226        1231        1230
        1226        1227        1232        1231
        1227        1228        1233        1232
        1228        1229        1234        1233
        1230        1231        1236        1235
        1231        1232        1237        1236
        1232        1233        1238        1237
        1233        1234        1239        1238
        1235        1236        1241        1240
        1236        1237        1242        1241
        1237        1238        1243        1242
        1238        1239        1244        1243
        1240        1241        1246        1245
        1241        1242        1247        1246
        1242        1243        1248        1247
        1243        1244        1249        1248
        1250        1251        1256        1255
        1251        1252        1257        1256
        1252        1253        1258        1257
        1253        1254        1259        1258
        1255        1256        1261        1260
        1256        1257        1262        1261
        1257        1258        1263        1262
        1258        1259        1264        1263
        1260        1261        1266        1265
        1261        1262        1267        1266
        1262        1263        1268        1267
        1263        1264        1269        1268
        1265        1266        1271        1270
        1266        1267        1272        1271
        1267        1268        1273        1272
        1268        1269        1274        1273
        1275        1276        1281        1280
        1276        1277        1282        1281
        1277        1278        1283        1282
        1278        1279        1284        1283
        1280        1281        1286        1285
        1281        1282        1287        1286
        1282        1283        1288        1287
        1283        1284        1289        1288
        1285        1286        1291        1290
        1286        1287        1292        1291
        1287        1288        1293        1292
        1288        1289        1294        1293
        1290        1291        1296        1295
        1291        1292        1297        1296
        1292        1293        1298        1297
        1293        1294        1299        1298
        1300        1301        1306        1305
        1301        1302        1307        1306
        1302        1303        1308        1307
        1303        1304        1309        1308
        1305        1306        1311        1310
        1306        1307        1312        1311
        1307        1308        1313        1312
        1308        1309        1314        1313
        1310        1311        1316        1315
        1311        1312        1317        1316
        1312        1313        1318        1317
        1313        1314        1319        1318
        1315        1316        1321        1320
        1316        1317        1322        1321
        1317        1318        1323        1322
        1318        1319        1324        1323
        1325        1326        1331        1330
        1326        1327        1332        1331
        1327        1328        1333        1332
        1328        1329        1334        1333
        1330        1331        1336        1335
        1331        1332        1337        1336
        1332        1333        1338        1337
        1333        1334        1339        1338
        1335        1336        1341        1340
        1336        1337        1342        1341
        1337        1338        1343        1342
        1338        1339        1344        1343
        1340        1341        1346        1345
        1341        1342        1347        1346
        1342        1343        1348        1347
        1343        1344        1349        1348
        1350        1351        1356        1355
        1351        1352        1357        1356
        1352        1353        1358        1357
        1353        1354        1359        1358
        1355        1356        1361        1360
        1356        1357        1362        1361
        1357        1358        1363        1362
        1358        1359        1364        1363
        1360        1361        1366        1365
        1361        1362        1367        1366
        1362        1363        1368        1367
        1363        1364        1369        1368
        1365        1366        1371        1370
        1366        1367        1372        1371
        1367        1368        1373        1372
        1368        1369        1374        1373
        1375        1376        1381        1380
        1376        1377        1382        1381
        1377        1378        1383        1382
        1378        1379        1384        1383
        1380        1381        1386        1385
        1381        1382        1387        1386
        1382        1383        1388        1387
        1383        1384        1389        1388
        1385        1386        1391        1390
        1386        1387        1392        1391
        1387        1388        1393        1392
        1388        1389        1394        1393
        1390        1391        1396        1395
        1391        1392        1397        1396
        1392        1393        1398        1397
        1393        1394        1399        1398
        1400        1401        1406        1405
        1401        1402        1407        1406
        1402        1403        1408        1407
        1403        1404        1409        1408
        1405        1406        1411        1410
        1406        1407        1412        1411
        1407        1408        1413        1412
        1408        1409        1414        1413
        1410        1411        1416        1415
        1411        1412        1417        1416
        1412        1413        1418        1417
        1413        1414        1419        1418
        1415        1416        1421        1420
        1416        1417        1422        1421
        1417        1418        1423        1422
        1418        1419        1424        1423
        1425        1426        1431        1430
        1426        1427        1432        1431
        1427        1428        1433        1432
        1428        1429        1434        1433
        1430        1431        1436        1435
        1431        1432        1437        1436
        1432        1433        1438        1437
        1433        1434        1439        1438
        1435        1436        1441        1440
        1436        1437        1442        1441
        1437        1438        1443        1442
        1438        1439        1444        1443
        1440        1441        1446        1445
        1441        1442        1447        1446
        1442        1443        1448        1447
        1443        1444        1449        1448
        1450        1451        1456        1455
        1451        1452        1457        1456
        1452        1453        1458        1457
        1453        1454        1459        1458
        1455        1456        1461        1460
        1456        1457        1462        1461
        1457        1458        1463        1462
        1458        1459        1464        1463
        1460        1461        1466        1465
        1461        1462        1467        1466
        1462        1463        1468        1467
        1463        1464        1469        1468
        1465        1466        1471        1470
        1466        1467        1472        1471
        1467        1468        1473        1472
        1468        1469        1474        1473
        1475        1476        1481        1480
        1476        1477        1482        1481
        1477        1478        1483        1482
        1478        1479        1484        1483
        1480        1481        1486        1485
        1481        1482        1487        1486
        1482        1483        1488        1487
        1483        1484        1489        1488
        1485        1486        1491        1490
        1486        1487        1492        1491
        1487        1488        1493        1492
        1488        1489        1494        1493
        1490        1491        1496        1495
        1491        1492        1497        1496
        1492        1493        1498        1497
        1493        1494        1499        1498
        1500        1501        1506        1505
        1501        1502        1507        1506
        1502        1503        1508        1507
        1503        1504        1509        1508
        1505        1506        1511        1510
        1506        1507        1512        1511
        1507        1508        1513        1512
        1508        1509        1514        1513
        1510        1511        1516        1515
        1511        1512        1517        1516
        1512        1513        1518        1517
        1513        1514        1519        1518
        1515        1516        1521        1520
        1516        1517        1522        1521
        1517        1518        1523        1522
        1518        1519        1524        1523
        1525        1526        1531        1530
        1526        1527        1532        1531
        1527        1528        1533        1532
        1528        1529        1534        1533
        1530        1531        1536        1535
        1531        1532        1537        1536
        1532        1533        1538        1537
        1533        1534        1539        1538
        1535        1536        1541        1540
        1536        1537        1542        1541
        1537        1538        1543        1542
        1538        1539        1544        1543
        1540        1541        1546        1545
        1541        1542        1547        1546
        1542        1543        1548        1547
        1543        1544        1549        1548
        1550        1551        1556        1555
        1551        1552        1557        1556
        1552        1553        1558        1557
        1553        1554        1559        1558
        1555        1556        1561        1560
        1556        1557        1562        1561
        1557        1558        1563        1562
        1558        1559        1564        1563
        1560        1561        1566        1565
        1561        1562        1567        1566
        1562        1563        1568        1567
        1563        1564        1569        1568
        1565        1566        1571        1570
        1566        1567        1572        1571
        1567        1568        1573        1572
        1568        1569        1574        1573
        1575        1576        1581        1580
        1576        1577        1582        1581
        1577        1578        1583        1582
        1578        1579        1584        1583
        1580        1581        1586        1585
        1581        1582        1587        1586
        1582        1583        1588        1587
        1583        1584        1589        1588
        1585        1586        1591        1590
        1586        1587        1592        1591
        1587        1588        1593        1592
        1588        1589        1594        1593
        1590        1591        1596        1595
        1591        1592        1597        1596
        1592        1593        1598        1597
        1593        1594        1599        1598
 </DataArray>
 <DataArray  type="Int32"  Name="offsets"  format="ascii"> 
           4
           8
          12
          16
          20
          24
          28
          32
          36
          40
          44
          48
          52
          56
          60
          64
          68
          72
          76
          80
          84
          88
          92
          96
         100
         104
         108
         112
         116
         120
         124
         128
         132
         136
         140
         144
         148
         152
         156
         160
         164
         168
         172
         176
         180
         184
         188
         192
         196
         200
         204
         208
         212
         216
         220
         224
         228
         232
         236
         240
         244
         248
         252
         256
         260
         264
         268
         272
         276
         280
         284
         288
         292
         296
         300
         304
         308
         312
         316
         320
         324
         328
         332
         336
         340
         344
         348
         352
         356
         360
         364
         368
         372
         376
         380
         384
         388
         392
         396
         400
         404
         408
         412
         416
         420
         424
         428
         432
         436
         440
         444
         448
         452
         456
         460
         464
         468
         472
         476
         480
         484
         488
         492
         496
         500
         504
         508
         512
         516
         520
         524
         528
         532
         536
         540
         544
         548
         552
         556
         560
         564
         568
         572
         576
         580
         584
         588
         592
         596
         600
         604
         608
         612
         616
         620
         624
         628
         632
         636
         640
         644
         648
         652
         656
         660
         664
         668
         672
         676
         680
         684
         688
         692
         696
         700
         704
         708
         712
         716
         720
         724
         728
         732
         736
         740
         744
         748
         752
         756
         760
         764
         768
         772
         776
         780
         784
         788
         792
         796
         800
         804
         808
         812
         816
         820
         824
         828
         832
         836
         840
         844
         848
         852
         856
         860
         864
         868
         872
         876
         880
         884
         888
         892
         896
         900
         904
         908
         912
         916
         920
         924
         928
         932
         936
         940
         944
         948
         952
         956
         960
         964
         968
         972
         976
         980
         984
         988
         992
         996
        1000
        1004
        1008
        1012
        1016
        1020
        1024
        1028
        1032
        1036
        1040
        1044
        1048
        1052
        1056
        1060
        1064
        1068
        1072
        1076
        1080
        1084
        1088
        1092
        1096
        1100
        1104
        1108
        1112
        1116
        1120
        1124
        1128
        1132
        1136
        1140
        1144
        1148
        1152
        1156
        1160
        1164
        1168
        1172
        1176
        1180
        1184
        1188
        1192
        1196
        1200
        1204
        1208
        1212
        1216
        1220
        1224
        1228
        1232
        1236
        1240
        1244
        1248
        1252
        1256
        1260
        1264
        1268
        1272
        1276
        1280
        1284
        1288
        1292
        1296
        1300
        1304
        1308
        1312
        1316
        1320
        1324
        1328
        1332
        1336
        1340
        1344
        1348
        1352
        1356
        1360
        1364
        1368
        1372
        1376
        1380
        1384
        1388
        1392
        1396
        1400
        1404
        1408
        1412
        1416
        1420
        1424
        1428
        1432
        1436
        1440
        1444
        1448
        1452
        1456
        1460
        1464
        1468
        1472
        1476
        1480
        1484
        1488
        1492
        1496
        1500
        1504
        1508
        1512
        1516
        1520
        1524
        1528
        1532
        1536
        1540
        1544
        1548
        1552
        1556
        1560
        1564
        1568
        1572
        1576
        1580
        1584
        1588
        1592
        1596
        1600
        1604
        1608
        1612
        1616
        1620
        1624
        1628
        1632
        1636
        1640
        1644
        1648
        1652
        1656
        1660
        1664
        1668
        1672
        1676
        1680
        1684
        1688
        1692
        1696
        1700
        1704
        1708
        1712
        1716
        1720
        1724
        1728
        1732
        1736
        1740
        1744
        1748
        1752
        1756
        1760
        1764
        1768
        1772
        1776
        1780
        1784
        1788
        1792
        1796
        1800
        1804
        1808
        1812
        1816
        1820
        1824
        1828
        1832
        1836
        1840
        1844
        1848
        1852
        1856
        1860
        1864
        1868
        1872
        1876
        1880
        1884
        1888
        1892
        1896
        1900
        1904
        1908
        1912
        1916
        1920
        1924
        1928
        1932
        1936
        1940
        1944
        1948
        1952
        1956
        1960
        1964
        1968
        1972
        1976
        1980
        1984
        1988
        1992
        1996
        2000
        2004
        2008
        2012
        2016
        2020
        2024
        2028
        2032
        2036
        2040
        2044
        2048
        2052
        2056
        2060
        2064
        2068
        2072
        2076
        2080
        2084
        2088
        2092
        2096
        2100
        2104
        2108
        2112
        2116
        2120
        2124
        2128
        2132
        2136
        2140
        2144
        2148
        2152
        2156
        2160
        2164
        2168
        2172
        2176
        2180
        2184
        2188
        2192
        2196
        2200
        2204
        2208
        2212
        2216
        2220
        2224
        2228
        2232
        2236
        2240
        2244
        2248
        2252
        2256
        2260
        2264
        2268
        2272
        2276
        2280
        2284
        2288
        2292
        2296
        2300
        2304
        2308
        2312
        2316
        2320
        2324
        2328
        2332
        2336
        2340
        2344
        2348
        2352
        2356
        2360
        2364
        2368
        2372
        2376
        2380
        2384
        2388
        2392
        2396
        2400
        2404
        2408
        2412
        2416
        2420
        2424
        2428
        2432
        2436
        2440
        2444
        2448
        2452
        2456
        2460
        2464
        2468
        2472
        2476
        2480
        2484
        2488
        2492
        2496
        2500
        2504
        2508
        2512
        2516
        2520
        2524
        2528
        2532
        2536
        2540
        2544
        2548
        2552
        2556
        2560
        2564
        2568
        2572
        2576
        2580
        2584
        2588
        2592
        2596
        2600
        2604
        2608
        2612
        2616
        2620
        2624
        2628
        2632
        2636
        2640
        2644
        2648
        2652
        2656
        2660
        2664
        2668
        2672
        2676
        2680
        2684
        2688
        2692
        2696
        2700
        2704
        2708
        2712
        2716
        2720
        2724
        2728
        2732
        2736
        2740
        2744
        2748
        2752
        2756
        2760
        2764
        2768
        2772
        2776
        2780
        2784
        2788
        2792
        2796
        2800
        2804
        2808
        2812
        2816
        2820
        2824
        2828
        2832
        2836
        2840
        2844
        2848
        2852
        2856
        2860
        2864
        2868
        2872
        2876
        2880
        2884
        2888
        2892
        2896
        2900
        2904
        2908
        2912
        2916
        2920
        2924
        2928
        2932
        2936
        2940
        2944
        2948
        2952
        2956
        2960
        2964
        2968
        2972
        2976
        2980
        2984
        2988
        2992
        2996
        3000
        3004
        3008
        3012
        3016
        3020
        3024
        3028
        3032
        3036
        3040
        3044
        3048
        3052
        3056
        3060
        3064
        3068
        3072
        3076
        3080
        3084
        3088
        3092
        3096
        3100
        3104
        3108
        3112
        3116
        3120
        3124
        3128
        3132
        3136
        3140
        3144
        3148
        3152
        3156
        3160
        3164
        3168
        3172
        3176
        3180
        3184
        3188
        3192
        3196
        3200
        3204
        3208
        3212
        3216
        3220
        3224
        3228
        3232
        3236
        3240
        3244
        3248
        3252
        3256
        3260
        3264
        3268
        3272
        3276
        3280
        3284
        3288
        3292
        3296
        3300
        3304
        3308
        3312
        3316
        3320
        3324
        3328
        3332
        3336
        3340
        3344
        3348
        3352
        3356
        3360
        3364
        3368
        3372
        3376
        3380
        3384
        3388
        3392
        3396
        3400
        3404
        3408
        3412
        3416
        3420
        3424
        3428
        3432
        3436
        3440
        3444
        3448
        3452
        3456
        3460
        3464
        3468
        3472
        3476
        3480
        3484
        3488
        3492
        3496
        3500
        3504
        3508
        3512
        3516
        3520
        3524
        3528
        3532
        3536
        3540
        3544
        3548
        3552
        3556
        3560
        3564
        3568
        3572
        3576
        3580
        3584
        3588
        3592
        3596
        3600
        3604
        3608
        3612
        3616
        3620
        3624
        3628
        3632
        3636
        3640
        3644
        3648
        3652
        3656
        3660
        3664
        3668
        3672
        3676
        3680
        3684
        3688
        3692
        3696
        3700
        3704
        3708
        3712
        3716
        3720
        3724
        3728
        3732
        3736
        3740
        3744
        3748
        3752
        3756
        3760
        3764
        3768
        3772
        3776
        3780
        3784
        3788
        3792
        3796
        3800
        3804
        3808
        3812
        3816
        3820
        3824
        3828
        3832
        3836
        3840
        3844
        3848
        3852
        3856
        3860
        3864
        3868
        3872
        3876
        3880
        3884
        3888
        3892
        3896
        3900
        3904
        3908
        3912
        3916
        3920
        3924
        3928
        3932
        3936
        3940
        3944
        3948
        3952
        3956
        3960
        3964
        3968
        3972
        3976
        3980
        3984
        3988
        3992
        3996
        4000
        4004
        4008
        4012
        4016
        4020
        4024
        4028
        4032
        4036
        4040
        4044
        4048
        4052
        4056
        4060
        4064
        4068
        4072
        4076
        4080
        4084
        4088
        4092
        4096
 </DataArray>
 <DataArray  type="UInt8"  Name="types"  format="ascii">
 9
 9
 9
 9
 9
 9
 9
 9
 9
 9
 9
 9
 9
 9
 9
 9
 9
 9
 9
 9
 9
 9
 9
 9
 9
 9
 9
 9
 9
 9
 9
 9
 9
 9
 9
 9
 9
 9
 9
 9
 9
 9
 9
 9
 9
 9
 9
 9
 9
 9
 9
 9
 9
 9
 9
 9
 9
 9
 9
 9
 9
 9
 9
 9
 9
 9
 9
 9
 9
 9
 9
 9
 9
 9
 9
 9
 9
 9
 9
 9
 9
 9
 9
 9
 9
 9
 9
 9
 9
 9
 9
 9
 9
 9
 9
 9
 9
 9
 9
 9
 9
 9
 9
 9
 9
 9
 9
 9
 9
 9
 9
 9
 9
 9
 9
 9
 9
 9
 9
 9
 9
 9
 9
 9
 9
 9
 9
 9
 9
 9
 9
 9
 9
 9
 9
 9
 9
 9
 9
 9
 9
 9
 9
 9
 9
 9
 9
 9
 9
 9
 9
 9
 9
 9
 9
 9
 9
 9
 9
 9
 9
 9
 9
 9
 9
 9
 9
 9
 9
 9
 9
 9
 9
 9
 9
 9
 9
 9
 9
 9
 9
 9
 9
 9
 9
 9
 9
 9
 9
 9
 9
 9
 9
 9
 9
 9
 9
 9
 9
 9
 9
 9
 9
 9
 9
 9
 9
 9
 9
 9
 9
 9
 9
 9
 9
 9
 9
 9
 9
 9
 9
 9
 9
 9
 9
 9
 9
 9
 9
 9
 9
 9
 9
 9
 9
 9
 9
 9
 9
 9
 9
 9
 9
 9
 9
 9
 9
 9
 9
 9
 9
 9
 9
 9
 9
 9
 9
 9
 9
 9
 9
 9
 9
 9
 9
 9
 9
 9
 9
 9
 9
 9
 9
 9
 9
 9
 9
 9
 9
 9
 9
 9
 9
 9
 9
 9
 9
 9
 9
 9
 9
 9
 9
 9
 9
 9
 9
 9
 9
 9
 9
 9
 9
 9
 9
 9
 9
 9
 9
 9
 9
 9
 9
 9
 9
 9
 9
 9
 9
 9
 9
 9
 9
 9
 9
 9
 9
 9
 9
 9
 9
 9
 9
 9
 9
 9
 9
 9
 9
 9
 9
 9
 9
 9
 9
 9
 9
 9
 9
 9
 9
 9
 9
 9
 9
 9
 9
 9
 9
 9
 9
 9
 9
 9
 9
 9
 9
 9
 9
 9
 9
 9
 9
 9
 9
 9
 9
 9
 9
 9
 9
 9
 9
 9
 9
 9
 9
 9
 9
 9
 9
 9
 9
 9
 9
 9
 9
 9
 9
 9
 9
 9
 9
 9
 9
 9
 9
 9
 9
 9
 9
 9
 9
 9
 9
 9
 9
 9
 9
 9
 9
 9
 9
 9
 9
 9
 9
 9
 9
 9
 9
 9
 9
 9
 9
 9
 9
 9
 9
 9
 9
 9
 9
 9
 9
 9
 9
 9
 9
 9
 9
 9
 9
 9
 9
 9
 9
 9
 9
 9
 9
 9
 9
 9
 9
 9
 9
 9
 9
 9
 9
 9
 9
 9
 9
 9
 9
 9
 9
 9
 9
 9
 9
 9
 9
 9
 9
 9
 9
 9
 9
 9
 9
 9
 9
 9
 9
 9
 9
 9
 9
 9
 9
 9
 9
 9
 9
 9
 9
 9
 9
 9
 9
 9
 9
 9
 9
 9
 9
 9
 9
 9
 9
 9
 9
 9
 9
 9
 9
 9
 9
 9
 9
 9
 9
 9
 9
 9
 9
 9
 9
 9
 9
 9
 9
 9
 9
 9
 9
 9
 9
 9
 9
 9
 9
 9
 9
 9
 9
 9
 9
 9
 9
 9
 9
 9
 9
 9
 9
 9
 9
 9
 9
 9
 9
 9
 9
 9
 9
 9
 9
 9
 9
 9
 9
 9
 9
 9
 9
 9
 9
 9
 9
 9
 9
 9
 9
 9
 9
 9
 9
 9
 9
 9
 9
 9
 9
 9
 9
 9
 9
 9
 9
 9
 9
 9
 9
 9
 9
 9
 9
 9
 9
 9
 9
 9
 9
 9
 9
 9
 9
 9
 9
 9
 9
 9
 9
 9
 9
 9
 9
 9
 9
 9
 9
 9
 9
 9
 9
 9
 9
 9
 9
 9
 9
 9
 9
 9
 9
 9
 9
 9
 9
 9
 9
 9
 9
 9
 9
 9
 9
 9
 9
 9
 9
 9
 9
 9
 9
 9
 9
 9
 9
 9
 9
 9
 9
 9
 9
 9
 9
 9
 9
 9
 9
 9
 9
 9
 9
 9
 9
 9
 9
 9
 9
 9
 9
 9
 9
 9
 9
 9
 9
 9
 9
 9
 9
 9
 9
 9
 9
 9
 9
 9
 9
 9
 9
 9
 9
 9
 9
 9
 9
 9
 9
 9
 9
 9
 9
 9
 9
 9
 9
 9
 9
 9
 9
 9
 9
 9
 9
 9
 9
 9
 9
 9
 9
 9
 9
 9
 9
 9
 9
 9
 9
 9
 9
 9
 9
 9
 9
 9
 9
 9
 9
 9
 9
 9
 9
 9
 9
 9
 9
 9
 9
 9
 9
 9
 9
 9
 9
 9
 9
 9
 9
 9
 9
 9
 9
 9
 9
 9
 9
 9
 9
 9
 9
 9
 9
 9
 9
 9
 9
 9
 9
 9
 9
 9
 9
 9
 9
 9
 9
 9
 9
 9
 9
 9
 9
 9
 9
 9
 9
 9
 9
 9
 9
 9
 9
 9
 9
 9
 9
 9
 9
 9
 9
 9
 9
 9
 9
 9
 9
 9
 9
 9
 9
 9
 9
 9
 9
 9
 9
 9
 9
 9
 9
 9
 9
 9
 9
 9
 9
 9
 9
 9
 9
 9
 9
 9
 9
 9
 9
 9
 9
 9
 9
 9
 9
 9
 9
 9
 9
 9
 9
 9
 9
 9
 9
 9
 9
 9
 9
 9
 9
 9
 9
 9
 9
 9
 9
 9
 9
 9
 9
 9
 9
 9
 9
 9
 9
 9
 9
 9
 9
 9
 9
 9
 9
 9
 9
 9
 9
 9
 9
 9
 9
 9
 9
 9
 9
 9
 9
 9
 9
 9
 9
 9
 9
 9
 9
 9
 9
 9
 9
 9
 9
 9
 9
 9
 9
 9
 9
 9
 9
 9
 9
 9
 9
 9
 9
 9
 9
 9
 9
 9
 9
 9
 9
 9
 9
 9
 9
 9
 9
 9
 9
 9
 9
 9
 9
 9
 9
 9
 9
 9
 9
 9
 9
 9
 9
 9
 9
 9
 9
 9
 9
 9
 9
 9
 9
 9
 9
 9
 9
 9
 9
 9
 9
 9
 9
 9
 9
 9
 </DataArray>
 </Cells> 
 <PointData>
 <DataArray  type="Float64" Name="disp" NumberOfComponents="3" format="ascii">
   0.0000000000000000        0.0000000000000000        0.0000000000000000     
   6.0959435661525211E-003   3.7903830154074497E-003   0.0000000000000000     
   1.1665973417686982E-002   7.3237817984229316E-003   0.0000000000000000     
   1.6710089554603378E-002   1.0600196349046445E-002   0.0000000000000000     
   2.1228291976901716E-002   1.3619626667277993E-002   0.0000000000000000     
   0.0000000000000000        0.0000000000000000        0.0000000000000000     
   4.8911453596525338E-003   3.0221333084511546E-003   0.0000000000000000     
   9.5736269024950856E-003   6.0605123729419574E-003   0.0000000000000000     
   1.4047444628527656E-002   9.1151371934724071E-003   0.0000000000000000     
   1.8312598537750243E-002   1.2186007770042502E-002   0.0000000000000000     
   0.0000000000000000        0.0000000000000000        0.0000000000000000     
   3.9535690243224777E-003   2.4251268415052714E-003   0.0000000000000000     
   7.9106266456542319E-003   5.0628974324666573E-003   0.0000000000000000     
   1.1871172863995260E-002   7.9133117728841587E-003   0.0000000000000000     
   1.5835207679345563E-002   1.0976369862757773E-002   0.0000000000000000     
   0.0000000000000000        0.0000000000000000        0.0000000000000000     
   3.2832145601623523E-003   1.9993636145697992E-003   0.0000000000000000     
   6.6769726471644147E-003   4.3309369769970324E-003   0.0000000000000000     
   1.0181274261006188E-002   6.9947200872817004E-003   0.0000000000000000     
   1.3796119401687670E-002   9.9907129454238023E-003   0.0000000000000000     
   0.0000000000000000        0.0000000000000000        0.0000000000000000     
   2.8800819671721584E-003   1.7448436276447392E-003   0.0000000000000000     
   5.8726649070256383E-003   3.8646310065330843E-003   0.0000000000000000     
   8.9777488195604410E-003   6.3593621366650355E-003   0.0000000000000000     
   1.2195333704776564E-002   9.2290370180405923E-003   0.0000000000000000     
   2.1228291976901716E-002   1.3619626667277993E-002   0.0000000000000000     
   2.5433445489441358E-002   1.6612625119147757E-002   0.0000000000000000     
   2.9538414897081689E-002   1.9809744070685927E-002   0.0000000000000000     
   3.3543200199822702E-002   2.3210983521892499E-002   0.0000000000000000     
   3.7447801397664397E-002   2.6816343472767477E-002   0.0000000000000000     
   1.8312598537750243E-002   1.2186007770042502E-002   0.0000000000000000     
   2.2407300827093246E-002   1.5341465283801493E-002   0.0000000000000000     
   2.6369763693487050E-002   1.8649850915898634E-002   0.0000000000000000     
   3.0199987136931658E-002   2.2111164666333914E-002   0.0000000000000000     
   3.3897971157427070E-002   2.5725406535107340E-002   0.0000000000000000     
   1.5835207679345563E-002   1.0976369862757773E-002   0.0000000000000000     
   1.9730959430350213E-002   1.4210906416558056E-002   0.0000000000000000     
   2.3486656455654287E-002   1.7575756148755565E-002   0.0000000000000000     
   2.7102298755257784E-002   2.1070919059350303E-002   0.0000000000000000     
   3.0577886329160704E-002   2.4696395148342255E-002   0.0000000000000000     
   1.3796119401687670E-002   9.9907129454238023E-003   0.0000000000000000     
   1.7404421299212273E-002   1.3220948517417445E-002   0.0000000000000000     
   2.0889093183583410E-002   1.6587459769256730E-002   0.0000000000000000     
   2.4250135054801079E-002   2.0090246700941658E-002   0.0000000000000000     
   2.7487546912865278E-002   2.3729309312472236E-002   0.0000000000000000     
   1.2195333704776564E-002   9.2290370180405923E-003   0.0000000000000000     
   1.5427686433679420E-002   1.2371591586379658E-002   0.0000000000000000     
   1.8577073877274412E-002   1.5684961777402123E-002   0.0000000000000000     
   2.1643496035561545E-002   1.9169147591107997E-002   0.0000000000000000     
   2.4626952908540809E-002   2.2824149027497277E-002   0.0000000000000000     
   3.7447801397664397E-002   2.6816343472767477E-002   0.0000000000000000     
   4.1256558620511467E-002   3.0621309746649443E-002   0.0000000000000000     
   4.4973811998268616E-002   3.4621368166876991E-002   0.0000000000000000     
   4.8599561530935850E-002   3.8816518733450107E-002   0.0000000000000000     
   5.2133807218513163E-002   4.3206761446368813E-002   0.0000000000000000     
   3.3897971157427070E-002   2.5725406535107340E-002   0.0000000000000000     
   3.7486848818241297E-002   2.9521464475021159E-002   0.0000000000000000     
   4.0989753182642315E-002   3.3528226438877637E-002   0.0000000000000000     
   4.4406684250630143E-002   3.7745692426676761E-002   0.0000000000000000     
   4.7737642022204783E-002   4.2173862438418537E-002   0.0000000000000000     
   3.0577886329160704E-002   2.4696395148342255E-002   0.0000000000000000     
   3.3942787516579490E-002   2.8496747834501748E-002   0.0000000000000000     
   3.7226370656730588E-002   3.2516540536599088E-002   0.0000000000000000     
   4.0428635749614000E-002   3.6755773254634291E-002   0.0000000000000000     
   4.3549582795229740E-002   4.1214445988607337E-002   0.0000000000000000     
   2.7487546912865278E-002   2.3729309312472236E-002   0.0000000000000000     
   3.0624374715526054E-002   2.7547159825091219E-002   0.0000000000000000     
   3.3683664420533437E-002   3.1586310460041379E-002   0.0000000000000000     
   3.6665416027887421E-002   3.5846761217322706E-002   0.0000000000000000     
   3.9569629537588032E-002   4.0328512096935207E-002   0.0000000000000000     
   2.4626952908540809E-002   2.2824149027497277E-002   0.0000000000000000     
   2.7531610415080992E-002   2.6672700446789564E-002   0.0000000000000000     
   3.0361634474050860E-002   3.0737536209204473E-002   0.0000000000000000     
   3.3117025085450426E-002   3.5018656314741999E-002   0.0000000000000000     
   3.5797782249279667E-002   3.9516060763402146E-002   0.0000000000000000     
   5.2133807218513163E-002   4.3206761446368813E-002   0.0000000000000000     
   5.5573837703760384E-002   4.7796332436425788E-002   0.0000000000000000     
   5.8916941629437343E-002   5.2589467834413740E-002   0.0000000000000000     
   6.2163118995544046E-002   5.7586167640332669E-002   0.0000000000000000     
   6.5312369802080494E-002   6.2786431854182576E-002   0.0000000000000000     
   4.7737642022204783E-002   4.2173862438418537E-002   0.0000000000000000     
   5.0978782381366473E-002   4.6806122791213309E-002   0.0000000000000000     
   5.4126261212115487E-002   5.1635859802171398E-002   0.0000000000000000     
   5.7180078514451796E-002   5.6663073471292819E-002   0.0000000000000000     
   6.0140234288375435E-002   6.1887763798577571E-002   0.0000000000000000     
   4.3549582795229740E-002   4.1214445988607337E-002   0.0000000000000000     
   4.6585410651160002E-002   4.5880057363678721E-002   0.0000000000000000     
   4.9532318174986989E-002   5.0740106005008945E-002   0.0000000000000000     
   5.2390305366710715E-002   5.5794591912598002E-002   0.0000000000000000     
   5.5159372226331188E-002   6.1043515086445892E-002   0.0000000000000000     
   3.9569629537588032E-002   4.0328512096935207E-002   0.0000000000000000     
   4.2393722513140941E-002   4.5018136153822046E-002   0.0000000000000000     
   4.5135112518051877E-002   4.9902206442926381E-002   0.0000000000000000     
   4.7793799552320812E-002   5.4980722964248219E-002   0.0000000000000000     
   5.0369783615947759E-002   6.0253685717787567E-002   0.0000000000000000     
   3.5797782249279667E-002   3.9516060763402146E-002   0.0000000000000000     
   3.8403717967309327E-002   4.4220359161643255E-002   0.0000000000000000     
   4.0934644241310124E-002   4.9122161115923706E-002   0.0000000000000000     
   4.3390561071282072E-002   5.4221466626243463E-002   0.0000000000000000     
   4.5771468457225142E-002   5.9518275692602554E-002   0.0000000000000000     
   6.5312369802080494E-002   6.2786431854182576E-002   0.0000000000000000     
   6.8367483407785867E-002   6.8177462544176823E-002   0.0000000000000000     
   7.1331249171399352E-002   7.3746461778528782E-002   0.0000000000000000     
   7.4203667092920977E-002   7.9493429557238454E-002   0.0000000000000000     
   7.6984737172350701E-002   8.5418365880305838E-002   0.0000000000000000     
   6.0140234288375435E-002   6.1887763798577571E-002   0.0000000000000000     
   6.3010300836203723E-002   6.7301297571212115E-002   0.0000000000000000     
   6.5793850460253989E-002   7.2895041576382963E-002   0.0000000000000000     
   6.8490883160526261E-002   7.8668995814090092E-002   0.0000000000000000     
   7.1101398937020527E-002   8.4623160284333504E-002   0.0000000000000000     
   5.5159372226331188E-002   6.1043515086445892E-002   0.0000000000000000     
   5.7843163899182426E-002   6.6480377183784189E-002   0.0000000000000000     
   6.0445325530598434E-002   7.2098679861844400E-002   0.0000000000000000     
   6.2965857120579241E-002   7.7898423120626586E-002   0.0000000000000000     
   6.5404758669124818E-002   8.3879606960130706E-002   0.0000000000000000     
   5.0369783615947759E-002   6.0253685717787567E-002   0.0000000000000000     
   5.2866072596721971E-002   6.5714701381892990E-002   0.0000000000000000     
   5.5285674382432669E-002   7.1357376634913122E-002   0.0000000000000000     
   5.7628588973079875E-002   7.7181711476847936E-002   0.0000000000000000     
   5.9894816368663568E-002   8.3187705907697460E-002   0.0000000000000000     
   4.5771468457225142E-002   5.9518275692602554E-002   0.0000000000000000     
   4.8079026928822356E-002   6.5004270165538572E-002   0.0000000000000000     
   5.0314897015756706E-002   7.0671131895589115E-002   0.0000000000000000     
   5.2479078718028184E-002   7.6518860882754169E-002   0.0000000000000000     
   5.4571572035636798E-002   8.2547457127033749E-002   0.0000000000000000     
   7.6984737172350701E-002   8.5418365880305838E-002   0.0000000000000000     
   7.9668904088919024E-002   9.1511459891079019E-002   0.0000000000000000     
   8.2250612521856406E-002   9.7762900732906111E-002   0.0000000000000000     
   8.4729862471162806E-002  0.10417268840578708        0.0000000000000000     
   8.7106653936838280E-002  0.11074082290972195        0.0000000000000000     
   7.1101398937020527E-002   8.4623160284333504E-002   0.0000000000000000     
   7.3620506173105463E-002   9.0746126403100091E-002   0.0000000000000000     
   7.6043313252149733E-002   9.7026485586376707E-002   0.0000000000000000     
   7.8369820174153365E-002  0.10346423783416338        0.0000000000000000     
   8.0600026939116332E-002  0.11005938314646010        0.0000000000000000     
   6.5404758669124818E-002   8.3879606960130706E-002   0.0000000000000000     
   6.7757793829070267E-002   9.0029956114340240E-002   0.0000000000000000     
   7.0020726253250662E-002   9.6337195317238528E-002   0.0000000000000000     
   7.2193555941666016E-002  0.10280132456882568        0.0000000000000000     
   7.4276282894316314E-002  0.10942234386910164        0.0000000000000000     
   5.9894816368663568E-002   8.3187705907697460E-002   0.0000000000000000     
   6.2080767056813459E-002   8.9362949024799451E-002   0.0000000000000000     
   6.4182851525159193E-002   9.5695029925491615E-002   0.0000000000000000     
   6.6201069773700758E-002  0.10218394860977402        0.0000000000000000     
   6.8135421802438201E-002  0.10882970507764664        0.0000000000000000     
   5.4571572035636798E-002   8.2547457127033749E-002   0.0000000000000000     
   5.6589425856335009E-002   8.8745105134477725E-002   0.0000000000000000     
   5.8529689067875285E-002   9.5099989411135927E-002   0.0000000000000000     
   6.0392361670257619E-002  0.10161210995700835        0.0000000000000000     
   6.2177443663482018E-002  0.10828146677209503        0.0000000000000000     
   8.7106653936838280E-002  0.11074082290972195        0.0000000000000000     
   8.9389081772705728E-002  0.11745493604158211        0.0000000000000000     
   9.1585240832588052E-002  0.12430265959823894        0.0000000000000000     
   9.3695131116485281E-002  0.13128399357969242        0.0000000000000000     
   9.5718752624397385E-002  0.13839893798594258        0.0000000000000000     
   8.0600026939116332E-002  0.11005938314646010        0.0000000000000000     
   8.2741991913804325E-002  0.11680032574810996        0.0000000000000000     
   8.4803773464983037E-002  0.12367546986395608        0.0000000000000000     
   8.6785371592652441E-002  0.13068481549399846        0.0000000000000000     
   8.8686786296812564E-002  0.13782836263823714        0.0000000000000000     
   7.4276282894316314E-002  0.10942234386910164        0.0000000000000000     
   7.6276518109838556E-002  0.11618904501773798        0.0000000000000000     
   7.8201872586869808E-002  0.12309021981440625        0.0000000000000000     
   8.0052346325410015E-002  0.13012586825910644        0.0000000000000000     
   8.1827939325459231E-002  0.13729599035183856        0.0000000000000000     
   6.8135421802438201E-002  0.10882970507764664        0.0000000000000000     
   6.9992660360808437E-002  0.11562109385046616        0.0000000000000000     
   7.1779538198248352E-002  0.12254690944958939        0.0000000000000000     
   7.3496055314758002E-002  0.12960715187501629        0.0000000000000000     
   7.5142211710337359E-002  0.13680182112674683        0.0000000000000000     
   6.2177443663482018E-002  0.10828146677209503        0.0000000000000000     
   6.3890418666713911E-002  0.11509647224629455        0.0000000000000000     
   6.5536770299118682E-002  0.12204553876950555        0.0000000000000000     
   6.7116498560696361E-002  0.12912866634172801        0.0000000000000000     
   6.8629603451446947E-002  0.13634585496296198        0.0000000000000000     
   9.5718752624397385E-002  0.13839893798594258        0.0000000000000000     
   9.7643004910704934E-002  0.14563518734901990        0.0000000000000000     
   9.9454787529788535E-002  0.15298043620095481        0.0000000000000000     
  0.10115410048164818       0.16043468454174736        0.0000000000000000     
  0.10274094376628383       0.16799793237139751        0.0000000000000000     
   8.8686786296812564E-002  0.13782836263823714        0.0000000000000000     
   9.0497197906972957E-002  0.14509294045024312        0.0000000000000000     
   9.2205786752643182E-002  0.15246537808358751        0.0000000000000000     
   9.3812552833823282E-002  0.15994567553827027        0.0000000000000000     
   9.5317496150513187E-002  0.16753383281429146        0.0000000000000000     
   8.1827939325459231E-002  0.13729599035183856        0.0000000000000000     
   8.3519536893690210E-002  0.14458705398569832        0.0000000000000000     
   8.5118024336775858E-002  0.15198552705378143        0.0000000000000000     
   8.6623401654716076E-002  0.15949140955608790        0.0000000000000000     
   8.8035668847510934E-002  0.16710470149261769        0.0000000000000000     
   7.5142211710337359E-002  0.13680182112674683        0.0000000000000000     
   7.6710021870856765E-002  0.14411752795538546        0.0000000000000000     
   7.8191500282186494E-002  0.15154088311153655        0.0000000000000000     
   7.9586646944326614E-002  0.15907188659520016        0.0000000000000000     
   8.0895461857277071E-002  0.16671053840637617        0.0000000000000000     
   6.8629603451446947E-002  0.13634585496296198        0.0000000000000000     
   7.0068652838472523E-002  0.14368436235930451        0.0000000000000000     
   7.1426214588875145E-002  0.15113144625685287        0.0000000000000000     
   7.2702288702654827E-002  0.15868710665560701        0.0000000000000000     
   7.3896875179811583E-002  0.16635134355556691        0.0000000000000000     
   0.0000000000000000        0.0000000000000000        0.0000000000000000     
   2.8800819671721584E-003   1.7448436276447392E-003   0.0000000000000000     
   5.8726649070256383E-003   3.8646310065330843E-003   0.0000000000000000     
   8.9777488195604410E-003   6.3593621366650355E-003   0.0000000000000000     
   1.2195333704776564E-002   9.2290370180405923E-003   0.0000000000000000     
   0.0000000000000000        0.0000000000000000        0.0000000000000000     
   2.6103316919596558E-003   1.5889192871509530E-003   0.0000000000000000     
   5.2897317359867566E-003   3.5566799547188913E-003   0.0000000000000000     
   8.0382001320813013E-003   5.9032820027038148E-003   0.0000000000000000     
   1.0855736880243293E-002   8.6287254311057243E-003   0.0000000000000000     
   0.0000000000000000        0.0000000000000000        0.0000000000000000     
   2.3401241811326044E-003   1.4589429995093036E-003   0.0000000000000000     
   4.7202014447966217E-003   3.2997842551985334E-003   0.0000000000000000     
   7.1402317909920535E-003   5.5225237670676903E-003   0.0000000000000000     
   9.6002152197188963E-003   8.1271615351167711E-003   0.0000000000000000     
   0.0000000000000000        0.0000000000000000        0.0000000000000000     
   2.0694594346910050E-003   1.3549147647197914E-003   0.0000000000000000     
   4.1640740334552371E-003   3.0939439079720119E-003   0.0000000000000000     
   6.2838437962926914E-003   5.2170874297566630E-003   0.0000000000000000     
   8.4287687232033753E-003   7.7243453300737432E-003   0.0000000000000000     
   0.0000000000000000        0.0000000000000000        0.0000000000000000     
   1.7983374526348572E-003   1.2768345827824158E-003   0.0000000000000000     
   3.6213495019625976E-003   2.9391589130393263E-003   0.0000000000000000     
   5.4690361479832229E-003   4.9869729907707321E-003   0.0000000000000000     
   7.3413973906967297E-003   7.4202768159766326E-003   0.0000000000000000     
   1.2195333704776564E-002   9.2290370180405923E-003   0.0000000000000000     
   1.5427686433679420E-002   1.2371591586379658E-002   0.0000000000000000     
   1.8577073877274412E-002   1.5684961777402123E-002   0.0000000000000000     
   2.1643496035561545E-002   1.9169147591107997E-002   0.0000000000000000     
   2.4626952908540809E-002   2.2824149027497277E-002   0.0000000000000000     
   1.0855736880243293E-002   8.6287254311057243E-003   0.0000000000000000     
   1.3689004747049554E-002   1.1650740502377429E-002   0.0000000000000000     
   1.6484666499076907E-002   1.4887057478971750E-002   0.0000000000000000     
   1.9242722136325347E-002   1.8337676360888684E-002   0.0000000000000000     
   2.1963171658794887E-002   2.2002597148128231E-002   0.0000000000000000     
   9.6002152197188963E-003   8.1271615351167711E-003   0.0000000000000000     
   1.2076626152620572E-002   1.1046300144343506E-002   0.0000000000000000     
   1.4545939011340499E-002   1.4212542179745619E-002   0.0000000000000000     
   1.7008153795878677E-002   1.7625887641323106E-002   0.0000000000000000     
   1.9463270506235107E-002   2.1286336529075970E-002   0.0000000000000000     
   8.4287687232033753E-003   7.7243453300737432E-003   0.0000000000000000     
   1.0590550650392478E-002   1.0558270512277887E-002   0.0000000000000000     
   1.2760891414065197E-002   1.3661415879723722E-002   0.0000000000000000     
   1.4939791014221526E-002   1.7033781432411264E-002   0.0000000000000000     
   1.7127249450861477E-002   2.0675367170340495E-002   0.0000000000000000     
   7.3413973906967297E-003   7.4202768159766326E-003   0.0000000000000000     
   9.2307782403652696E-003   1.0186651606180566E-002   0.0000000000000000     
   1.1129523707250991E-002   1.3233678578906071E-002   0.0000000000000000     
   1.3037633791353895E-002   1.6561357734153147E-002   0.0000000000000000     
   1.4955108492673980E-002   2.0169689071921796E-002   0.0000000000000000     
   2.4626952908540809E-002   2.2824149027497277E-002   0.0000000000000000     
   2.7531610415080992E-002   2.6672700446789564E-002   0.0000000000000000     
   3.0361634474050860E-002   3.0737536209204473E-002   0.0000000000000000     
   3.3117025085450426E-002   3.5018656314741999E-002   0.0000000000000000     
   3.5797782249279667E-002   3.9516060763402146E-002   0.0000000000000000     
   2.1963171658794887E-002   2.2002597148128231E-002   0.0000000000000000     
   2.4629466746626586E-002   2.5879867790027246E-002   0.0000000000000000     
   2.7225059079961519E-002   2.9967536235922583E-002   0.0000000000000000     
   2.9749948658799690E-002   3.4265602485814249E-002   0.0000000000000000     
   3.2204135483141098E-002   3.8774066539702223E-002   0.0000000000000000     
   1.9463270506235107E-002   2.1286336529075970E-002   0.0000000000000000     
   2.1882915841545125E-002   2.5175159945234737E-002   0.0000000000000000     
   2.4238716500944078E-002   2.9273628992029919E-002   0.0000000000000000     
   2.6530672484431955E-002   3.3581743669461518E-002   0.0000000000000000     
   2.8758783792008771E-002   3.8099503977529543E-002   0.0000000000000000     
   1.7127249450861477E-002   2.0675367170340495E-002   0.0000000000000000     
   1.9291957699836614E-002   2.4558576912412027E-002   0.0000000000000000     
   2.1402606736998529E-002   2.8655814477526461E-002   0.0000000000000000     
   2.3459196562347222E-002   3.2967079865683813E-002   0.0000000000000000     
   2.5461727175882694E-002   3.7492373076884064E-002   0.0000000000000000     
   1.4955108492673980E-002   2.0169689071921796E-002   0.0000000000000000     
   1.6856592321501045E-002   2.4030118691559122E-002   0.0000000000000000     
   1.8716729788124876E-002   2.8114092692412235E-002   0.0000000000000000     
   2.0535520892545484E-002   3.2421611074481139E-002   0.0000000000000000     
   2.2312965634762861E-002   3.6952673837765820E-002   0.0000000000000000     
   3.5797782249279667E-002   3.9516060763402146E-002   0.0000000000000000     
   3.8403717967309327E-002   4.4220359161643255E-002   0.0000000000000000     
   4.0934644241310124E-002   4.9122161115923706E-002   0.0000000000000000     
   4.3390561071282072E-002   5.4221466626243463E-002   0.0000000000000000     
   4.5771468457225142E-002   5.9518275692602554E-002   0.0000000000000000     
   3.2204135483141098E-002   3.8774066539702223E-002   0.0000000000000000     
   3.4589511335044058E-002   4.3488467556097705E-002   0.0000000000000000     
   3.6907967996566933E-002   4.8404344693511868E-002   0.0000000000000000     
   3.9159505467709681E-002   5.3521697951944683E-002   0.0000000000000000     
   4.1344123748472350E-002   5.8840527331396164E-002   0.0000000000000000     
   2.8758783792008771E-002   3.8099503977529543E-002   0.0000000000000000     
   3.0925216937724074E-002   4.2824202506140718E-002   0.0000000000000000     
   3.3032138435627446E-002   4.7753131845201788E-002   0.0000000000000000     
   3.5079548285718874E-002   5.2886291994712765E-002   0.0000000000000000     
   3.7067446487998375E-002   5.8223682954673631E-002   0.0000000000000000     
   2.5461727175882694E-002   3.7492373076884064E-002   0.0000000000000000     
   2.7410834775349370E-002   4.2227564011772280E-002   0.0000000000000000     
   2.9307155558491688E-002   4.7168522570993507E-002   0.0000000000000000     
   3.1150689525309631E-002   5.2315248754547718E-002   0.0000000000000000     
   3.2941436675803237E-002   5.7667742562434954E-002   0.0000000000000000     
   2.2312965634762861E-002   3.6952673837765820E-002   0.0000000000000000     
   2.4046364847919936E-002   4.1698552072992404E-002   0.0000000000000000     
   2.5733019365159641E-002   4.6650516870886984E-002   0.0000000000000000     
   2.7372929186481969E-002   5.1808568231449567E-002   0.0000000000000000     
   2.8966094311886920E-002   5.7172706154680140E-002   0.0000000000000000     
   4.5771468457225142E-002   5.9518275692602554E-002   0.0000000000000000     
   4.8079026928822356E-002   6.5004270165538572E-002   0.0000000000000000     
   5.0314897015756706E-002   7.0671131895589115E-002   0.0000000000000000     
   5.2479078718028184E-002   7.6518860882754169E-002   0.0000000000000000     
   5.4571572035636798E-002   8.2547457127033749E-002   0.0000000000000000     
   4.1344123748472350E-002   5.8840527331396164E-002   0.0000000000000000     
   4.3462046165579575E-002   6.4350062657396886E-002   0.0000000000000000     
   4.5513496045756038E-002   7.0039533755477418E-002   0.0000000000000000     
   4.7498473389001726E-002   7.5908940625637772E-002   0.0000000000000000     
   4.9416978195316673E-002   8.1958283267877935E-002   0.0000000000000000     
   3.7067446487998375E-002   5.8223682954673631E-002   0.0000000000000000     
   3.8995149577089584E-002   6.3753057980143898E-002   0.0000000000000000     
   4.0861974087616160E-002   6.9462170326183126E-002   0.0000000000000000     
   4.2667920019578101E-002   7.5351019992791257E-002   0.0000000000000000     
   4.4412987372975395E-002   8.1419606979968320E-002   0.0000000000000000     
   3.2941436675803237E-002   5.7667742562434954E-002   0.0000000000000000     
   3.4678337163352398E-002   6.3213256133779622E-002   0.0000000000000000     
   3.6360331141337077E-002   6.8939041607706170E-002   0.0000000000000000     
   3.7987418609757261E-002   7.4845098984214598E-002   0.0000000000000000     
   3.9559599568612956E-002   8.0931428263304919E-002   0.0000000000000000     
   2.8966094311886920E-002   5.7172706154680140E-002   0.0000000000000000     
   3.0511608924368022E-002   6.2730657118304056E-002   0.0000000000000000     
   3.2008567206918796E-002   6.8470147600046605E-002   0.0000000000000000     
   3.3456969159539239E-002   7.4391177599907848E-002   0.0000000000000000     
   3.4856814782229364E-002   8.0493747117887718E-002   0.0000000000000000     
   5.4571572035636798E-002   8.2547457127033749E-002   0.0000000000000000     
   5.6589425856335009E-002   8.8745105134477725E-002   0.0000000000000000     
   5.8529689067875285E-002   9.5099989411135927E-002   0.0000000000000000     
   6.0392361670257619E-002  0.10161210995700835        0.0000000000000000     
   6.2177443663482018E-002  0.10828146677209503        0.0000000000000000     
   4.9416978195316673E-002   8.1958283267877935E-002   0.0000000000000000     
   5.1266573727278379E-002   8.8176471111726398E-002   0.0000000000000000     
   5.3044823247464415E-002   9.4552413586711667E-002   0.0000000000000000     
   5.4751726755874773E-002  0.10108611069283373        0.0000000000000000     
   5.6387284252509426E-002  0.10777756243009257        0.0000000000000000     
   4.4412987372975395E-002   8.1419606979968320E-002   0.0000000000000000     
   4.6095014169287039E-002   8.7657093624896751E-002   0.0000000000000000     
   4.7711838429992041E-002   9.4052642264759026E-002   0.0000000000000000     
   4.9263460155090387E-002  0.10060625289955506        0.0000000000000000     
   5.0749879344582090E-002  0.10731792552928496        0.0000000000000000     
   3.9559599568612956E-002   8.0931428263304919E-002   0.0000000000000000     
   4.1074747182360982E-002   8.7186972673988797E-002   0.0000000000000000     
   4.2530734615458150E-002   9.3600675445277989E-002   0.0000000000000000     
   4.3927561867904502E-002  0.10017253657717246        0.0000000000000000     
   4.5265228939700003E-002  0.10690255606967222        0.0000000000000000     
   3.4856814782229364E-002   8.0493747117887718E-002   0.0000000000000000     
   3.6205772766500194E-002   8.6766108259002550E-002   0.0000000000000000     
   3.7501511803862769E-002   9.3196513128268571E-002   0.0000000000000000     
   3.8744031894317091E-002   9.9784961725685850E-002   0.0000000000000000     
   3.9933333037863158E-002  0.10653145405125432        0.0000000000000000     
   6.2177443663482018E-002  0.10828146677209503        0.0000000000000000     
   6.3890418666713911E-002  0.11509647224629455        0.0000000000000000     
   6.5536770299118682E-002  0.12204553876950555        0.0000000000000000     
   6.7116498560696361E-002  0.12912866634172801        0.0000000000000000     
   6.8629603451446947E-002  0.13634585496296198        0.0000000000000000     
   5.6387284252509426E-002  0.10777756243009257        0.0000000000000000     
   5.7955764250017895E-002  0.11461473575112509        0.0000000000000000     
   5.9461435261049647E-002  0.12158559760856809        0.0000000000000000     
   6.0904297285604682E-002  0.12869014800242165        0.0000000000000000     
   6.2284350323683006E-002  0.13592838693268566        0.0000000000000000     
   5.0749879344582090E-002  0.10731792552928496        0.0000000000000000     
   5.2174668333183266E-002  0.11417543991085974        0.0000000000000000     
   5.3541399455610060E-002  0.12116657580119045        0.0000000000000000     
   5.4850072711862465E-002  0.12829133320027708        0.0000000000000000     
   5.6100688101940480E-002  0.13554971210811970        0.0000000000000000     
   4.5265228939700003E-002  0.10690255606967222        0.0000000000000000     
   4.6547130916210024E-002  0.11377858472549852        0.0000000000000000     
   4.7776662882799928E-002  0.12078847334737257        0.0000000000000000     
   4.8953824839469730E-002  0.12793222193529444        0.0000000000000000     
   5.0078616786219408E-002  0.13520983048926410        0.0000000000000000     
   3.9933333037863158E-002  0.10653145405125432        0.0000000000000000     
   4.1073151999098161E-002  0.11342417019504143        0.0000000000000000     
   4.2167225542619258E-002  0.12045129024711453        0.0000000000000000     
   4.3215553668426457E-002  0.12761281420747364        0.0000000000000000     
   4.4218136376519751E-002  0.13490874207611878        0.0000000000000000     
   6.8629603451446947E-002  0.13634585496296198        0.0000000000000000     
   7.0068652838472523E-002  0.14368436235930451        0.0000000000000000     
   7.1426214588875145E-002  0.15113144625685287        0.0000000000000000     
   7.2702288702654827E-002  0.15868710665560701        0.0000000000000000     
   7.3896875179811583E-002  0.16635134355556691        0.0000000000000000     
   6.2284350323683006E-002  0.13592838693268566        0.0000000000000000     
   6.3594375337370085E-002  0.14328830710625620        0.0000000000000000     
   6.4827153288751396E-002  0.15075790123002925        0.0000000000000000     
   6.5982684177826906E-002  0.15833716930400474        0.0000000000000000     
   6.7060968004596669E-002  0.16602611132818276        0.0000000000000000     
   5.6100688101940480E-002  0.13554971210811970        0.0000000000000000     
   5.7286134908381983E-002  0.14293011210504120        0.0000000000000000     
   5.8399302413724812E-002  0.15042093277136448        0.0000000000000000     
   5.9440190617968951E-002  0.15802217410708963        0.0000000000000000     
   6.0408799521114429E-002  0.16573383611221654        0.0000000000000000     
   5.0078616786219408E-002  0.13520983048926410        0.0000000000000000     
   5.1143931551508218E-002  0.14260977735565949        0.0000000000000000     
   5.2142661963795404E-002  0.15012054088085863        0.0000000000000000     
   5.3074808023080955E-002  0.15774212106486157        0.0000000000000000     
   5.3940369729364897E-002  0.16547451790766823        0.0000000000000000     
   4.4218136376519751E-002  0.13490874207611878        0.0000000000000000     
   4.5167765266748781E-002  0.14232730285811110        0.0000000000000000     
   4.6057231938963175E-002  0.14985672555851171        0.0000000000000000     
   4.6886536393162925E-002  0.15749701017732062        0.0000000000000000     
   4.7655678629348053E-002  0.16524815671453788        0.0000000000000000     
   0.0000000000000000        0.0000000000000000        0.0000000000000000     
   1.7983374526348572E-003   1.2768345827824158E-003   0.0000000000000000     
   3.6213495019625976E-003   2.9391589130393263E-003   0.0000000000000000     
   5.4690361479832229E-003   4.9869729907707321E-003   0.0000000000000000     
   7.3413973906967297E-003   7.4202768159766326E-003   0.0000000000000000     
   0.0000000000000000        0.0000000000000000        0.0000000000000000     
   1.5350326181315544E-003   1.2175788050444879E-003   0.0000000000000000     
   3.0993799220747943E-003   2.8209052110114269E-003   0.0000000000000000     
   4.6930419118297196E-003   4.8099792179008170E-003   0.0000000000000000     
   6.3160185873963309E-003   7.1848008257126587E-003   0.0000000000000000     
   0.0000000000000000        0.0000000000000000        0.0000000000000000     
   1.2878193143484899E-003   1.1700237828533191E-003   0.0000000000000000     
   2.6055173655479113E-003   2.7246587424992652E-003   0.0000000000000000     
   3.9530941535982633E-003   4.6639048789378374E-003   0.0000000000000000     
   5.3305496784995477E-003   6.9877621921690374E-003   0.0000000000000000     
   0.0000000000000000        0.0000000000000000        0.0000000000000000     
   1.0566975412856637E-003   1.1341695162089091E-003   0.0000000000000000     
   2.1397618323819485E-003   2.6504195075028407E-003   0.0000000000000000     
   3.2491928732888541E-003   4.5487499738817942E-003   0.0000000000000000     
   4.3849906640063812E-003   6.8291609153457705E-003   0.0000000000000000     
   0.0000000000000000        0.0000000000000000        0.0000000000000000     
   8.4166729894307607E-004   1.1100160051112583E-003   0.0000000000000000     
   1.7021133225769067E-003   2.5981875060221535E-003   0.0000000000000000     
   2.5813380709014920E-003   4.4645145027326864E-003   0.0000000000000000     
   3.4793415439168312E-003   6.7089969952428552E-003   0.0000000000000000     
   7.3413973906967297E-003   7.4202768159766326E-003   0.0000000000000000     
   9.2307782403652696E-003   1.0186651606180566E-002   0.0000000000000000     
   1.1129523707250991E-002   1.3233678578906071E-002   0.0000000000000000     
   1.3037633791353895E-002   1.6561357734153147E-002   0.0000000000000000     
   1.4955108492673980E-002   2.0169689071921796E-002   0.0000000000000000     
   6.3160185873963309E-003   7.1848008257126587E-003   0.0000000000000000     
   7.9556307858392045E-003   9.8958199703478803E-003   0.0000000000000000     
   9.5991993442229185E-003   1.2893486587707411E-002   0.0000000000000000     
   1.1246724262547476E-002   1.6177800677791246E-002   0.0000000000000000     
   1.2898205540812875E-002   1.9748762240599391E-002   0.0000000000000000     
   5.3305496784995477E-003   6.9877621921690374E-003   0.0000000000000000     
   6.7234301501145387E-003   9.6501521490761598E-003   0.0000000000000000     
   8.1172817783060087E-003   1.2604996216542493E-002   0.0000000000000000     
   9.5121045630739611E-003   1.5852294394568037E-002   0.0000000000000000     
   1.0907898504418393E-002   1.9392046683152798E-002   0.0000000000000000     
   4.3849906640063812E-003   6.8291609153457705E-003   0.0000000000000000     
   5.5341763331912689E-003   9.4496481423654022E-003   0.0000000000000000     
   6.6837710095002580E-003   1.2368207465411316E-002   0.0000000000000000     
   7.8337746929333478E-003   1.5584838884483520E-002   0.0000000000000000     
   8.9841873834905373E-003   1.9099542399582004E-002   0.0000000000000000     
   3.4793415439168312E-003   6.7089969952428552E-003   0.0000000000000000     
   4.3878693350693993E-003   9.2943079502156058E-003   0.0000000000000000     
   5.2986670378056683E-003   1.2183120334313884E-002   0.0000000000000000     
   6.2117346521256391E-003   1.5375434147537691E-002   0.0000000000000000     
   7.1270721780293117E-003   1.8871249389887025E-002   0.0000000000000000     
   1.4955108492673980E-002   2.0169689071921796E-002   0.0000000000000000     
   1.6856592321501045E-002   2.4030118691559122E-002   0.0000000000000000     
   1.8716729788124876E-002   2.8114092692412235E-002   0.0000000000000000     
   2.0535520892545484E-002   3.2421611074481139E-002   0.0000000000000000     
   2.2312965634762861E-002   3.6952673837765820E-002   0.0000000000000000     
   1.2898205540812875E-002   1.9748762240599391E-002   0.0000000000000000     
   1.4537260965005575E-002   2.3580231972988051E-002   0.0000000000000000     
   1.6147508321112038E-002   2.7646070571813425E-002   0.0000000000000000     
   1.7728947609132260E-002   3.1946278037075511E-002   0.0000000000000000     
   1.9281578829066247E-002   3.6480854368774324E-002   0.0000000000000000     
   1.0907898504418393E-002   1.9392046683152798E-002   0.0000000000000000     
   1.2294404888817362E-002   2.3199363447010842E-002   0.0000000000000000     
   1.3661365002748921E-002   2.7249355050856232E-002   0.0000000000000000     
   1.5008778846213067E-002   3.1542021494688981E-002   0.0000000000000000     
   1.6336646419209802E-002   3.6077362778509078E-002   0.0000000000000000     
   8.9841873834905373E-003   1.9099542399582004E-002   0.0000000000000000     
   1.0128024092936408E-002   2.2887513113627484E-002   0.0000000000000000     
   1.1258299833035531E-002   2.6923946129540667E-002   0.0000000000000000     
   1.2375014603787907E-002   3.1208841447321539E-002   0.0000000000000000     
   1.3478168405193537E-002   3.5742199066970119E-002   0.0000000000000000     
   7.1270721780293117E-003   1.8871249389887025E-002   0.0000000000000000     
   8.0381185773627118E-003   2.2644680972837995E-002   0.0000000000000000     
   8.9383128119718668E-003   2.6669843807866720E-002   0.0000000000000000     
   9.8276548818567785E-003   3.0946737894973188E-002   0.0000000000000000     
   1.0706144787017447E-002   3.5475363234157412E-002   0.0000000000000000     
   2.2312965634762861E-002   3.6952673837765820E-002   0.0000000000000000     
   2.4046364847919936E-002   4.1698552072992404E-002   0.0000000000000000     
   2.5733019365159641E-002   4.6650516870886984E-002   0.0000000000000000     
   2.7372929186481969E-002   5.1808568231449567E-002   0.0000000000000000     
   2.8966094311886920E-002   5.7172706154680140E-002   0.0000000000000000     
   1.9281578829066247E-002   3.6480854368774324E-002   0.0000000000000000     
   2.0799331177398364E-002   4.1235709013678609E-002   0.0000000000000000     
   2.2276133850612993E-002   4.6196751418557148E-002   0.0000000000000000     
   2.3711986848710131E-002   5.1363981583409934E-002   0.0000000000000000     
   2.5106890171689773E-002   5.6737399508236974E-002   0.0000000000000000     
   1.6336646419209802E-002   3.6077362778509078E-002   0.0000000000000000     
   1.7637257785747221E-002   4.0837577157708430E-002   0.0000000000000000     
   1.8902903009833417E-002   4.5804862887678890E-002   0.0000000000000000     
   2.0133582091468386E-002   5.0979219968420503E-002   0.0000000000000000     
   2.1329295030652139E-002   5.6360648399933232E-002   0.0000000000000000     
   1.3478168405193537E-002   3.5742199066970119E-002   0.0000000000000000     
   1.4560144672966511E-002   4.0504156505081851E-002   0.0000000000000000     
   1.5613326842820911E-002   4.5474851278252244E-002   0.0000000000000000     
   1.6637714914756744E-002   5.0654283386481244E-002   0.0000000000000000     
   1.7633308888774006E-002   5.6042452829768906E-002   0.0000000000000000     
   1.0706144787017447E-002   3.5475363234157412E-002   0.0000000000000000     
   1.1567991839056227E-002   4.0235447055798894E-002   0.0000000000000000     
   1.2407405349575476E-002   4.5206716590277154E-002   0.0000000000000000     
   1.3224385318575196E-002   5.0389171837592187E-002   0.0000000000000000     
   1.4018931746055383E-002   5.5782812797744011E-002   0.0000000000000000     
   2.8966094311886920E-002   5.7172706154680140E-002   0.0000000000000000     
   3.0511608924368022E-002   6.2730657118304056E-002   0.0000000000000000     
   3.2008567206918796E-002   6.8470147600046605E-002   0.0000000000000000     
   3.3456969159539239E-002   7.4391177599907848E-002   0.0000000000000000     
   3.4856814782229364E-002   8.0493747117887718E-002   0.0000000000000000     
   2.5106890171689773E-002   5.6737399508236974E-002   0.0000000000000000     
   2.6460269075565014E-002   6.2305404561531032E-002   0.0000000000000000     
   2.7771548816348940E-002   6.8056396111784906E-002   0.0000000000000000     
   2.9040729394041551E-002   7.3990374158998590E-002   0.0000000000000000     
   3.0267810808642843E-002   8.0107338703172076E-002   0.0000000000000000     
   2.1329295030652139E-002   5.6360648399933232E-002   0.0000000000000000     
   2.2489621832371957E-002   6.1937642091274447E-002   0.0000000000000000     
   2.3614142501615143E-002   6.7698694951501534E-002   0.0000000000000000     
   2.4702857038381692E-002   7.3643806980614498E-002   0.0000000000000000     
   2.5755765442671615E-002   7.9772978178613299E-002   0.0000000000000000     
   1.7633308888774006E-002   5.6042452829768906E-002   0.0000000000000000     
   1.8599667194788845E-002   6.1627369707534296E-002   0.0000000000000000     
   1.9536348262717402E-002   6.7397044119196503E-002   0.0000000000000000     
   2.0443352092559684E-002   7.3351476064755561E-002   0.0000000000000000     
   2.1320678684315680E-002   7.9490665544211442E-002   0.0000000000000000     
   1.4018931746055383E-002   5.5782812797744011E-002   0.0000000000000000     
   1.4790405162815679E-002   6.1374587410310558E-002   0.0000000000000000     
   1.5538166099655722E-002   6.7151443614869799E-002   0.0000000000000000     
   1.6262214556575512E-002   7.3113381411421763E-002   0.0000000000000000     
   1.6962550533575045E-002   7.9260400799966421E-002   0.0000000000000000     
   3.4856814782229364E-002   8.0493747117887718E-002   0.0000000000000000     
   3.6205772766500194E-002   8.6766108259002550E-002   0.0000000000000000     
   3.7501511803862769E-002   9.3196513128268571E-002   0.0000000000000000     
   3.8744031894317091E-002   9.9784961725685850E-002   0.0000000000000000     
   3.9933333037863158E-002  0.10653145405125432        0.0000000000000000     
   3.0267810808642843E-002   8.0107338703172076E-002   0.0000000000000000     
   3.1450256771785014E-002   8.6394756436571477E-002   0.0000000000000000     
   3.2585530995100288E-002   9.2840094051462888E-002   0.0000000000000000     
   3.3673633478588635E-002   9.9443351547846295E-002   0.0000000000000000     
   3.4714564222250076E-002  0.10620452892572173        0.0000000000000000     
   2.5755765442671615E-002   7.9772978178613299E-002   0.0000000000000000     
   2.6770365048295788E-002   8.6073173263329097E-002   0.0000000000000000     
   2.7744153189065125E-002   9.2531356952592972E-002   0.0000000000000000     
   2.8677129864979608E-002   9.9147529246404881E-002   0.0000000000000000     
   2.9569295076039247E-002  0.10592169014476489        0.0000000000000000     
   2.1320678684315680E-002   7.9490665544211442E-002   0.0000000000000000     
   2.2166097596032511E-002   8.5801358739275427E-002   0.0000000000000000     
   2.2977378385757287E-002   9.2270301831658783E-002   0.0000000000000000     
   2.3754521053490005E-002   9.8897494821361606E-002   0.0000000000000000     
   2.4497525599230668E-002  0.10568293770838380        0.0000000000000000     
   1.6962550533575045E-002   7.9260400799966421E-002   0.0000000000000000     
   1.7637454414995181E-002   8.5579312864410423E-002   0.0000000000000000     
   1.8285206585176777E-002   9.2056928688660417E-002   0.0000000000000000     
   1.8905807044119833E-002   9.8693248272716458E-002   0.0000000000000000     
   1.9499255791824342E-002  0.10548827161657845        0.0000000000000000     
   3.9933333037863158E-002  0.10653145405125432        0.0000000000000000     
   4.1073151999098161E-002  0.11342417019504143        0.0000000000000000     
   4.2167225542619258E-002  0.12045129024711453        0.0000000000000000     
   4.3215553668426457E-002  0.12761281420747364        0.0000000000000000     
   4.4218136376519751E-002  0.13490874207611878        0.0000000000000000     
   3.4714564222250076E-002  0.10620452892572173        0.0000000000000000     
   3.5712380231945361E-002  0.11311217320083818        0.0000000000000000     
   3.6671138513535199E-002  0.12015483138894462        0.0000000000000000     
   3.7590839067019613E-002  0.12733250349004110        0.0000000000000000     
   3.8471481892398608E-002  0.13464518950412757        0.0000000000000000     
   2.9569295076039247E-002  0.10592169014476489        0.0000000000000000     
   3.0424464264849269E-002  0.11284257062423851        0.0000000000000000     
   3.1246452874014910E-002  0.11989890166139126        0.0000000000000000     
   3.2035260903536165E-002  0.12709068325622314        0.0000000000000000     
   3.2790888353413046E-002  0.13441791540873416        0.0000000000000000     
   2.4497525599230668E-002  0.10568293770838380        0.0000000000000000     
   2.5209404097809921E-002  0.11261536246524240        0.0000000000000000     
   2.5893168624058400E-002  0.11968350106445438        0.0000000000000000     
   2.6548819177976114E-002  0.12688735350601979        0.0000000000000000     
   2.7176355759563061E-002  0.13422691978993861        0.0000000000000000     
   1.9499255791824342E-002  0.10548827161657845        0.0000000000000000     
   2.0067199730827288E-002  0.11243054872384986        0.0000000000000000     
   2.0611285763665662E-002  0.11950862959813406        0.0000000000000000     
   2.1131513890339449E-002  0.12672251423943107        0.0000000000000000     
   2.1627884110848660E-002  0.13407220264774083        0.0000000000000000     
   4.4218136376519751E-002  0.13490874207611878        0.0000000000000000     
   4.5167765266748781E-002  0.14232730285811110        0.0000000000000000     
   4.6057231938963175E-002  0.14985672555851171        0.0000000000000000     
   4.6886536393162925E-002  0.15749701017732062        0.0000000000000000     
   4.7655678629348053E-002  0.16524815671453788        0.0000000000000000     
   3.8471481892398608E-002  0.13464518950412757        0.0000000000000000     
   3.9305957828475173E-002  0.14208078941674399        0.0000000000000000     
   4.0087157714052309E-002  0.14962720321343032        0.0000000000000000     
   4.0815081549130022E-002  0.15728443089418659        0.0000000000000000     
   4.1489729333708314E-002  0.16505247245901269        0.0000000000000000     
   3.2790888353413046E-002  0.13441791540873416        0.0000000000000000     
   3.3506831011058870E-002  0.14186833783590624        0.0000000000000000     
   3.4176584663886983E-002  0.14942969025472119        0.0000000000000000     
   3.4800149311897399E-002  0.15710197266517911        0.0000000000000000     
   3.5377524955090091E-002  0.16488518506727992        0.0000000000000000     
   2.7176355759563061E-002  0.13422691978993861        0.0000000000000000     
   2.7770384814499883E-002  0.14168994811559776        0.0000000000000000     
   2.8325512788467202E-002  0.14926418668238434        0.0000000000000000     
   2.8841739681465046E-002  0.15694963549029828        0.0000000000000000     
   2.9319065493493383E-002  0.16474629453933959        0.0000000000000000     
   2.1627884110848660E-002  0.13407220264774083        0.0000000000000000     
   2.2096619238798198E-002  0.14154562025581863        0.0000000000000000     
   2.2533942087792965E-002  0.14913069249641972        0.0000000000000000     
   2.2939852657832965E-002  0.15682741936954406        0.0000000000000000     
   2.3314350948918199E-002  0.16463580087519164        0.0000000000000000     
   0.0000000000000000        0.0000000000000000        0.0000000000000000     
   8.4166729894307607E-004   1.1100160051112583E-003   0.0000000000000000     
   1.7021133225769067E-003   2.5981875060221535E-003   0.0000000000000000     
   2.5813380709014920E-003   4.4645145027326864E-003   0.0000000000000000     
   3.4793415439168312E-003   6.7089969952428552E-003   0.0000000000000000     
   0.0000000000000000        0.0000000000000000        0.0000000000000000     
   6.3382473502375351E-004   1.0940007634517562E-003   0.0000000000000000     
   1.2780349913254893E-003   2.5621126693883335E-003   0.0000000000000000     
   1.9326307689052072E-003   4.4043357178097323E-003   0.0000000000000000     
   2.5976120677629068E-003   6.6206699087159541E-003   0.0000000000000000     
   0.0000000000000000        0.0000000000000000        0.0000000000000000     
   4.2426599723072351E-004   1.0825613051217919E-003   0.0000000000000000     
   8.5298999382040083E-004   2.5363449289325102E-003   0.0000000000000000     
   1.2861719897690319E-003   4.3613508714321564E-003   0.0000000000000000     
   1.7238119850766169E-003   6.5575791326207286E-003   0.0000000000000000     
   0.0000000000000000        0.0000000000000000        0.0000000000000000     
   2.1299108556398569E-004   1.0756976301213655E-003   0.0000000000000000     
   4.2697833006164111E-004   2.5208842846546837E-003   0.0000000000000000     
   6.4196173349296616E-004   4.3355599635999552E-003   0.0000000000000000     
   8.5794129585796083E-004   6.5197246669571789E-003   0.0000000000000000     
   0.0000000000000000        0.0000000000000000        0.0000000000000000     
   2.3540251779113897E-014   1.0734097384504774E-003   0.0000000000000000     
   4.9210256095749694E-014   2.5157307365548539E-003   0.0000000000000000     
   7.7009904529690143E-014   4.3269629943131294E-003   0.0000000000000000     
   1.0693927839609818E-013   6.5071065117253048E-003   0.0000000000000000     
   3.4793415439168312E-003   6.7089969952428552E-003   0.0000000000000000     
   4.3878693350693993E-003   9.2943079502156058E-003   0.0000000000000000     
   5.2986670378056683E-003   1.2183120334313884E-002   0.0000000000000000     
   6.2117346521256391E-003   1.5375434147537691E-002   0.0000000000000000     
   7.1270721780293117E-003   1.8871249389887025E-002   0.0000000000000000     
   2.5976120677629068E-003   6.6206699087159541E-003   0.0000000000000000     
   3.2700023100954690E-003   9.1781444509527587E-003   0.0000000000000000     
   3.9468249180997748E-003   1.2043788553365905E-002   0.0000000000000000     
   4.6280798917758227E-003   1.5217602215955394E-002   0.0000000000000000     
   5.3137672311236138E-003   1.8699585438721227E-002   0.0000000000000000     
   1.7238119850766169E-003   6.5575791326207286E-003   0.0000000000000000     
   2.1660684126160218E-003   9.0951705229028353E-003   0.0000000000000000     
   2.6130997052601131E-003   1.1944265852683083E-002   0.0000000000000000     
   3.0649058630088902E-003   1.5104865121961471E-002   0.0000000000000000     
   3.5214868858623534E-003   1.8576968330738006E-002   0.0000000000000000     
   8.5794129585796083E-004   6.5197246669571789E-003   0.0000000000000000     
   1.0760676426310564E-003   9.0453861660658389E-003   0.0000000000000000     
   1.2974913992866829E-003   1.1884552232265420E-002   0.0000000000000000     
   1.5222125658248405E-003   1.5037222865555921E-002   0.0000000000000000     
   1.7502311422455299E-003   1.8503398065937347E-002   0.0000000000000000     
   1.0693927839609818E-013   6.5071065117253048E-003   0.0000000000000000     
   1.4057281543227579E-013   9.0287913804417697E-003   0.0000000000000000     
   1.7948437739312081E-013   1.1864647692112915E-002   0.0000000000000000     
   2.2367449113312645E-013   1.5014675446738743E-002   0.0000000000000000     
   2.7314283647383863E-013   1.8478874644319254E-002   0.0000000000000000     
   7.1270721780293117E-003   1.8871249389887025E-002   0.0000000000000000     
   8.0381185773627118E-003   2.2644680972837995E-002   0.0000000000000000     
   8.9383128119718668E-003   2.6669843807866720E-002   0.0000000000000000     
   9.8276548818567785E-003   3.0946737894973188E-002   0.0000000000000000     
   1.0706144787017447E-002   3.5475363234157412E-002   0.0000000000000000     
   5.3137672311236138E-003   1.8699585438721227E-002   0.0000000000000000     
   5.9969852597327074E-003   2.2462398308903571E-002   0.0000000000000000     
   6.6708323011926609E-003   2.6478700913742582E-002   0.0000000000000000     
   7.3353083555034761E-003   3.0748493253238262E-002   0.0000000000000000     
   7.9904134226651529E-003   3.5271775327390599E-002   0.0000000000000000     
   3.5214868858623534E-003   1.8576968330738006E-002   0.0000000000000000     
   3.9769210576828286E-003   2.2332196406085414E-002   0.0000000000000000     
   4.4252866623326398E-003   2.6342170275076439E-002   0.0000000000000000     
   4.8665836998117882E-003   3.0606889937711070E-002   0.0000000000000000     
   5.3008121701202714E-003   3.5126355393989332E-002   0.0000000000000000     
   1.7502311422455299E-003   1.8503398065937347E-002   0.0000000000000000     
   1.9779259712130758E-003   2.2254075264383520E-002   0.0000000000000000     
   2.2016758953918034E-003   2.6260251891868289E-002   0.0000000000000000     
   2.4214809147817132E-003   3.0521927948391644E-002   0.0000000000000000     
   2.6373410293828057E-003   3.5039103433953576E-002   0.0000000000000000     
   2.7314283647383863E-013   1.8478874644319254E-002   0.0000000000000000     
   3.2344905833564530E-013   2.2228034883797900E-002   0.0000000000000000     
   3.7015307268947750E-013   2.6232945764118130E-002   0.0000000000000000     
   4.1325448651204771E-013   3.0493607285279958E-002   0.0000000000000000     
   4.5275350309126328E-013   3.5010019447283366E-002   0.0000000000000000     
   1.0706144787017447E-002   3.5475363234157412E-002   0.0000000000000000     
   1.1567991839056227E-002   4.0235447055798894E-002   0.0000000000000000     
   1.2407405349575476E-002   4.5206716590277154E-002   0.0000000000000000     
   1.3224385318575196E-002   5.0389171837592187E-002   0.0000000000000000     
   1.4018931746055383E-002   5.5782812797744011E-002   0.0000000000000000     
   7.9904134226651529E-003   3.5271775327390599E-002   0.0000000000000000     
   8.6327378282898184E-003   4.0028637439142825E-002   0.0000000000000000     
   9.2588718979896047E-003   4.4999169891438151E-002   0.0000000000000000     
   9.8688156317645083E-003   5.0183372684276563E-002   0.0000000000000000     
   1.0462569029614536E-002   5.5581245817658068E-002   0.0000000000000000     
   5.3008121701202714E-003   3.5126355393989332E-002   0.0000000000000000     
   5.7263211849407272E-003   3.9880916284396953E-002   0.0000000000000000     
   6.1414598559557882E-003   4.4850922249419715E-002   0.0000000000000000     
   6.5462281831654562E-003   5.0036373289057620E-002   0.0000000000000000     
   6.9406261665697277E-003   5.5437269403310653E-002   0.0000000000000000     
   2.6373410293828057E-003   3.5039103433953576E-002   0.0000000000000000     
   2.8487419090089520E-003   3.9792283591561270E-002   0.0000000000000000     
   3.0551692234740270E-003   4.4761973664221855E-002   0.0000000000000000     
   3.2566229727780307E-003   4.9948173651935338E-002   0.0000000000000000     
   3.4531031569209618E-003   5.5350883554701732E-002   0.0000000000000000     
   4.5275350309126328E-013   3.5010019447283366E-002   0.0000000000000000     
   4.9449485305108620E-013   3.9762739360635763E-002   0.0000000000000000     
   5.4432218281330602E-013   4.4732324135844562E-002   0.0000000000000000     
   6.0223641394976934E-013   4.9918773772909757E-002   0.0000000000000000     
   6.6823608278754332E-013   5.5322088271831341E-002   0.0000000000000000     
   1.4018931746055383E-002   5.5782812797744011E-002   0.0000000000000000     
   1.4790405162815679E-002   6.1374587410310558E-002   0.0000000000000000     
   1.5538166099655722E-002   6.7151443614869799E-002   0.0000000000000000     
   1.6262214556575512E-002   7.3113381411421763E-002   0.0000000000000000     
   1.6962550533575045E-002   7.9260400799966421E-002   0.0000000000000000     
   1.0462569029614536E-002   5.5581245817658068E-002   0.0000000000000000     
   1.1039318043311172E-002   6.1178554813086310E-002   0.0000000000000000     
   1.1598248624625914E-002   6.6961065192064892E-002   0.0000000000000000     
   1.2139360773558762E-002   7.2928776954593835E-002   0.0000000000000000     
   1.2662654490109714E-002   7.9081690100673147E-002   0.0000000000000000     
   6.9406261665697277E-003   5.5437269403310653E-002   0.0000000000000000     
   7.3238881431340330E-003   6.1038531529344582E-002   0.0000000000000000     
   7.6952484498237972E-003   6.6825080604325210E-002   0.0000000000000000     
   8.0547070866390184E-003   7.2796916628252481E-002   0.0000000000000000     
   8.4022640535796993E-003   7.8954039601126458E-002   0.0000000000000000     
   3.4531031569209618E-003   5.5350883554701732E-002   0.0000000000000000     
   3.6441154622842602E-003   6.0954517559085430E-002   0.0000000000000000     
   3.8291655752493658E-003   6.6743489851650739E-002   0.0000000000000000     
   4.0082534958162793E-003   7.2717800432397714E-002   0.0000000000000000     
   4.1813792239849996E-003   7.8877449301326355E-002   0.0000000000000000     
   6.6823608278754332E-013   5.5322088271831341E-002   0.0000000000000000     
   7.6185466355710441E-013   6.0926512902308778E-002   0.0000000000000000     
   9.0262481733729971E-013   6.6716292934041493E-002   0.0000000000000000     
   1.0905452024279408E-012   7.2691428367029534E-002   0.0000000000000000     
   1.3256166997432928E-012   7.8851919201272852E-002   0.0000000000000000     
   1.6962550533575045E-002   7.9260400799966421E-002   0.0000000000000000     
   1.7637454414995181E-002   8.5579312864410423E-002   0.0000000000000000     
   1.8285206585176777E-002   9.2056928688660417E-002   0.0000000000000000     
   1.8905807044119833E-002   9.8693248272716458E-002   0.0000000000000000     
   1.9499255791824342E-002  0.10548827161657845        0.0000000000000000     
   1.2662654490109714E-002   7.9081690100673147E-002   0.0000000000000000     
   1.3166990230088566E-002   8.5406796507896676E-002   0.0000000000000000     
   1.3651228449305110E-002   9.1891088053858289E-002   0.0000000000000000     
   1.4115369147759346E-002   9.8534564738557984E-002   0.0000000000000000     
   1.4559412325451276E-002  0.10533722656199579        0.0000000000000000     
   8.4022640535796993E-003   7.8954039601126458E-002   0.0000000000000000     
   8.7372597662174322E-003   8.5283570538896694E-002   0.0000000000000000     
   9.0590346401238069E-003   9.1772630457512813E-002   0.0000000000000000     
   9.3675886752988217E-003   9.8421219356974815E-002   0.0000000000000000     
   9.6629218717424834E-003  0.10522933723728271        0.0000000000000000     
   4.1813792239849996E-003   7.8877449301326355E-002   0.0000000000000000     
   4.3482630233817772E-003   8.5209634957410532E-002   0.0000000000000000     
   4.5086251576328647E-003   9.1701555899624060E-002   0.0000000000000000     
   4.6624656267382587E-003   9.8353212127966966E-002   0.0000000000000000     
   4.8097844306979618E-003  0.10516460364243924        0.0000000000000000     
   1.3256166997432928E-012   7.8851919201272852E-002   0.0000000000000000     
   1.5816068073271072E-012   8.5184989763438107E-002   0.0000000000000000     
   1.8322874684520429E-012   9.1677864380191945E-002   0.0000000000000000     
   2.0776555660368540E-012   9.8330543051534366E-002   0.0000000000000000     
   2.3177124282292016E-012  0.10514302577746537        0.0000000000000000     
   1.9499255791824342E-002  0.10548827161657845        0.0000000000000000     
   2.0067199730827288E-002  0.11243054872384986        0.0000000000000000     
   2.0611285763665662E-002  0.11950862959813406        0.0000000000000000     
   2.1131513890339449E-002  0.12672251423943107        0.0000000000000000     
   2.1627884110848660E-002  0.13407220264774083        0.0000000000000000     
   1.4559412325451276E-002  0.10533722656199579        0.0000000000000000     
   1.4983667397591117E-002  0.11228738425784467        0.0000000000000000     
   1.5388443779389083E-002  0.11937334855977767        0.0000000000000000     
   1.5773741470845180E-002  0.12659511946779478        0.0000000000000000     
   1.6139560471959396E-002  0.13395269698189596        0.0000000000000000     
   9.6629218717424834E-003  0.10522933723728271        0.0000000000000000     
   9.9446233317911151E-003  0.11218512392501059        0.0000000000000000     
   1.0212282157781050E-002  0.11927671924673261        0.0000000000000000     
   1.0465898349712288E-002  0.12650412320244878        0.0000000000000000     
   1.0705471907584828E-002  0.13386733579215906        0.0000000000000000     
   4.8097844306979618E-003  0.10516460364243924        0.0000000000000000     
   4.9500675334272909E-003  0.11212376772534766        0.0000000000000000     
   5.0828008988415656E-003  0.11921874165899897        0.0000000000000000     
   5.2079845269407876E-003  0.12644952544339311        0.0000000000000000     
   5.3256184177249552E-003  0.13381611907853017        0.0000000000000000     
   2.3177124282292016E-012  0.10514302577746537        0.0000000000000000     
   2.4996419864531383E-012  0.11210331565885583        0.0000000000000000     
   2.5706291479146715E-012  0.11919941579657660        0.0000000000000000     
   2.5306732891975520E-012  0.12643132619062772        0.0000000000000000     
   2.3797756300292239E-012  0.13379904684100921        0.0000000000000000     
   2.1627884110848660E-002  0.13407220264774083        0.0000000000000000     
   2.2096619238798198E-002  0.14154562025581863        0.0000000000000000     
   2.2533942087792965E-002  0.14913069249641972        0.0000000000000000     
   2.2939852657832965E-002  0.15682741936954406        0.0000000000000000     
   2.3314350948918199E-002  0.16463580087519164        0.0000000000000000     
   1.6139560471959396E-002  0.13395269698189596        0.0000000000000000     
   1.6483761587552995E-002  0.14143423544256084        0.0000000000000000     
   1.6804205622447211E-002  0.14902788919026891        0.0000000000000000     
   1.7100892576642053E-002  0.15673365822502022        0.0000000000000000     
   1.7373822450137515E-002  0.16455154254681476        0.0000000000000000     
   1.0705471907584828E-002  0.13386733579215906        0.0000000000000000     
   1.0930039164363444E-002  0.14135467486181638        0.0000000000000000     
   1.1138636453012893E-002  0.14895445825737352        0.0000000000000000     
   1.1331263773533190E-002  0.15666668597883054        0.0000000000000000     
   1.1507921125924327E-002  0.16449135802618745        0.0000000000000000     
   5.3256184177249552E-003  0.13381611907853017        0.0000000000000000     
   5.4354519692295404E-003  0.14130693851358525        0.0000000000000000     
   5.5372345794900153E-003  0.14891039969773356        0.0000000000000000     
   5.6309662485063798E-003  0.15662650263097502        0.0000000000000000     
   5.7166469762786349E-003  0.16445524731330974        0.0000000000000000     
   2.3797756300292239E-012  0.13379904684100921        0.0000000000000000     
   2.1512895631570217E-012  0.14129102639786748        0.0000000000000000     
   1.8785710834134939E-012  0.14889571351134895        0.0000000000000000     
   1.5616209497401612E-012  0.15661310818145369        0.0000000000000000     
   1.2004381863550684E-012  0.16444321040818166        0.0000000000000000     
   0.0000000000000000        0.0000000000000000        0.0000000000000000     
   2.3540251779113897E-014   1.0734097384504774E-003   0.0000000000000000     
   4.9210256095749694E-014   2.5157307365548539E-003   0.0000000000000000     
   7.7009904529690143E-014   4.3269629943131294E-003   0.0000000000000000     
   1.0693927839609818E-013   6.5071065117253048E-003   0.0000000000000000     
   0.0000000000000000        0.0000000000000000        0.0000000000000000     
  -2.1299108551778181E-004   1.0756976301095188E-003   0.0000000000000000     
  -4.2697832996496475E-004   2.5208842846336618E-003   0.0000000000000000     
  -6.4196173334154908E-004   4.3355599635724286E-003   0.0000000000000000     
  -8.5794129564753432E-004   6.5197246669258203E-003   0.0000000000000000     
   0.0000000000000000        0.0000000000000000        0.0000000000000000     
  -4.2426599718714943E-004   1.0825613050988814E-003   0.0000000000000000     
  -8.5298999372895694E-004   2.5363449288917489E-003   0.0000000000000000     
  -1.2861719896254224E-003   4.3613508713786029E-003   0.0000000000000000     
  -1.7238119848765458E-003   6.5575791325594426E-003   0.0000000000000000     
   0.0000000000000000        0.0000000000000000        0.0000000000000000     
  -6.3382473498456253E-004   1.0940007634185653E-003   0.0000000000000000     
  -1.2780349912427660E-003   2.5621126693291156E-003   0.0000000000000000     
  -1.9326307687746100E-003   4.4043357177316507E-003   0.0000000000000000     
  -2.5976120675800952E-003   6.6206699086261709E-003   0.0000000000000000     
   0.0000000000000000        0.0000000000000000        0.0000000000000000     
  -8.4166729891002124E-004   1.1100160050685705E-003   0.0000000000000000     
  -1.7021133225063921E-003   2.5981875059457619E-003   0.0000000000000000     
  -2.5813380707891127E-003   4.4645145026315737E-003   0.0000000000000000     
  -3.4793415437581830E-003   6.7089969951260060E-003   0.0000000000000000     
   1.0693927839609818E-013   6.5071065117253048E-003   0.0000000000000000     
   1.4057281543227579E-013   9.0287913804417697E-003   0.0000000000000000     
   1.7948437739312081E-013   1.1864647692112915E-002   0.0000000000000000     
   2.2367449113312645E-013   1.5014675446738743E-002   0.0000000000000000     
   2.7314283647383863E-013   1.8478874644319254E-002   0.0000000000000000     
  -8.5794129564753432E-004   6.5197246669258203E-003   0.0000000000000000     
  -1.0760676423543474E-003   9.0453861660313543E-003   0.0000000000000000     
  -1.2974913989334152E-003   1.1884552232226552E-002   0.0000000000000000     
  -1.5222125653847373E-003   1.5037222865511408E-002   0.0000000000000000     
  -1.7502311417083136E-003   1.8503398065885929E-002   0.0000000000000000     
  -1.7238119848765458E-003   6.5575791325594426E-003   0.0000000000000000     
  -2.1660684123526227E-003   9.0951705228353268E-003   0.0000000000000000     
  -2.6130997049239480E-003   1.1944265852607305E-002   0.0000000000000000     
  -3.0649058625905222E-003   1.5104865121875383E-002   0.0000000000000000     
  -3.5214868853523451E-003   1.8576968330639557E-002   0.0000000000000000     
  -2.5976120675800952E-003   6.6206699086261709E-003   0.0000000000000000     
  -3.2700023098542531E-003   9.1781444508536800E-003   0.0000000000000000     
  -3.9468249177921147E-003   1.2043788553255179E-002   0.0000000000000000     
  -4.6280798913936813E-003   1.5217602215830668E-002   0.0000000000000000     
  -5.3137672306589516E-003   1.8699585438580149E-002   0.0000000000000000     
  -3.4793415437581830E-003   6.7089969951260060E-003   0.0000000000000000     
  -4.3878693348592384E-003   9.2943079500864174E-003   0.0000000000000000     
  -5.2986670375379154E-003   1.2183120334170171E-002   0.0000000000000000     
  -6.2117346517942141E-003   1.5375434147377267E-002   0.0000000000000000     
  -7.1270721776281326E-003   1.8871249389707696E-002   0.0000000000000000     
   2.7314283647383863E-013   1.8478874644319254E-002   0.0000000000000000     
   3.2344905833564530E-013   2.2228034883797900E-002   0.0000000000000000     
   3.7015307268947750E-013   2.6232945764118130E-002   0.0000000000000000     
   4.1325448651204771E-013   3.0493607285279958E-002   0.0000000000000000     
   4.5275350309126328E-013   3.5010019447283366E-002   0.0000000000000000     
  -1.7502311417083136E-003   1.8503398065885929E-002   0.0000000000000000     
  -1.9779259705770321E-003   2.2254075264331048E-002   0.0000000000000000     
  -2.2016758946637790E-003   2.6260251891827718E-002   0.0000000000000000     
  -2.4214809139685564E-003   3.0521927948375941E-002   0.0000000000000000     
  -2.6373410284913634E-003   3.5039103433975705E-002   0.0000000000000000     
  -3.5214868853523451E-003   1.8576968330639557E-002   0.0000000000000000     
  -3.9769210570793469E-003   2.2332196405985480E-002   0.0000000000000000     
  -4.4252866616414609E-003   2.6342170274998800E-002   0.0000000000000000     
  -4.8665836990386862E-003   3.0606889937679512E-002   0.0000000000000000     
  -5.3008121692710236E-003   3.5126355394027628E-002   0.0000000000000000     
  -5.3137672306589516E-003   1.8699585438580149E-002   0.0000000000000000     
  -5.9969852591834974E-003   2.2462398308761195E-002   0.0000000000000000     
  -6.6708323005628921E-003   2.6478700913631373E-002   0.0000000000000000     
  -7.3353083547971357E-003   3.0748493253190692E-002   0.0000000000000000     
  -7.9904134218862274E-003   3.5271775327439137E-002   0.0000000000000000     
  -7.1270721776281326E-003   1.8871249389707696E-002   0.0000000000000000     
  -8.0381185768894827E-003   2.2644680972658187E-002   0.0000000000000000     
  -8.9383128114280726E-003   2.6669843807725434E-002   0.0000000000000000     
  -9.8276548812439041E-003   3.0946737894909458E-002   0.0000000000000000     
  -1.0706144786336975E-002   3.5475363234210230E-002   0.0000000000000000     
   4.5275350309126328E-013   3.5010019447283366E-002   0.0000000000000000     
   4.9449485305108620E-013   3.9762739360635763E-002   0.0000000000000000     
   5.4432218281330602E-013   4.4732324135844562E-002   0.0000000000000000     
   6.0223641394976934E-013   4.9918773772909757E-002   0.0000000000000000     
   6.6823608278754332E-013   5.5322088271831341E-002   0.0000000000000000     
  -2.6373410284913634E-003   3.5039103433975705E-002   0.0000000000000000     
  -2.8487419080347751E-003   3.9792283591615199E-002   0.0000000000000000     
  -3.0551692224013672E-003   4.4761973664282584E-002   0.0000000000000000     
  -3.2566229715911398E-003   4.9948173651977880E-002   0.0000000000000000     
  -3.4531031556040929E-003   5.5350883554701087E-002   0.0000000000000000     
  -5.3008121692710236E-003   3.5126355394027628E-002   0.0000000000000000     
  -5.7263211840109830E-003   3.9880916284494305E-002   0.0000000000000000     
  -6.1414598549310783E-003   4.4850922249530689E-002   0.0000000000000000     
  -6.5462281820313087E-003   5.0036373289136793E-002   0.0000000000000000     
  -6.9406261653116733E-003   5.5437269403312610E-002   0.0000000000000000     
  -7.9904134218862274E-003   3.5271775327439137E-002   0.0000000000000000     
  -8.6327378274341313E-003   4.0028637439273068E-002   0.0000000000000000     
  -9.2588718970448135E-003   4.4999169891588857E-002   0.0000000000000000     
  -9.8688156307182688E-003   5.0183372684386468E-002   0.0000000000000000     
  -1.0462569028454504E-002   5.5581245817665915E-002   0.0000000000000000     
  -1.0706144786336975E-002   3.5475363234210230E-002   0.0000000000000000     
  -1.1567991838304219E-002   4.0235447055951529E-002   0.0000000000000000     
  -1.2407405348742569E-002   4.5206716590457094E-002   0.0000000000000000     
  -1.3224385317652023E-002   5.0389171837726912E-002   0.0000000000000000     
  -1.4018931745032583E-002   5.5782812797761004E-002   0.0000000000000000     
   6.6823608278754332E-013   5.5322088271831341E-002   0.0000000000000000     
   7.6185466355710441E-013   6.0926512902308778E-002   0.0000000000000000     
   9.0262481733729971E-013   6.6716292934041493E-002   0.0000000000000000     
   1.0905452024279408E-012   7.2691428367029534E-002   0.0000000000000000     
   1.3256166997432928E-012   7.8851919201272852E-002   0.0000000000000000     
  -3.4531031556040929E-003   5.5350883554701087E-002   0.0000000000000000     
  -3.6441154607845657E-003   6.0954517559022731E-002   0.0000000000000000     
  -3.8291655734768908E-003   6.6743489851513349E-002   0.0000000000000000     
  -4.0082534936810733E-003   7.2717800432172935E-002   0.0000000000000000     
  -4.1813792213971088E-003   7.8877449301001490E-002   0.0000000000000000     
  -6.9406261653116733E-003   5.5437269403312610E-002   0.0000000000000000     
  -7.3238881417063834E-003   6.1038531529235329E-002   0.0000000000000000     
  -7.6952484481496459E-003   6.6825080604082113E-002   0.0000000000000000     
  -8.0547070846414635E-003   7.2796916627852939E-002   0.0000000000000000     
  -8.4022640511818326E-003   7.8954039600547837E-002   0.0000000000000000     
  -1.0462569028454504E-002   5.5581245817665915E-002   0.0000000000000000     
  -1.1039318042003598E-002   6.1178554812946574E-002   0.0000000000000000     
  -1.1598248623115641E-002   6.6961065191747798E-002   0.0000000000000000     
  -1.2139360771790626E-002   7.2928776954069560E-002   0.0000000000000000     
  -1.2662654488028561E-002   7.9081690099911908E-002   0.0000000000000000     
  -1.4018931745032583E-002   5.5782812797761004E-002   0.0000000000000000     
  -1.4790405161676212E-002   6.1374587410156459E-002   0.0000000000000000     
  -1.5538166098374872E-002   6.7151443614510392E-002   0.0000000000000000     
  -1.6262214555128562E-002   7.3113381410822811E-002   0.0000000000000000     
  -1.6962550531937282E-002   7.9260400799093703E-002   0.0000000000000000     
   1.3256166997432928E-012   7.8851919201272852E-002   0.0000000000000000     
   1.5816068073271072E-012   8.5184989763438107E-002   0.0000000000000000     
   1.8322874684520429E-012   9.1677864380191945E-002   0.0000000000000000     
   2.0776555660368540E-012   9.8330543051534366E-002   0.0000000000000000     
   2.3177124282292016E-012  0.10514302577746537        0.0000000000000000     
  -4.1813792213971088E-003   7.8877449301001490E-002   0.0000000000000000     
  -4.3482630203018190E-003   8.5209634957022468E-002   0.0000000000000000     
  -4.5086251540720195E-003   9.1701555899259310E-002   0.0000000000000000     
  -4.6624656227077137E-003   9.8353212127712017E-002   0.0000000000000000     
  -4.8097844262088973E-003  0.10516460364238059        0.0000000000000000     
  -8.4022640511818326E-003   7.8954039600547837E-002   0.0000000000000000     
  -8.7372597633872361E-003   8.5283570538206580E-002   0.0000000000000000     
  -9.0590346368741494E-003   9.1772630456868912E-002   0.0000000000000000     
  -9.3675886716425710E-003   9.8421219356534875E-002   0.0000000000000000     
  -9.6629218676925008E-003  0.10522933723720440        0.0000000000000000     
  -1.2662654488028561E-002   7.9081690099911908E-002   0.0000000000000000     
  -1.3166990227674645E-002   8.5406796506990443E-002   0.0000000000000000     
  -1.3651228446574099E-002   9.1891088053020778E-002   0.0000000000000000     
  -1.4115369144726917E-002   9.8534564738002914E-002   0.0000000000000000     
  -1.4559412322133095E-002  0.10533722656193685        0.0000000000000000     
  -1.6962550531937282E-002   7.9260400799093703E-002   0.0000000000000000     
  -1.7637454413164048E-002   8.5579312863374044E-002   0.0000000000000000     
  -1.8285206583171870E-002   9.2056928687714867E-002   0.0000000000000000     
  -1.8905807041960751E-002   9.8693248272116132E-002   0.0000000000000000     
  -1.9499255789530684E-002  0.10548827161657789        0.0000000000000000     
   2.3177124282292016E-012  0.10514302577746537        0.0000000000000000     
   2.4996419864531383E-012  0.11210331565885583        0.0000000000000000     
   2.5706291479146715E-012  0.11919941579657660        0.0000000000000000     
   2.5306732891975520E-012  0.12643132619062772        0.0000000000000000     
   2.3797756300292239E-012  0.13379904684100921        0.0000000000000000     
  -4.8097844262088973E-003  0.10516460364238059        0.0000000000000000     
  -4.9500675285930242E-003  0.11212376772553419        0.0000000000000000     
  -5.0828008938775381E-003  0.11921874165944195        0.0000000000000000     
  -5.2079845220624442E-003  0.12644952544410390        0.0000000000000000     
  -5.3256184131477390E-003  0.13381611907952001        0.0000000000000000     
  -9.6629218676925008E-003  0.10522933723720440        0.0000000000000000     
  -9.9446233274518969E-003  0.11218512392538180        0.0000000000000000     
  -1.0212282153348715E-002  0.11927671924757127        0.0000000000000000     
  -1.0465898345382956E-002  0.12650412320377280        0.0000000000000000     
  -1.0705471903554616E-002  0.13386733579398641        0.0000000000000000     
  -1.4559412322133095E-002  0.10533722656193685        0.0000000000000000     
  -1.4983667394076979E-002  0.11228738425839871        0.0000000000000000     
  -1.5388443775842899E-002  0.11937334856096456        0.0000000000000000     
  -1.5773741467430859E-002  0.12659511946963442        0.0000000000000000     
  -1.6139560468840859E-002  0.13395269698440829        0.0000000000000000     
  -1.9499255789530684E-002  0.10548827161657789        0.0000000000000000     
  -2.0067199728468266E-002  0.11243054872458486        0.0000000000000000     
  -2.0611285761360097E-002  0.11950862959962183        0.0000000000000000     
  -2.1131513888206159E-002  0.12672251424168882        0.0000000000000000     
  -2.1627884109006467E-002  0.13407220265078576        0.0000000000000000     
   2.3797756300292239E-012  0.13379904684100921        0.0000000000000000     
   2.1512895631570217E-012  0.14129102639786748        0.0000000000000000     
   1.8785710834134939E-012  0.14889571351134895        0.0000000000000000     
   1.5616209497401612E-012  0.15661310818145369        0.0000000000000000     
   1.2004381863550684E-012  0.16444321040818166        0.0000000000000000     
  -5.3256184131477390E-003  0.13381611907952001        0.0000000000000000     
  -5.4354519651007641E-003  0.14130693851456169        0.0000000000000000     
  -5.5372345758888638E-003  0.14891039969810035        0.0000000000000000     
  -5.6309662455120372E-003  0.15662650263013586        0.0000000000000000     
  -5.7166469739702817E-003  0.16445524731066838        0.0000000000000000     
  -1.0705471903554616E-002  0.13386733579398641        0.0000000000000000     
  -1.0930039160756083E-002  0.14135467486356668        0.0000000000000000     
  -1.1138636449879721E-002  0.14895445825786821        0.0000000000000000     
  -1.1331263770925542E-002  0.15666668597689107        0.0000000000000000     
  -1.1507921123893544E-002  0.16449135802063519        0.0000000000000000     
  -1.6139560468840859E-002  0.13395269698440829        0.0000000000000000     
  -1.6483761584814655E-002  0.14143423544488229        0.0000000000000000     
  -1.6804205620094000E-002  0.14902788919065263        0.0000000000000000     
  -1.7100892574678898E-002  0.15673365822171914        0.0000000000000000     
  -1.7373822448569345E-002  0.16455154253808202        0.0000000000000000     
  -2.1627884109006467E-002  0.13407220265078576        0.0000000000000000     
  -2.2096619237276491E-002  0.14154562025850870        0.0000000000000000     
  -2.2533942086531700E-002  0.14913069249645353        0.0000000000000000     
  -2.2939852656772102E-002  0.15682741936462027        0.0000000000000000     
  -2.3314350947997692E-002  0.16463580086300894        0.0000000000000000     
   0.0000000000000000        0.0000000000000000        0.0000000000000000     
  -8.4166729891002124E-004   1.1100160050685705E-003   0.0000000000000000     
  -1.7021133225063921E-003   2.5981875059457619E-003   0.0000000000000000     
  -2.5813380707891127E-003   4.4645145026315737E-003   0.0000000000000000     
  -3.4793415437581830E-003   6.7089969951260060E-003   0.0000000000000000     
   0.0000000000000000        0.0000000000000000        0.0000000000000000     
  -1.0566975412599354E-003   1.1341695161580195E-003   0.0000000000000000     
  -2.1397618323261477E-003   2.6504195074114733E-003   0.0000000000000000     
  -3.2491928731986377E-003   4.5487499737603609E-003   0.0000000000000000     
  -4.3849906638774054E-003   6.8291609152046828E-003   0.0000000000000000     
   0.0000000000000000        0.0000000000000000        0.0000000000000000     
  -1.2878193143307148E-003   1.1700237827960357E-003   0.0000000000000000     
  -2.6055173655083457E-003   2.7246587423960375E-003   0.0000000000000000     
  -3.9530941535328937E-003   4.6639048788000050E-003   0.0000000000000000     
  -5.3305496784043574E-003   6.9877621920079397E-003   0.0000000000000000     
   0.0000000000000000        0.0000000000000000        0.0000000000000000     
  -1.5350326181223593E-003   1.2175788049826187E-003   0.0000000000000000     
  -3.0993799220529858E-003   2.8209052108994540E-003   0.0000000000000000     
  -4.6930419117918801E-003   4.8099792177505067E-003   0.0000000000000000     
  -6.3160185873390408E-003   7.1848008255357759E-003   0.0000000000000000     
   0.0000000000000000        0.0000000000000000        0.0000000000000000     
  -1.7983374526348694E-003   1.2768345827177687E-003   0.0000000000000000     
  -3.6213495019600680E-003   2.9391589129217233E-003   0.0000000000000000     
  -5.4690361479755962E-003   4.9869729906118643E-003   0.0000000000000000     
  -7.3413973906814546E-003   7.4202768157881904E-003   0.0000000000000000     
  -3.4793415437581830E-003   6.7089969951260060E-003   0.0000000000000000     
  -4.3878693348592384E-003   9.2943079500864174E-003   0.0000000000000000     
  -5.2986670375379154E-003   1.2183120334170171E-002   0.0000000000000000     
  -6.2117346517942141E-003   1.5375434147377267E-002   0.0000000000000000     
  -7.1270721776281326E-003   1.8871249389707696E-002   0.0000000000000000     
  -4.3849906638774054E-003   6.8291609152046828E-003   0.0000000000000000     
  -5.5341763330194011E-003   9.4496481422091036E-003   0.0000000000000000     
  -6.6837710092815814E-003   1.2368207465238281E-002   0.0000000000000000     
  -7.8337746926639435E-003   1.5584838884292226E-002   0.0000000000000000     
  -8.9841873831664875E-003   1.9099542399370929E-002   0.0000000000000000     
  -5.3305496784043574E-003   6.9877621920079397E-003   0.0000000000000000     
  -6.7234301499865656E-003   9.6501521488972890E-003   0.0000000000000000     
  -8.1172817781433454E-003   1.2604996216345516E-002   0.0000000000000000     
  -9.5121045628746969E-003   1.5852294394352606E-002   0.0000000000000000     
  -1.0907898504180617E-002   1.9392046682918569E-002   0.0000000000000000     
  -6.3160185873390408E-003   7.1848008255357759E-003   0.0000000000000000     
  -7.9556307857607290E-003   9.8958199701509875E-003   0.0000000000000000     
  -9.5991993441232066E-003   1.2893486587491863E-002   0.0000000000000000     
  -1.1246724262426471E-002   1.6177800677558408E-002   0.0000000000000000     
  -1.2898205540670523E-002   1.9748762240350617E-002   0.0000000000000000     
  -7.3413973906814546E-003   7.4202768157881904E-003   0.0000000000000000     
  -9.2307782403418925E-003   1.0186651605970185E-002   0.0000000000000000     
  -1.1129523707221162E-002   1.3233678578677330E-002   0.0000000000000000     
  -1.3037633791319269E-002   1.6561357733909626E-002   0.0000000000000000     
  -1.4955108492636201E-002   2.0169689071667073E-002   0.0000000000000000     
  -7.1270721776281326E-003   1.8871249389707696E-002   0.0000000000000000     
  -8.0381185768894827E-003   2.2644680972658187E-002   0.0000000000000000     
  -8.9383128114280726E-003   2.6669843807725434E-002   0.0000000000000000     
  -9.8276548812439041E-003   3.0946737894909458E-002   0.0000000000000000     
  -1.0706144786336975E-002   3.5475363234210230E-002   0.0000000000000000     
  -8.9841873831664875E-003   1.9099542399370929E-002   0.0000000000000000     
  -1.0128024092555168E-002   2.2887513113417413E-002   0.0000000000000000     
  -1.1258299832595929E-002   2.6923946129374682E-002   0.0000000000000000     
  -1.2375014603288777E-002   3.1208841447242737E-002   0.0000000000000000     
  -1.3478168404633705E-002   3.5742199067021585E-002   0.0000000000000000     
  -1.0907898504180617E-002   1.9392046682918569E-002   0.0000000000000000     
  -1.2294404888538417E-002   2.3199363446779826E-002   0.0000000000000000     
  -1.3661365002425386E-002   2.7249355050672795E-002   0.0000000000000000     
  -1.5008778845841534E-002   3.1542021494597471E-002   0.0000000000000000     
  -1.6336646418786859E-002   3.6077362778553869E-002   0.0000000000000000     
  -1.2898205540670523E-002   1.9748762240350617E-002   0.0000000000000000     
  -1.4537260964839226E-002   2.3580231972745426E-002   0.0000000000000000     
  -1.6147508320916444E-002   2.7646070571619774E-002   0.0000000000000000     
  -1.7728947608902184E-002   3.1946278036973662E-002   0.0000000000000000     
  -1.9281578828796442E-002   3.6480854368807075E-002   0.0000000000000000     
  -1.4955108492636201E-002   2.0169689071667073E-002   0.0000000000000000     
  -1.6856592321457604E-002   2.4030118691314221E-002   0.0000000000000000     
  -1.8716729788069108E-002   2.8114092692215632E-002   0.0000000000000000     
  -2.0535520892470717E-002   3.2421611074371297E-002   0.0000000000000000     
  -2.2312965634662438E-002   3.6952673837781218E-002   0.0000000000000000     
  -1.0706144786336975E-002   3.5475363234210230E-002   0.0000000000000000     
  -1.1567991838304219E-002   4.0235447055951529E-002   0.0000000000000000     
  -1.2407405348742569E-002   4.5206716590457094E-002   0.0000000000000000     
  -1.3224385317652023E-002   5.0389171837726912E-002   0.0000000000000000     
  -1.4018931745032583E-002   5.5782812797761004E-002   0.0000000000000000     
  -1.3478168404633705E-002   3.5742199067021585E-002   0.0000000000000000     
  -1.4560144672342699E-002   4.0504156505246365E-002   0.0000000000000000     
  -1.5613326842127738E-002   4.5474851278452216E-002   0.0000000000000000     
  -1.6637714913988817E-002   5.0654283386639146E-002   0.0000000000000000     
  -1.7633308887925941E-002   5.6042452829807146E-002   0.0000000000000000     
  -1.6336646418786859E-002   3.6077362778553869E-002   0.0000000000000000     
  -1.7637257785271029E-002   4.0837577157874290E-002   0.0000000000000000     
  -1.8902903009303713E-002   4.5804862887891054E-002   0.0000000000000000     
  -2.0133582090884901E-002   5.0979219968604161E-002   0.0000000000000000     
  -2.1329295030014607E-002   5.6360648400013605E-002   0.0000000000000000     
  -1.9281578828796442E-002   3.6480854368807075E-002   0.0000000000000000     
  -2.0799331177089202E-002   4.1235709013835296E-002   0.0000000000000000     
  -2.2276133850270483E-002   4.6196751418773593E-002   0.0000000000000000     
  -2.3711986848340274E-002   5.1363981583621973E-002   0.0000000000000000     
  -2.5106890171298576E-002   5.6737399508380401E-002   0.0000000000000000     
  -2.2312965634662438E-002   3.6952673837781218E-002   0.0000000000000000     
  -2.4046364847797225E-002   4.1698552073129405E-002   0.0000000000000000     
  -2.5733019365028059E-002   4.6650516871099848E-002   0.0000000000000000     
  -2.7372929186354932E-002   5.1808568231692560E-002   0.0000000000000000     
  -2.8966094311777855E-002   5.7172706154907535E-002   0.0000000000000000     
  -1.4018931745032583E-002   5.5782812797761004E-002   0.0000000000000000     
  -1.4790405161676212E-002   6.1374587410156459E-002   0.0000000000000000     
  -1.5538166098374872E-002   6.7151443614510392E-002   0.0000000000000000     
  -1.6262214555128562E-002   7.3113381410822811E-002   0.0000000000000000     
  -1.6962550531937282E-002   7.9260400799093703E-002   0.0000000000000000     
  -1.7633308887925941E-002   5.6042452829807146E-002   0.0000000000000000     
  -1.8599667193861975E-002   6.1627369707395678E-002   0.0000000000000000     
  -1.9536348261719769E-002   6.7397044118844215E-002   0.0000000000000000     
  -2.0443352091499337E-002   7.3351476064152765E-002   0.0000000000000000     
  -2.1320678683200676E-002   7.9490665543321307E-002   0.0000000000000000     
  -2.1329295030014607E-002   5.6360648400013605E-002   0.0000000000000000     
  -2.2489621831698624E-002   6.1937642091194907E-002   0.0000000000000000     
  -2.3614142500942768E-002   6.7698694951223548E-002   0.0000000000000000     
  -2.4702857037747026E-002   7.3643806980099549E-002   0.0000000000000000     
  -2.5755765442111399E-002   7.9772978177822862E-002   0.0000000000000000     
  -2.5106890171298576E-002   5.6737399508380401E-002   0.0000000000000000     
  -2.6460269075186175E-002   6.2305404561554138E-002   0.0000000000000000     
  -2.7771548816043854E-002   6.8056396111648362E-002   0.0000000000000000     
  -2.9040729393871621E-002   7.3990374158663108E-002   0.0000000000000000     
  -3.0267810808669464E-002   8.0107338702598355E-002   0.0000000000000000     
  -2.8966094311777855E-002   5.7172706154907535E-002   0.0000000000000000     
  -3.0511608924324619E-002   6.2730657118473379E-002   0.0000000000000000     
  -3.2008567207023046E-002   6.8470147600118714E-002   0.0000000000000000     
  -3.3456969159873125E-002   7.4391177599843511E-002   0.0000000000000000     
  -3.4856814782874862E-002   8.0493747117647813E-002   0.0000000000000000     
  -1.6962550531937282E-002   7.9260400799093703E-002   0.0000000000000000     
  -1.7637454413164048E-002   8.5579312863374044E-002   0.0000000000000000     
  -1.8285206583171870E-002   9.2056928687714867E-002   0.0000000000000000     
  -1.8905807041960751E-002   9.8693248272116132E-002   0.0000000000000000     
  -1.9499255789530684E-002  0.10548827161657789        0.0000000000000000     
  -2.1320678683200676E-002   7.9490665543321307E-002   0.0000000000000000     
  -2.2166097594877261E-002   8.5801358738216427E-002   0.0000000000000000     
  -2.2977378384582591E-002   9.2270301830704657E-002   0.0000000000000000     
  -2.3754521052316655E-002   9.8897494820786080E-002   0.0000000000000000     
  -2.4497525598079450E-002  0.10568293770846060        0.0000000000000000     
  -2.5755765442111399E-002   7.9772978177822862E-002   0.0000000000000000     
  -2.6770365047836118E-002   8.6073173262376582E-002   0.0000000000000000     
  -2.7744153188721383E-002   9.2531356951743651E-002   0.0000000000000000     
  -2.8677129864767212E-002   9.9147529245924154E-002   0.0000000000000000     
  -2.9569295075973584E-002  0.10592169014491806        0.0000000000000000     
  -3.0267810808669464E-002   8.0107338702598355E-002   0.0000000000000000     
  -3.1450256772040601E-002   8.6394756435854481E-002   0.0000000000000000     
  -3.2585530995588252E-002   9.2840094050831823E-002   0.0000000000000000     
  -3.3673633479312425E-002   9.9443351547530423E-002   0.0000000000000000     
  -3.4714564223213090E-002  0.10620452892595024        0.0000000000000000     
  -3.4856814782874862E-002   8.0493747117647813E-002   0.0000000000000000     
  -3.6205772767490728E-002   8.6766108258650165E-002   0.0000000000000000     
  -3.7501511805183192E-002   9.3196513127969186E-002   0.0000000000000000     
  -3.8744031895952262E-002   9.9784961725604845E-002   0.0000000000000000     
  -3.9933333039797944E-002  0.10653145405155719        0.0000000000000000     
  -1.9499255789530684E-002  0.10548827161657789        0.0000000000000000     
  -2.0067199728468266E-002  0.11243054872458486        0.0000000000000000     
  -2.0611285761360097E-002  0.11950862959962183        0.0000000000000000     
  -2.1131513888206159E-002  0.12672251424168882        0.0000000000000000     
  -2.1627884109006467E-002  0.13407220265078576        0.0000000000000000     
  -2.4497525598079450E-002  0.10568293770846060        0.0000000000000000     
  -2.5209404096721955E-002  0.11261536246611363        0.0000000000000000     
  -2.5893168623095122E-002  0.11968350106613057        0.0000000000000000     
  -2.6548819177198955E-002  0.12688735350851144        0.0000000000000000     
  -2.7176355759033460E-002  0.13422691979325613        0.0000000000000000     
  -2.9569295075973584E-002  0.10592169014491806        0.0000000000000000     
  -3.0424464264934219E-002  0.11284257062515841        0.0000000000000000     
  -3.1246452874242804E-002  0.11989890166307830        0.0000000000000000     
  -3.2035260903899354E-002  0.12709068325867776        0.0000000000000000     
  -3.2790888353903841E-002  0.13441791541195675        0.0000000000000000     
  -3.4714564223213090E-002  0.10620452892595024        0.0000000000000000     
  -3.5712380233105058E-002  0.11311217320171917        0.0000000000000000     
  -3.6671138514803144E-002  0.12015483139046501        0.0000000000000000     
  -3.7590839068307333E-002  0.12733250349218783        0.0000000000000000     
  -3.8471481893617640E-002  0.13464518950688756        0.0000000000000000     
  -3.9933333039797944E-002  0.10653145405155719        0.0000000000000000     
  -4.1073152001234479E-002  0.11342417019579590        0.0000000000000000     
  -4.2167225544776143E-002  0.12045129024829071        0.0000000000000000     
  -4.3215553670422922E-002  0.12761281420904164        0.0000000000000000     
  -4.4218136378174830E-002  0.13490874207804868        0.0000000000000000     
  -2.1627884109006467E-002  0.13407220265078576        0.0000000000000000     
  -2.2096619237276491E-002  0.14154562025850870        0.0000000000000000     
  -2.2533942086531700E-002  0.14913069249645353        0.0000000000000000     
  -2.2939852656772102E-002  0.15682741936462027        0.0000000000000000     
  -2.3314350947997692E-002  0.16463580086300894        0.0000000000000000     
  -2.7176355759033460E-002  0.13422691979325613        0.0000000000000000     
  -2.7770384814188004E-002  0.14168994811837313        0.0000000000000000     
  -2.8325512788251961E-002  0.14926418668187072        0.0000000000000000     
  -2.8841739681225342E-002  0.15694963548374899        0.0000000000000000     
  -2.9319065493108133E-002  0.16474629452400788        0.0000000000000000     
  -3.2790888353903841E-002  0.13441791541195675        0.0000000000000000     
  -3.3506831011595607E-002  0.14186833783840294        0.0000000000000000     
  -3.4176584664313926E-002  0.14942969025350403        0.0000000000000000     
  -3.4800149312058798E-002  0.15710197265726000        0.0000000000000000     
  -3.5377524954830222E-002  0.16488518504967092        0.0000000000000000     
  -3.8471481893617640E-002  0.13464518950688756        0.0000000000000000     
  -3.9305957829499298E-002  0.14208078941859817        0.0000000000000000     
  -4.0087157714717568E-002  0.14962720321135342        0.0000000000000000     
  -4.0815081549272471E-002  0.15728443088515337        0.0000000000000000     
  -4.1489729333163972E-002  0.16505247243999799        0.0000000000000000     
  -4.4218136378174830E-002  0.13490874207804868        0.0000000000000000     
  -4.5167765267899077E-002  0.14232730285895878        0.0000000000000000     
  -4.6057231939462914E-002  0.14985672555541887        0.0000000000000000     
  -4.6886536392866350E-002  0.15749701016742901        0.0000000000000000     
  -4.7655678628109356E-002  0.16524815669498910        0.0000000000000000     
   0.0000000000000000        0.0000000000000000        0.0000000000000000     
  -1.7983374526348694E-003   1.2768345827177687E-003   0.0000000000000000     
  -3.6213495019600680E-003   2.9391589129217233E-003   0.0000000000000000     
  -5.4690361479755962E-003   4.9869729906118643E-003   0.0000000000000000     
  -7.3413973906814546E-003   7.4202768157881904E-003   0.0000000000000000     
   0.0000000000000000        0.0000000000000000        0.0000000000000000     
  -2.0694594347004636E-003   1.3549147646542920E-003   0.0000000000000000     
  -4.1640740334725739E-003   3.0939439078521763E-003   0.0000000000000000     
  -6.2838437963163296E-003   5.2170874295936536E-003   0.0000000000000000     
  -8.4287687232317329E-003   7.7243453298787221E-003   0.0000000000000000     
   0.0000000000000000        0.0000000000000000        0.0000000000000000     
  -2.3401241811513607E-003   1.4589429994449946E-003   0.0000000000000000     
  -4.7202014448334819E-003   3.2997842550801441E-003   0.0000000000000000     
  -7.1402317910463651E-003   5.5225237669054485E-003   0.0000000000000000     
  -9.6002152197900079E-003   8.1271615349209087E-003   0.0000000000000000     
   0.0000000000000000        0.0000000000000000        0.0000000000000000     
  -2.6103316919875606E-003   1.5889192870898771E-003   0.0000000000000000     
  -5.2897317360427933E-003   3.5566799546056273E-003   0.0000000000000000     
  -8.0382001321657008E-003   5.9032820025472516E-003   0.0000000000000000     
  -1.0855736880356280E-002   8.6287254309147486E-003   0.0000000000000000     
   0.0000000000000000        0.0000000000000000        0.0000000000000000     
  -2.8800819672090638E-003   1.7448436275889390E-003   0.0000000000000000     
  -5.8726649071005090E-003   3.8646310064286257E-003   0.0000000000000000     
  -8.9777488196743378E-003   6.3593621365190612E-003   0.0000000000000000     
  -1.2195333704930549E-002   9.2290370178602435E-003   0.0000000000000000     
  -7.3413973906814546E-003   7.4202768157881904E-003   0.0000000000000000     
  -9.2307782403418925E-003   1.0186651605970185E-002   0.0000000000000000     
  -1.1129523707221162E-002   1.3233678578677330E-002   0.0000000000000000     
  -1.3037633791319269E-002   1.6561357733909626E-002   0.0000000000000000     
  -1.4955108492636201E-002   2.0169689071667073E-002   0.0000000000000000     
  -8.4287687232317329E-003   7.7243453298787221E-003   0.0000000000000000     
  -1.0590550650426368E-002   1.0558270512059403E-002   0.0000000000000000     
  -1.2760891414107816E-002   1.3661415879487706E-002   0.0000000000000000     
  -1.4939791014276079E-002   1.7033781432163636E-002   0.0000000000000000     
  -1.7127249450931165E-002   2.0675367170087191E-002   0.0000000000000000     
  -9.6002152197900079E-003   8.1271615349209087E-003   0.0000000000000000     
  -1.2076626152710457E-002   1.1046300144123146E-002   0.0000000000000000     
  -1.4545939011453759E-002   1.4212542179508778E-002   0.0000000000000000     
  -1.7008153796019915E-002   1.7625887641077809E-002   0.0000000000000000     
  -1.9463270506408913E-002   2.1286336528830233E-002   0.0000000000000000     
  -1.0855736880356280E-002   8.6287254309147486E-003   0.0000000000000000     
  -1.3689004747194164E-002   1.1650740502161415E-002   0.0000000000000000     
  -1.6484666499258990E-002   1.4887057478740544E-002   0.0000000000000000     
  -1.9242722136550754E-002   1.8337676360652137E-002   0.0000000000000000     
  -2.1963171659069469E-002   2.2002597147896201E-002   0.0000000000000000     
  -1.2195333704930549E-002   9.2290370178602435E-003   0.0000000000000000     
  -1.5427686433877494E-002   1.2371591586174216E-002   0.0000000000000000     
  -1.8577073877523515E-002   1.5684961777183010E-002   0.0000000000000000     
  -2.1643496035868626E-002   1.9169147590886632E-002   0.0000000000000000     
  -2.4626952908912810E-002   2.2824149027285086E-002   0.0000000000000000     
  -1.4955108492636201E-002   2.0169689071667073E-002   0.0000000000000000     
  -1.6856592321457604E-002   2.4030118691314221E-002   0.0000000000000000     
  -1.8716729788069108E-002   2.8114092692215632E-002   0.0000000000000000     
  -2.0535520892470717E-002   3.2421611074371297E-002   0.0000000000000000     
  -2.2312965634662438E-002   3.6952673837781218E-002   0.0000000000000000     
  -1.7127249450931165E-002   2.0675367170087191E-002   0.0000000000000000     
  -1.9291957699919302E-002   2.4558576912172381E-002   0.0000000000000000     
  -2.1402606737086750E-002   2.8655814477333202E-002   0.0000000000000000     
  -2.3459196562433501E-002   3.2967079865569654E-002   0.0000000000000000     
  -2.5461727175959556E-002   3.7492373076881753E-002   0.0000000000000000     
  -1.9463270506408913E-002   2.1286336528830233E-002   0.0000000000000000     
  -2.1882915841750093E-002   2.5175159945006076E-002   0.0000000000000000     
  -2.4238716501172746E-002   2.9273628991845338E-002   0.0000000000000000     
  -2.6530672484676884E-002   3.3581743669348019E-002   0.0000000000000000     
  -2.8758783792262502E-002   3.8099503977514139E-002   0.0000000000000000     
  -2.1963171659069469E-002   2.2002597147896201E-002   0.0000000000000000     
  -2.4629466746949959E-002   2.5879867789815301E-002   0.0000000000000000     
  -2.7225059080327092E-002   2.9967536235752032E-002   0.0000000000000000     
  -2.9749948659200862E-002   3.4265602485706391E-002   0.0000000000000000     
  -3.2204135483571268E-002   3.8774066539678374E-002   0.0000000000000000     
  -2.4626952908912810E-002   2.2824149027285086E-002   0.0000000000000000     
  -2.7531610415518916E-002   2.6672700446600073E-002   0.0000000000000000     
  -3.0361634474549797E-002   3.0737536209053291E-002   0.0000000000000000     
  -3.3117025086005447E-002   3.5018656314644757E-002   0.0000000000000000     
  -3.5797782249885862E-002   3.9516060763374460E-002   0.0000000000000000     
  -2.2312965634662438E-002   3.6952673837781218E-002   0.0000000000000000     
  -2.4046364847797225E-002   4.1698552073129405E-002   0.0000000000000000     
  -2.5733019365028059E-002   4.6650516871099848E-002   0.0000000000000000     
  -2.7372929186354932E-002   5.1808568231692560E-002   0.0000000000000000     
  -2.8966094311777855E-002   5.7172706154907535E-002   0.0000000000000000     
  -2.5461727175959556E-002   3.7492373076881753E-002   0.0000000000000000     
  -2.7410834775423078E-002   4.2227564011886605E-002   0.0000000000000000     
  -2.9307155558582224E-002   4.7168522571201313E-002   0.0000000000000000     
  -3.1150689525436988E-002   5.2315248754825912E-002   0.0000000000000000     
  -3.2941436675987375E-002   5.7667742562760374E-002   0.0000000000000000     
  -2.8758783792262502E-002   3.8099503977514139E-002   0.0000000000000000     
  -3.0925216937994750E-002   4.2824202506236898E-002   0.0000000000000000     
  -3.3032138435938767E-002   4.7753131845409504E-002   0.0000000000000000     
  -3.5079548286094539E-002   5.2886291995031968E-002   0.0000000000000000     
  -3.7067446488462094E-002   5.8223682955104307E-002   0.0000000000000000     
  -3.2204135483571268E-002   3.8774066539678374E-002   0.0000000000000000     
  -3.4589511335512226E-002   4.3488467556180278E-002   0.0000000000000000     
  -3.6907967997097668E-002   4.8404344693724406E-002   0.0000000000000000     
  -3.9159505468327596E-002   5.3521697952310758E-002   0.0000000000000000     
  -4.1344123749201996E-002   5.8840527331939320E-002   0.0000000000000000     
  -3.5797782249885862E-002   3.9516060763374460E-002   0.0000000000000000     
  -3.8403717967975537E-002   4.4220359161716759E-002   0.0000000000000000     
  -4.0934644242058969E-002   4.9122161116146021E-002   0.0000000000000000     
  -4.3390561072136152E-002   5.4221466626662253E-002   0.0000000000000000     
  -4.5771468458207079E-002   5.9518275693265427E-002   0.0000000000000000     
  -2.8966094311777855E-002   5.7172706154907535E-002   0.0000000000000000     
  -3.0511608924324619E-002   6.2730657118473379E-002   0.0000000000000000     
  -3.2008567207023046E-002   6.8470147600118714E-002   0.0000000000000000     
  -3.3456969159873125E-002   7.4391177599843511E-002   0.0000000000000000     
  -3.4856814782874862E-002   8.0493747117647813E-002   0.0000000000000000     
  -3.2941436675987375E-002   5.7667742562760374E-002   0.0000000000000000     
  -3.4678337163651006E-002   6.3213256134121376E-002   0.0000000000000000     
  -3.6360331141845482E-002   6.8939041608025553E-002   0.0000000000000000     
  -3.7987418610570825E-002   7.4845098984472933E-002   0.0000000000000000     
  -3.9559599569827013E-002   8.0931428263463501E-002   0.0000000000000000     
  -3.7067446488462094E-002   5.8223682955104307E-002   0.0000000000000000     
  -3.8995149577702365E-002   6.3753057980666841E-002   0.0000000000000000     
  -4.0861974088476333E-002   6.9462170326759914E-002   0.0000000000000000     
  -4.2667920020783991E-002   7.5351019993383547E-002   0.0000000000000000     
  -4.4412987374625332E-002   8.1419606980537740E-002   0.0000000000000000     
  -4.1344123749201996E-002   5.8840527331939320E-002   0.0000000000000000     
  -4.3462046166478717E-002   6.4350062658109788E-002   0.0000000000000000     
  -4.5513496046915590E-002   7.0039533756321798E-002   0.0000000000000000     
  -4.7498473390512622E-002   7.5908940626575369E-002   0.0000000000000000     
  -4.9416978197269819E-002   8.1958283268870516E-002   0.0000000000000000     
  -4.5771468458207079E-002   5.9518275693265427E-002   0.0000000000000000     
  -4.8079026929980034E-002   6.5004270166450190E-002   0.0000000000000000     
  -5.0314897017163247E-002   7.0671131896711190E-002   0.0000000000000000     
  -5.2479078719756739E-002   7.6518860884048426E-002   0.0000000000000000     
  -5.4571572037760488E-002   8.2547457128461871E-002   0.0000000000000000     
  -3.4856814782874862E-002   8.0493747117647813E-002   0.0000000000000000     
  -3.6205772767490728E-002   8.6766108258650165E-002   0.0000000000000000     
  -3.7501511805183192E-002   9.3196513127969186E-002   0.0000000000000000     
  -3.8744031895952262E-002   9.9784961725604845E-002   0.0000000000000000     
  -3.9933333039797944E-002  0.10653145405155719        0.0000000000000000     
  -3.9559599569827013E-002   8.0931428263463501E-002   0.0000000000000000     
  -4.1074747184006583E-002   8.7186972674070329E-002   0.0000000000000000     
  -4.2530734617502036E-002   9.3600675445366516E-002   0.0000000000000000     
  -4.3927561870313409E-002  0.10017253657735203        0.0000000000000000     
  -4.5265228942440679E-002  0.10690255607002691        0.0000000000000000     
  -4.4412987374625332E-002   8.1419606980537740E-002   0.0000000000000000     
  -4.6095014171408252E-002   8.7657093625421678E-002   0.0000000000000000     
  -4.7711838432540642E-002   9.4052642265234632E-002   0.0000000000000000     
  -4.9263460158022465E-002  0.10060625289997656        0.0000000000000000     
  -5.0749879347853771E-002  0.10731792552964747        0.0000000000000000     
  -4.9416978197269819E-002   8.1958283268870516E-002   0.0000000000000000     
  -5.1266573729695751E-002   8.8176471112704241E-002   0.0000000000000000     
  -5.3044823250298960E-002   9.4552413587573533E-002   0.0000000000000000     
  -5.4751726759079460E-002  0.10108611069347842        0.0000000000000000     
  -5.6387284256037257E-002  0.10777756243041890        0.0000000000000000     
  -5.4571572037760488E-002   8.2547457128461871E-002   0.0000000000000000     
  -5.6589425858869058E-002   8.8745105135917990E-002   0.0000000000000000     
  -5.8529689070777026E-002   9.5099989412383248E-002   0.0000000000000000     
  -6.0392361673484378E-002  0.10161210995785763        0.0000000000000000     
  -6.2177443666991114E-002  0.10828146677234114        0.0000000000000000     
  -3.9933333039797944E-002  0.10653145405155719        0.0000000000000000     
  -4.1073152001234479E-002  0.11342417019579590        0.0000000000000000     
  -4.2167225544776143E-002  0.12045129024829071        0.0000000000000000     
  -4.3215553670422922E-002  0.12761281420904164        0.0000000000000000     
  -4.4218136378174830E-002  0.13490874207804868        0.0000000000000000     
  -4.5265228942440679E-002  0.10690255607002691        0.0000000000000000     
  -4.6547130919132013E-002  0.11377858472604488        0.0000000000000000     
  -4.7776662885635583E-002  0.12078847334805967        0.0000000000000000     
  -4.8953824841951411E-002  0.12793222193607134        0.0000000000000000     
  -5.0078616788079483E-002  0.13520983049007981        0.0000000000000000     
  -5.0749879347853771E-002  0.10731792552964747        0.0000000000000000     
  -5.2174668336607166E-002  0.11417543991112238        0.0000000000000000     
  -5.3541399458855277E-002  0.12116657580127624        0.0000000000000000     
  -5.4850072714598089E-002  0.12829133320010902        0.0000000000000000     
  -5.6100688103835630E-002  0.13554971210762076        0.0000000000000000     
  -5.6387284256037257E-002  0.10777756243041890        0.0000000000000000     
  -5.7955764253659968E-002  0.11461473575102837        0.0000000000000000     
  -5.9461435264435210E-002  0.12158559760794030        0.0000000000000000     
  -6.0904297288362996E-002  0.12869014800115475        0.0000000000000000     
  -6.2284350325443313E-002  0.13592838693067155        0.0000000000000000     
  -6.2177443666991114E-002  0.10828146677234114        0.0000000000000000     
  -6.3890418670290397E-002  0.11509647224576289        0.0000000000000000     
  -6.5536770302375397E-002  0.12204553876805198        0.0000000000000000     
  -6.7116498563246085E-002  0.12912866633920839        0.0000000000000000     
  -6.8629603452902505E-002  0.13634585495923215        0.0000000000000000     
  -4.4218136378174830E-002  0.13490874207804868        0.0000000000000000     
  -4.5167765267899077E-002  0.14232730285895878        0.0000000000000000     
  -4.6057231939462914E-002  0.14985672555541887        0.0000000000000000     
  -4.6886536392866350E-002  0.15749701016742901        0.0000000000000000     
  -4.7655678628109356E-002  0.16524815669498910        0.0000000000000000     
  -5.0078616788079483E-002  0.13520983049007981        0.0000000000000000     
  -5.1143931552553618E-002  0.14260977735526015        0.0000000000000000     
  -5.2142661963907676E-002  0.15012054087678725        0.0000000000000000     
  -5.3074808022141637E-002  0.15774212105466121        0.0000000000000000     
  -5.3940369727255522E-002  0.16547451788888201        0.0000000000000000     
  -5.6100688103835630E-002  0.13554971210762076        0.0000000000000000     
  -5.7286134909221555E-002  0.14293011210327752        0.0000000000000000     
  -5.8399302413409522E-002  0.15042093276654542        0.0000000000000000     
  -5.9440190616399546E-002  0.15802217409742431        0.0000000000000000     
  -6.0408799518191607E-002  0.16573383609591430        0.0000000000000000     
  -6.2284350325443313E-002  0.13592838693067155        0.0000000000000000     
  -6.3594375337902895E-002  0.14328830710301102        0.0000000000000000     
  -6.4827153287968481E-002  0.15075790122469324        0.0000000000000000     
  -6.5982684175640044E-002  0.15833716929571828        0.0000000000000000     
  -6.7060968000917598E-002  0.16602611131608608        0.0000000000000000     
  -6.8629603452902505E-002  0.13634585495923215        0.0000000000000000     
  -7.0068652838597645E-002  0.14368436235446053        0.0000000000000000     
  -7.1426214587584524E-002  0.15113144625123087        0.0000000000000000     
  -7.2702288699863143E-002  0.15868710664954311        0.0000000000000000     
  -7.3896875175433502E-002  0.16635134354939723        0.0000000000000000     
   0.0000000000000000        0.0000000000000000        0.0000000000000000     
  -2.8800819672090638E-003   1.7448436275889390E-003   0.0000000000000000     
  -5.8726649071005090E-003   3.8646310064286257E-003   0.0000000000000000     
  -8.9777488196743378E-003   6.3593621365190612E-003   0.0000000000000000     
  -1.2195333704930549E-002   9.2290370178602435E-003   0.0000000000000000     
   0.0000000000000000        0.0000000000000000        0.0000000000000000     
  -3.2832145602055759E-003   1.9993636145208037E-003   0.0000000000000000     
  -6.6769726472534320E-003   4.3309369769041770E-003   0.0000000000000000     
  -1.0181274261143567E-002   6.9947200871501216E-003   0.0000000000000000     
  -1.3796119401875979E-002   9.9907129452586393E-003   0.0000000000000000     
   0.0000000000000000        0.0000000000000000        0.0000000000000000     
  -3.9535690243668060E-003   2.4251268414640938E-003   0.0000000000000000     
  -7.9106266457483650E-003   5.0628974323873206E-003   0.0000000000000000     
  -1.1871172864144675E-002   7.9133117727696826E-003   0.0000000000000000     
  -1.5835207679555742E-002   1.0976369862611175E-002   0.0000000000000000     
   0.0000000000000000        0.0000000000000000        0.0000000000000000     
  -4.8911453596927517E-003   3.0221333084188089E-003   0.0000000000000000     
  -9.5736269025853051E-003   6.0605123728780554E-003   0.0000000000000000     
  -1.4047444628677665E-002   9.1151371933777380E-003   0.0000000000000000     
  -1.8312598537969828E-002   1.2186007769917859E-002   0.0000000000000000     
   0.0000000000000000        0.0000000000000000        0.0000000000000000     
  -6.0959435661834139E-003   3.7903830153849499E-003   0.0000000000000000     
  -1.1665973417764259E-002   7.3237817983763803E-003   0.0000000000000000     
  -1.6710089554742534E-002   1.0600196348974293E-002   0.0000000000000000     
  -2.1228291977118244E-002   1.3619626667178685E-002   0.0000000000000000     
  -1.2195333704930549E-002   9.2290370178602435E-003   0.0000000000000000     
  -1.5427686433877494E-002   1.2371591586174216E-002   0.0000000000000000     
  -1.8577073877523515E-002   1.5684961777183010E-002   0.0000000000000000     
  -2.1643496035868626E-002   1.9169147590886632E-002   0.0000000000000000     
  -2.4626952908912810E-002   2.2824149027285086E-002   0.0000000000000000     
  -1.3796119401875979E-002   9.9907129452586393E-003   0.0000000000000000     
  -1.7404421299456616E-002   1.3220948517227597E-002   0.0000000000000000     
  -2.0889093183891407E-002   1.6587459769054874E-002   0.0000000000000000     
  -2.4250135055180363E-002   2.0090246700740472E-002   0.0000000000000000     
  -2.7487546913323474E-002   2.3729309312284383E-002   0.0000000000000000     
  -1.5835207679555742E-002   1.0976369862611175E-002   0.0000000000000000     
  -1.9730959430627710E-002   1.4210906416387621E-002   0.0000000000000000     
  -2.3486656456006744E-002   1.7575756148574834E-002   0.0000000000000000     
  -2.7102298755692839E-002   2.1070919059172827E-002   0.0000000000000000     
  -3.0577886329685996E-002   2.4696395148181581E-002   0.0000000000000000     
  -1.8312598537969828E-002   1.2186007769917859E-002   0.0000000000000000     
  -2.2407300827390789E-002   1.5341465283654290E-002   0.0000000000000000     
  -2.6369763693869529E-002   1.8649850915742901E-002   0.0000000000000000     
  -3.0199987137406053E-002   2.2111164666183694E-002   0.0000000000000000     
  -3.3897971158000369E-002   2.5725406534976673E-002   0.0000000000000000     
  -2.1228291977118244E-002   1.3619626667178685E-002   0.0000000000000000     
  -2.5433445489745833E-002   1.6612625119027596E-002   0.0000000000000000     
  -2.9538414897479753E-002   1.9809744070559063E-002   0.0000000000000000     
  -3.3543200200320013E-002   2.3210983521773088E-002   0.0000000000000000     
  -3.7447801398266596E-002   2.6816343472669667E-002   0.0000000000000000     
  -2.4626952908912810E-002   2.2824149027285086E-002   0.0000000000000000     
  -2.7531610415518916E-002   2.6672700446600073E-002   0.0000000000000000     
  -3.0361634474549797E-002   3.0737536209053291E-002   0.0000000000000000     
  -3.3117025086005447E-002   3.5018656314644757E-002   0.0000000000000000     
  -3.5797782249885862E-002   3.9516060763374460E-002   0.0000000000000000     
  -2.7487546913323474E-002   2.3729309312284383E-002   0.0000000000000000     
  -3.0624374716066143E-002   2.7547159824928488E-002   0.0000000000000000     
  -3.3683664421153760E-002   3.1586310459914661E-002   0.0000000000000000     
  -3.6665416028586327E-002   3.5846761217242902E-002   0.0000000000000000     
  -3.9569629538363849E-002   4.0328512096913217E-002   0.0000000000000000     
  -3.0577886329685996E-002   2.4696395148181581E-002   0.0000000000000000     
  -3.3942787517200805E-002   2.8496747834368678E-002   0.0000000000000000     
  -3.7226370657451886E-002   3.2516540536501687E-002   0.0000000000000000     
  -4.0428635750439222E-002   3.6755773254580612E-002   0.0000000000000000     
  -4.3549582796162827E-002   4.1214445988605450E-002   0.0000000000000000     
  -3.3897971158000369E-002   2.5725406534976673E-002   0.0000000000000000     
  -3.7486848818922919E-002   2.9521464474920635E-002   0.0000000000000000     
  -4.0989753183444173E-002   3.3528226438814368E-002   0.0000000000000000     
  -4.4406684251564126E-002   3.7745692426657880E-002   0.0000000000000000     
  -4.7737642023282775E-002   4.2173862438451164E-002   0.0000000000000000     
  -3.7447801398266596E-002   2.6816343472669667E-002   0.0000000000000000     
  -4.1256558621232481E-002   3.0621309746584356E-002   0.0000000000000000     
  -4.4973811999130628E-002   3.4621368166852698E-002   0.0000000000000000     
  -4.8599561531961030E-002   3.8816518733474706E-002   0.0000000000000000     
  -5.2133807219723702E-002   4.3206761446450359E-002   0.0000000000000000     
  -3.5797782249885862E-002   3.9516060763374460E-002   0.0000000000000000     
  -3.8403717967975537E-002   4.4220359161716759E-002   0.0000000000000000     
  -4.0934644242058969E-002   4.9122161116146021E-002   0.0000000000000000     
  -4.3390561072136152E-002   5.4221466626662253E-002   0.0000000000000000     
  -4.5771468458207079E-002   5.9518275693265427E-002   0.0000000000000000     
  -3.9569629538363849E-002   4.0328512096913217E-002   0.0000000000000000     
  -4.2393722514002204E-002   4.5018136153897298E-002   0.0000000000000000     
  -4.5135112519017299E-002   4.9902206443166876E-002   0.0000000000000000     
  -4.7793799553409101E-002   5.4980722964721930E-002   0.0000000000000000     
  -5.0369783617177644E-002   6.0253685718562461E-002   0.0000000000000000     
  -4.3549582796162827E-002   4.1214445988605450E-002   0.0000000000000000     
  -4.6585410652209822E-002   4.5880057363772854E-002   0.0000000000000000     
  -4.9532318176167336E-002   5.0740106005279451E-002   0.0000000000000000     
  -5.2390305368035378E-002   5.5794591913125260E-002   0.0000000000000000     
  -5.5159372227813960E-002   6.1043515087310277E-002   0.0000000000000000     
  -4.7737642023282775E-002   4.2173862438451164E-002   0.0000000000000000     
  -5.0978782382598342E-002   4.6806122791343406E-002   0.0000000000000000     
  -5.4126261213509087E-002   5.1635859802483766E-002   0.0000000000000000     
  -5.7180078516014976E-002   5.6663073471872244E-002   0.0000000000000000     
  -6.0140234290116036E-002   6.1887763799508860E-002   0.0000000000000000     
  -5.2133807219723702E-002   4.3206761446450359E-002   0.0000000000000000     
  -5.5573837705167814E-002   4.7796332436608968E-002   0.0000000000000000     
  -5.8916941631042538E-002   5.2589467834779809E-002   0.0000000000000000     
  -6.2163118997347888E-002   5.7586167640962888E-002   0.0000000000000000     
  -6.5312369804083850E-002   6.2786431855158212E-002   0.0000000000000000     
  -4.5771468458207079E-002   5.9518275693265427E-002   0.0000000000000000     
  -4.8079026929980034E-002   6.5004270166450190E-002   0.0000000000000000     
  -5.0314897017163247E-002   7.0671131896711190E-002   0.0000000000000000     
  -5.2479078719756739E-002   7.6518860884048426E-002   0.0000000000000000     
  -5.4571572037760488E-002   8.2547457128461871E-002   0.0000000000000000     
  -5.0369783617177644E-002   6.0253685718562461E-002   0.0000000000000000     
  -5.2866072598124494E-002   6.5714701382983590E-002   0.0000000000000000     
  -5.5285674384051235E-002   7.1357376636280390E-002   0.0000000000000000     
  -5.7628588974957873E-002   7.7181711478452902E-002   0.0000000000000000     
  -5.9894816370844393E-002   8.3187705909501100E-002   0.0000000000000000     
  -5.5159372227813960E-002   6.1043515087310277E-002   0.0000000000000000     
  -5.7843163900830268E-002   6.6480377185005435E-002   0.0000000000000000     
  -6.0445325532411477E-002   7.2098679863381712E-002   0.0000000000000000     
  -6.2965857122557589E-002   7.7898423122439067E-002   0.0000000000000000     
  -6.5404758671268617E-002   8.3879606962177528E-002   0.0000000000000000     
  -6.0140234290116036E-002   6.1887763799508860E-002   0.0000000000000000     
  -6.3010300838097319E-002   6.7301297572515767E-002   0.0000000000000000     
  -6.5793850462243952E-002   7.2895041578015116E-002   0.0000000000000000     
  -6.8490883162555902E-002   7.8668995816006920E-002   0.0000000000000000     
  -7.1101398939033153E-002   8.4623160286491195E-002   0.0000000000000000     
  -6.5312369804083850E-002   6.2786431855158212E-002   0.0000000000000000     
  -6.8367483409925697E-002   6.8177462545514531E-002   0.0000000000000000     
  -7.1331249173548675E-002   7.3746461780180614E-002   0.0000000000000000     
  -7.4203667094952783E-002   7.9493429559156462E-002   0.0000000000000000     
  -7.6984737174138049E-002   8.5418365882442074E-002   0.0000000000000000     
  -5.4571572037760488E-002   8.2547457128461871E-002   0.0000000000000000     
  -5.6589425858869058E-002   8.8745105135917990E-002   0.0000000000000000     
  -5.8529689070777026E-002   9.5099989412383248E-002   0.0000000000000000     
  -6.0392361673484378E-002  0.10161210995785763        0.0000000000000000     
  -6.2177443666991114E-002  0.10828146677234114        0.0000000000000000     
  -5.9894816370844393E-002   8.3187705909501100E-002   0.0000000000000000     
  -6.2080767059298519E-002   8.9362949026633345E-002   0.0000000000000000     
  -6.4182851527907966E-002   9.5695029927058070E-002   0.0000000000000000     
  -6.6201069776672727E-002  0.10218394861077523        0.0000000000000000     
  -6.8135421805592816E-002  0.10882970507778486        0.0000000000000000     
  -6.5404758671268617E-002   8.3879606962177528E-002   0.0000000000000000     
  -6.7757793831354440E-002   9.0029956116420728E-002   0.0000000000000000     
  -7.0020726255624929E-002   9.6337195318992319E-002   0.0000000000000000     
  -7.2193555944080057E-002  0.10280132456989229        0.0000000000000000     
  -7.4276282896719878E-002  0.10942234386912064        0.0000000000000000     
  -7.1101398939033153E-002   8.4623160286491195E-002   0.0000000000000000     
  -7.3620506175036807E-002   9.0746126405280139E-002   0.0000000000000000     
  -7.6043313253927894E-002   9.7026485588186009E-002   0.0000000000000000     
  -7.8369820175706331E-002  0.10346423783520878        0.0000000000000000     
  -8.0600026940372230E-002  0.11005938314634850        0.0000000000000000     
  -7.6984737174138049E-002   8.5418365882442074E-002   0.0000000000000000     
  -7.9668904090345660E-002   9.1511459893211577E-002   0.0000000000000000     
  -8.2250612522816846E-002   9.7762900734639155E-002   0.0000000000000000     
  -8.4729862471551606E-002  0.10417268840672478        0.0000000000000000     
  -8.7106653936549927E-002  0.11074082290946843        0.0000000000000000     
  -6.2177443666991114E-002  0.10828146677234114        0.0000000000000000     
  -6.3890418670290397E-002  0.11509647224576289        0.0000000000000000     
  -6.5536770302375397E-002  0.12204553876805198        0.0000000000000000     
  -6.7116498563246085E-002  0.12912866633920839        0.0000000000000000     
  -6.8629603452902505E-002  0.13634585495923215        0.0000000000000000     
  -6.8135421805592816E-002  0.10882970507778486        0.0000000000000000     
  -6.9992660363959430E-002  0.11562109384950622        0.0000000000000000     
  -7.1779538201063753E-002  0.12254690944735858        0.0000000000000000     
  -7.3496055316905826E-002  0.12960715187134197        0.0000000000000000     
  -7.5142211711485593E-002  0.13680182112145639        0.0000000000000000     
  -7.4276282896719878E-002  0.10942234386912064        0.0000000000000000     
  -7.6276518112128017E-002  0.11618904501643863        0.0000000000000000     
  -7.8201872588888263E-002  0.12309021981160752        0.0000000000000000     
  -8.0052346327000604E-002  0.13012586825462732        0.0000000000000000     
  -8.1827939326464996E-002  0.13729599034549805        0.0000000000000000     
  -8.0600026940372230E-002  0.11005938314634850        0.0000000000000000     
  -8.2741991914796198E-002  0.11680032574656014        0.0000000000000000     
  -8.4803773465848942E-002  0.12367546986079879        0.0000000000000000     
  -8.6785371593530447E-002  0.13068481548906444        0.0000000000000000     
  -8.8686786297840686E-002  0.13782836263135709        0.0000000000000000     
  -8.7106653936549927E-002  0.11074082290946843        0.0000000000000000     
  -8.9389081771963932E-002  0.11745493603987077        0.0000000000000000     
  -9.1585240831945719E-002  0.12430265959493239        0.0000000000000000     
  -9.3695131116495314E-002  0.13128399357465328        0.0000000000000000     
  -9.5718752625612663E-002  0.13839893797903352        0.0000000000000000     
  -6.8629603452902505E-002  0.13634585495923215        0.0000000000000000     
  -7.0068652838597645E-002  0.14368436235446053        0.0000000000000000     
  -7.1426214587584524E-002  0.15113144625123087        0.0000000000000000     
  -7.2702288699863143E-002  0.15868710664954311        0.0000000000000000     
  -7.3896875175433502E-002  0.16635134354939723        0.0000000000000000     
  -7.5142211711485593E-002  0.13680182112145639        0.0000000000000000     
  -7.6710021870829551E-002  0.14411752794916780        0.0000000000000000     
  -7.8191500280964041E-002  0.15154088310594219        0.0000000000000000     
  -7.9586646941889105E-002  0.15907188659177959        0.0000000000000000     
  -8.0895461853604786E-002  0.16671053840667993        0.0000000000000000     
  -8.1827939326464996E-002  0.13729599034549805        0.0000000000000000     
  -8.3519536894122323E-002  0.14458705397867438        0.0000000000000000     
  -8.5118024336813439E-002  0.15198552704861124        0.0000000000000000     
  -8.6623401654538301E-002  0.15949140955530847        0.0000000000000000     
  -8.8035668847296952E-002  0.16710470149876611        0.0000000000000000     
  -8.8686786297840686E-002  0.13782836263135709        0.0000000000000000     
  -9.0497197908475990E-002  0.14509294044298038        0.0000000000000000     
  -9.2205786755132663E-002  0.15246537807923791        0.0000000000000000     
  -9.3812552837810662E-002  0.15994567554012976        0.0000000000000000     
  -9.5317496156510001E-002  0.16753383282565584        0.0000000000000000     
  -9.5718752625612663E-002  0.13839893797903352        0.0000000000000000     
  -9.7643004913890566E-002  0.14563518734208564        0.0000000000000000     
  -9.9454787535921740E-002  0.15298043619782226        0.0000000000000000     
 -0.10115410049170619       0.16043468454624343        0.0000000000000000     
 -0.10274094378124392       0.16799793238734909        0.0000000000000000     
 </DataArray>
 <DataArray  type="Float64" Name="stress" NumberOfComponents="3" format="ascii">
   13416581113.237560        4024974333.9712682        2893938558.7225356     
   11766488567.746899        1890513622.5579886        1715801912.9549632     
   10313657657.312250        413591694.66475487        810747339.65692329     
   9058088381.9336147       -405791449.70843124        178774838.82841524     
   7999780741.6109943       -567635810.56157112       -180115589.53056157     
   10539908082.055437        3161972424.6166310        2225730779.3954444     
   9667569283.8587418        1589624858.2115314        1446697045.3336291     
   8943860000.7963829        512709008.92089176        863134934.02652359     
   8368780232.8683643       -68775123.255287170        475044445.47412658     
   7942329980.0746851       -154827538.31700373        282425579.67643845     
   8337915905.0222569        2501374771.5066772        1712348283.1585581     
   8021586712.0771790        1424617107.4970524        1275679987.5605450     
   7805254914.3447609        681184094.19630194        956872865.00241768     
   7688920511.8250074        271075731.60442543        755926915.48417723     
   7672583504.5179138        194292019.72142220        672842139.00582278     
   6810604582.1380167        2043181374.6414051        1353791070.0118763     
   6828540852.4022036        1395490370.4145498        1202750739.6357100     
   6897842397.9573765        919016950.49098277        1091961132.5846069     
   7018509218.8035345        613761114.87070346        1021422248.8585671     
   7190541314.9406796        479722863.55371094        991134088.45759034     
   5957974113.4027205        1787392234.0208161        1150059139.9553990     
   6088431704.8338203        1502244646.9640255        1227909301.5591238     
   6221622451.6342316        1226207577.8049364        1268399736.7730894     
   6357546353.8039532        959281026.54354799        1271530445.5972950     
   6496203411.3429852        701464993.17986202        1237301428.0317416     
   7999780741.6109943       -567635810.56157112       -180115589.53056157     
   7917622922.4172688       -200316936.51835442       -78267761.314481407     
   7794017724.3594151        28844007.977758884       -9041712.0762172118     
   7628965147.4374247        119847022.92676783        27562558.184233014     
   7422465191.6513081        72692108.328669071        31545049.466864709     
   7942329980.0746851       -154827538.31700373        282425579.67643845     
   7739762157.3203287        16278692.709985733        281116462.80553174     
   7513835533.9878387        109522255.14320564        265085885.94646719     
   7264550110.0772200        124903148.98265600        234333849.09924406     
   6991905885.5884695        62421374.228330135        188860352.26386562     
   7672583504.5179138        194292019.72142220        672842139.00582278     
   7400749446.7448025        184528738.29475307        589479418.38159573     
   7123645166.6795597        157198049.22764301        509295556.75886881     
   6841270664.3221846        112299952.52009439        432290554.13764089     
   6553625939.6726799        49834448.172108889        358464410.51791203     
   7190541314.9406796        479722863.55371094        991134088.45759034     
   6900584790.6906919        304433200.23594165        846821105.41370976     
   6623446622.4345732        171871390.23106623        723587300.36098719     
   6359126810.1723204        82037433.539084435        621432673.29942012     
   6107625353.9039383        34931330.159996748        540357224.22900987     
   6496203411.3429852        701464993.17986202        1237301428.0317416     
   6239268189.1579990        375992078.53355742        1053141523.9018747     
   6013239901.2528811        153542278.15347958        907961116.75282168     
   5818118547.6276312        34115592.039628267        801760206.58458269     
   5653904128.2822475        17712020.192003489        734538793.39715803     
   7422465191.6513081        72692108.328669071        31545049.466864709     
   7219584894.9041862       -17950938.919570923        14753202.077830365     
   7028762506.4529505       -68400958.514859200        2368639.6923635313     
   6849998026.2975979       -78657950.457201481       -5608637.6895340318     
   6683291454.4381323       -48721914.746590614       -9178630.0678605624     
   6991905885.5884695        62421374.228330135        188860352.26386562     
   6809051553.3056030        3136030.3298964500        180571864.55568397     
   6633902920.4101839       -30463648.943723202        176044286.81263885     
   6466459986.9022093       -38377663.592524290        175277619.03473136     
   6306722752.7816744       -20606013.616514444        178271861.22195202     
   6553625939.6726799        49834448.172108889        358464410.51791203     
   6388950786.0299644        21352771.876246691        353601705.43074435     
   6227629122.8662596        4049397.1770701408        351853535.27027404     
   6069660950.1815557       -2075675.9254288673        353219900.03650194     
   5915046267.9758587        2977552.5687572956        357700799.72942507     
   6107625353.9039383        34931330.159996748        540357224.22900987     
   5959282593.0772753        36699285.719482183        533842724.70300710     
   5809941113.8211746        35138179.847512722        529796385.06526595     
   5659600916.1356401        30248012.544089556        528218205.31578177     
   5508262000.0206699        22028783.809215784        529108185.45456123     
   5653904128.2822475        17712020.192003489        734538793.39715803     
   5520046974.4475288        49175571.859598637        721294922.37247241     
   5380838893.2749329        62802699.067605734        709872836.19761026     
   5236279884.7644615        58593401.816029310        700272534.87257373     
   5086369948.9161158        36547680.104865789        692494018.39735854     
   6683291454.4381323       -48721914.746590614       -9178630.0678605624     
   6508763455.1138296       -10151931.244609356       -3355513.4511917913     
   6329417355.8656244        12357719.177696705        4333657.5026896410     
   6145253156.6935120        18807036.520305872        13888882.793790780     
   5956270857.5974884        9196020.7832238674        25310162.422102019     
   6306722752.7816744       -20606013.616514444        178271861.22195202     
   6133172748.7506781        327754.78802037239        174856730.27168110     
   5956734154.8278351        11632890.219738483        174397744.84768924     
   5777406971.0131512        13309392.678663015        176894904.94997278     
   5595191197.3066311        5357262.1647763252        182348210.57853314     
   5915046267.9758587        2977552.5687572956        357700799.72942507     
   5745588805.4926147        7209469.7521677017        347298516.24962878     
   5575172263.1495934        8244454.0696580410        340942469.48516995     
   5403796640.9467974        6082505.5212225914        338632659.43604696     
   5231461938.8842220        723624.10685658455        340369086.10225499     
   5508262000.0206699        22028783.809215784        529108185.45456123     
   5346011625.3396435        10493213.647846937        513969844.48264897     
   5184731680.8308992        2192410.7274353504        503967831.41512954     
   5024422166.4944448       -2873624.9520165920        499102146.25200343     
   4865083082.3302774       -4704893.3905141354        499372788.99327785     
   5086369948.9161158        36547680.104865789        692494018.39735854     
   4934441208.2917595        10178986.475051403        674870714.97073722     
   4785412407.8717537       -6523239.8069217205        663473830.63757062     
   4639283547.6560974       -13558998.741059065        658303365.39785767     
   4496054627.6447983       -10928290.327351570        659359319.25159907     
   5956270857.5974884        9196020.7832238674        25310162.422102019     
   5777519482.9492912       -2015705.3227396011        20536300.290858902     
   5600507095.4536438       -7430807.5868599415        19309221.888413031     
   5425233695.1105385       -7049286.0091860294        21628927.214762799     
   5251699281.9199867       -871140.58965420723        27495416.269910451     
   5595191197.3066311        5357262.1647763252        182348210.57853314     
   5427154880.4509230       -1055481.8416612148        178323053.24379730     
   5260217405.8731260       -3805418.2550640106        177886006.92075804     
   5094378773.5732412       -2892547.0754275322        181037071.60940534     
   4929638983.5512705        1683131.6972577572        187776247.30975020     
   5231461938.8842220        723624.10685658455        340369086.10225499     
   5074258757.7721376       -854714.41472172737        336345797.87695754     
   4917514274.0633287       -904061.59204196930        335951947.94624704     
   4761228487.7577934        575582.57487893105        339187536.31012410     
   4605401398.8555355        3584218.0860579014        346052562.96858597     
   4865083082.3302774       -4704893.3905141354        499372788.99327785     
   4718831114.9129448       -1413403.0418941975        494604534.19034201     
   4572397700.0242472        1273262.4021902084        493507044.96488166     
   4425782837.6641941        3355102.9417433739        496080321.31690848     
   4278986527.8327751        4832118.5767605305        502324363.24641228     
   4496054627.6447983       -10928290.327351570        659359319.25159907     
   4360871951.8733406       -2731547.7231900692        653099262.18394029     
   4224867683.7558846        2726553.7276406288        650551297.97666419     
   4088041823.2924342        5446014.0251543522        651715426.62976193     
   3950394370.4829865        5426833.1693441868        656591648.14323652     
   5251699281.9199867       -871140.58965420723        27495416.269910451     
   5055218950.6313229       -71282.980468511581        22912042.779614184     
   4857992261.3894892       -1759285.2151744366        22861921.656801820     
   4660019214.1944990       -5935147.2937386036        27345052.901490655     
   4461299809.0463486       -12598869.216169119        36361436.513649300     
   4929638983.5512705        1683131.6972577572        187776247.30975020     
   4744576543.7618332        1129337.4593064785        181740938.65641937     
   4559053056.3667326       -961282.13084578514        180267752.29202908     
   4373068521.3659925       -4588727.0731391907        183356688.21658352     
   4186622938.7595892       -9752997.3676342964        191007746.43008685     
   4605401398.8555355        3584218.0860579014        346052562.96858597     
   4431839336.0551977        1701517.6479401588        338898181.22430712     
   4258101535.9967089       -766973.65067720413        336334791.69043028     
   4084187998.6800814       -3821255.8097615242        338362394.36695355     
   3910098724.1053104       -7461328.8293316364        344980989.25388080     
   4278986527.8327751        4832118.5767605305        502324363.24641228     
   4117007327.5114126        1645257.5854272842        494383770.48328298     
   3955137700.2794156       -1176359.7746860981        491063039.85201126     
   3793377646.1367812       -3632733.5036005974        492362171.35259354     
   3631727165.0835066       -5723863.6012983322        498281164.98504013     
   3950394370.4829865        5426833.1693441868        656591648.14323652     
   3800080518.1304774        960557.27177309990        648197706.43334508     
   3650161549.2148409       -2189440.5028903484        644452496.77677059     
   3500637463.7360687       -4023160.1546640396        645356019.17350602     
   3351508261.6941738       -4540601.6835300922        650908273.62355721     
   4461299809.0463486       -12598869.216169119        36361436.513649300     
   4296603271.1065617       -9467162.7107334137        31768953.518237412     
   4132381817.4487243       -4751841.9321322441        31959254.181598198     
   3968635448.0728507        1547093.1196856499        36932338.503727816     
   3805364162.9789295        9429642.4446702003        46688206.484632671     
   4186622938.7595892       -9752997.3676342964        191007746.43008685     
   4034087966.9944205       -5028992.7920451164        185916204.78602496     
   3881826191.1542578        605664.86689281464        185029476.98595226     
   3729837611.2390985        7150975.6091673374        188347563.02983314     
   3578122227.2489457        14606939.434818506        195870462.91769618     
   3910098724.1053104       -7461328.8293316364        344980989.25388080     
   3768073976.1867495       -1640428.8820037842        339154852.54473978     
   3626120535.8362541        4418162.9588496685        336955559.86477590     
   3484238403.0538139        10714446.693228960        338383111.21398151     
   3342427577.8394318        17248422.321137667        343437506.59235913     
   3631727165.0835066       -5723863.6012983322        498281164.98504013     
   3498561298.6835566        698529.01938176155        491484896.79437995     
   3365264851.4947186        6685652.3437502384        487737502.81809241     
   3231837823.5169854        12237506.371813893        487038983.05616844     
   3098280214.7503548        17354091.103559971        489389337.50862014     
   3351508261.6941738       -4540601.6835300922        650908273.62355721     
   3225549934.4848289        1987880.9120934010        642906337.53493071     
   3099259138.1296430        7408133.0215857029        637375305.84588134     
   2972635872.6286159        11720154.644937515        634315178.55639327     
   2845680137.9817448        14923945.782141924        633725955.66647196     
   3805364162.9789295        9429642.4446702003        46688206.484632671     
   3586579659.8036280       -46164.572943210602        44949495.544249333     
   3366855638.7739706       -12653697.771752834        51787302.335548200     
   3146192099.8899279       -28392957.151825070        67201626.858535022     
   2924589043.1515274       -47263942.713123560        91192469.113202751     
   3578122227.2489457        14606939.434818506        195870462.91769618     
   3380635196.6602087        7982530.2093651295        189617512.00085843     
   3182644939.9894090       -319299.28962182999        190512699.69764122     
   2984151457.2365637       -10298549.062098742        198556026.00805548     
   2785154748.4016504       -21955219.108133554        213747490.93212745     
   3342427577.8394318        17248422.321137667        343437506.59235913     
   3162156936.6427917        12251085.929457068        333179322.76676512     
   2981819361.1364212        7030635.1720020771        328640898.43675858     
   2801414851.3203025        1587070.0487256050        329822233.60230404     
   2620943407.1944423       -4079609.4403562546        336723328.26344240     
   3098280214.7503548        17354091.103559971        489389337.50862014     
   2931144879.7513809        12759502.587359428        475634927.84198099     
   2764378902.2149863        9396105.6130882502        466171898.55284697     
   2597982282.1411514        7263900.1807061434        461000249.64124817     
   2431955019.5299106        6362886.2902438641        460119981.10715455     
   2845680137.9817448        14923945.782141924        633725955.66647196     
   2687599025.9859829        9507780.1830587387        616984327.22647536     
   2530323563.2251134        6777112.0336260796        603105700.04595149     
   2373853749.6991291        6731941.3338111639        592090074.12488890     
   2218189585.4080381        9372268.0836285353        583937449.46328902     
   5957974113.4027205        1787392234.0208161        1150059139.9553990     
   6088431704.8338203        1502244646.9640255        1227909301.5591238     
   6221622451.6342316        1226207577.8049364        1268399736.7730894     
   6357546353.8039532        959281026.54354799        1271530445.5972950     
   6496203411.3429852        701464993.17986202        1237301428.0317416     
   5434649703.9316387        1630394911.1794915        1033475886.9728940     
   5489893500.7080011        1372503447.2023821        1113866646.8969862     
   5547338283.6620111        1121948603.8174345        1167470493.5349581     
   5606984052.7936707        878730381.02464938        1194287426.8868101     
   5668830808.1029787        642848778.82402635        1194317446.9525416     
   4895256558.8400488        1468576967.6520145        936364705.04812837     
   4905494598.4006395        1247004037.9862766        1018675199.2356491     
   4917401454.9472189        1030993831.6071615        1084771593.2406893     
   4930977128.4797850        820546348.51466966        1134653887.0632484     
   4946221618.9983349        615661588.70879996        1168322080.7033255     
   4339794678.1279478        1301938403.4383843        858725594.18110263     
   4335234997.9117413        1125746419.3157096        942334958.57511306     
   4331811965.4898548        953343261.17411745        1020303035.8902822     
   4329525580.8622961        784728929.01360929        1092629826.1266093     
   4328375844.0290632        619903422.83418465        1159315329.2840950     
   3768264061.7953382        1130479218.5386014        800558554.37181652     
   3779114699.2412972        1008730591.1906793        884845924.91537809     
   3790569815.2899208        888996892.51830173        974064821.48373735     
   3802629409.9412074        771278122.52146888        1068215244.0768938     
   3815293483.1951571        655574281.20017934        1167297192.6948483     
   6496203411.3429852        701464993.17986202        1237301428.0317416     
   6239268189.1579990        375992078.53355742        1053141523.9018747     
   6013239901.2528811        153542278.15347958        907961116.75282168     
   5818118547.6276312        34115592.039628267        801760206.58458269     
   5653904128.2822475        17712020.192003489        734538793.39715803     
   5668830808.1029787        642848778.82402635        1194317446.9525416     
   5518778570.0811615        383353786.66964674        1073454190.8211135     
   5392870164.3732872        204338235.56174088        980603443.41317356     
   5291105590.9793577        105802125.50031281        915765204.72872019     
   5213484849.8993683        87745456.485359907        878939474.76775658     
   4946221618.9983349        615661588.70879996        1168322080.7033255     
   4871718112.9759016        412744243.39720774        1102865186.9434233     
   4814595337.3014832        267762665.91234040        1054453813.6496824     
   4774853291.9750834        180716856.25419831        1023087960.8221037     
   4752491976.9967012        151606814.42278099        1008767628.4606857     
   4328375844.0290632        619903422.83418465        1159315329.2840950     
   4298086817.8422213        464163448.71624410        1141374512.2688053     
   4278415420.0374684        343815569.20527565        1129512227.4623508     
   4269361650.6148105        258859784.30128360        1123728474.8647332     
   4270925509.5742440        209296094.00426459        1124023254.4759512     
   3815293483.1951571        655574281.20017934        1167297192.6948483     
   3797884684.6801181        537611402.62675250        1188982166.7972584     
   3784330412.5812454        432496945.44054878        1205778684.8511791     
   3774630666.8985400        340230909.64156902        1217686746.8566084     
   3768785447.6320019        260813295.22981286        1224706352.8135481     
   5653904128.2822475        17712020.192003489        734538793.39715803     
   5520046974.4475288        49175571.859598637        721294922.37247241     
   5380838893.2749329        62802699.067605734        709872836.19761026     
   5236279884.7644615        58593401.816029310        700272534.87257373     
   5086369948.9161158        36547680.104865789        692494018.39735854     
   5213484849.8993683        87745456.485359907        878939474.76775658     
   5077055230.6287680        85477687.695993900        855228743.72621131     
   4938524568.2856121        76206441.998110533        835501559.14346373     
   4797892862.8699026        59931719.391709328        819757921.01951480     
   4655160114.3816338        36653519.876788378        807997829.35435939     
   4752491976.9967012        151606814.42278099        1008767628.4606857     
   4619666354.0301418        117460663.69843006        978381569.04515827     
   4487989572.2563457        87143983.616630077        954140817.69740021     
   4357461631.6753178        60656774.177381754        936045374.41741180     
   4228082532.2870531        37999035.380680561        924095239.20519185     
   4270925509.5742440        209296094.00426459        1124023254.4759512     
   4147880344.6516466        145124499.86690664        1090753398.3293135     
   4029233905.1871347        95615323.923166275        1065790611.8594165     
   3914986191.1807084        60768566.173046827        1049134895.0662622     
   3805137202.6323676        40584226.616543293        1040786247.9498495     
   3768785447.6320019        260813295.22981286        1224706352.8135481     
   3661697202.4932861        168469196.20142102        1192344231.5786746     
   3562257567.0779781        101620462.91771936        1170450941.6295145     
   3470466541.3860765        60267095.378703594        1159026482.9660709     
   3386324125.4175782        44409093.584371686        1158070855.5883384     
   5086369948.9161158        36547680.104865789        692494018.39735854     
   4934441208.2917595        10178986.475051403        674870714.97073722     
   4785412407.8717537       -6523239.8069217205        663473830.63757062     
   4639283547.6560974       -13558998.741059065        658303365.39785767     
   4496054627.6447983       -10928290.327351570        659359319.25159907     
   4655160114.3816338        36653519.876788378        807997829.35435939     
   4520424281.4330378        15816895.147467375        794502322.79053998     
   4387817513.6165819        2077154.1919376850        786729079.44527471     
   4257339810.9322605       -4565702.9898052216        784678099.31856561     
   4128991173.3800783       -4111676.3977565765        788349382.41041541     
   4228082532.2870531        37999035.380680561        924095239.20519185     
   4109099161.6573706        22262345.944800377        913828175.25325251     
   3991473981.0876088        11052956.708656788        908779218.64497221     
   3875206990.5777683        4370867.6722540855        908948369.38035142     
   3760298190.1278529        2216078.8355941772        914335627.45938993     
   3805137202.6323676        40584226.616543293        1040786247.9498495     
   3700465848.9647450        29515338.867044449        1032848272.3588761     
   3596381810.2848310        20404167.743233681        1029624248.2366661     
   3492885086.5926242        13250713.245117903        1031114175.5832144     
   3389975677.8881240        8054975.3726890087        1037318054.3985281     
   3386324125.4175782        44409093.584371686        1158070855.5883384     
   3294524343.3551693        37575873.914204359        1151562614.1074159     
   3202541001.2082500        30130787.295671344        1149264168.2203553     
   3110374098.9768219        22073833.728780746        1151175517.9271581     
   3018023636.6608891        13405013.213535786        1157296663.2278237     
   4496054627.6447983       -10928290.327351570        659359319.25159907     
   4360871951.8733406       -2731547.7231900692        653099262.18394029     
   4224867683.7558846        2726553.7276406288        650551297.97666419     
   4088041823.2924342        5446014.0251543522        651715426.62976193     
   3950394370.4829865        5426833.1693441868        656591648.14323652     
   4128991173.3800783       -4111676.3977565765        788349382.41041541     
   4002470654.9436002       -422501.49580240250        780970734.40559936     
   3875592530.2157664        2074652.4349677563        777583399.42166471     
   3748356799.1965814        3379785.3945672512        778187377.45861387     
   3620763461.8860455        3492897.3829851151        782782668.51645100     
   3760298190.1278529        2216078.8355941772        914335627.45938993     
   3643237600.9135165        1637017.6014823914        906379705.58116221     
   3526283391.4624705        1412555.5783407688        902694316.88432980     
   3409435561.7747135        1542692.7661743164        903279461.36888552     
   3292694111.8502531        2027429.1649792194        908135139.03483570     
   3389975677.8881240        8054975.3726890087        1037318054.3985281     
   3283172789.7830911        3447009.5686678886        1029326175.7106427     
   3176940267.4959931        740263.15775835514        1025884050.3646579     
   3071278111.0268302       -65263.860026240349        1026991678.3605729     
   2966186320.3756065        1030428.5153076649        1032649059.6983863     
   3018023636.6608891        13405013.213535786        1157296663.2278237     
   2922276221.5523229        5007474.4057456255        1149810144.7940347     
   2827563158.3163385        57775.173223972321        1147152599.8626540     
   2733884446.9529386       -1444084.4840230942        1149324028.4336755     
   2641240087.4621139        501895.43399250507        1156324430.5071077     
   3950394370.4829865        5426833.1693441868        656591648.14323652     
   3800080518.1304774        960557.27177309990        648197706.43334508     
   3650161549.2148409       -2189440.5028903484        644452496.77677059     
   3500637463.7360687       -4023160.1546640396        645356019.17350602     
   3351508261.6941738       -4540601.6835300922        650908273.62355721     
   3620763461.8860455        3492897.3829851151        782782668.51645100     
   3482839489.3434272        360797.60529947281        775280725.58243370     
   3345176845.3801885       -1900206.9077813625        772352840.57504404     
   3207775529.9963379       -3290116.1562421322        773999013.49428308     
   3070635543.1918697       -3808930.1400985718        780219244.34014928     
   3292694111.8502531        2027429.1649792194        908135139.03483570     
   3166946664.4698486        165499.11286878586        901369380.87628901     
   3041326990.8113370       -1270518.5329216719        899103006.51768613     
   2915835090.8747239       -2280623.7723914385        901336015.95902538     
   2790470964.6600080       -2864816.6055344343        908068409.20030320     
   2966186320.3756065        1030428.5153076649        1032649059.6983863     
   2852402043.5097408        374661.79447531700        1026463672.3149114     
   2738611985.5082855       -300375.37832033634        1024702994.6046920     
   2624816146.3712387       -994683.00309431553        1027367026.5677294     
   2511014526.0985994       -1708261.0798360109        1034455768.2040190     
   2641240087.4621139        501895.43399250507        1156324430.5071077     
   2539205626.4631085        988285.65012800694        1150563599.8983026     
   2437031829.4710269        1010222.5560076237        1149152804.8360627     
   2334718696.4858665        567706.15162599087        1152092045.3203945     
   2232266227.5076342       -339263.56300127506        1159381321.3512938     
   3351508261.6941738       -4540601.6835300922        650908273.62355721     
   3225549934.4848289        1987880.9120934010        642906337.53493071     
   3099259138.1296430        7408133.0215857029        637375305.84588134     
   2972635872.6286159        11720154.644937515        634315178.55639327     
   2845680137.9817448        14923945.782141924        633725955.66647196     
   3070635543.1918697       -3808930.1400985718        780219244.34014928     
   2951568852.3004179        1279613.6726989746        772535942.74887991     
   2832363054.1632605        5904466.6664792299        768015289.02938688     
   2713018148.7803969        10065628.841243625        766657283.18166256     
   2593534136.1518292        13763100.196990013        768461925.20570588     
   2790470964.6600080       -2864816.6055344343        908068409.20030320     
   2680272320.0070353        1376711.4006094933        900929330.98988569     
   2570127930.0084863        5799088.2548552752        897644644.12344384     
   2460037794.6643753        10402313.957215428        898214348.60097754     
   2350001913.9746990        15186388.507690072        902638444.42248690     
   2511014526.0985994       -1708261.0798360109        1034455768.2040190     
   2411660337.6046796        2279174.0958214998        1028086502.2579440     
   2312553765.6653256        7091997.7867085934        1026263371.1280485     
   2213694810.2805490        12730209.992841244        1028986374.8143319     
   2115083471.4503427        19193810.714220881        1036255513.3167962     
   2232266227.5076342       -339263.56300127506        1159381321.3512938     
   2145732905.0933557        3987001.7583564520        1154007456.5530579     
   2059640561.1337805        9783195.2620590925        1153871470.0432019     
   1973989195.6289158        17049316.948132873        1158973361.8217316     
   1888778808.5787635        25785366.816574812        1169313131.8886456     
   2845680137.9817448        14923945.782141924        633725955.66647196     
   2687599025.9859829        9507780.1830587387        616984327.22647536     
   2530323563.2251134        6777112.0336260796        603105700.04595149     
   2373853749.6991291        6731941.3338111639        592090074.12488890     
   2218189585.4080381        9372268.0836285353        583937449.46328902     
   2593534136.1518292        13763100.196990013        768461925.20570588     
   2443809640.9206691        9062648.1834168434        755814043.29343176     
   2294668794.5251732        6307692.2887164354        746566162.19011259     
   2146111596.9653375        5498232.5129034519        740718281.89574468     
   1998138048.2411807        6634268.8559955359        738270402.41034245     
   2350001913.9746990        15186388.507690072        902638444.42248690     
   2210168319.9352593        11661935.407729149        893825308.57215571     
   2070696374.3322682        9342977.0959174633        888949173.08028162     
   1931586077.1657150        8229513.5722496510        888010037.94686282     
   1792837428.4356139        8321544.8367428780        891007903.17190099     
   2115083471.4503427        19193810.714220881        1036255513.3167962     
   1986675063.0297604        17305641.856013060        1031018123.0626609     
   1858406302.6464076        15882966.455241561        1030254732.7164754     
   1730277190.3002715        14925784.511864543        1033965342.2782423     
   1602287725.9913597        14434096.025887489        1042149951.7479620     
   1888778808.5787635        25785366.816574812        1169313131.8886456     
   1773329870.2041700        25993767.528276443        1167392486.7649438     
   1657798579.4675798        25927660.366661549        1170482841.0986867     
   1542184936.3689857        25587045.331696630        1178584194.8898807     
   1426488940.9083996        24971922.423420310        1191696548.1385202     
   3768264061.7953382        1130479218.5386014        800558554.37181652     
   3779114699.2412972        1008730591.1906793        884845924.91537809     
   3790569815.2899208        888996892.51830173        974064821.48373735     
   3802629409.9412074        771278122.52146888        1068215244.0768938     
   3815293483.1951571        655574281.20017934        1167297192.6948483     
   3207824756.5201826        962347426.95605481        756705234.15379369     
   3235871664.6288161        868223131.45671213        853065996.08309889     
   3263640519.5985727        773171992.16111326        951348286.68614495     
   3291131321.4294519        677194009.06925774        1051552105.9629319     
   3318344070.1214547        580289182.18114591        1153677453.9134595     
   2685636808.9804468        805691042.69413412        722007282.06055796     
   2722279995.3201628        736611081.31389344        829411815.01047707     
   2757762596.7794619        663662503.66559565        935727879.28307927     
   2792084613.3583431        586845309.74924088        1040955474.8783660     
   2825246045.0568085        506159499.56482923        1145094601.7963367     
   2201700219.1761298        660510065.75283897        696464698.09210944     
   2238339691.3153377        613894440.76222301        813883381.69751155     
   2272936046.8325877        560468427.03174925        927203599.27454042     
   2305489285.7278810        500232024.56141806        1036425350.8231968     
   2335999408.0012164        433185233.35122883        1141548636.3434801     
   1756014987.1072326        526804496.13216978        680077482.24844790     
   1784050752.6143408        500073209.80170119        806480696.14420295     
   1809160869.7579510        463589762.25957423        925775446.66052830     
   1831345338.5380645        417354153.50578904        1037961733.7974236     
   1850604158.9546800        361366383.54034519        1143039557.5548892     
   3815293483.1951571        655574281.20017934        1167297192.6948483     
   3797884684.6801181        537611402.62675250        1188982166.7972584     
   3784330412.5812454        432496945.44054878        1205778684.8511791     
   3774630666.8985400        340230909.64156902        1217686746.8566084     
   3768785447.6320019        260813295.22981286        1224706352.8135481     
   3318344070.1214547        580289182.18114591        1153677453.9134595     
   3293782069.1290731        473095141.91849029        1182032371.1054835     
   3272955183.8233294        378351487.27796197        1207288164.3686337     
   3255863414.2042255        296058218.25956166        1229444833.7029102     
   3242506760.2717581        226215334.86328924        1248502379.1083121     
   2825246045.0568085        506159499.56482923        1145094601.7963367     
   2798643219.0717010        411268010.85832942        1179980149.5601912     
   2775656098.0437050        328428872.00886166        1213555905.5147879     
   2756284681.9728174        257642083.01642597        1245821869.6601267     
   2740528970.8590398        198907643.88102221        1276778041.9962070     
   2335999408.0012164        433185233.35122883        1141548636.3434801     
   2312468134.5080028        352130009.44626999        1182825502.1613810     
   2292433155.2423701        282729099.63324887        1224581908.2896407     
   2275894470.2043204        224982503.91216373        1266817854.7282596     
   2262852079.3938489        178890222.28301370        1309533341.4772353     
   1850604158.9546800        361366383.54034519        1143039557.5548892     
   1835256815.4379773        295681137.68231386        1190568428.9090543     
   1823286355.4193273        241252170.15112311        1240366172.6931939     
   1814692778.8987293        198079480.94677293        1292432788.9073081     
   1809476085.8761830        166163070.06926340        1346768277.5513959     
   3768785447.6320019        260813295.22981286        1224706352.8135481     
   3661697202.4932861        168469196.20142102        1192344231.5786746     
   3562257567.0779781        101620462.91771936        1170450941.6295145     
   3470466541.3860765        60267095.378703594        1159026482.9660709     
   3386324125.4175782        44409093.584371686        1158070855.5883384     
   3242506760.2717581        226215334.86328924        1248502379.1083121     
   3164915558.9640546        151949632.92286384        1231429254.8419755     
   3093378832.5203180        97865513.862334013        1222405395.2165570     
   3027896580.9405489        63962977.681697845        1221430800.2320530     
   2968468804.2247510        50242024.380956173        1228505469.8884702     
   2740528970.8590398        198907643.88102221        1276778041.9962070     
   2685521765.8257833        140646424.76159525        1273134090.6957314     
   2634974900.7970572        97253005.657269955        1275119837.3913741     
   2588888375.7728605        68727386.568043113        1282735282.0831378     
   2547262190.7531953        55069567.493920684        1295980424.7710211     
   2262852079.3938489        178890222.28301370        1309533341.4772353     
   2223515823.0784769        134559571.71761703        1317458739.1399410     
   2187045771.9081960        99782938.302524328        1328594268.1539688     
   2153441925.8830075        74560322.037741065        1342939928.5193207     
   2122704285.0029135        58891722.923268199        1360495720.2359958     
   1809476085.8761830        166163070.06926340        1346768277.5513959     
   1778897730.7221320        133689073.79092461        1364403200.1746056     
   1749591445.8537354        105455311.79809970        1382828687.5043414     
   1721557231.2709928        81461784.090788305        1402044739.5406034     
   1694795086.9739048        61708490.668995798        1422051356.2833915     
   3386324125.4175782        44409093.584371686        1158070855.5883384     
   3294524343.3551693        37575873.914204359        1151562614.1074159     
   3202541001.2082500        30130787.295671344        1149264168.2203553     
   3110374098.9768219        22073833.728780746        1151175517.9271581     
   3018023636.6608891        13405013.213535786        1157296663.2278237     
   2968468804.2247510        50242024.380956173        1228505469.8884702     
   2886606642.9484544        39446074.211918354        1220968610.8098876     
   2805056150.8740282        29689021.382447839        1217780756.0880375     
   2723817328.0014710        20970865.892540812        1218941905.7229209     
   2642890174.3307838        13291607.742195964        1224452059.7145383     
   2547262190.7531953        55069567.493920684        1295980424.7710211     
   2475735389.5854998        40430208.622766495        1287992715.5955536     
   2405015486.9060488        28480511.379096985        1284493219.5396881     
   2335102482.7148457        19220475.762915134        1285481936.6034260     
   2265996377.0118880        12650101.774221659        1290958866.7867627     
   2122704285.0029135        58891722.923268199        1360495720.2359958     
   2061910583.2663009        40528277.146738291        1352634928.4644151     
   2002419009.3043106        26505257.285619140        1349401558.5753067     
   1944229563.1169424        16822663.339904547        1350795610.5686677     
   1887342244.7041998        11480495.309607506        1356817084.4445021     
   1694795086.9739048        61708490.668995798        1422051356.2833915     
   1645132223.9908597        39740279.783839107        1414895249.4164717     
   1597266718.0688131        23763259.102012992        1412505773.1948922     
   1551198569.2077653        13777428.623515368        1414882927.6186516     
   1506927777.4077187        9782788.3483554721        1422026712.6877549     
   3018023636.6608891        13405013.213535786        1157296663.2278237     
   2922276221.5523229        5007474.4057456255        1149810144.7940347     
   2827563158.3163385        57775.173223972321        1147152599.8626540     
   2733884446.9529386       -1444084.4840230942        1149324028.4336755     
   2641240087.4621139        501895.43399250507        1156324430.5071077     
   2642890174.3307838        13291607.742195964        1224452059.7145383     
   2560092275.9211812        6733256.8279415369        1217357358.1114612     
   2478091805.4466925        2832999.0307347775        1214970421.7220542     
   2396888762.9073176        1590834.3505805731        1217291250.5463183     
   2316483148.3030629        3006762.7874799967        1224319844.5842564     
   2265996377.0118880        12650101.774221659        1290958866.7867627     
   2195801685.9048586        7827045.9345808029        1283979570.7540209     
   2126167498.7954831        4872336.7537804842        1281586831.6462171     
   2057093815.6837549        3785974.2318084240        1283780649.4633501     
   1988580636.5696814        4567958.3686786890        1290561024.2054188     
   1887342244.7041998        11480495.309607506        1356817084.4445021     
   1829404451.5033622        8288841.7256698608        1349676782.7217207     
   1771790238.3627095        6175788.3423516750        1347001829.6351421     
   1714499605.2822440        5141335.1596535444        1348792225.1847606     
   1657532552.2619622        5185482.1775726080        1355047969.3705859     
   1506927777.4077187        9782788.3483554721        1422026712.6877549     
   1460900572.7166851        8118644.2012022734        1414448994.0145566     
   1414960024.1483765        6743353.7964622378        1411215415.6888261     
   1369106131.7027829        5656917.1341052055        1412325977.7105622     
   1323338895.3799133        4859334.2141674757        1417780680.0797656     
   2641240087.4621139        501895.43399250507        1156324430.5071077     
   2539205626.4631085        988285.65012800694        1150563599.8983026     
   2437031829.4710269        1010222.5560076237        1149152804.8360627     
   2334718696.4858665        567706.15162599087        1152092045.3203945     
   2232266227.5076342       -339263.56300127506        1159381321.3512938     
   2316483148.3030629        3006762.7874799967        1224319844.5842564     
   2225764945.3243904        2511887.7508108616        1217482201.8780582     
   2135029296.6339476        1958860.3415759802        1215225783.3146524     
   2044276202.2317448        1347680.5598037243        1217550588.8940444     
   1953505662.1177740        678348.40547144413        1224456618.6162341     
   1988580636.5696814        4567958.3686786890        1290561024.2054188     
   1909839230.4576981        3289979.7330933809        1282788774.7300184     
   1831202268.9152646        2360149.6626665592        1279828937.9936466     
   1752669751.9423795        1778468.1574016809        1281681513.9962974     
   1674241679.5390401        1544935.2172951698        1288346502.7379704     
   1657532552.2619622        5185482.1775726080        1355047969.3705859     
   1591428481.8630388        3322561.5969865322        1346483318.4541924     
   1525550746.3149745        2214090.5192698240        1342962268.8730490     
   1459899345.6177731        1860068.9444273114        1344484820.6271563     
   1394474279.7714293        2260496.8724476099        1351050973.7165141     
   1323338895.3799133        4859334.2141674757        1417780680.0797656     
   1270532699.5404112        2609633.3424957991        1408565833.0505700     
   1218074728.8330822        1520682.9114000201        1404625775.9528561     
   1165964983.2579250        1592482.9208790660        1405960508.7866211     
   1114203462.8149445        2825033.3709445596        1412570031.5518622     
   2232266227.5076342       -339263.56300127506        1159381321.3512938     
   2145732905.0933557        3987001.7583564520        1154007456.5530579     
   2059640561.1337805        9783195.2620590925        1153871470.0432019     
   1973989195.6289158        17049316.948132873        1158973361.8217316     
   1888778808.5787635        25785366.816574812        1169313131.8886456     
   1953505662.1177740        678348.40547144413        1224456618.6162341     
   1880011695.8708482        5667920.7904454470        1219057746.0827136     
   1806848976.9043825        11761650.776963711        1218298198.3748555     
   1734017505.2183807        18959538.365023494        1222177975.4926679     
   1661517280.8128393        27261583.554613709        1230697077.4361534     
   1674241679.5390401        1544935.2172951698        1288346502.7379704     
   1612076916.7088518        6684768.8407126069        1282794602.7658818     
   1550133669.9848728        12562989.484838426        1281283474.1567409     
   1488411939.3671119        19179597.149687231        1283813116.9105499     
   1426911724.8555670        26534591.835253119        1290383531.0273144     
   1394474279.7714293        2260496.8724476099        1351050973.7165141     
   1341928567.6073585        7037545.9091200233        1345218026.6025670     
   1289494640.3752525        12187211.385676503        1342827297.3888547     
   1237172498.0751135        17709493.302128851        1343878786.0753736     
   1184962140.7069483        23604391.658486307        1348372492.6621304     
   1114203462.8149445        2825033.3709445596        1412570031.5518622     
   1069566648.5663707        6726251.9956790209        1406328017.5927689     
   1024931888.0755163        10634316.479476511        1402929668.0711942     
   980299181.34238815        14549226.822362244        1402374982.9871373     
   935668528.36698091        18470983.024318099        1404663962.3406017     
   1888778808.5787635        25785366.816574812        1169313131.8886456     
   1773329870.2041700        25993767.528276443        1167392486.7649438     
   1657798579.4675798        25927660.366661549        1170482841.0986867     
   1542184936.3689857        25587045.331696630        1178584194.8898807     
   1426488940.9083996        24971922.423420310        1191696548.1385202     
   1661517280.8128393        27261583.554613709        1230697077.4361534     
   1559194354.2775331        27151884.966594458        1226244721.3339746     
   1456892971.7988925        27113999.900777936        1226951705.4891171     
   1354613133.3769193        27147928.357197940        1232818029.9015989     
   1252354839.0116124        27253670.335836232        1243843694.5714021     
   1426911724.8555670        26534591.835253119        1290383531.0273144     
   1338138641.0163431        26233943.204523206        1283520676.4351051     
   1249490997.6524572        26351429.491580486        1281965502.9000971     
   1160968794.7639003        26887050.696413517        1285718010.4223030     
   1072572032.3506783        27840806.819014788        1294778199.0017111     
   1184962140.7069483        23604391.658486307        1348372492.6621304     
   1110162730.4206114        23239942.242107749        1339220352.0683331     
   1035592657.0282729        23639949.139056444        1335524233.3316162     
   961251920.52993214        24804412.349331021        1337284136.4519908     
   887140520.92559278        26733331.872947961        1344500061.4294565     
   935668528.36698091        18470983.024318099        1404663962.3406017     
   875266622.49032903        18169882.079323828        1393343748.2336569     
   815197949.92633915        18979558.843205065        1387627896.7836781     
   755462510.67501795        20900013.315982401        1387516407.9906707     
   696060304.73636055        23931245.497630388        1393009281.8546283     
   1756014987.1072326        526804496.13216978        680077482.24844790     
   1784050752.6143408        500073209.80170119        806480696.14420295     
   1809160869.7579510        463589762.25957423        925775446.66052830     
   1831345338.5380645        417354153.50578904        1037961733.7974236     
   1850604158.9546800        361366383.54034519        1143039557.5548892     
   1326344385.5151033        397903315.65453100        669744141.93920875     
   1339567734.1489048        375513808.25478351        791893428.06497777     
   1350596846.5103054        345810179.94703406        908755061.76054287     
   1359431722.5993059        308792430.73128313        1020329043.0259053     
   1366072362.4159055        264460560.60753006        1126615371.8610642     
   890451687.14109159        267135506.14232749        662363184.57402694     
   894064935.89937615        250648472.77263790        781111857.03608966     
   896215360.47635698        229285358.79860306        896393688.01717508     
   896902960.87203443        203046164.22022307        1008208677.5172837     
   896127737.08640814        171930889.03749812        1116556825.5364158     
   448336891.98519737        134501067.59555921        657934610.15290272     
   447542357.86575484        125477203.35526457        774135983.05753863     
   446016411.65610558        114015298.81428126        888691325.43042409     
   443759053.35624999        100115353.97260953        1001600637.2715590     
   440770282.96618742        83777368.830248669        1112863918.5809438     
   4.7420629694046083E-002   1.4226188908213824E-002   656458418.67583585     
   4.8040875307157754E-002   2.6634315174601676E-003   770965806.12932503     
   4.9551408649338963E-002  -5.9314832692938593E-003   885647974.00029016     
   5.1952434170142246E-002  -1.1558285950365375E-002   1000504922.2887312     
   5.5243990471930661E-002  -1.4216652694819792E-002   1115536650.9946485     
   1850604158.9546800        361366383.54034519        1143039557.5548892     
   1835256815.4379773        295681137.68231386        1190568428.9090543     
   1823286355.4193273        241252170.15112311        1240366172.6931939     
   1814692778.8987293        198079480.94677293        1292432788.9073081     
   1809476085.8761830        166163070.06926340        1346768277.5513959     
   1366072362.4159055        264460560.60753006        1126615371.8610642     
   1360321711.2717743        216924583.16127142        1182025005.1187346     
   1357103722.7510643        177830814.45974898        1238359544.2918460     
   1356418396.8537741        147179254.50296181        1295618989.3803980     
   1358265733.5799057        124969903.29091179        1353803340.3843894     
   896127737.08640814        171930889.03749812        1116556825.5364158     
   896133873.98760819        141392208.70484048        1178862296.3438556     
   897828452.63759780        116481667.53481418        1240748706.5522015     
   901211473.03637648        97199265.527418077        1302216056.1614542     
   906282935.18394434        83545002.682653129        1363264345.1716137     
   440770282.96618742        83777368.830248669        1112863918.5809438     
   442693303.58547890        69084014.313020185        1181080302.5844159     
   445460545.07892883        57204729.376318663        1247533659.4742601     
   449072007.44653571        48139514.020141751        1312223989.2504776     
   453527690.68830061        41888368.244490713        1375151291.9130666     
   5.5243990471930661E-002  -1.4216652694819792E-002   1115536650.9946485     
   6.5386667005748564E-002  -1.4188781788687349E-002   1188679023.8404162     
   7.5056204383507158E-002  -1.5738344979360885E-002   1258714403.0580220     
   8.4251485281253299E-002  -1.8868611315105099E-002   1325642788.6474667     
   9.2973248147895246E-002  -2.3577271087863290E-002   1389464180.6087496     
   1809476085.8761830        166163070.06926340        1346768277.5513959     
   1778897730.7221320        133689073.79092461        1364403200.1746056     
   1749591445.8537354        105455311.79809970        1382828687.5043414     
   1721557231.2709928        81461784.090788305        1402044739.5406034     
   1694795086.9739048        61708490.668995798        1422051356.2833915     
   1358265733.5799057        124969903.29091179        1353803340.3843894     
   1332732870.3753200        99834677.030115902        1372769706.5876186     
   1308154059.8860846        77879626.487153709        1393133093.4260147     
   1284529302.1122005        59104751.662029743        1414893500.8995805     
   1261858597.0536671        43510052.554741442        1438050929.0083144     
   906282935.18394434        83545002.682653129        1363264345.1716137     
   887528295.15351713        66268365.806808770        1383191134.4561727     
   869409690.26813650        51111846.081119239        1405121400.3045433     
   851927120.52780330        38075443.505588889        1429055142.7167237     
   835080585.93251729        27159158.080214351        1454992361.6927161     
   453527690.68830061        41888368.244490713        1375151291.9130666     
   443284005.05672443        32990140.121004850        1395667483.7802696     
   433358336.99989086        25151970.579995155        1418793608.1399252     
   423750686.51780069        18373859.621463507        1444529664.9920340     
   414461053.61045480        12655807.245412230        1472875654.3365977     
   9.2973248147895246E-002  -2.3577271087863290E-002   1389464180.6087496     
   8.4941074320741411E-002  -2.7295668015225382E-002   1410198754.5599082     
   8.1347691861021698E-002  -1.6218093717807098E-002   1434149716.9321620     
   8.2194504750977906E-002   9.6599582728500374E-003   1461317067.7255123     
   8.7481624508547809E-002   5.0339380100247959E-002   1491700806.9399574     
   1694795086.9739048        61708490.668995798        1422051356.2833915     
   1645132223.9908597        39740279.783839107        1414895249.4164717     
   1597266718.0688131        23763259.102012992        1412505773.1948922     
   1551198569.2077653        13777428.623515368        1414882927.6186516     
   1506927777.4077187        9782788.3483554721        1422026712.6877549     
   1261858597.0536671        43510052.554741442        1438050929.0083144     
   1225950850.7117758        27435714.667672694        1434728828.2826025     
   1191391122.1634750        15854769.425904930        1435860831.3282626     
   1158179411.4087651        8767216.8294397593        1441446938.1452973     
   1126315718.4476452        6173056.8782750964        1451487148.7337070     
   835080585.93251729        27159158.080214351        1454992361.6927161     
   812035022.30616045        16710813.013547629        1454980037.9629014     
   789888137.20598495        9258063.0341529846        1459109291.1304929     
   768639930.63199019        4800908.1420274973        1467380121.1954896     
   748290402.58417833        3339348.3371759653        1479792528.1578953     
   414461053.61045480        12655807.245412230        1472875654.3365977     
   403384738.77401167        7565574.8214622140        1475648878.4573693     
   392757763.19634140        3973139.9267550260        1482251152.6015806     
   382580126.87744153        1878502.5612826943        1492682476.7692304     
   372851829.81731522        1281662.7250566781        1506942850.9603193     
   8.7481624508547809E-002   5.0339380100247959E-002   1491700806.9399574     
  0.11533086756672133        9.1417144001258027E-002   1496735349.7660069     
  0.13454503079423097       0.10371096152202668        1505286415.7415266     
  0.14512142060396516        8.7211854038848541E-002   1517354004.8665185     
  0.14706120936398731        4.1925117224049194E-002   1532938117.1409824     
   1506927777.4077187        9782788.3483554721        1422026712.6877549     
   1460900572.7166851        8118644.2012022734        1414448994.0145566     
   1414960024.1483765        6743353.7964622378        1411215415.6888261     
   1369106131.7027829        5656917.1341052055        1412325977.7105622     
   1323338895.3799133        4859334.2141674757        1417780680.0797656     
   1126315718.4476452        6173056.8782750964        1451487148.7337070     
   1091723425.8161824        4903382.0175256729        1444911638.6677566     
   1057196125.2756482        3850347.4598742723        1442697043.0802271     
   1022733816.8260412        3013953.2053123713        1444843361.9711111     
   988336500.46736348        2394199.2538475394        1451350595.3404136     
   748290402.58417833        3339348.3371759653        1479792528.1578953     
   725180948.10071301        2478520.5893577635        1474193951.9954374     
   702114821.67638516        1762119.7053290308        1472973064.4423468     
   679092023.31119168        1190145.6850819290        1476129865.4986241     
   656112553.00513637        762598.52862939239        1483664355.1642666     
   372851829.81731522        1281662.7250566781        1506942850.9603193     
   361273139.57027787        844059.91669747233        1502295933.9975972     
   349716113.35058367        478670.53281736374        1502043479.7751896     
   338180751.15823561        185494.57342381775        1506185488.2931004     
   326667052.99322867       -35467.961500421166        1514721959.5513279     
  0.14706120936398731        4.1925117224049194E-002   1532938117.1409824     
  0.22487986747480035       -4.4421883753836822E-004   1529217584.6742337     
  0.29824853667345630       -5.7646504328287634E-002   1529908289.0787544     
  0.36716939013002403      -0.12967536270970723        1535010230.3545403     
  0.43164432650887941      -0.21652325079411097        1544523408.5015955     
   1323338895.3799133        4859334.2141674757        1417780680.0797656     
   1270532699.5404112        2609633.3424957991        1408565833.0505700     
   1218074728.8330822        1520682.9114000201        1404625775.9528561     
   1165964983.2579250        1592482.9208790660        1405960508.7866211     
   1114203462.8149445        2825033.3709445596        1412570031.5518622     
   988336500.46736348        2394199.2538475394        1451350595.3404136     
   949293638.54904151        875459.07154124975        1443398143.1658080     
   910511945.48729646        227281.74448889494        1440589397.7630804     
   871991421.28212595        449667.27268797159        1442924359.1322415     
   833732065.93353629        1542615.6561542749        1450403027.2732871     
   656112553.00513637        762598.52862939239        1483664355.1642666     
   630458501.69486570       -137537.95825520158        1476872732.1893823     
   604978562.96557593       -457299.17519974709        1475093732.8267863     
   579672736.81726444       -196685.12221857905        1478327357.0764804     
   554541023.24993324        644304.20069727302        1486573604.9384620     
   326667052.99322867       -35467.961500421166        1514721959.5513279     
   314027288.97788262       -429357.74689050019        1508989600.1213019     
   301474581.26792097       -533059.84766849875        1508138781.1439719     
   289008929.86334014       -346574.26384226978        1512169502.6193323     
   276630334.76413995        130099.00458562374        1521081764.5473890     
  0.43164432650887941      -0.21652325079411097        1544523408.5015955     
  0.39809144991454060      -0.29437322542938926        1539748746.9615657     
  0.39433019578587425      -0.27291883267984496        1539724542.7146327     
  0.42034960677063854      -0.15219520927416971        1544450795.7608006     
  0.47615647688473300        6.7820291507301081E-002   1553927506.1000671     
   1114203462.8149445        2825033.3709445596        1412570031.5518622     
   1069566648.5663707        6726251.9956790209        1406328017.5927689     
   1024931888.0755163        10634316.479476511        1402929668.0711942     
   980299181.34238815        14549226.822362244        1402374982.9871373     
   935668528.36698091        18470983.024318099        1404663962.3406017     
   833732065.93353629        1542615.6561542749        1450403027.2732871     
   796909729.35669076        3465111.9213212729        1445001451.8445680     
   760088933.09921479        5392742.5843877196        1443223976.8857152     
   723269677.16111207        7325507.6453654766        1445070602.3967283     
   686451961.54237831        9263407.1042375267        1450541328.3776009     
   554541023.24993324        644304.20069727302        1486573604.9384620     
   527762981.58009094        1257023.2768858969        1482011869.0287104     
   500985966.79126775        1873165.2898052633        1481854669.6211700     
   474209978.88346153        2492730.2394497097        1486102006.7158413     
   447435017.85667533        3115718.1258251667        1494753880.3127184     
   276630334.76413995        130099.00458562374        1521081764.5473890     
   262126405.23657262        101986.06237411499        1517359269.1451952     
   247622989.15167767        75584.595736578107        1518821746.2775526     
   233120086.50944078        50894.604626223445        1525469195.9444695     
   218617697.30987668        27916.089091628790        1537301618.1459384     
  0.47615647688473300        6.7820291507301081E-002   1553927506.1000671     
  0.32613820069490962       0.27779417960089064        1551043652.1940169     
  0.18043853956771538       0.50216067567901579        1554125206.8548670     
   3.9048572068130977E-002  0.74089316412720208        1563172170.0826209     
  -9.8024518904879399E-002  0.99401732266547327        1578184541.8772678     
   935668528.36698091        18470983.024318099        1404663962.3406017     
   875266622.49032903        18169882.079323828        1393343748.2336569     
   815197949.92633915        18979558.843205065        1387627896.7836781     
   755462510.67501795        20900013.315982401        1387516407.9906707     
   696060304.73636055        23931245.497630388        1393009281.8546283     
   686451961.54237831        9263407.1042375267        1450541328.3776009     
   640733045.05016816        8912335.2728898525        1443179864.8387191     
   595264053.49471831        9394346.5640765131        1441520177.6046722     
   550044986.87605190        10709440.977868557        1445562266.6754639     
   505075845.19414711        12857618.514203727        1455306132.0511024     
   447435017.85667533        3115718.1258251667        1494753880.3127184     
   416677415.45711708        2798172.8205805123        1491253974.2366767     
   386086429.61842924        3036016.0515670776        1493553258.1133506     
   355662060.34061766        3829247.8188091964        1501651731.9427400     
   325404307.62367898        5177868.1223005801        1515549395.7248363     
   218617697.30987668        27916.089091628790        1537301618.1459384     
   203099733.71118066       -172605.27759025991        1537566076.4275293     
   187665078.29746160       -95432.694349065423        1543727138.3097119     
   172313731.06872401        259433.83882787079        1555784803.7924781     
   157045692.02496058        891994.32192237675        1573739072.8758364     
  -9.8024518904879399E-002  0.99401732266547327        1578184541.8772678     
 -0.18764532052726224       0.97836875963401426        1582116171.4112847     
 -0.46818606683848207       0.32631829930492767        1592041818.1937604     
 -0.93964371540044256      -0.96212044741451364        1607961482.2247019     
  -1.6020135767408898       -2.8869325428395207        1629875163.5040951     
   4.7420629694046083E-002   1.4226188908213824E-002   656458418.67583585     
   4.8040875307157754E-002   2.6634315174601676E-003   770965806.12932503     
   4.9551408649338963E-002  -5.9314832692938593E-003   885647974.00029016     
   5.1952434170142246E-002  -1.1558285950365375E-002   1000504922.2887312     
   5.5243990471930661E-002  -1.4216652694819792E-002   1115536650.9946485     
  -448336891.89221531       -134501067.56766459        657934610.14316809     
  -447542357.77101731       -125477203.34883727        774135983.04848194     
  -446016411.55801159       -114015298.82398391        888691325.42205906     
  -443759053.25319815       -100115353.99310485        1001600637.2638990     
  -440770282.85657680       -83777368.856199428        1112863918.5740020     
  -890451687.05368698       -267135506.11610609        662363184.55524063     
  -894064935.80966294       -250648472.76621419        781111857.01844966     
  -896215360.38291347       -229285358.80723828        896393688.00070906     
  -896902960.77343881       -203046164.23917854        1008208677.5020182     
  -896127736.98123932       -171930889.06203496        1116556825.5223773     
  -1326344385.4369946       -397903315.63109833        669744141.91205370     
  -1339567734.0678957       -375513808.24946731        791893428.03922856     
  -1350596846.4251540       -345810179.95569420        908755061.73624003     
  -1359431722.5087702       -308792430.74977958        1020329043.0030891     
  -1366072362.3187435       -264460560.63172242        1126615371.8397744     
  -1756014987.0421374       -526804496.11264122        680077482.21360731     
  -1784050752.5457153       -500073209.79859650        806480696.11081791     
  -1809160869.6847332       -463589762.26935172        925775446.62865222     
  -1831345338.4591913       -417354153.52490735        1037961733.7671108     
  -1850604158.8690896       -361366383.56526321        1143039557.5261929     
   5.5243990471930661E-002  -1.4216652694819792E-002   1115536650.9946485     
   6.5386667005748564E-002  -1.4188781788687349E-002   1188679023.8404162     
   7.5056204383507158E-002  -1.5738344979360885E-002   1258714403.0580220     
   8.4251485281253299E-002  -1.8868611315105099E-002   1325642788.6474667     
   9.2973248147895246E-002  -2.3577271087863290E-002   1389464180.6087496     
  -440770282.85657680       -83777368.856199428        1112863918.5740020     
  -442693303.45615518       -69084014.339032561        1181080302.5750897     
  -445460544.93053842       -57204729.404548153        1247533659.4621367     
  -449072007.27972561       -48139514.052743509        1312223989.2351432     
  -453527690.50371814       -41888368.283623174        1375151291.8941088     
  -896127736.98123932       -171930889.06203496        1116556825.5223773     
  -896133873.86447990       -141392208.72991270        1178862296.3253992     
  -897828452.49685574       -116481667.56157357        1240748706.5285013     
  -901211472.87836635       -97199265.557019830        1302216056.1316838     
  -906282935.00901341       -83545002.716250867        1363264345.1349456     
  -1366072362.3187435       -264460560.63172242        1126615371.8397744     
  -1360321711.1595867       -216924583.18682605        1182025005.0913446     
  -1357103722.6238954       -177830814.48681593        1238359544.2571156     
  -1356418396.7116716       -147179254.53169554        1295618989.3370876     
  -1358265733.4229133       -124969903.32146084        1353803340.3312609     
  -1850604158.8690896       -361366383.56526321        1143039557.5261929     
  -1835256815.3414760       -295681137.70977515        1190568428.8729258     
  -1823286355.3116589       -241252170.18027627        1240366172.6479795     
  -1814692778.7796385       -198079480.97676772        1292432788.8513551     
  -1809476085.7454162       -166163070.09924954        1346768277.4830525     
   9.2973248147895246E-002  -2.3577271087863290E-002   1389464180.6087496     
   8.4941074320741411E-002  -2.7295668015225382E-002   1410198754.5599082     
   8.1347691861021698E-002  -1.6218093717807098E-002   1434149716.9321620     
   8.2194504750977906E-002   9.6599582728500374E-003   1461317067.7255123     
   8.7481624508547809E-002   5.0339380100247959E-002   1491700806.9399574     
  -453527690.50371814       -41888368.283623174        1375151291.8941088     
  -443284004.88705951       -32990140.166040167        1395667483.7682450     
  -433358336.83761650       -25151970.605842069        1418793608.1353631     
  -423750686.35539049       -18373859.603034556        1444529664.9954622     
  -414461053.44038224       -12655807.157619461        1472875654.3485432     
  -906282935.00901341       -83545002.716250867        1363264345.1349456     
  -887528294.99084699       -66268365.844317377        1383191134.4317946     
  -869409690.11155403       -51111846.101961374        1405121400.2935100     
  -851927120.37113428       -38075443.489180893        1429055142.7200935     
  -835080585.76958728       -27159158.005979359        1454992361.7115424     
  -1358265733.4229133       -124969903.32146084        1353803340.3312609     
  -1332732870.2264233       -99834677.062131524        1372769706.5505552     
  -1308154059.7404637       -77879626.504570723        1393133093.4066031     
  -1284529301.9650340       -59104751.648774445        1414893500.8994026     
  -1261858596.9001324       -43510052.494740367        1438050929.0289555     
  -1809476085.7454162       -166163070.09924954        1346768277.4830525     
  -1778897730.5937881       -133689073.81948429        1364403200.1245286     
  -1749591445.7243459       -105455311.81367201        1382828687.4746430     
  -1721557231.1370888       -81461784.081809998        1402044739.5333943     
  -1694795086.8320193       -61708490.623906374        1422051356.3007843     
   8.7481624508547809E-002   5.0339380100247959E-002   1491700806.9399574     
  0.11533086756672133        9.1417144001258027E-002   1496735349.7660069     
  0.13454503079423097       0.10371096152202668        1505286415.7415266     
  0.14512142060396516        8.7211854038848541E-002   1517354004.8665185     
  0.14706120936398731        4.1925117224049194E-002   1532938117.1409824     
  -414461053.44038224       -12655807.157619461        1472875654.3485432     
  -403384738.55202860       -7565574.6614166200        1475648878.4497504     
  -392757762.93682158       -3973139.7423696965        1482251152.5737691     
  -382580126.59475851       -1878502.4004707783        1492682476.7205987     
  -372851829.52584386       -1281662.6357313544        1506942850.8902376     
  -835080585.76958728       -27159158.005979359        1454992361.7115424     
  -812035022.09690475       -16710812.877505392        1454980037.9459817     
  -789888136.96187699       -9258062.8745502532        1459109291.0765703     
  -768639930.36450541       -4800907.9971151650        1467380121.1033092     
  -748290402.30479085       -3339348.2452012300        1479792528.0261960     
  -1261858596.9001324       -43510052.494740367        1438050929.0289555     
  -1225950850.5192955       -27435714.556847632        1434728828.2547002     
  -1191391121.9406242       -15854769.292839229        1435860831.2499323     
  -1158179411.1641192       -8767216.7027187943        1441446938.0146520     
  -1126315718.1897788       -6173056.7864796519        1451487148.5488601     
  -1694795086.8320193       -61708490.623906374        1422051356.3007843     
  -1645132223.8192043       -39740279.699448347        1414895249.3759046     
  -1597266717.8730645       -23763258.997241676        1412505773.0938518     
  -1551198568.9935982       -13777428.517282128        1414882927.4546254     
  -1506927777.1808097       -9782788.2595776916        1422026712.4582264     
  0.14706120936398731        4.1925117224049194E-002   1532938117.1409824     
  0.22487986747480035       -4.4421883753836822E-004   1529217584.6742337     
  0.29824853667345630       -5.7646504328287634E-002   1529908289.0787544     
  0.36716939013002403      -0.12967536270970723        1535010230.3545403     
  0.43164432650887941      -0.21652325079411097        1544523408.5015955     
  -372851829.52584386       -1281662.6357313544        1506942850.8902376     
  -361273139.12421906       -844059.88777777553        1502295933.9116361     
  -349716112.75709271       -478670.58815078437        1502043479.6669273     
  -338180750.42446810       -185494.73686400056        1506185488.1561117     
  -326667052.12634212        35467.666093230247        1514721959.3791895     
  -748290402.30479085       -3339348.2452012300        1479792528.0261960     
  -725180947.68613958       -2478520.5389532447        1474193951.8340130     
  -702114821.13203990       -1762119.7145432830        1472973064.2383502     
  -679092022.64249241       -1190145.7719736695        1476129865.2392075     
  -656112552.21749544       -762598.71124035120        1483664354.8365846     
  -1126315718.1897788       -6173056.7864796519        1451487148.5488601     
  -1091723425.4608831       -4903381.9539762735        1444911638.4413683     
  -1057196124.8265915       -3850347.4368155599        1442697042.7930222     
  -1022733816.2869015       -3013953.2349978685        1444843361.6038268     
  -988336499.84181619       -2394199.3485258222        1451350594.8737719     
  -1506927777.1808097       -9782788.2595776916        1422026712.4582264     
  -1460900572.4484515       -8118644.1328517199        1414448993.7336993     
  -1414960023.8407445       -6743353.7549632192        1411215415.3309453     
  -1369106131.3576972       -5656917.1259394288        1412325977.2499654     
  -1323338894.9993012       -4859334.2457538843        1417780679.4907587     
  0.43164432650887941      -0.21652325079411097        1544523408.5015955     
  0.39809144991454060      -0.29437322542938926        1539748746.9615657     
  0.39433019578587425      -0.27291883267984496        1539724542.7146327     
  0.42034960677063854      -0.15219520927416971        1544450795.7608006     
  0.47615647688473300        6.7820291507301081E-002   1553927506.1000671     
  -326667052.12634212        35467.666093230247        1514721959.3791895     
  -314027288.16988707        429357.32675915956        1508989599.9836218     
  -301474580.46889079        533059.46922555566        1508138781.0399194     
  -289008929.02336234        346574.09346769750        1512169502.5480826     
  -276630333.83329469       -130098.80049276352        1521081764.5081084     
  -656112552.21749544       -762598.71124035120        1483664354.8365846     
  -630458500.96027112        137537.68116903305        1476872731.9193547     
  -604978562.24375689        457298.93787685037        1475093732.6127551     
  -579672736.06795895        196685.05886533856        1478327356.9167886     
  -554541022.43287170       -644303.95585021377        1486573604.8314500     
  -988336499.84181619       -2394199.3485258222        1451350594.8737719     
  -949293637.97305799       -875459.23113322258        1443398142.7687552     
  -910511944.93026757       -227281.86696714163        1440589397.4331384     
  -871991420.71343732       -449667.25599831343        1442924358.8669176     
  -833732065.32256973       -1542615.3982423544        1450403027.0700955     
  -1323338894.9993012       -4859334.2457538843        1417780679.4907587     
  -1270532699.2082577       -2609633.4101791978        1408565832.5318325     
  -1218074728.5284238       -1520682.9453039765        1404625775.5010695     
  -1165964982.9598017       -1592482.8511334062        1405960508.3984721     
  -1114203462.5023913       -2825033.1276682019        1412570031.2240372     
  0.47615647688473300        6.7820291507301081E-002   1553927506.1000671     
  0.32613820069490962       0.27779417960089064        1551043652.1940169     
  0.18043853956771538       0.50216067567901579        1554125206.8548670     
   3.9048572068130977E-002  0.74089316412720208        1563172170.0826209     
  -9.8024518904879399E-002  0.99401732266547327        1578184541.8772678     
  -276630333.83329469       -130098.80049276352        1521081764.5081084     
  -262126404.61803514       -101985.52046543360        1517359269.0867043     
  -247622988.83976310       -75583.697063714266        1518821746.2093701     
  -233120086.49848408       -50893.330305308104        1525469195.8761055     
  -218617697.59419236       -27914.420172065496        1537301618.0869081     
  -554541022.43287170       -644303.95585021377        1486573604.8314500     
  -527762981.06042367       -1257022.7681912482        1482011868.8798382     
  -500985966.56627035       -1873164.5081802011        1481854669.4494619     
  -474209978.95041335       -2492729.1758228838        1486102006.5403218     
  -447435018.21284938       -3115716.7711098790        1494753880.1524229     
  -833732065.32256973       -1542615.3982423544        1450403027.0700955     
  -796909729.00102651       -3465111.4653805494        1445001451.5734146     
  -760088932.99908280       -5392741.9311847091        1443223976.5751431     
  -723269677.31674123       -7325506.7956632674        1445070602.0752785     
  -686451961.95399511       -9263406.0587934554        1450541328.0738118     
  -1114203462.5023913       -2825033.1276682019        1412570031.2240372     
  -1069566648.4398433       -6726251.6120323539        1406328017.1674399     
  -1024931888.1382025       -10634315.966088116        1402929667.5864153     
  -980299181.59746528       -14549226.189820945        1402374982.4809647     
  -935668528.81763101       -18470982.283230722        1404663961.8510869     
  -9.8024518904879399E-002  0.99401732266547327        1578184541.8772678     
 -0.18764532052726224       0.97836875963401426        1582116171.4112847     
 -0.46818606683848207       0.32631829930492767        1592041818.1937604     
 -0.93964371540044256      -0.96212044741451364        1607961482.2247019     
  -1.6020135767408898       -2.8869325428395207        1629875163.5040951     
  -218617697.59419236       -27914.420172065496        1537301618.0869081     
  -203099734.18694043        172606.81513410062        1537566075.9407752     
  -187665079.33766282        95432.857192352414        1543727137.4089448     
  -172313733.04637027       -259436.29403316230        1555784802.4914026     
  -157045695.31306222       -892000.63854250312        1573739071.1881678     
  -447435018.21284938       -3115716.7711098790        1494753880.1524229     
  -416677415.97776341       -2798171.6855439544        1491253973.2312350     
  -386086430.66772187       -3036016.3501253575        1493553256.2901845     
  -355662062.28272456       -3829250.7648542672        1501651729.3292632     
  -325404310.82277447       -5177874.9297382236        1515549392.3484757     
  -686451961.95399511       -9263406.0587934554        1450541328.0738118     
  -640733045.56012082       -8912334.5236864984        1443179863.2826674     
  -595264054.45835876       -9394347.2956178784        1441520174.8374963     
  -550044988.64870119       -10709444.374565393        1445562262.7382820     
  -505075848.13114965       -12857625.760536134        1455306126.9850388     
  -935668528.81763101       -18470982.283230722        1404663961.8510869     
  -875266622.93401110       -18169881.699288905        1393343746.0950754     
  -815197950.70956814       -18979559.979268789        1387627893.0508635     
  -755462512.14429188       -20900017.123139054        1387516402.7184563     
  -696060307.23819530       -23931253.130941868        1393009275.0978434     
  -1756014987.0421374       -526804496.11264122        680077482.21360731     
  -1784050752.5457153       -500073209.79859650        806480696.11081791     
  -1809160869.6847332       -463589762.26935172        925775446.62865222     
  -1831345338.4591913       -417354153.52490735        1037961733.7671108     
  -1850604158.8690896       -361366383.56526321        1143039557.5261929     
  -2201700219.1264277       -660510065.73792839        696464698.05068481     
  -2238339691.2610898       -613894440.75996029        813883381.65813398     
  -2272936046.7730498       -560468427.03964996        927203599.23706639     
  -2305489285.6623054       -500232024.57699668        1036425350.7874815     
  -2335999407.9288597       -433185233.37200153        1141548636.3093798     
  -2685636808.9471788       -805691042.68415356        722007282.01406956     
  -2722279995.2818980       -736611081.31295431        829411814.96625721     
  -2757762596.7357726       -663662503.67227006        935727879.24078715     
  -2792084613.3088012       -586845309.76210082        1040955474.8376595     
  -2825246045.0009847       -506159499.58244687        1145094601.7568736     
  -3207824756.5043883       -962347426.95131660        756705234.10376143     
  -3235871664.6081400       -868223131.45757830        853065996.03518724     
  -3263640519.5729032       -773171992.16721261        951348286.63981497     
  -3291131321.3986783       -677194009.08021927        1051552105.9176434     
  -3318344070.0854650       -580289182.19659829        1153677453.8686736     
  -3768264061.7980580       -1130479218.5394173        800558554.31976056     
  -3779114699.2398148       -1008730591.1938322        884845924.86492479     
  -3790569815.2844415       -888996892.52447748        974064821.43414974     
  -3802629409.9319367       -771278122.53135216        1068215244.0274351     
  -3815293483.1823006       -655574281.21445680        1167297192.6447806     
  -1850604158.8690896       -361366383.56526321        1143039557.5261929     
  -1835256815.3414760       -295681137.70977515        1190568428.8729258     
  -1823286355.3116589       -241252170.18027627        1240366172.6479795     
  -1814692778.7796385       -198079480.97676772        1292432788.8513551     
  -1809476085.7454162       -166163070.09924954        1346768277.4830525     
  -2335999407.9288597       -433185233.37200153        1141548636.3093798     
  -2312468134.4290972       -352130009.47029132        1182825502.1192396     
  -2292433155.1563311       -282729099.65857005        1224581908.2379179     
  -2275894470.1105633       -224982503.93684071        1266817854.6654143     
  -2262852079.2917905       -178890222.30509996        1309533341.4017293     
  -2825246045.0009847       -506159499.58244687        1145094601.7568736     
  -2798643219.0133686       -411268010.87980241        1179980149.5124607     
  -2775656097.9819498       -328428872.03114891        1213555905.4573629     
  -2756284681.9067278       -257642083.03648448        1245821869.5915802     
  -2740528970.7877030       -198907643.89581132        1276778041.9151118     
  -3318344070.0854650       -580289182.19659829        1153677453.8686736     
  -3293782069.0942907       -473095141.93830872        1182032371.0525882     
  -3272955183.7885141       -378351487.29801047        1207288164.3063152     
  -3255863414.1681352       -296058218.27570319        1229444833.6298523     
  -3242506760.2331524       -226215334.87138355        1248502379.0232022     
  -3815293483.1823006       -655574281.21445680        1167297192.6447806     
  -3797884684.6718645       -537611402.64581096        1188982166.7396226     
  -3784330412.5760250       -432496945.45915735        1205778684.7847731     
  -3774630666.8947821       -340230909.65449023        1217686746.7802315     
  -3768785447.6281376       -260813295.23181701        1224706352.7259982     
  -1809476085.7454162       -166163070.09924954        1346768277.4830525     
  -1778897730.5937881       -133689073.81948429        1364403200.1245286     
  -1749591445.7243459       -105455311.81367201        1382828687.4746430     
  -1721557231.1370888       -81461784.081809998        1402044739.5333943     
  -1694795086.8320193       -61708490.623906374        1422051356.3007843     
  -2262852079.2917905       -178890222.30509996        1309533341.4017293     
  -2223515822.9727812       -134559571.73506105        1317458739.0848551     
  -2187045771.7971711       -99782938.309688210        1328594268.1211123     
  -2153441925.7649622       -74560322.028987885        1342939928.5105014     
  -2122704284.8761556       -58891722.892960191        1360495720.2530217     
  -2740528970.7877030       -198907643.89581132        1276778041.9151118     
  -2685521765.7456141       -140646424.76878524        1273134090.6351366     
  -2634974900.7081404       -97253005.657147884        1275119837.3527870     
  -2588888375.6752849       -68727386.560901165        1282735282.0680611     
  -2547262190.6470447       -55069567.480040789        1295980424.7809613     
  -3242506760.2331524       -226215334.87138355        1248502379.0232022     
  -3164915558.9122872       -151949632.92066455        1231429254.7753739     
  -3093378832.4572539       -97865513.856051922        1222405395.1696637     
  -3027896580.8680530       -63962977.677545428        1221430800.2060740     
  -2968468804.1446838       -50242024.385145903        1228505469.8846018     
  -3768785447.6281376       -260813295.23181701        1224706352.7259982     
  -3661697202.4728007       -168469196.19069409        1192344231.5055664     
  -3562257567.0445118       -101620462.90639615        1170450941.5717466     
  -3470466541.3432717       -60267095.378928423        1159026482.9245398     
  -3386324125.3690767       -44409093.608278155        1158070855.5639448     
  -1694795086.8320193       -61708490.623906374        1422051356.3007843     
  -1645132223.8192043       -39740279.699448347        1414895249.3759046     
  -1597266717.8730645       -23763258.997241676        1412505773.0938518     
  -1551198568.9935982       -13777428.517282128        1414882927.4546254     
  -1506927777.1808097       -9782788.2595776916        1422026712.4582264     
  -2122704284.8761556       -58891722.892960191        1360495720.2530217     
  -2061910583.1214452       -40528277.090584040        1352634928.4174109     
  -2002419009.1420801       -26505257.206022620        1349401558.4609118     
  -1944229562.9380548       -16822663.239262223        1350795610.3835249     
  -1887342244.5093718       -11480495.190309763        1356817084.1852484     
  -2547262190.6470447       -55069567.480040789        1295980424.7809613     
  -2475735389.4753413       -40430208.597222447        1287992715.5411747     
  -2405015486.7876496       -28480511.327771544        1284493219.4167850     
  -2335102482.5839648       -19220475.671678424        1285481936.4077916     
  -2265996376.8642902       -12650101.628950477        1290958866.5141943     
  -2968468804.1446838       -50242024.385145903        1228505469.8846018     
  -2886606642.8808894       -39446074.219354987        1220968610.7471960     
  -2805056150.8097749       -29689021.362491369        1217780755.9614704     
  -2723817327.9313307       -20970865.814534664        1218941905.5274253     
  -2642890174.2455626       -13291607.575497627        1224452059.4450617     
  -3386324125.3690767       -44409093.608278155        1158070855.5639448     
  -3294524343.3380914       -37575873.956980944        1151562614.0354731     
  -3202541001.2084503       -30130787.310167670        1149264168.0949676     
  -3110374098.9801502       -22073833.667821527        1151175517.7424273     
  -3018023636.6531925       -13405013.029951930        1157296662.9778531     
  -1506927777.1808097       -9782788.2595776916        1422026712.4582264     
  -1460900572.4484515       -8118644.1328517199        1414448993.7336993     
  -1414960023.8407445       -6743353.7549632192        1411215415.3309453     
  -1369106131.3576972       -5656917.1259394288        1412325977.2499654     
  -1323338894.9993012       -4859334.2457538843        1417780679.4907587     
  -1887342244.5093718       -11480495.190309763        1356817084.1852484     
  -1829404451.3219826       -8288841.5996928215        1349676782.4054129     
  -1771790238.1961360       -6175788.2142149210        1347001829.2390852     
  -1714499605.1318371       -5141335.0338970423        1348792224.6862640     
  -1657532552.1290803       -5185482.0587178469        1355047968.7469463     
  -2265996376.8642902       -12650101.628950477        1290958866.5141943     
  -2195801685.8169188       -7827045.7529547215        1283979570.4193466     
  -2126167498.7679827       -4872336.5384029150        1281586831.2297380     
  -2057093815.7174816       -3785973.9853042364        1283780648.9453681     
  -1988580636.6654146       -4567958.0936498642        1290561023.5662365     
  -2642890174.2455626       -13291607.575497627        1224452059.4450617     
  -2560092275.9332609       -6733256.5926369429        1217357357.7754967     
  -2478091805.5562840       -2832998.7275258303        1214970421.3029046     
  -2396888763.1146307       -1590833.9801621437        1217291250.0272822     
  -2316483148.6083012       -3006762.3505468369        1224319843.9486315     
  -3018023636.6531925       -13405013.029951930        1157296662.9778531     
  -2922276221.6710072       -5007474.1187431812        1149810144.4738665     
  -2827563158.5610390       -57774.781585097313        1147152599.4585836     
  -2733884447.3232851        1444084.9815264940        1149324027.9320025     
  -2641240087.9577432       -501894.82940721512        1156324429.8941276     
  -1323338894.9993012       -4859334.2457538843        1417780679.4907587     
  -1270532699.2082577       -2609633.4101791978        1408565832.5318325     
  -1218074728.5284238       -1520682.9453039765        1404625775.5010695     
  -1165964982.9598017       -1592482.8511334062        1405960508.3984721     
  -1114203462.5023913       -2825033.1276682019        1412570031.2240372     
  -1657532552.1290803       -5185482.0587178469        1355047968.7469463     
  -1591428481.7735331       -3322561.4896450639        1346483317.9241741     
  -1525550746.2654033       -2214090.4119684696        1342962268.4382029     
  -1459899345.6047041       -1860068.8257213235        1344484820.2890298     
  -1394474279.7914224       -2260496.7308719158        1351050973.4766622     
  -1988580636.6654146       -4567958.0936498642        1290561023.5662365     
  -1909839230.5778270       -3289979.4408147335        1282788774.1873708     
  -1831202269.0738754       -2360149.4000945091        1279828937.5539434     
  -1752669752.1535573       -1778467.9714877605        1281681513.6659551     
  -1674241679.8168752       -1544935.1550023556        1288346502.5233989     
  -2316483148.6083012       -3006762.3505468369        1224319843.9486315     
  -2225764945.6211462       -2511887.2636994123        1217482201.3214264     
  -2135029296.9538321       -1958859.9096556902        1215225782.8482950     
  -2044276202.6063688       -1347680.2884452343        1217550588.5292361     
  -1953505662.5787504       -678348.40005755424        1224456618.3642540     
  -2641240087.9577432       -501894.82940721512        1156324429.8941276     
  -2539205626.9034834       -988284.95827949047        1150563599.3263357     
  -2437031829.9052777       -1010221.9406670332        1149152804.3212538     
  -2334718696.9631338       -567705.77659094334        1152092044.8788836     
  -2232266228.0770497        339263.53395652771        1159381320.9992228     
  -1114203462.5023913       -2825033.1276682019        1412570031.2240372     
  -1069566648.4398433       -6726251.6120323539        1406328017.1674399     
  -1024931888.1382025       -10634315.966088116        1402929667.5864153     
  -980299181.59746528       -14549226.189820945        1402374982.4809647     
  -935668528.81763101       -18470982.283230722        1404663961.8510869     
  -1394474279.7914224       -2260496.7308719158        1351050973.4766622     
  -1341928567.7471004       -7037545.7735270262        1345218026.2907174     
  -1289494640.6400635       -12187211.273799717        1342827297.0517113     
  -1237172498.4703138       -17709493.231695950        1343878785.7596419     
  -1184962141.2378535       -23604391.647230089        1348372492.4145064     
  -1674241679.8168752       -1544935.1550023556        1288346502.5233989     
  -1612076917.0154517       -6684768.9233342409        1282794602.5023320     
  -1550133670.3276987       -12562989.737240374        1281283473.8995647     
  -1488411939.7536190       -19179597.596721292        1283813116.7150936     
  -1426911725.2932086       -26534592.501765847        1290383530.9489229     
  -1953505662.5787504       -678348.40005755424        1224456618.3642540     
  -1880011696.2449036       -5667921.0614762306        1219057745.8022816     
  -1806848977.2011132       -11761651.356419683        1218298198.1299684     
  -1734017505.4473746       -18959539.284865022        1222177975.3473189     
  -1661517280.9836917       -27261584.846835077        1230697077.4543312     
  -2232266228.0770497        339263.53395652771        1159381320.9992228     
  -2145732905.4354556       -3987002.1879531145        1154007456.1905644     
  -2059640561.2603016       -9783196.1313204765        1153871469.7429299     
  -1973989195.5515900       -17049318.296167493        1158973361.6563189     
  -1888778808.3093116       -25785368.682455420        1169313131.9307301     
  -935668528.81763101       -18470982.283230722        1404663961.8510869     
  -875266622.93401110       -18169881.699288905        1393343746.0950754     
  -815197950.70956814       -18979559.979268789        1387627893.0508635     
  -755462512.14429188       -20900017.123139054        1387516402.7184563     
  -696060307.23819530       -23931253.130941868        1393009275.0978434     
  -1184962141.2378535       -23604391.647230089        1348372492.4145064     
  -1110162730.8134334       -23239942.545562565        1339220349.8937209     
  -1035592657.5003275       -23639950.481612325        1335524229.2653553     
  -961251921.29854083       -24804415.455396473        1337284130.5294065     
  -887140522.20807886       -26733337.466920167        1344500053.6858683     
  -1426911725.2932086       -26534592.501765847        1290383530.9489229     
  -1338138641.2405019       -26233944.156106770        1283520674.3025236     
  -1249490997.7512605       -26351431.022001445        1281965498.7291639     
  -1160968794.8254917       -26887053.099464417        1285718004.2288339     
  -1072572032.4631823       -27840810.388464451        1294778190.8015399     
  -1661517280.9836917       -27261584.846835077        1230697077.4543312     
  -1559194354.2152264       -27151886.530962765        1226244719.3214817     
  -1456892971.4623764       -27114001.600461900        1226951701.4422843     
  -1354613132.7251325       -27147930.055322707        1232818023.8167491     
  -1252354838.0035067       -27253671.895574927        1243843686.4448516     
  -1888778808.3093116       -25785368.682455420        1169313131.9307301     
  -1773329869.7376056       -25993769.670101881        1167392484.9505975     
  -1657798578.6336584       -25927662.216948152        1170482837.4047313     
  -1542184934.9974813       -25587046.323017359        1178584189.2931383     
  -1426488938.8290477       -24971921.988250494        1191696540.6158147     
  -3768264061.7980580       -1130479218.5394173        800558554.31976056     
  -3779114699.2398148       -1008730591.1938322        884845924.86492479     
  -3790569815.2844415       -888996892.52447748        974064821.43414974     
  -3802629409.9319367       -771278122.53135216        1068215244.0274351     
  -3815293483.1823006       -655574281.21445680        1167297192.6447806     
  -4339794678.1495705       -1301938403.4448712        858725594.12861204     
  -4335234997.9299221       -1125746419.3208399        942334958.52394521     
  -4331811965.5050621       -953343261.17943454        1020303035.8397344     
  -4329525580.8749895       -784728929.02065527        1092629826.0759799     
  -4328375844.0397043       -619903422.84450209        1159315329.2326813     
  -4895256558.8803091       -1468576967.6640928        936364704.99686205     
  -4905494598.4381256       -1247004037.9932756        1018675199.1851251     
  -4917401454.9826479       -1030993831.6114812        1084771593.1902401     
  -4930977128.5138760       -820546348.51870835        1134653887.0122070     
  -4946221619.0318136       -615661588.71495867        1168322080.6510253     
  -5434649703.9902744       -1630394911.1970823        1033475886.9245096     
  -5489893500.7644243       -1372503447.2111406        1113866646.8484643     
  -5547338283.7171993       -1121948603.8206177        1167470493.4856668     
  -5606984052.8485994       -878730381.02551305        1194287426.8361158     
  -5668830808.1586266       -642848778.82582664        1194317446.8998132     
  -5957974113.4794664       -1787392234.0438399        1150059139.9115558     
  -6088431704.9088182       -1502244646.9744344        1227909301.5139630     
  -6221622451.7087164       -1226207577.8068438        1268399736.7260134     
  -6357546353.8791571       -959281026.54106724        1271530445.5477073     
  -6496203411.4201441       -701464993.17710590        1237301427.9790437     
  -3815293483.1823006       -655574281.21445680        1167297192.6447806     
  -3797884684.6718645       -537611402.64581096        1188982166.7396226     
  -3784330412.5760250       -432496945.45915735        1205778684.7847731     
  -3774630666.8947821       -340230909.65449023        1217686746.7802315     
  -3768785447.6281376       -260813295.23181701        1224706352.7259982     
  -4328375844.0397043       -619903422.84450209        1159315329.2326813     
  -4298086817.8604259       -464163448.73128724        1141374512.2118471     
  -4278415420.0618348       -343815569.22036135        1129512227.3987596     
  -4269361650.6439290       -258859784.31172466        1123728474.7934179     
  -4270925509.6067100       -209296094.00537801        1124023254.3958232     
  -4946221619.0318136       -615661588.71495867        1168322080.6510253     
  -4871718113.0195827       -412744243.40794110        1102865186.8874102     
  -4814595337.3541307       -267762665.92351341        1054453813.5889802     
  -4774853292.0354548       -180716856.26167274        1023087960.7557338     
  -4752491977.0635548       -151606814.42242050        1008767628.3876730     
  -5668830808.1586266       -642848778.82582664        1194317446.8998132     
  -5518778570.1493378       -383353786.67577529        1073454190.7663119     
  -5392870164.4529123       -204338235.56860948        980603443.35543370     
  -5291105591.0693550       -105802125.50433278        915765204.66717970     
  -5213484849.9986620       -87745456.482941389        878939474.70154703     
  -6496203411.4201441       -701464993.17710590        1237301427.9790437     
  -6239268189.2496843       -375992078.53478599        1053141523.8485528     
  -6013239901.3581800       -153542278.15565276        907961116.69812298     
  -5818118547.7456331       -34115592.039705753        801760206.52775359     
  -5653904128.4120407       -17712020.186945200        734538793.33744586     
  -3768785447.6281376       -260813295.23181701        1224706352.7259982     
  -3661697202.4728007       -168469196.19069409        1192344231.5055664     
  -3562257567.0445118       -101620462.90639615        1170450941.5717466     
  -3470466541.3432717       -60267095.378928423        1159026482.9245398     
  -3386324125.3690767       -44409093.608278155        1158070855.5639448     
  -4270925509.6067100       -209296094.00537801        1124023254.3958232     
  -4147880344.6660557       -145124499.85563993        1090753398.2597623     
  -4029233905.1871147       -95615323.911617994        1065790611.8007303     
  -3914986191.1698866       -60768566.173306704        1049134895.0187281     
  -3805137202.6143765       -40584226.640714645        1040786247.9137566     
  -4752491977.0635548       -151606814.42242050        1008767628.3876730     
  -4619666354.0792446       -117460663.68656588        978381568.97887099     
  -4487989572.2913160       -87143983.605316639        954140817.63751590     
  -4357461631.6997681       -60656774.178668976        936045374.36360788     
  -4228082532.3046021       -37999035.406625032        924095239.15714645     
  -5213484849.9986620       -87745456.482941389        878939474.70154703     
  -5077055230.7123652       -85477687.683472395        855228743.66289318     
  -4938524568.3571129       -76206441.987492800        835501559.08210444     
  -4797892862.9329100       -59931719.395009041        819757920.95917869     
  -4655160114.4397554       -36653519.906014681        807997829.29411793     
  -5653904128.4120407       -17712020.186945200        734538793.33744586     
  -5520046974.5654163       -49175571.846354723        721294922.31183004     
  -5380838893.3845100       -62802699.058153868        709872836.13449502     
  -5236279884.8693161       -58593401.822325706        700272534.80544162     
  -5086369949.0198364       -36547680.138884783        692494018.32466924     
  -3386324125.3690767       -44409093.608278155        1158070855.5639448     
  -3294524343.3380914       -37575873.956980944        1151562614.0354731     
  -3202541001.2084503       -30130787.310167670        1149264168.0949676     
  -3110374098.9801502       -22073833.667821527        1151175517.7424273     
  -3018023636.6531925       -13405013.029951930        1157296662.9778531     
  -3805137202.6143765       -40584226.640714645        1040786247.9137566     
  -3700465848.9920883       -29515338.914438963        1032848272.2912171     
  -3596381810.3430486       -20404167.765648603        1029624248.1336399     
  -3492885086.6672502       -13250713.194336891        1031114175.4410270     
  -3389975677.9647012       -8054975.2005143166        1037318054.2133771     
  -4228082532.3046021       -37999035.406625032        924095239.15714645     
  -4109099161.7281637       -22262345.996516228        913828175.18998575     
  -3991473981.1968713       -11052956.736897469        908779218.56478655     
  -3875206990.7107277       -4370867.6277697086        908948369.28154755     
  -3760298190.2697315       -2216078.6691322327        914335627.34027064     
  -4655160114.4397554       -36653519.906014681        807997829.29411793     
  -4520424281.5463133       -15816895.203217506        794502322.73178399     
  -4387817513.7699213       -2077154.2239131927        786729079.38840783     
  -4257339811.1105790        4565703.0318896770        784678099.26399112     
  -4128991173.5682874        4111676.5641918182        788349382.35853195     
  -5086369949.0198364       -36547680.138884783        692494018.32466924     
  -4934441208.4465408       -10178986.534541607        674870714.91660619     
  -4785412408.0621986        6523239.7733020782        663473830.60450411     
  -4639283547.8668060        13558998.784631252        658303365.38835561     
  -4496054627.8603668        10928290.499459982        659359319.26816523     
  -3018023636.6531925       -13405013.029951930        1157296662.9778531     
  -2922276221.6710072       -5007474.1187431812        1149810144.4738665     
  -2827563158.5610390       -57774.781585097313        1147152599.4585836     
  -2733884447.3232851        1444084.9815264940        1149324027.9320025     
  -2641240087.9577432       -501894.82940721512        1156324429.8941276     
  -3389975677.9647012       -8054975.2005143166        1037318054.2133771     
  -3283172790.0132642       -3447009.2982647419        1029326175.4661299     
  -3176940267.8795118       -740262.78829622269        1025884050.0547459     
  -3071278111.5634451        65264.329395651817        1026991677.9792273     
  -2966186321.0650592       -1030427.9451875687        1032649059.2395735     
  -3760298190.2697315       -2216078.6691322327        914335627.34027064     
  -3643237601.2142987       -1637017.3354167938        906379705.41338217     
  -3526283391.9220204       -1412555.2122130394        902694316.66952002     
  -3409435562.3928947       -1542692.2995152473        903279461.10868108     
  -3292694112.6269207       -2027428.5973265171        908135138.73087049     
  -4128991173.5682874        4111676.5641918182        788349382.35853195     
  -4002470655.2741137        422501.76979565620        780970734.31562352     
  -3875592530.6885610       -2074652.0533440113        777583399.30289781     
  -3748356799.8116307       -3379784.9052138329        778187377.32036042     
  -3620763462.6433196       -3492896.7858259678        782782668.36801076     
  -4496054627.8603668        10928290.499459982        659359319.26816523     
  -4360871952.1927052        2731548.0173749924        653099262.17285299     
  -4224867684.1791363       -2726553.3116786480        650551297.95488894     
  -4088041823.8196568       -5446013.4877042770        651715426.61426997     
  -3950394371.1142673       -5426832.5106933117        656591648.15100074     
  -2641240087.9577432       -501894.82940721512        1156324429.8941276     
  -2539205626.9034834       -988284.95827949047        1150563599.3263357     
  -2437031829.9052777       -1010221.9406670332        1149152804.3212538     
  -2334718696.9631338       -567705.77659094334        1152092044.8788836     
  -2232266228.0770497        339263.53395652771        1159381320.9992228     
  -2966186321.0650592       -1030427.9451875687        1032649059.2395735     
  -2852402044.1075077       -374661.13159322739        1026463671.8715645     
  -2738611986.0682483        300375.95436286926        1024702994.1874222     
  -2624816146.9472871        994683.31266009808        1027367026.1871512     
  -2511014526.7446213        1708260.9433019161        1034455767.8707445     
  -3292694112.6269207       -2027428.5973265171        908135138.73087049     
  -3166946665.1341972       -165498.45170176029        901369380.55670011     
  -3041326991.4220090        1270519.0921491385        899103006.18755424     
  -2915835091.4903507        2280624.0342278481        901336015.62343359     
  -2790470965.3392248        2864816.3745344877        908068408.86433578     
  -3620763462.6433196       -3492896.7858259678        782782668.36801076     
  -3482839489.9835563       -360796.91861844063        775280725.38173461     
  -3345176845.9665594        1900207.4726982117        772352840.32164526     
  -3207775530.5923300        3290116.3881261349        773999013.18773699     
  -3070635543.8608727        3808929.8276470900        780219243.98000634     
  -3950394371.1142673       -5426832.5106933117        656591648.15100074     
  -3800080518.6555800       -960556.53232431412        648197706.34667909     
  -3650161549.7018976        2189441.0960164070        644452496.58969843     
  -3500637464.2532163        4023160.3743553162        645356018.88005197     
  -3351508262.3095455        4540601.3026654720        650908273.21774840     
  -2232266228.0770497        339263.53395652771        1159381320.9992228     
  -2145732905.4354556       -3987002.1879531145        1154007456.1905644     
  -2059640561.2603016       -9783196.1313204765        1153871469.7429299     
  -1973989195.5515900       -17049318.296167493        1158973361.6563189     
  -1888778808.3093116       -25785368.682455420        1169313131.9307301     
  -2511014526.7446213        1708260.9433019161        1034455767.8707445     
  -2411660337.8605423       -2279174.6447476149        1028086501.9052608     
  -2312553765.5459375       -7091998.7977023125        1026263370.8113165     
  -2213694809.8007998       -12730211.515556812        1028986374.5889050     
  -2115083470.6251390       -19193812.798336387        1036255513.2380295     
  -2790470965.3392248        2864816.3745344877        908068408.86433578     
  -2680272320.1826286       -1376712.0706329346        900929330.62182629     
  -2570127929.6985383       -5799089.4241539240        897644643.76136184     
  -2460037793.8869567       -10402315.686040521        898214348.28294063     
  -2350001912.7478871       -15186390.856295109        902638444.18656695     
  -3070635543.8608727        3808929.8276470900        780219243.98000634     
  -2951568852.4017220       -1279614.4656196833        772535942.34025621     
  -2832363053.7181206       -5904468.0107065439        768015288.59306562     
  -2713018147.8100615       -10065630.807613373        766657282.73842883     
  -2593534134.6775441       -13763102.856325865        768461924.77634549     
  -3351508262.3095455        4540601.3026654720        650908273.21774840     
  -3225549934.5178223       -1987881.8297154903        642906337.06055760     
  -3099259137.6046762       -7408134.5573555231        637375305.30642831     
  -2972635871.5701056       -11720156.880249143        634315177.95536757     
  -2845680136.4141269       -14923948.798441052        633725955.00737357     
  -1888778808.3093116       -25785368.682455420        1169313131.9307301     
  -1773329869.7376056       -25993769.670101881        1167392484.9505975     
  -1657798578.6336584       -25927662.216948152        1170482837.4047313     
  -1542184934.9974813       -25587046.323017359        1178584189.2931383     
  -1426488938.8290477       -24971921.988250494        1191696540.6158147     
  -2115083470.6251390       -19193812.798336387        1036255513.2380295     
  -1986675062.0123854       -17305644.057710290        1031018121.3729125     
  -1858406301.0989783       -15882967.648246288        1030254729.3985846     
  -1730277187.8849285       -14925783.569974422        1033965337.3150314     
  -1602287722.3702352       -14434091.822893202        1042149945.1222632     
  -2350001912.7478871       -15186390.856295109        902638444.18656695     
  -2210168318.5040421       -11661937.710358500        893825307.16627622     
  -2070696372.1911435       -9342977.6675850153        888949170.49327970     
  -1931586073.8091936       -8229510.7279852629        888010034.16757691     
  -1792837423.3581998       -8321536.8915559053        891007898.18916881     
  -2593534134.6775441       -13763102.856325865        768461924.77634549     
  -2443809639.2125754       -9062650.6280781031        755814042.33068562     
  -2294668791.9101458       -6307692.2749713659        746566160.68883359     
  -2146111592.7702661       -5498227.7970408201        740718279.85079038     
  -1998138041.7929349       -6634257.1942528486        738270399.81654394     
  -2845680136.4141269       -14923948.798441052        633725955.00737357     
  -2687599024.1379933       -9507782.8108630180        616984326.86614430     
  -2530323560.2559986       -6777111.4704198837        603105699.98523343     
  -2373853744.7681603       -6731934.7771346569        592090074.36464465     
  -2218189577.6744518       -9372252.7309911251        583937450.00437415     
  -5957974113.4794664       -1787392234.0438399        1150059139.9115558     
  -6088431704.9088182       -1502244646.9744344        1227909301.5139630     
  -6221622451.7087164       -1226207577.8068438        1268399736.7260134     
  -6357546353.8791571       -959281026.54106724        1271530445.5477073     
  -6496203411.4201441       -701464993.17710590        1237301427.9790437     
  -6810604582.2265034       -2043181374.6679511        1353791069.9737980     
  -6828540852.4914837       -1395490370.4272966        1202750739.5986838     
  -6897842398.0487537       -919016950.49427915        1091961132.5470021     
  -7018509218.8983154       -613761114.86889911        1021422248.8187526     
  -7190541315.0401697       -479722863.55115628        991134088.41393602     
  -8337915905.1100054       -2501374771.5330014        1712348283.1270349     
  -8021586712.1712141       -1424617107.5092793        1275679987.5323613     
  -7805254914.4464607       -681184094.19901586        956872864.97490954     
  -7688920511.9357443       -271075731.60221195        755926915.45467949     
  -7672583504.6390686       -194292019.71886873        672842138.97167087     
  -10539908082.129967       -3161972424.6389899        2225730779.3712664     
  -9667569283.9480076       -1589624858.2203801        1446697045.3149960     
  -8943860000.9018326       -512709008.92105246        863134934.00973558     
  -8368780232.9914427        68775123.258994102        475044445.45548767     
  -7942329980.2168350        154827538.31975794        282425579.65224963     
  -13416581113.286394       -4024974333.9859185        2893938558.7064934     
  -11766488567.821869       -1890513622.5606012        1715801912.9465871     
  -10313657657.414873       -413591694.66038847        810747339.65148115     
  -9058088382.0654087        405791449.71472073        178774838.82117569     
  -7999780741.7734756        567635810.56472445       -180115589.54432908     
  -6496203411.4201441       -701464993.17710590        1237301427.9790437     
  -6239268189.2496843       -375992078.53478599        1053141523.8485528     
  -6013239901.3581800       -153542278.15565276        907961116.69812298     
  -5818118547.7456331       -34115592.039705753        801760206.52775359     
  -5653904128.4120407       -17712020.186945200        734538793.33744586     
  -7190541315.0401697       -479722863.55115628        991134088.41393602     
  -6900584790.8058786       -304433200.23689246        846821105.37083638     
  -6623446622.5647821       -171871390.23328185        723587300.31863737     
  -6359126810.3168821       -82037433.540324688        621432673.25733781     
  -6107625354.0621777       -34931330.158019543        540357224.18693900     
  -7672583504.6390686       -194292019.71886873        672842138.97167087     
  -7400749446.8814039       -184528738.29479790        589479418.34935081     
  -7123645166.8311758       -157198049.22884607        509295556.72876966     
  -6841270664.4883842       -112299952.52101803        432290554.10992569     
  -6553625939.8530312       -49834448.171309471        358464410.49282056     
  -7942329980.2168350        154827538.31975794        282425579.65224963     
  -7739762157.4762621       -16278692.708503246        281116462.78409439     
  -7513835534.1573639       -109522255.14235210        265085885.92851713     
  -7264550110.2601442       -124903148.98179007        234333849.08551461     
  -6991905885.7846022       -62421374.226817131        188860352.25509110     
  -7999780741.7734756        567635810.56472445       -180115589.54432908     
  -7917622922.5904541        200316936.52199316       -78267761.324932188     
  -7794017724.5433483       -28844007.973796368       -9041712.0821191408     
  -7628965147.6321583       -119847022.92263603        27562558.184108756     
  -7422465191.8568878       -72692108.324535370        31545049.473751508     
  -5653904128.4120407       -17712020.186945200        734538793.33744586     
  -5520046974.5654163       -49175571.846354723        721294922.31183004     
  -5380838893.3845100       -62802699.058153868        709872836.13449502     
  -5236279884.8693161       -58593401.822325706        700272534.80544162     
  -5086369949.0198364       -36547680.138884783        692494018.32466924     
  -6107625354.0621777       -34931330.158019543        540357224.18693900     
  -5959282593.2304583       -36699285.711276770        533842724.65786701     
  -5809941113.9716969       -35138179.841050148        529796385.01378286     
  -5659600916.2858877       -30248012.547343016        528218205.25468612     
  -5508262000.1730385       -22028783.830161095        529108185.38057649     
  -6553625939.8530312       -49834448.171309471        358464410.49282056     
  -6388950786.2170544       -21352771.872659206        353601705.40184492     
  -6227629123.0612764       -4049397.1746704578        351853535.23256296     
  -6069660950.3856955        2075675.9226646423        353219899.98497325     
  -5915046268.1903143       -2977552.5806624889        357700799.65907687     
  -6991905885.7846022       -62421374.226817131        188860352.25509110     
  -6809051553.5252085       -3136030.3305120468        180571864.54376236     
  -6633902920.6532545        30463648.940995693        176044286.79083258     
  -6466459987.1687403        38377663.587702751        175277618.99630269     
  -6306722753.0716686        20606013.609610796        178271861.16017202     
  -7422465191.8568878       -72692108.324535370        31545049.473751508     
  -7219584895.1549177        17950938.915168285        14753202.083619965     
  -7028762506.7476292        68400958.505938530        2368639.6885966724     
  -6849998026.6350203        78657950.447774410       -5608637.7113219723     
  -6683291454.8170948        48721914.740665436       -9178630.1161360499     
  -5086369949.0198364       -36547680.138884783        692494018.32466924     
  -4934441208.4465408       -10178986.534541607        674870714.91660619     
  -4785412408.0621986        6523239.7733020782        663473830.60450411     
  -4639283547.8668060        13558998.784631252        658303365.38835561     
  -4496054627.8603668        10928290.499459982        659359319.26816523     
  -5508262000.1730385       -22028783.830161095        529108185.38057649     
  -5346011625.5331354       -10493213.686100006        513969844.43792450     
  -5184731681.0551605       -2192410.7484571934        503967831.40292412     
  -5024422166.7391119        2873624.9827558994        499102146.27557814     
  -4865083082.5849895        4704893.5075571537        499372789.05588412     
  -5915046268.1903143       -2977552.5806624889        357700799.65907687     
  -5745588805.7361031       -7209469.7725729942        347298516.21336550     
  -5575172263.4167957       -8244454.0808246136        340942469.48700124     
  -5403796641.2323875       -6082505.5054085255        338632659.47998160     
  -5231461939.1828775       -723624.04632568359        340369086.19231486     
  -6306722753.0716686        20606013.609610796        178271861.16017202     
  -6133172749.0554476       -327754.79395771027        174856730.24292791     
  -5956734155.1471014       -11632890.223792315        174397744.85673121     
  -5777406971.3466282       -13309392.679864168        176894905.00157145     
  -5595191197.6540365       -5357262.1621963978        182348210.67745870     
  -6683291454.8170948        48721914.740665436       -9178630.1161360499     
  -6508763455.4911585        10151931.249747753       -3355513.4733817335     
  -6329417356.2460766       -12357719.177353859        4333657.5121115921     
  -6145253157.0818434       -18807036.540611029        13888882.840345688     
  -5956270857.9984589       -9196020.8400356770        25310162.511315271     
  -4496054627.8603668        10928290.499459982        659359319.26816523     
  -4360871952.1927052        2731548.0173749924        653099262.17285299     
  -4224867684.1791363       -2726553.3116786480        650551297.95488894     
  -4088041823.8196568       -5446013.4877042770        651715426.61426997     
  -3950394371.1142673       -5426832.5106933117        656591648.15100074     
  -4865083082.5849895        4704893.5075571537        499372789.05588412     
  -4718831115.2249842        1413403.2455406189        494604534.22807640     
  -4572397700.3944263       -1273262.1146361828        493507045.00471330     
  -4425782838.0933218       -3355102.5729734898        496080321.38578296     
  -4278986528.3216553       -4832118.1294577122        502324363.37129855     
  -5231461939.1828775       -723624.04632568359        340369086.19231486     
  -5074258758.0531244        854714.53494286537        336345797.94410062     
  -4917514274.3281784        904061.76686286926        335951948.02741492     
  -4761228488.0080309       -575582.35054612160        339187536.44226480     
  -4605401399.0926847       -3584217.8173065186        346052563.18864393     
  -5595191197.6540365       -5357262.1621963978        182348210.67745870     
  -5427154880.6771278        1055481.8855853081        178323053.32091886     
  -5260217405.9803772        3805418.3328337669        177886007.02300173     
  -5094378773.5637865        2892547.1795608997        181037071.78371081     
  -4929638983.4273539       -1683131.5742442608        187776247.60304323     
  -5956270857.9984589       -9196020.8400356770        25310162.511315271     
  -5777519483.0969906        2015705.2974698544        20536300.358538739     
  -5600507095.3510342        7430807.5832695961        19309221.991473220     
  -5425233694.7605934        7049286.0173499584        21628927.410122313     
  -5251699281.3256664        871140.59971785545        27495416.614492506     
  -3950394371.1142673       -5426832.5106933117        656591648.15100074     
  -3800080518.6555800       -960556.53232431412        648197706.34667909     
  -3650161549.7018976        2189441.0960164070        644452496.58969843     
  -3500637464.2532163        4023160.3743553162        645356018.88005197     
  -3351508262.3095455        4540601.3026654720        650908273.21774840     
  -4278986528.3216553       -4832118.1294577122        502324363.37129855     
  -4117007327.9079599       -1645257.0897555351        494383770.48797464     
  -3955137700.6327820        1176360.1548821926        491063039.73931646     
  -3793377646.4961276        3632733.6044406891        492362171.12533021     
  -3631727165.4980021        5723863.2589056492        498281164.64601004     
  -4605401399.0926847       -3584217.8173065186        346052563.18864393     
  -4431839336.1887531       -1701517.3557004929        338898181.32054985     
  -4258101536.0568614        766973.86577916145        336334791.67445511     
  -4084187998.6970043        3821255.8471300602        338362394.25034797     
  -3910098724.1091943        7461328.5883400440        344980989.04824752     
  -4929638983.4273539       -1683131.5742442608        187776247.60304323     
  -4744576543.4979610       -1129337.3301618099        181740938.84440556     
  -4559053055.9741297        961282.22872471809        180267752.39509967     
  -4373068520.8558512        4588727.1024284363        183356688.25511515     
  -4186622938.1431279        9752997.2909512520        191007746.42445955     
  -5251699281.3256664        871140.59971785545        27495416.614492506     
  -5055218949.8355942        71282.986816644669        22912043.059546672     
  -4857992260.3845854        1759285.2437205315        22861921.901258521     
  -4660019212.9726543        5935147.3703446388        27345053.139619641     
  -4461299807.5998001        12598869.366733789        36361436.774637960     
  -3351508262.3095455        4540601.3026654720        650908273.21774840     
  -3225549934.5178223       -1987881.8297154903        642906337.06055760     
  -3099259137.6046762       -7408134.5573555231        637375305.30642831     
  -2972635871.5701056       -11720156.880249143        634315177.95536757     
  -2845680136.4141269       -14923948.798441052        633725955.00737357     
  -3631727165.4980021        5723863.2589056492        498281164.64601004     
  -3498561298.5686750       -698529.72190022469        491484896.39486748     
  -3365264850.8621325       -6685653.4453182220        487737502.27306509     
  -3231837822.3783746       -12237507.911359191        487038982.28060353     
  -3098280213.1173959       -17354093.119995594        489389336.41748351     
  -3910098724.1091943        7461328.5883400440        344980989.04824752     
  -3768073975.9671903        1640428.3816277981        339154852.30158430     
  -3626120535.3921833       -4418163.7150590420        336955559.41053426     
  -3484238402.3841639       -10714447.701705217        338383110.37509972     
  -3342427576.9431238       -17248423.578291178        343437505.19528633     
  -4186622938.1431279        9752997.2909512520        191007746.42445955     
  -4034087966.7133822        5028992.4808437824        185916204.78069878     
  -3881826191.1948314       -605665.36656904221        185029476.71883255     
  -3729837611.5874686       -7150976.2512960434        188347562.23886096     
  -3578122227.8913002       -14606940.173310041        195870461.34077537     
  -4461299807.5998001        12598869.366733789        36361436.774637960     
  -4296603270.8072424        9467162.5757591724        31768953.832223427     
  -4132381818.2700796        4751841.6001222134        31959254.197964594     
  -3968635449.9883151       -1547093.5601737499        36932337.871874273     
  -3805364165.9619389       -9429642.9050872326        46688204.853955023     
  -2845680136.4141269       -14923948.798441052        633725955.00737357     
  -2687599024.1379933       -9507782.8108630180        616984326.86614430     
  -2530323560.2559986       -6777111.4704198837        603105699.98523343     
  -2373853744.7681603       -6731934.7771346569        592090074.36464465     
  -2218189577.6744518       -9372252.7309911251        583937450.00437415     
  -3098280213.1173959       -17354093.119995594        489389336.41748351     
  -2931144877.9403467       -12759504.136815071        475634927.61641467     
  -2764378899.5293107       -9396104.3736729622        466171899.09521091     
  -2597982277.8842664       -7263893.8305412531        461000250.85386789     
  -2431955013.0052595       -6362872.5074614286        460119982.89239126     
  -3342427576.9431238       -17248423.578291178        343437505.19528633     
  -3162156935.9521747       -12251086.725615978        333179322.63386565     
  -2981819360.0990949       -7030633.6658641100        328640899.37184680     
  -2801414849.3838859       -1587064.3990054131        329822235.40924871     
  -2620943403.8065624        4079621.0749132633        336723330.74605137     
  -3578122227.8913002       -14606940.173310041        195870461.34077537     
  -3380635198.1734643       -7982530.5772521496        189617511.91849130     
  -3182644941.9653668        319300.65300977230        190512700.81516364     
  -2984151459.2669992        10298553.517483711        198556028.03078115     
  -2785154750.0783854        21955228.016145110        213747493.56536114     
  -3805364165.9619389       -9429642.9050872326        46688204.853955023     
  -3586579664.6042309        46164.308255195618        44949495.470298231     
  -3366855645.1281238        12653698.582918406        51787303.425144561     
  -3146192107.5336094        28392959.918925881        67201628.718490794     
  -2924589051.8207250        47263948.316201925        91192471.350320935     
 </DataArray>
 <DataArray  type="Float64" Name="VM" NumberOfComponents="1" format="ascii">
   12935544583.502028     
   11340701770.988300     
   10210234226.487349     
   9272820928.9656582     
   8304034515.2002516     
   10130274714.231842     
   9322005772.3045902     
   8826375835.4009323     
   8443564304.9109564     
   8035767611.2800493     
   7982347701.2401838     
   7734970970.5361967     
   7669160161.8836794     
   7669613904.3042603     
   7666401692.3990850     
   6491677383.8031101     
   6586883069.2838821     
   6757420007.8163185     
   6961206544.0614710     
   7171582231.3830013     
   5657817419.2533493     
   5890900561.4872932     
   6116345643.8340940     
   6331691018.8605785     
   6536711488.8142738     
   8304034515.2002516     
   8020803645.0441256     
   7779651586.8434963     
   7569903754.5155010     
   7386589489.7813883     
   8035767611.2800493     
   7746952267.4983397     
   7473794145.1793098     
   7214337181.7692852     
   6968586991.9952459     
   7666401692.3990850     
   7381188943.8621778     
   7101362859.0749435     
   6827001287.5830564     
   6558306968.8730707     
   7171582231.3830013     
   6910955134.3725605     
   6658223464.2306747     
   6409529872.5905113     
   6161730111.9957857     
   6536711488.8142738     
   6328605168.0040989     
   6142680437.4217319     
   5965034537.6743183     
   5786660976.7981567     
   7386589489.7813883     
   7228622246.9654970     
   7063212582.6157303     
   6889670616.8935061     
   6707803961.6674738     
   6968586991.9952459     
   6814664928.8778706     
   6656174851.5033741     
   6492835433.3438520     
   6324592909.6410027     
   6558306968.8730707     
   6407638315.0711327     
   6255362937.2440157     
   6101449000.1183004     
   5945924523.8470783     
   6161730111.9957857     
   6012541776.2635660     
   5864686889.4150171     
   5718203320.0964022     
   5573146474.9430285     
   5786660976.7981567     
   5635839286.6933022     
   5489189238.8000689     
   5346624508.6322155     
   5208190075.7286453     
   6707803961.6674738     
   6513847946.7844973     
   6323252008.0632629     
   6135918412.6848984     
   5951839624.7069597     
   6324592909.6410027     
   6140482271.3750181     
   5958587651.5462914     
   5778891770.2960100     
   5601425795.1233349     
   5945924523.8470783     
   5773410502.2700539     
   5602265147.7467070     
   5432513483.1666431     
   5264215257.1846151     
   5573146474.9430285     
   5414457365.8644009     
   5256617835.9116306     
   5099664060.2071295     
   4943689389.3525743     
   5208190075.7286453     
   5066057390.6448889     
   4924634344.8630533     
   4783944991.7890911     
   4644138775.7307615     
   5951839624.7069597     
   5778637074.1369038     
   5604325987.2970419     
   5428891028.0513897     
   5252350813.5654392     
   5601425795.1233349     
   5436463630.6910915     
   5271133583.9623013     
   5105463979.8724985     
   4939516764.4834099     
   5264215257.1846151     
   5108015779.2157145     
   4952270622.9278383     
   4797051294.0913496     
   4642465428.7591476     
   4943689389.3525743     
   4796659216.0331383     
   4650983562.2795715     
   4506773023.0680761     
   4364179393.9051380     
   4644138775.7307615     
   4506521886.1817865     
   4371229349.3370352     
   4238401947.2996497     
   4108228910.2354736     
   5252350813.5654392     
   5055410357.2400570     
   4859033494.7550068     
   4663230152.8894930     
   4468056458.0952663     
   4939516764.4834099     
   4754444124.5375690     
   4570211988.3672905     
   4386875333.5644550     
   4204544059.9898028     
   4642465428.7591476     
   4469699975.9085369     
   4298145926.6863508     
   4127914760.1957216     
   3959183992.2960558     
   4364179393.9051380     
   4204310221.8642406     
   4046133587.0450339     
   3889828918.6501489     
   3735654538.8039594     
   4108228910.2354736     
   3961999933.3476024     
   3818066657.6632199     
   3676685414.6011152     
   3538204467.1468835     
   4468056458.0952663     
   4301696611.5647163     
   4135130308.9704237     
   3968377736.2397499     
   3801518311.6074247     
   4204544059.9898028     
   4049428715.4032345     
   3894731259.2114520     
   3740520308.5105224     
   3586921010.5436645     
   3959183992.2960558     
   3814399491.4555993     
   3670608398.7689195     
   3527918614.6949978     
   3386490215.7745676     
   3735654538.8039594     
   3600299989.3518448     
   3466441524.4998703     
   3334216062.4603209     
   3203807014.7063756     
   3538204467.1468835     
   3411414662.4102402     
   3286524639.0766225     
   3163689124.7994304     
   3043102882.9839296     
   3801518311.6074247     
   3587447644.5818195     
   3374392679.6025281     
   3162626876.9594851     
   2952732761.3359432     
   3586921010.5436645     
   3392585508.6754050     
   3199864121.8806362     
   3009031720.7406287     
   2820599520.7722955     
   3386490215.7745676     
   3208375306.6106987     
   3032218093.8346000     
   2858291406.3684874     
   2687043209.8844738     
   3203807014.7063756     
   3038594891.4048481     
   2875387508.2662020     
   2714453335.2231979     
   2556189085.5585308     
   3043102882.9839296     
   2887859899.9492435     
   2734345339.1761255     
   2582819828.6849909     
   2433641765.6310949     
   5657817419.2533493     
   5890900561.4872932     
   6116345643.8340940     
   6331691018.8605785     
   6536711488.8142738     
   5151426693.2932463     
   5311298836.2933683     
   5467802512.9440031     
   5618040351.5609875     
   5760545010.0897312     
   4643439526.5044804     
   4755504414.6525440     
   4868692125.2887011     
   4980366934.7299385     
   5088602783.5523243     
   4134119620.7255678     
   4224355303.9946752     
   4320510315.5940733     
   4420928305.9091949     
   4524155036.9023266     
   3624987598.3338389     
   3719676550.9114542     
   3825615903.6401296     
   3942743578.1090879     
   4070968180.4810262     
   6536711488.8142738     
   6328605168.0040989     
   6142680437.4217319     
   5965034537.6743183     
   5786660976.7981567     
   5760545010.0897312     
   5652003544.5922489     
   5559458830.6776562     
   5473852389.0818157     
   5389644490.8866854     
   5088602783.5523243     
   5053924854.7921200     
   5029758916.6656666     
   5010899419.5410004     
   4994145655.9741764     
   4524155036.9023266     
   4538963596.7203255     
   4558448797.0214615     
   4580129726.4763212     
   4602282734.2709532     
   4070968180.4810262     
   4112444986.2462935     
   4151289636.4801989     
   4186601337.4116817     
   4217645661.4450088     
   5786660976.7981567     
   5635839286.6933022     
   5489189238.8000689     
   5346624508.6322155     
   5208190075.7286453     
   5389644490.8866854     
   5248244460.8474865     
   5110056116.4518318     
   4975121195.8163300     
   4843533074.5222473     
   4994145655.9741764     
   4866639152.2288485     
   4742330364.3667374     
   4621188632.6465502     
   4503256466.3972950     
   4602282734.2709532     
   4493689168.3097725     
   4389343975.2262335     
   4288933863.1508555     
   4192373516.4621067     
   4217645661.4450088     
   4133349657.1322994     
   4055597816.5954237     
   3983546455.6419330     
   3916907451.6351218     
   5208190075.7286453     
   5066057390.6448889     
   4924634344.8630533     
   4783944991.7890911     
   4644138775.7307615     
   4843533074.5222473     
   4717699503.3828402     
   4593545537.7260065     
   4471192236.8811769     
   4350867308.6556177     
   4503256466.3972950     
   4393058063.2381849     
   4285499752.0893145     
   4180774057.7488999     
   4079159618.2760754     
   4192373516.4621067     
   4097001929.7321343     
   4005168605.1093888     
   3917107085.6089749     
   3833116231.8204417     
   3916907451.6351218     
   3835335360.3768144     
   3758072116.4069748     
   3685359090.8147368     
   3617484819.4912491     
   4644138775.7307615     
   4506521886.1817865     
   4371229349.3370352     
   4238401947.2996497     
   4108228910.2354736     
   4350867308.6556177     
   4225069045.1192451     
   4101961614.4151907     
   3981739350.9340549     
   3864652560.1184292     
   4079159618.2760754     
   3966332230.7297721     
   3856717071.5710669     
   3750564607.3904300     
   3648190128.3866892     
   3833116231.8204417     
   3734495340.6630955     
   3639768192.3125839     
   3549237299.0914888     
   3463278525.8318396     
   3617484819.4912491     
   3534300535.2796383     
   3455839596.5046616     
   3382441630.2114015     
   3314525967.7574844     
   4108228910.2354736     
   3961999933.3476024     
   3818066657.6632199     
   3676685414.6011152     
   3538204467.1468835     
   3864652560.1184292     
   3732572175.9848628     
   3603630807.5101700     
   3478162165.3503761     
   3356596369.9926600     
   3648190128.3866892     
   3530782825.1631532     
   3417410450.9919224     
   3308469320.1298523     
   3204449298.5073533     
   3463278525.8318396     
   3360954013.9472985     
   3263566605.7952132     
   3171548623.8568583     
   3085414485.2728667     
   3314525967.7574844     
   3227452016.9818020     
   3146159519.2342749     
   3071080351.0354819     
   3002709625.8312521     
   3538204467.1468835     
   3411414662.4102402     
   3286524639.0766225     
   3163689124.7994304     
   3043102882.9839296     
   3356596369.9926600     
   3240126356.7858806     
   3126521100.6202488     
   3016048860.4028058     
   2909040195.5978980     
   3204449298.5073533     
   3100837406.5055609     
   3001330459.7648721     
   2906315729.9103184     
   2816259942.5602674     
   3085414485.2728667     
   2996915039.3722553     
   2913967074.2983804     
   2837052140.8982220     
   2766735702.6674485     
   3002709625.8312521     
   2931011802.2038050     
   2866412949.0247493     
   2809435284.2620745     
   2760675102.1598325     
   3043102882.9839296     
   2887859899.9492435     
   2734345339.1761255     
   2582819828.6849909     
   2433641765.6310949     
   2909040195.5978980     
   2768375861.3607178     
   2631188648.2103586     
   2498002425.1459155     
   2369487929.8182316     
   2816259942.5602674     
   2693691929.2539625     
   2576667653.0076942     
   2465944437.1354423     
   2362435473.4905968     
   2766735702.6674485     
   2664918706.9083819     
   2570736021.4981728     
   2485057177.7981625     
   2408866183.6800785     
   2760675102.1598325     
   2680987622.9810042     
   2610761532.3984313     
   2550825598.1756516     
   2502057975.5091705     
   3624987598.3338389     
   3719676550.9114542     
   3825615903.6401296     
   3942743578.1090879     
   4070968180.4810262     
   3137995980.2932858     
   3255515778.9984431     
   3382451716.7484088     
   3518335996.1132598     
   3662711937.7620974     
   2694786290.4409428     
   2830532551.2489204     
   2973590224.2367430     
   3122878007.2222571     
   3277485693.4828444     
   2298847857.6475153     
   2449519369.6091933     
   2604913392.6680479     
   2763108010.1012182     
   2922673792.8351207     
   1955390285.1325827     
   2119430974.6995518     
   2284830539.8329487     
   2448629073.0477262     
   2608868255.4726758     
   4070968180.4810262     
   4112444986.2462935     
   4151289636.4801989     
   4186601337.4116817     
   4217645661.4450088     
   3662711937.7620974     
   3702181602.2182965     
   3740279689.6918726     
   3776105893.1925035     
   3808909724.2493629     
   3277485693.4828444     
   3320784888.3464108     
   3364324672.8936043     
   3407281343.9661326     
   3448976317.0978365     
   2922673792.8351207     
   2975641694.8801179     
   3030816804.6607051     
   3087516600.9596944     
   3145207759.5432048     
   2608868255.4726758     
   2676808480.7116203     
   2749223286.7655115     
   2825604271.7205439     
   2905598070.9352756     
   4217645661.4450088     
   4133349657.1322994     
   4055597816.5954237     
   3983546455.6419330     
   3916907451.6351218     
   3808909724.2493629     
   3756078468.0226917     
   3709266774.1801043     
   3668004264.6134868     
   3632198575.1430392     
   3448976317.0978365     
   3422968123.6047688     
   3402070464.4573236     
   3386054984.1069884     
   3374906885.0466633     
   3145207759.5432048     
   3141659775.4959102     
   3141716756.4867187     
   3145277889.3325329     
   3152328951.4800892     
   2905598070.9352756     
   2920499784.7578282     
   2936721450.1385970     
   2954207601.7699575     
   2972918642.9439068     
   3916907451.6351218     
   3835335360.3768144     
   3758072116.4069748     
   3685359090.8147368     
   3617484819.4912491     
   3632198575.1430392     
   3562650930.1046600     
   3497843905.2078433     
   3438016566.8911977     
   3383454657.6724195     
   3374906885.0466633     
   3317767551.9845061     
   3265912285.1011968     
   3219562498.0418892     
   3178987088.3856654     
   3152328951.4800892     
   3107799198.8172998     
   3069195902.0740609     
   3036700647.2977672     
   3010545254.3602676     
   2972918642.9439068     
   2940824205.8735003     
   2915370829.9603457     
   2896673331.1997256     
   2884902942.6587000     
   3617484819.4912491     
   3534300535.2796383     
   3455839596.5046616     
   3382441630.2114015     
   3314525967.7574844     
   3383454657.6724195     
   3314024268.3520207     
   3249982456.4758887     
   3191654615.6338110     
   3139429143.5219307     
   3178987088.3856654     
   3122535873.3172169     
   3072075355.4718637     
   3027893568.7629881     
   2990323282.2585163     
   3010545254.3602676     
   2965890753.4804597     
   2927725802.5199566     
   2896280703.4013329     
   2871813180.4508128     
   2884902942.6587000     
   2850339231.3531313     
   2822623356.9396172     
   2801915894.9888320     
   2788391125.6503100     
   3314525967.7574844     
   3227452016.9818020     
   3146159519.2342749     
   3071080351.0354819     
   3002709625.8312521     
   3139429143.5219307     
   3065164557.6350627     
   2997414356.3578157     
   2936596718.2277555     
   2883182565.7164149     
   2990323282.2585163     
   2928797449.3843460     
   2874521132.3188119     
   2827871967.5646567     
   2789267130.7619543     
   2871813180.4508128     
   2822484723.3897500     
   2781110433.1156764     
   2748001518.2760391     
   2723495478.7520847     
   2788391125.6503100     
   2750112296.6898122     
   2720436869.9690213     
   2699591627.5736833     
   2687819182.4438586     
   3002709625.8312521     
   2931011802.2038050     
   2866412949.0247493     
   2809435284.2620745     
   2760675102.1598325     
   2883182565.7164149     
   2825265599.7999125     
   2774228097.2527485     
   2730468277.1314244     
   2694426314.7150545     
   2789267130.7619543     
   2743127100.3426280     
   2703453334.8979702     
   2670527883.0714889     
   2644652643.7945938     
   2723495478.7520847     
   2687045318.0029135     
   2656461003.6198306     
   2631925206.5870824     
   2613627224.5001383     
   2687819182.4438586     
   2658965844.5693126     
   2635210423.1875639     
   2616658622.8476729     
   2603416331.6653099     
   2760675102.1598325     
   2680987622.9810042     
   2610761532.3984313     
   2550825598.1756516     
   2502057975.5091705     
   2694426314.7150545     
   2626883618.1526155     
   2569046820.7455444     
   2521598638.8372884     
   2485245571.1643004     
   2644652643.7945938     
   2588141141.7768955     
   2541515872.2706175     
   2505308131.9553847     
   2480055716.7498050     
   2613627224.5001383     
   2566658278.6530309     
   2529704444.0395107     
   2503150776.4025140     
   2487379745.5331893     
   2603416331.6653099     
   2564125331.5638132     
   2534949578.1090760     
   2516143196.7177815     
   2507955270.7945938     
   1955390285.1325827     
   2119430974.6995518     
   2284830539.8329487     
   2448629073.0477262     
   2608868255.4726758     
   1653913932.4298999     
   1820360337.2779965     
   1988505386.1272745     
   2155652851.4067554     
   2320044700.6511297     
   1393760843.3557560     
   1571142245.4292202     
   1749528399.1340716     
   1926915714.9201391     
   2102053887.7983785     
   1207240062.7033398     
   1399193299.0088491     
   1590721298.3628232     
   1781047331.3698781     
   1969712877.3368828     
   1137019334.2028697     
   1335351947.1142879     
   1533987288.5889428     
   1732925358.6268337     
   1932166157.2279615     
   2608868255.4726758     
   2676808480.7116203     
   2749223286.7655115     
   2825604271.7205439     
   2905598070.9352756     
   2320044700.6511297     
   2407071571.6264100     
   2496522087.8993163     
   2588007273.7080207     
   2681251833.6935177     
   2102053887.7983785     
   2205785635.6127319     
   2309427507.4889812     
   2412743810.2420907     
   2515567955.8056569     
   1969712877.3368828     
   2086868221.7645023     
   2201191886.8921185     
   2312608995.5668993     
   2421067469.8671975     
   1932166157.2279615     
   2058852463.1829777     
   2180157298.3152242     
   2296080662.6247029     
   2406622556.1114135     
   2905598070.9352756     
   2920499784.7578282     
   2936721450.1385970     
   2954207601.7699575     
   2972918642.9439068     
   2681251833.6935177     
   2703068795.4266305     
   2727253779.7284017     
   2753789747.0419846     
   2782669246.0697041     
   2515567955.8056569     
   2544196545.9830632     
   2576266085.8018799     
   2611778677.0543466     
   2650740545.0134888     
   2421067469.8671975     
   2454919190.7044024     
   2493282607.5727305     
   2536161305.3075142     
   2583559729.2542086     
   2406622556.1114135     
   2442535891.6681137     
   2484020175.3870277     
   2531075407.2681570     
   2583701587.3114991     
   2972918642.9439068     
   2940824205.8735003     
   2915370829.9603457     
   2896673331.1997256     
   2884902942.6587000     
   2782669246.0697041     
   2765034141.0512533     
   2754244711.1637683     
   2750383651.3367062     
   2753564457.5854592     
   2650740545.0134888     
   2645186400.9775772     
   2646449681.6028247     
   2654572184.4053802     
   2669608333.5783777     
   2583559729.2542086     
   2586956413.5200658     
   2596905736.2575784     
   2613418323.5500145     
   2636507638.4388609     
   2583701587.3114991     
   2592421671.2790985     
   2607232552.0075722     
   2628134229.4969234     
   2655126703.7471528     
   2884902942.6587000     
   2850339231.3531313     
   2822623356.9396172     
   2801915894.9888320     
   2788391125.6503100     
   2753564457.5854592     
   2729439480.0561886     
   2712513995.2441082     
   2702892542.0785842     
   2700685866.1493921     
   2669608333.5783777     
   2654023285.3050594     
   2645879827.8151016     
   2645229160.8821492     
   2652124369.1906481     
   2636507638.4388609     
   2626955134.2863007     
   2624983435.3133903     
   2630605956.7335782     
   2643836378.3004346     
   2655126703.7471528     
   2648682552.4835343     
   2649878887.6051760     
   2658715709.1120701     
   2675193017.0042233     
   2788391125.6503100     
   2750112296.6898122     
   2720436869.9690213     
   2699591627.5736833     
   2687819182.4438586     
   2700685866.1493921     
   2674046130.8613110     
   2656072015.3322062     
   2646898043.6574492     
   2646664359.8804636     
   2652124369.1906481     
   2634582292.2248425     
   2625639062.9412251     
   2625355186.9298635     
   2633792345.1144457     
   2643836378.3004346     
   2632469751.4772835     
   2629542861.5767250     
   2635070446.6233120     
   2649067302.4712067     
   2675193017.0042233     
   2666923060.6279469     
   2666881137.6424999     
   2675067248.0478897     
   2691481391.8441129     
   2687819182.4438586     
   2658965844.5693126     
   2635210423.1875639     
   2616658622.8476729     
   2603416331.6653099     
   2646664359.8804636     
   2626100403.6097512     
   2611963178.5897169     
   2604335137.6401286     
   2603296690.3973227     
   2633792345.1144457     
   2620486495.7307482     
   2614905696.9192047     
   2617097010.6813083     
   2627105100.6075802     
   2649067302.4712067     
   2641177953.9565320     
   2642301444.7414389     
   2652452057.2662940     
   2671643013.3660498     
   2691481391.8441129     
   2686486410.3572278     
   2691823819.5961208     
   2707493619.5607977     
   2733495810.2512403     
   2603416331.6653099     
   2564125331.5638132     
   2534949578.1090760     
   2516143196.7177815     
   2507955270.7945938     
   2603296690.3973227     
   2579382136.0645809     
   2565692245.3090277     
   2562366934.2814913     
   2569537053.4730210     
   2627105100.6075802     
   2616099617.7390347     
   2615340090.3887000     
   2624885143.8254762     
   2644787285.5473242     
   2671643013.3660498     
   2670882420.8216825     
   2680394846.4294448     
   2700193780.5170217     
   2730290839.7568550     
   2733495810.2512403     
   2740305592.3606958     
   2757497316.8859267     
   2785070983.8269439     
   2823026593.1837239     
   1137019334.2028697     
   1335351947.1142879     
   1533987288.5889428     
   1732925358.6268337     
   1932166157.2279615     
   1207240062.6601446     
   1399193298.9682138     
   1590721298.3241498     
   1781047331.3327739     
   1969712877.3011198     
   1393760843.2848575     
   1571142245.3598177     
   1749528399.0659375     
   1926915714.8530655     
   2102053887.7322509     
   1653913932.3474267     
   1820360337.1939940     
   1988505386.0420887     
   2155652851.3205633     
   2320044700.5640774     
   1955390285.0500486     
   2119430974.6123452     
   2284830539.7417674     
   2448629072.9530191     
   2608868255.3747845     
   1932166157.2279615     
   2058852463.1829777     
   2180157298.3152242     
   2296080662.6247029     
   2406622556.1114135     
   1969712877.3011198     
   2086868221.7214763     
   2201191886.8412809     
   2312608995.5076537     
   2421067469.7989249     
   2102053887.7322509     
   2205785635.5335779     
   2309427507.3957639     
   2412743810.1337142     
   2515567955.6809883     
   2320044700.5640774     
   2407071571.5227957     
   2496522087.7776055     
   2588007273.5666404     
   2681251833.5308576     
   2608868255.3747845     
   2676808480.5962000     
   2749223286.6305227     
   2825604271.5639262     
   2905598070.7549233     
   2406622556.1114135     
   2442535891.6681137     
   2484020175.3870277     
   2531075407.2681570     
   2583701587.3114991     
   2421067469.7989249     
   2454919190.6509366     
   2493282607.5355706     
   2536161305.2882304     
   2583559729.2543840     
   2515567955.6809883     
   2544196545.8831091     
   2576266085.7294354     
   2611778677.0123534     
   2650740545.0049281     
   2681251833.5308576     
   2703068795.2927890     
   2727253779.6272049     
   2753789746.9774499     
   2782669246.0459485     
   2905598070.7549233     
   2920499784.6050148     
   2936721450.0178022     
   2954207601.6858759     
   2972918642.9013691     
   2583701587.3114991     
   2592421671.2790985     
   2607232552.0075722     
   2628134229.4969234     
   2655126703.7471528     
   2583559729.2543840     
   2586956413.4847488     
   2596905736.1845660     
   2613418323.4370594     
   2636507638.2838159     
   2650740545.0049281     
   2645186400.9061022     
   2646449681.4644623     
   2654572184.1960235     
   2669608333.2940083     
   2782669246.0459485     
   2765034140.9469018     
   2754244710.9735188     
   2750383651.0549440     
   2753564457.2065239     
   2972918642.9013691     
   2940824205.7425447     
   2915370829.7348809     
   2896673330.8731294     
   2884902942.2240267     
   2655126703.7471528     
   2648682552.4835343     
   2649878887.6051760     
   2658715709.1120701     
   2675193017.0042233     
   2636507638.2838159     
   2626955134.0795298     
   2624983435.0448532     
   2630605956.3934760     
   2643836377.8791966     
   2669608333.2940083     
   2654023284.9298220     
   2645879827.3289208     
   2645229160.2652245     
   2652124368.4234300     
   2753564457.2065239     
   2729439479.5674534     
   2712513994.6156044     
   2702892541.2802987     
   2700685865.1511846     
   2884902942.2240267     
   2850339230.8152385     
   2822623356.2592888     
   2801915894.1260376     
   2788391124.5641108     
   2675193017.0042233     
   2666923060.6279469     
   2666881137.6424999     
   2675067248.0478897     
   2691481391.8441129     
   2643836377.8791966     
   2632469751.1189408     
   2629542861.2842317     
   2635070446.3991017     
   2649067302.3170075     
   2652124368.4234300     
   2634582291.5617566     
   2625639062.3867331     
   2625355186.4876256     
   2633792344.7870307     
   2700685865.1511846     
   2674046129.9856901     
   2656072014.5834384     
   2646898043.0389814     
   2646664359.3945980     
   2788391124.5641108     
   2750112295.7238784     
   2720436869.1253204     
   2699591626.8535814     
   2687819181.8477654     
   2691481391.8441129     
   2686486410.3572278     
   2691823819.5961208     
   2707493619.5607977     
   2733495810.2512403     
   2649067302.3170075     
   2641177953.8212175     
   2642301444.6367202     
   2652452057.2033539     
   2671643013.3556786     
   2633792344.7870307     
   2620486495.4246101     
   2614905696.6585751     
   2617097010.4897547     
   2627105100.5081763     
   2646664359.3945980     
   2626100403.1230311     
   2611963178.1395607     
   2604335137.2636390     
   2603296690.1314335     
   2687819181.8477654     
   2658965843.9198976     
   2635210422.5353270     
   2616658622.2436590     
   2603416331.1612425     
   2733495810.2512403     
   2740305592.3606958     
   2757497316.8859267     
   2785070983.8269439     
   2823026593.1837239     
   2671643013.3556786     
   2670882420.0757942     
   2680394844.9516544     
   2700193778.3160844     
   2730290836.8475313     
   2627105100.5081763     
   2616099616.1914644     
   2615340087.3978114     
   2624885139.4065409     
   2644787279.7280498     
   2603296690.1314335     
   2579382133.6689787     
   2565692240.7844853     
   2562366927.6444359     
   2569537044.7592740     
   2603416331.1612425     
   2564125328.2895517     
   2534949572.0538411     
   2516143187.8908844     
   2507955259.2316890     
   1955390285.0500486     
   2119430974.6123452     
   2284830539.7417674     
   2448629072.9530191     
   2608868255.3747845     
   2298847857.5722599     
   2449519369.5276356     
   2604913392.5807395     
   2763108010.0085702     
   2922673792.7374706     
   2694786290.3773837     
   2830532551.1784329     
   2973590224.1595693     
   3122878007.1385794     
   3277485693.3927984     
   3137995980.2443357     
   3255515778.9427853     
   3382451716.6859341     
   3518335996.0438104     
   3662711937.6854706     
   3624987598.3015842     
   3719676550.8733964     
   3825615903.5958352     
   3942743578.0580211     
   4070968180.4225521     
   2608868255.3747845     
   2676808480.5962000     
   2749223286.6305227     
   2825604271.5639262     
   2905598070.7549233     
   2922673792.7374706     
   2975641694.7667212     
   3030816804.5297318     
   3087516600.8093457     
   3145207759.3716788     
   3277485693.3927984     
   3320784888.2435927     
   3364324672.7765093     
   3407281343.8333836     
   3448976316.9481254     
   3662711937.6854706     
   3702181602.1326246     
   3740279689.5960789     
   3776105893.0857477     
   3808909724.1309862     
   4070968180.4225521     
   4112444986.1829109     
   4151289636.4113040     
   4186601337.3370280     
   4217645661.3646359     
   2905598070.7549233     
   2920499784.6050148     
   2936721450.0178022     
   2954207601.6858759     
   2972918642.9013691     
   3145207759.3716788     
   3141659775.3486400     
   3141716756.3672447     
   3145277889.2446032     
   3152328951.4276004     
   3448976316.9481254     
   3422968123.4733806     
   3402070464.3463817     
   3386054984.0188260     
   3374906884.9838729     
   3808909724.1309862     
   3756078467.9154506     
   3709266774.0844350     
   3668004264.5299630     
   3632198575.0725775     
   4217645661.3646359     
   4133349657.0556149     
   4055597816.5211210     
   3983546455.5686193     
   3916907451.5617661     
   2972918642.9013691     
   2940824205.7425447     
   2915370829.7348809     
   2896673330.8731294     
   2884902942.2240267     
   3152328951.4276004     
   3107799198.6786594     
   3069195901.8433118     
   3036700646.9683237     
   3010545253.9249110     
   3374906884.9838729     
   3317767551.8488650     
   3265912284.8879604     
   3219562497.7455611     
   3178987087.9998841     
   3632198575.0725775     
   3562650929.9829035     
   3497843905.0322280     
   3438016566.6583290     
   3383454657.3779039     
   3916907451.5617661     
   3835335360.2794724     
   3758072116.2860489     
   3685359090.6697850     
   3617484819.3208327     
   2884902942.2240267     
   2850339230.8152385     
   2822623356.2592888     
   2801915894.1260376     
   2788391124.5641108     
   3010545253.9249110     
   2965890752.9755125     
   2927725801.9111691     
   2896280702.6529822     
   2871813179.5255404     
   3178987087.9998841     
   3122535872.9060402     
   3072075355.0058103     
   3027893568.2104578     
   2990323281.5855603     
   3383454657.3779039     
   3314024268.0815139     
   3249982456.2046537     
   3191654615.3344750     
   3139429143.1641445     
   3617484819.3208327     
   3534300535.1834517     
   3455839596.4626970     
   3382441630.2006922     
   3314525967.7516503     
   2788391124.5641108     
   2750112295.7238784     
   2720436869.1253204     
   2699591626.8535814     
   2687819181.8477654     
   2871813179.5255404     
   2822484722.6109262     
   2781110432.4879036     
   2748001517.8042579     
   2723495478.4414887     
   2990323281.5855603     
   2928797448.8445554     
   2874521131.9158993     
   2827871967.3038058     
   2789267130.6499791     
   3139429143.1641445     
   3065164557.3636065     
   2997414356.1718879     
   2936596718.1290236     
   2883182565.7094893     
   3314525967.7516503     
   3227452016.9884386     
   3146159519.2445922     
   3071080351.0438676     
   3002709625.8359818     
   2687819181.8477654     
   2658965843.9198976     
   2635210422.5353270     
   2616658622.2436590     
   2603416331.1612425     
   2723495478.4414887     
   2687045317.6376567     
   2656461003.2631350     
   2631925206.3039579     
   2613627224.3576436     
   2789267130.6499791     
   2743127100.1286211     
   2703453334.6568961     
   2670527882.8822665     
   2644652643.7406592     
   2883182565.7094893     
   2825265599.5958061     
   2774228096.9365115     
   2730468276.7951860     
   2694426314.4591050     
   3002709625.8359818     
   2931011801.8691850     
   2866412948.4434881     
   2809435283.5378623     
   2760675101.4093504     
   2603416331.1612425     
   2564125328.2895517     
   2534949572.0538411     
   2516143187.8908844     
   2507955259.2316890     
   2613627224.3576436     
   2566658275.3543005     
   2529704437.5281076     
   2503150766.6360025     
   2487379732.4893684     
   2644652643.7406592     
   2588141138.4825106     
   2541515865.6467671     
   2505308121.9171748     
   2480055703.2226992     
   2694426314.4591050     
   2626883614.8495269     
   2569046814.2942977     
   2521598629.1281066     
   2485245558.0841408     
   2760675101.4093504     
   2680987619.6169906     
   2610761526.3356314     
   2550825589.3058572     
   2502057963.7048717     
   3624987598.3015842     
   3719676550.8733964     
   3825615903.5958352     
   3942743578.0580211     
   4070968180.4225521     
   4134119620.7107902     
   4224355303.9754033     
   4320510315.5703392     
   4420928305.8807611     
   4524155036.8687325     
   4643439526.5069971     
   4755504414.6520548     
   4868692125.2857456     
   4980366934.7246637     
   5088602783.5445690     
   5151426693.3129940     
   5311298836.3116083     
   5467802512.9617968     
   5618040351.5788870     
   5760545010.1079073     
   5657817419.2904596     
   5890900561.5242786     
   6116345643.8725195     
   6331691018.9013872     
   6536711488.8579636     
   4070968180.4225521     
   4112444986.1829109     
   4151289636.4113040     
   4186601337.3370280     
   4217645661.3646359     
   4524155036.8687325     
   4538963596.6880808     
   4558448796.9902000     
   4580129726.4458742     
   4602282734.2411680     
   5088602783.5445690     
   5053924854.7914772     
   5029758916.6717300     
   5010899419.5534954     
   4994145655.9926968     
   5760545010.1079073     
   5652003544.6227055     
   5559458830.7198009     
   5473852389.1351871     
   5389644490.9506636     
   6536711488.8579636     
   6328605168.0646143     
   6142680437.4982309     
   5965034537.7661238     
   5786660976.9044905     
   4217645661.3646359     
   4133349657.0556149     
   4055597816.5211210     
   3983546455.5686193     
   3916907451.5617661     
   4602282734.2411680     
   4493689168.2770300     
   4389343975.1885147     
   4288933863.1060562     
   4192373516.4082479     
   4994145655.9926968     
   4866639152.2402334     
   4742330364.3685102     
   4621188632.6361599     
   4503256466.3721590     
   5389644490.9506636     
   5248244460.9025745     
   5110056116.4952745     
   4975121195.8453369     
   4843533074.5339165     
   5786660976.9044905     
   5635839286.7913389     
   5489189238.8868942     
   5346624508.7049398     
   5208190075.7842083     
   3916907451.5617661     
   3835335360.2794724     
   3758072116.2860489     
   3685359090.6697850     
   3617484819.3208327     
   4192373516.4082479     
   4097001929.6845002     
   4005168605.0721107     
   3917107085.5855761     
   3833116231.8135419     
   4503256466.3721590     
   4393058063.2408171     
   4285499752.1268487     
   4180774057.8281989     
   4079159618.4033580     
   4843533074.5339165     
   4717699503.4349823     
   4593545537.8279676     
   4471192237.0424042     
   4350867308.8852453     
   5208190075.7842083     
   5066057390.7450075     
   4924634345.0184965     
   4783944992.0110550     
   4644138776.0304813     
   3617484819.3208327     
   3534300535.1834517     
   3455839596.4626970     
   3382441630.2006922     
   3314525967.7516503     
   3833116231.8135419     
   3734495340.7817750     
   3639768192.5464120     
   3549237299.4279013     
   3463278526.2557921     
   4079159618.4033580     
   3966332231.0130544     
   3856717072.0075712     
   3750564607.9761720     
   3648190129.1163163     
   4350867308.8852453     
   4225069045.5122743     
   4101961614.9743209     
   3981739351.6616526     
   3864652561.0165687     
   4644138776.0304813     
   4506521886.6286221     
   4371229349.9370184     
   4238401948.0591846     
   4108228911.1616096     
   3314525967.7516503     
   3227452016.9884386     
   3146159519.2445922     
   3071080351.0438676     
   3002709625.8359818     
   3463278526.2557921     
   3360954014.3295941     
   3263566606.1138291     
   3171548624.0920467     
   3085414485.4079528     
   3648190129.1163163     
   3530782825.8107519     
   3417410451.5239859     
   3308469320.5139146     
   3204449298.7127247     
   3864652561.0165687     
   3732572176.7773747     
   3603630808.1542091     
   3478162165.8028188     
   3356596370.2106385     
   4108228911.1616096     
   3961999934.1630793     
   3818066658.3181300     
   3676685415.0440831     
   3538204467.3253422     
   3002709625.8359818     
   2931011801.8691850     
   2866412948.4434881     
   2809435283.5378623     
   2760675101.4093504     
   3085414485.4079528     
   2996915038.9946456     
   2913967073.4704237     
   2837052139.6924362     
   2766735701.1688018     
   3204449298.7127247     
   3100837406.0472107     
   3001330458.6764836     
   2906315728.2333035     
   2816259940.3458085     
   3356596370.2106385     
   3240126356.2250218     
   3126521099.2895298     
   3016048858.3157425     
   2909040192.7738585     
   3538204467.3253422     
   3411414661.7399497     
   3286524637.5476332     
   3163689122.4034085     
   3043102879.7145691     
   2760675101.4093504     
   2680987619.6169906     
   2610761526.3356314     
   2550825589.3058572     
   2502057963.7048717     
   2766735701.1688018     
   2664918703.3856478     
   2570736015.9713993     
   2485057170.2507529     
   2408866174.0554976     
   2816259940.3458085     
   2693691925.7485642     
   2576667648.3857203     
   2465944431.5334644     
   2362435466.9953017     
   2909040192.7738585     
   2768375857.9961185     
   2631188644.6609731     
   2498002421.7426724     
   2369487926.8495097     
   3043102879.7145691     
   2887859896.7873578     
   2734345336.6512475     
   2582819827.3202910     
   2433641765.9241538     
   5657817419.2904596     
   5890900561.5242786     
   6116345643.8725195     
   6331691018.9013872     
   6536711488.8579636     
   6491677383.8526258     
   6586883069.3427906     
   6757420007.8839169     
   6961206544.1360769     
   7171582231.4624367     
   7982347701.2923059     
   7734970970.6070232     
   7669160161.9712315     
   7669613904.4056282     
   7666401692.5110235     
   10130274714.277164     
   9322005772.3778000     
   8826375835.4997272     
   8443564305.0321674     
   8035767611.4207802     
   12935544583.531273     
   11340701771.055115     
   10210234226.589664     
   9272820929.1002121     
   8304034515.3649626     
   6536711488.8579636     
   6328605168.0646143     
   6142680437.4982309     
   5965034537.7661238     
   5786660976.9044905     
   7171582231.4624367     
   6910955134.4688444     
   6658223464.3436708     
   6409529872.7201729     
   6161730112.1420879     
   7666401692.5110235     
   7381188943.9896870     
   7101362859.2183046     
   6827001287.7425241     
   6558306969.0488873     
   8035767611.4207802     
   7746952267.6523685     
   7473794145.3470078     
   7214337181.9509821     
   6968586992.1911888     
   8304034515.3649626     
   8020803645.2194395     
   7779651587.0294189     
   7569903754.7122269     
   7386589489.9890785     
   5786660976.9044905     
   5635839286.7913389     
   5489189238.8868942     
   5346624508.7049398     
   5208190075.7842083     
   6161730112.1420879     
   6012541776.4069176     
   5864686889.5528936     
   5718203320.2261877     
   5573146475.0619822     
   6558306969.0488873     
   6407638315.2543564     
   6255362937.4329338     
   6101449000.3110867     
   5945924524.0417557     
   6968586992.1911888     
   6814664929.0959892     
   6656174851.7430859     
   6492835433.6045465     
   6324592909.9219608     
   7386589489.9890785     
   7228622247.2140522     
   7063212582.9058704     
   6889670617.2261715     
   6707803962.0436316     
   5208190075.7842083     
   5066057390.7450075     
   4924634345.0184965     
   4783944992.0110550     
   4644138776.0304813     
   5573146475.0619822     
   5414457366.0237122     
   5256617836.1189098     
   5099664060.4703379     
   4943689389.6800318     
   5945924524.0417557     
   5773410502.4955435     
   5602265148.0072155     
   5432513483.4666271     
   5264215257.5289307     
   6324592909.9219608     
   6140482271.6739950     
   5958587651.8639221     
   5778891770.6331577     
   5601425795.4811335     
   6707803962.0436316     
   6513847947.1644354     
   6323252008.4439049     
   6135918413.0634365     
   5951839625.0807180     
   4644138776.0304813     
   4506521886.6286221     
   4371229349.9370184     
   4238401948.0591846     
   4108228911.1616096     
   4943689389.6800318     
   4796659216.4520655     
   4650983562.7973938     
   4506773023.6928740     
   4364179394.6461191     
   5264215257.5289307     
   5108015779.5678644     
   4952270623.2942019     
   4797051294.4790344     
   4642465429.1766176     
   5601425795.4811335     
   5436463630.9464521     
   5271133584.1185799     
   5105463979.9336157     
   4939516764.4545527     
   5951839625.0807180     
   5778637074.2726812     
   5604325987.1937017     
   5428891027.7078781     
   5252350812.9815884     
   4108228911.1616096     
   3961999934.1630793     
   3818066658.3181300     
   3676685415.0440831     
   3538204467.3253422     
   4364179394.6461191     
   4204310222.4966264     
   4046133587.5354061     
   3889828918.9637179     
   3735654538.9046183     
   4642465429.1766176     
   4469699976.2075987     
   4298145926.8487854     
   4127914760.2023196     
   3959183992.1266861     
   4939516764.4545527     
   4754444124.3602409     
   4570211988.0366421     
   4386875333.0751133     
   4204544059.3361311     
   5252350812.9815884     
   5055410356.4513330     
   4859033493.7678671     
   4663230151.7102757     
   4468056456.7308311     
   3538204467.3253422     
   3411414661.7399497     
   3286524637.5476332     
   3163689122.4034085     
   3043102879.7145691     
   3735654538.9046183     
   3600299988.7354093     
   3466441523.1237140     
   3334216060.2784081     
   3203807011.6675177     
   3959183992.1266861     
   3814399490.9264345     
   3670608397.8327909     
   3527918613.2983375     
   3386490213.8531613     
   4204544059.3361311     
   4049428714.9669552     
   3894731258.9648843     
   3740520308.4191604     
   3586921010.5594707     
   4468056456.7308311     
   4301696611.2046747     
   4135130309.6258092     
   3968377737.9172382     
   3801518314.3003716     
   3043102879.7145691     
   2887859896.7873578     
   2734345336.6512475     
   2582819827.3202910     
   2433641765.9241538     
   3203807011.6675177     
   3038594888.8149076     
   2875387506.5441236     
   2714453334.7943397     
   2556189086.8452992     
   3386490213.8531613     
   3208375305.5006409     
   3032218093.8568206     
   2858291407.8621697     
   2687043213.2025175     
   3586921010.5594707     
   3392585509.9853086     
   3199864124.7238255     
   3009031725.3826909     
   2820599527.5005059     
   3801518314.3003716     
   3587447649.2461967     
   3374392686.4122877     
   3162626886.1175241     
   2952732773.0636926     
 </DataArray>
 <DataArray  type="Float64" Name="strain" NumberOfComponents="3" format="ascii">
  0.20348481355076967        0.0000000000000000       0.12540400421130987     
  0.18665557468299171       -2.7323882462768019E-002   7.4351416228048403E-002
  0.16982633581521372       -4.4675093375481999E-002   3.5132384718466678E-002
  0.15299709694743574       -5.2053632738141925E-002   7.7469096825646608E-003
  0.13616785807965776       -4.9459500550747826E-002  -7.8050088796576683E-003
  0.15985527257784080        0.0000000000000000        9.6448333773802589E-002
  0.15317803043992137       -2.1844098782434852E-002   6.2690205297790597E-002
  0.14650078830200194       -3.6174149855300389E-002   3.7402513807816021E-002
  0.13982354616408252       -4.2990153218596616E-002   2.0585259303878820E-002
  0.13314630402616312       -4.2292108872323493E-002   1.2238441785979000E-002
  0.12645839122617089        0.0000000000000000        7.4201758936870851E-002
  0.12657002633046771       -1.6364315102101682E-002   5.5279466127623612E-002
  0.12668166143476450       -2.7673206335118775E-002   4.1464490816771435E-002
  0.12679329653906132       -3.3926673699051280E-002   3.2756833004314347E-002
  0.12690493164335812       -3.5124717193899202E-002   2.9156492690252320E-002
  0.10329416949575992        0.0000000000000000        5.8664279700514646E-002
  0.10683156235463064       -1.0884531421768515E-002   5.2119198717547437E-002
  0.11036895521350136       -1.9172262814937169E-002   4.7318315745332962E-002
  0.11390634807237206       -2.4863194179505950E-002   4.4261630783871242E-002
  0.11744374093124277       -2.7957325515474883E-002   4.2949143833162250E-002
   9.0362607386607924E-002   0.0000000000000000        4.9835896064733959E-002
   9.3962638512410213E-002  -5.4047477414353451E-003   5.3209403067562028E-002
   9.7562669638212515E-002  -1.0671319294755555E-002   5.4963988593500539E-002
  0.10116270076401482       -1.5799714659960634E-002   5.5099652642549457E-002
  0.10476273188981712       -2.0789933837050561E-002   5.3616395214708804E-002
  0.13616785807965776       -4.9459500550747826E-002  -7.8050088796576683E-003
  0.13296196672287958       -4.2926730220725580E-002  -3.3916029902941944E-003
  0.12975607536610145       -3.8489355155501094E-002  -3.9180752330274585E-004
  0.12655018400932325       -3.6147375355074333E-002   1.1943775213167640E-003
  0.12334429265254512       -3.5900790819445388E-002   1.3669521435641374E-003
  0.13314630402616312       -4.2292108872323493E-002   1.2238441785979000E-002
  0.12891464249178888       -3.8427499241435216E-002   1.2181713388239708E-002
  0.12468298095741462       -3.5743806750885773E-002   1.1487055057680245E-002
  0.12045131942304040       -3.4241031400675172E-002   1.0154466794300576E-002
  0.11621965788866617       -3.3919173190803509E-002   8.1839485981008431E-003
  0.12690493164335812       -3.5124717193899202E-002   2.9156492690252320E-002
  0.12242318042093961       -3.3928268262144790E-002   2.5544108129869146E-002
  0.11794142919852112       -3.2998258346270418E-002   2.2069474126217650E-002
  0.11345967797610261       -3.2334687446276017E-002   1.8732590679297771E-002
  0.10897792675368412       -3.1937555562161588E-002   1.5533457789109521E-002
  0.11744374093124277       -2.7957325515474883E-002   4.2949143833162250E-002
  0.11348758051033184       -2.9429037282854439E-002   3.6695581234594092E-002
  0.10953142008942089       -3.0252709941655097E-002   3.1355449682309446E-002
  0.10557525966850992       -3.0428343491876862E-002   2.6928749176308206E-002
  0.10161909924759899       -2.9955937933519743E-002   2.3415479716590429E-002
  0.10476273188981712       -2.0789933837050561E-002   5.3616395214708804E-002
  0.10210784275996553       -2.4929806303564034E-002   4.5636132702414567E-002
   9.9452953630113958E-002  -2.7507161537039748E-002   3.9344981725955609E-002
   9.6798064500262376E-002  -2.8521999537477683E-002   3.4742942285331917E-002
   9.4143175370410767E-002  -2.7974320304877842E-002   3.1830014380543517E-002
  0.12334429265254512       -3.5900790819445388E-002   1.3669521435641374E-003
  0.12041616960966764       -3.6397106789847117E-002   6.3930542337264917E-004
  0.11748804656679014       -3.6283828507512404E-002   1.0264105333575302E-004
  0.11455992352391264       -3.5560955972441348E-002  -2.4304096654647472E-004
  0.11163180048103516       -3.4228489184633837E-002  -3.9774063627395773E-004
  0.11621965788866617       -3.3919173190803509E-002   8.1839485981008431E-003
  0.11346851240344390       -3.3992990594363073E-002   7.8247807974129724E-003
  0.11071736691822168       -3.3677242084446307E-002   7.6285857618810168E-003
  0.10796622143299944       -3.2971927661053120E-002   7.5953634915050250E-003
  0.10521507594777715       -3.1877047324183616E-002   7.7251139862845875E-003
  0.10897792675368412       -3.1937555562161588E-002   1.5533457789109521E-002
  0.10637574924111817       -3.1588874398879044E-002   1.5322740568665588E-002
  0.10377357172855231       -3.1070655661380130E-002   1.5246986528378543E-002
  0.10117139421598641       -3.0382899349664923E-002   1.5306195668248418E-002
   9.8569216703420531E-002  -2.9525605463733340E-002   1.5500367988275088E-002
  0.10161909924759899       -2.9955937933519743E-002   2.3415479716590429E-002
   9.9137880122690522E-002  -2.9184758203395007E-002   2.3133184737130309E-002
   9.6656660997782015E-002  -2.8464069238313995E-002   2.2957843352828192E-002
   9.4175441872873564E-002  -2.7793871038276709E-002   2.2889455563683877E-002
   9.1694222747965098E-002  -2.7174163603283091E-002   2.2928021369697654E-002
   9.4143175370410767E-002  -2.7974320304877842E-002   3.1830014380543517E-002
   9.1754905048160820E-002  -2.6780642007910999E-002   3.1256113302807136E-002
   8.9366634725910860E-002  -2.5857482815247905E-002   3.0761156235229778E-002
   8.6978364403660885E-002  -2.5204842726888485E-002   3.0345143177811527E-002
   8.4590094081410938E-002  -2.4822721742832815E-002   3.0008074130552204E-002
  0.11163180048103516       -3.4228489184633837E-002  -3.9774063627395773E-004
  0.10853015057478688       -3.2713016129645972E-002  -1.4540558288497762E-004
  0.10542850066853859       -3.1441124793033182E-002   1.8779182511655113E-004
  0.10232685076229034       -3.0412815174795799E-002   6.0185158773093383E-004
   9.9225200856042028E-002  -2.9628087274933712E-002   1.0967737049577542E-003
  0.10521507594777715       -3.1877047324183616E-002   7.7251139862845875E-003
  0.10221790703857120       -3.0660401163953049E-002   7.5771249784395145E-003
   9.9220738129365230E-002  -2.9589789270476868E-002   7.5572356100665344E-003
   9.6223569220159205E-002  -2.8665211643754705E-002   7.6654458811654877E-003
   9.3226400310953306E-002  -2.7886668283786886E-002   7.9017557917364367E-003
   9.8569216703420531E-002  -2.9525605463733340E-002   1.5500367988275088E-002
   9.5723766076116074E-002  -2.8607786198260279E-002   1.5049602370817247E-002
   9.2878315448811602E-002  -2.7738453747920333E-002   1.4774173677690697E-002
   9.0032864821507186E-002  -2.6917608112713612E-002   1.4674081908895367E-002
   8.7187414194202756E-002  -2.6145249292640171E-002   1.4749327064431050E-002
   9.1694222747965098E-002  -2.7174163603283091E-002   2.2928021369697654E-002
   8.9047727687421488E-002  -2.6555171232567433E-002   2.2272026594248123E-002
   8.6401232626877808E-002  -2.5887118225363909E-002   2.1838606027988948E-002
   8.3754737566334170E-002  -2.5170004581672505E-002   2.1627759670920149E-002
   8.1108242505790532E-002  -2.4403830301493290E-002   2.1639487523042039E-002
   8.4590094081410938E-002  -2.4822721742832815E-002   3.0008074130552204E-002
   8.2189791872487386E-002  -2.4502556266874601E-002   2.9244397648731948E-002
   7.9789489663563834E-002  -2.4035782702807464E-002   2.8750532660961392E-002
   7.7389187454640254E-002  -2.3422401050631474E-002   2.8526479167240500E-002
   7.4988885245716730E-002  -2.2662411310346520E-002   2.8572237167569292E-002
   9.9225200856042028E-002  -2.9628087274933712E-002   1.0967737049577542E-003
   9.6302069909101895E-002  -2.8921192503458787E-002   8.8990634593721918E-004
   9.3378938962161706E-002  -2.8126382270382555E-002   8.3673294849789803E-004
   9.0455808015221573E-002  -2.7243656575705794E-002   9.3725351263972134E-004
   8.7532677068281384E-002  -2.6273015419427503E-002   1.1914680383627863E-003
   9.3226400310953306E-002  -2.7886668283786886E-002   7.9017557917364367E-003
   9.0457858750057019E-002  -2.7153365766282300E-002   7.7273323072312161E-003
   8.7689317189160759E-002  -2.6364510666950031E-002   7.7083936332328490E-003
   8.4920775628264500E-002  -2.5520102985790001E-002   7.8449397697408982E-003
   8.2152234067368213E-002  -2.4620142722802052E-002   8.1369707167558425E-003
   8.7187414194202756E-002  -2.6145249292640171E-002   1.4749327064431050E-002
   8.4575252868275899E-002  -2.5385539029106050E-002   1.4574984574668159E-002
   8.1963091542349015E-002  -2.4602639063517340E-002   1.4557917744337373E-002
   7.9350930216422172E-002  -2.3796549395874320E-002   1.4698126573438712E-002
   7.6738768890495301E-002  -2.2967270026176712E-002   1.4995611061972058E-002
   8.1108242505790532E-002  -2.4403830301493290E-002   2.1639487523042039E-002
   7.8654252263758551E-002  -2.3617712291929625E-002   2.1432863148248153E-002
   7.6200262021726500E-002  -2.2840767460084732E-002   2.1385305281811540E-002
   7.3746271779694519E-002  -2.2072995805958583E-002   2.1496813923732701E-002
   7.1292281537662455E-002  -2.1314397329551205E-002   2.1767389074011198E-002
   7.4988885245716730E-002  -2.2662411310346520E-002   2.8572237167569292E-002
   7.2694856936504959E-002  -2.1849885554753201E-002   2.8300968027970747E-002
   7.0400828627293216E-002  -2.1078895856652083E-002   2.8190556245655446E-002
   6.8106800318081473E-002  -2.0349442216042932E-002   2.8241001820623016E-002
   6.5812772008869730E-002  -1.9661524632925864E-002   2.8452304752873581E-002
   8.7532677068281384E-002  -2.6273015419427503E-002   1.1914680383627863E-003
   8.4254005592091064E-002  -2.5277282802831091E-002   9.9285518711661469E-004
   8.0975334115900688E-002  -2.4319282727200353E-002   9.9068327179474558E-004
   7.7696662639710340E-002  -2.3399015192534803E-002   1.1849522923979283E-003
   7.4417991163519992E-002  -2.2516480198834565E-002   1.5756622489248029E-003
   8.2152234067368213E-002  -2.4620142722802052E-002   8.1369707167558425E-003
   7.9070629042067353E-002  -2.3704060427820722E-002   7.8754406751115058E-003
   7.5989024016766438E-002  -2.2811286650681092E-002   7.8116025993212601E-003
   7.2907418991465578E-002  -2.1941821391382284E-002   7.9454564893852858E-003
   6.9825813966164663E-002  -2.1095664649925183E-002   8.2770023453037633E-003
   7.6738768890495301E-002  -2.2967270026176712E-002   1.4995611061972058E-002
   7.3855481346013607E-002  -2.2130838052810325E-002   1.4685587853053308E-002
   7.0972193801531872E-002  -2.1303290574161499E-002   1.4574507639918646E-002
   6.8088906257050164E-002  -2.0484627590229766E-002   1.4662370422567989E-002
   6.5205618712568497E-002  -1.9674849101015413E-002   1.4949176201001502E-002
   7.1292281537662455E-002  -2.1314397329551205E-002   2.1767389074011198E-002
   6.8608562503929743E-002  -2.0557615677799942E-002   2.1423296720942262E-002
   6.5924843470197031E-002  -1.9795294497641849E-002   2.1279398393587154E-002
   6.3241124436464360E-002  -1.9027433789077248E-002   2.1335694091945721E-002
   6.0557405402731600E-002  -1.8254033552105836E-002   2.1592183816018407E-002
   6.5812772008869730E-002  -1.9661524632925864E-002   2.8452304752873581E-002
   6.3329872515815760E-002  -1.8984393302789504E-002   2.8088567278778287E-002
   6.0846973022761805E-002  -1.8287298421122380E-002   2.7926274860326727E-002
   5.8364073529707801E-002  -1.7570239987924747E-002   2.7965427497518597E-002
   5.5881174036653880E-002  -1.6833218003196371E-002   2.8206025190354145E-002
   7.4417991163519992E-002  -2.2516480198834565E-002   1.5756622489248029E-003
   7.1657390331996362E-002  -2.1640802400711701E-002   1.3766546524569545E-003
   6.8896789500472733E-002  -2.0741106452779157E-002   1.3849010145359220E-003
   6.6136188668949075E-002  -1.9817392355036156E-002   1.6004013351615387E-003
   6.3375587837425473E-002  -1.8869660107483477E-002   2.0231556143340823E-003
   6.9825813966164663E-002  -2.1095664649925183E-002   8.2770023453037633E-003
   6.7259944413867234E-002  -2.0254256381506186E-002   8.0563688740610817E-003
   6.4694074861569834E-002  -1.9399036541323078E-002   8.0179440027245974E-003
   6.2128205309272475E-002  -1.8530005129376040E-002   8.1617277312927700E-003
   5.9562335756975004E-002  -1.7647162145664419E-002   8.4877200597668345E-003
   6.5205618712568497E-002  -1.9674849101015413E-002   1.4949176201001502E-002
   6.2809435080855847E-002  -1.8867710362300477E-002   1.4696710276938724E-002
   6.0413251449143321E-002  -1.8056966629867111E-002   1.4601407594140289E-002
   5.8017067817430761E-002  -1.7242617903715257E-002   1.4663268152605866E-002
   5.5620884185718172E-002  -1.6424664183844861E-002   1.4882291952335563E-002
   6.0557405402731600E-002  -1.8254033552105836E-002   2.1592183816018407E-002
   5.8305862332962373E-002  -1.7481164343094754E-002   2.1297678861089797E-002
   5.6054319263193222E-002  -1.6714896718411087E-002   2.1135291788784004E-002
   5.3802776193424023E-002  -1.5955230678054697E-002   2.1105022599100631E-002
   5.1551233123654783E-002  -1.5202166222025776E-002   2.1206871292040207E-002
   5.5881174036653880E-002  -1.6833218003196371E-002   2.8206025190354145E-002
   5.3749226170186681E-002  -1.6094618323889254E-002   2.7859274626513664E-002
   5.1617278303719455E-002  -1.5372826806955120E-002   2.7619596586654860E-002
   4.9485330437252242E-002  -1.4667843452394122E-002   2.7486991070777039E-002
   4.7353382570785030E-002  -1.3979668260206357E-002   2.7461458078880452E-002
   6.3375587837425473E-002  -1.8869660107483477E-002   2.0231556143340823E-003
   5.9776558486258513E-002  -1.7933667708567191E-002   1.9478114735841379E-003
   5.6177529135091608E-002  -1.7045173156732402E-002   2.2441164345404219E-003
   5.2578499783924593E-002  -1.6204176451980058E-002   2.9120704972031841E-003
   4.8979470432757743E-002  -1.5410677594309696E-002   3.9516736615721193E-003
   5.9562335756975004E-002  -1.7647162145664419E-002   8.4877200597668345E-003
   5.6304007293289993E-002  -1.6770133813144961E-002   8.2167588533705316E-003
   5.3045678829604925E-002  -1.5918546354774077E-002   8.2555503202311198E-003
   4.9787350365919886E-002  -1.5092399770551129E-002   8.6040944603490710E-003
   4.6529021902234846E-002  -1.4291694060477145E-002   9.2623912737255232E-003
   5.5620884185718172E-002  -1.6424664183844861E-002   1.4882291952335563E-002
   5.2641360181065910E-002  -1.5606599917723007E-002   1.4437770653226489E-002
   4.9661836176413676E-002  -1.4791919552815405E-002   1.4241105598926204E-002
   4.6682312171761414E-002  -1.3980623089122752E-002   1.4292296789433175E-002
   4.3702788167109152E-002  -1.3172710526644815E-002   1.4591344224749170E-002
   5.1551233123654783E-002  -1.5202166222025776E-002   2.1206871292040207E-002
   4.8788617149586218E-002  -1.4443066022300916E-002   2.0610846873152511E-002
   4.6026001175517667E-002  -1.3665292750856796E-002   2.0200782270623368E-002
   4.3263385201448991E-002  -1.2868846407693988E-002   1.9976677484454086E-002
   4.0500769227380620E-002  -1.2053726992812153E-002   1.9938532514643365E-002
   4.7353382570785030E-002  -1.3979668260206357E-002   2.7461458078880452E-002
   4.4745778198851088E-002  -1.3279532126878935E-002   2.6735987513147264E-002
   4.2138173826917091E-002  -1.2538665948898464E-002   2.6134580335324564E-002
   3.9530569454983094E-002  -1.1757069726265459E-002   2.5657236545411855E-002
   3.6922965083049153E-002  -1.0934743458979712E-002   2.5303956143409190E-002
   9.0362607386607924E-002   0.0000000000000000        4.9835896064733959E-002
   9.3962638512410213E-002  -5.4047477414353451E-003   5.3209403067562028E-002
   9.7562669638212515E-002  -1.0671319294755555E-002   5.4963988593500539E-002
  0.10116270076401482       -1.5799714659960634E-002   5.5099652642549457E-002
  0.10476273188981712       -2.0789933837050561E-002   5.3616395214708804E-002
   8.2425520509629854E-002   0.0000000000000000        4.4783955102158740E-002
   8.4635707775788105E-002  -4.5744100501669670E-003   4.8267554698869404E-002
   8.6845895041946342E-002  -9.0375480213528096E-003   5.0590388053181522E-002
   8.9056082308104592E-002  -1.3389413913557531E-002   5.1752455165095107E-002
   9.1266269574262843E-002  -1.7630007726781121E-002   5.1753756034610132E-002
   7.4244724475740737E-002   0.0000000000000000        4.0575803885418898E-002
   7.5523223116745947E-002  -3.7440723588985881E-003   4.4142591966878128E-002
   7.6801721757751171E-002  -7.4037767479500655E-003   4.7006769040429865E-002
   7.8080220398756395E-002  -1.0979113167154428E-002   4.9168335106074094E-002
   7.9358719039761591E-002  -1.4470081616511679E-002   5.0627290163810769E-002
   6.5820219284940543E-002   0.0000000000000000        3.7211442414514448E-002
   6.6625184535283793E-002  -2.9137346676302097E-003   4.0834514871588234E-002
   6.7430149785627003E-002  -5.7700054745473206E-003   4.4213131555245561E-002
   6.8235115035970226E-002  -8.5688124207513282E-003   4.7347292465486406E-002
   6.9040080286313477E-002  -1.1310155506242241E-002   5.0236997602310783E-002
   5.7152004937229293E-002   0.0000000000000000        3.4690870689445381E-002
   5.7941592031401562E-002  -2.0833969763618312E-003   3.8343323412999716E-002
   5.8731179125573837E-002  -4.1362342011445740E-003   4.2209475597628617E-002
   5.9520766219746113E-002  -6.1585116743482233E-003   4.6289327243332068E-002
   6.0310353313918388E-002  -8.1502293959727946E-003   5.0582878350110091E-002
  0.10476273188981712       -2.0789933837050561E-002   5.3616395214708804E-002
  0.10210784275996553       -2.4929806303564034E-002   4.5636132702414567E-002
   9.9452953630113958E-002  -2.7507161537039748E-002   3.9344981725955609E-002
   9.6798064500262376E-002  -2.8521999537477683E-002   3.4742942285331917E-002
   9.4143175370410767E-002  -2.7974320304877842E-002   3.1830014380543517E-002
   9.1266269574262843E-002  -1.7630007726781121E-002   5.1753756034610132E-002
   9.0062873901337798E-002  -2.1204663072578362E-002   4.6516348268914917E-002
   8.8859478228412753E-002  -2.3558713562504090E-002   4.2492815881237524E-002
   8.7656082555487722E-002  -2.4692159196558240E-002   3.9683158871577875E-002
   8.6452686882562663E-002  -2.4604999974740839E-002   3.8087377239936118E-002
   7.9358719039761591E-002  -1.4470081616511679E-002   5.0627290163810769E-002
   7.9131580665945653E-002  -1.7479519841592711E-002   4.7790824767548347E-002
   7.8904442292129687E-002  -1.9610265587968412E-002   4.5692998591486240E-002
   7.8677303918313735E-002  -2.0862318855638780E-002   4.4333811635624498E-002
   7.8450165544497782E-002  -2.1235679644603822E-002   4.3713263899963051E-002
   6.9040080286313477E-002  -1.1310155506242241E-002   5.0236997602310783E-002
   6.9313963053789132E-002  -1.3754376610607039E-002   4.9459562198314898E-002
   6.9587845821264760E-002  -1.5661817613432747E-002   4.8945529856701871E-002
   6.9861728588740429E-002  -1.7032478514719330E-002   4.8694900577471778E-002
   7.0135611356216085E-002  -1.7866359314466812E-002   4.8707674360624550E-002
   6.0310353313918388E-002  -8.1502293959727946E-003   5.0582878350110091E-002
   6.0610021064868208E-002  -1.0029233379621385E-002   5.1522560561214535E-002
   6.0909688815818014E-002  -1.1713369638897079E-002   5.2250409676884428E-002
   6.1209356566767820E-002  -1.3202638173799882E-002   5.2766425697119701E-002
   6.1509024317717639E-002  -1.4497038984329795E-002   5.3070608621920416E-002
   9.4143175370410767E-002  -2.7974320304877842E-002   3.1830014380543517E-002
   9.1754905048160820E-002  -2.6780642007910999E-002   3.1256113302807136E-002
   8.9366634725910860E-002  -2.5857482815247905E-002   3.0761156235229778E-002
   8.6978364403660885E-002  -2.5204842726888485E-002   3.0345143177811527E-002
   8.4590094081410938E-002  -2.4822721742832815E-002   3.0008074130552204E-002
   8.6452686882562663E-002  -2.4604999974740839E-002   3.8087377239936118E-002
   8.4190198738666164E-002  -2.3960648024877275E-002   3.7059912228135823E-002
   8.1927710594769651E-002  -2.3422515474792883E-002   3.6205067562883428E-002
   7.9665222450873152E-002  -2.2990602324487689E-002   3.5522843244178974E-002
   7.7402734306976625E-002  -2.2664908573961695E-002   3.5013239272022240E-002
   7.8450165544497782E-002  -2.1235679644603822E-002   4.3713263899963051E-002
   7.6407135915343538E-002  -2.1140654041843537E-002   4.2396534658623523E-002
   7.4364106286189280E-002  -2.0987548134337893E-002   4.1346102100220675E-002
   7.2321076657035049E-002  -2.0776361922086893E-002   4.0561966224754512E-002
   7.0278047027880819E-002  -2.0507095405090589E-002   4.0044127032224978E-002
   7.0135611356216085E-002  -1.7866359314466812E-002   4.8707674360624550E-002
   6.8405716578192916E-002  -1.8320660058809793E-002   4.7265980594270250E-002
   6.6675821800169746E-002  -1.8552580793882903E-002   4.6184259847241380E-002
   6.4945927022146577E-002  -1.8562121519686097E-002   4.5462512119538029E-002
   6.3216032244123407E-002  -1.8349282236219448E-002   4.5100737411160143E-002
   6.1509024317717639E-002  -1.4497038984329795E-002   5.3070608621920416E-002
   6.0185940727214338E-002  -1.5500666075776083E-002   5.1668250035075899E-002
   5.8862857136711043E-002  -1.6117613453427902E-002   5.0719540803945626E-002
   5.7539773546207762E-002  -1.6347881117285325E-002   5.0224480928529734E-002
   5.6216689955704446E-002  -1.6191469067348363E-002   5.0183070408827996E-002
   8.4590094081410938E-002  -2.4822721742832815E-002   3.0008074130552204E-002
   8.2189791872487386E-002  -2.4502556266874601E-002   2.9244397648731948E-002
   7.9789489663563834E-002  -2.4035782702807464E-002   2.8750532660961392E-002
   7.7389187454640254E-002  -2.3422401050631474E-002   2.8526479167240500E-002
   7.4988885245716730E-002  -2.2662411310346520E-002   2.8572237167569292E-002
   7.7402734306976625E-002  -2.2664908573961695E-002   3.5013239272022240E-002
   7.5261320214813299E-002  -2.2338506488040734E-002   3.4428433987590067E-002
   7.3119906122650014E-002  -2.1904468331550617E-002   3.4091593442628569E-002
   7.0978492030486701E-002  -2.1362794104491389E-002   3.4002717637137844E-002
   6.8837077938323415E-002  -2.0713483806862998E-002   3.4161806571118003E-002
   7.0278047027880819E-002  -2.0507095405090589E-002   4.0044127032224978E-002
   6.8373674297898840E-002  -2.0174456709206846E-002   3.9599220927640941E-002
   6.6469301567916861E-002  -1.9773153960293766E-002   3.9380432807948798E-002
   6.4564928837934868E-002  -1.9303187158351272E-002   3.9387762673148564E-002
   6.2660556107952917E-002  -1.8764556303379365E-002   3.9621210523240233E-002
   6.3216032244123407E-002  -1.8349282236219448E-002   4.5100737411160143E-002
   6.1526854121743857E-002  -1.8010406930372983E-002   4.4756758468884633E-002
   5.9837675999364355E-002  -1.7641839589036930E-002   4.4617050756922197E-002
   5.8148497876984818E-002  -1.7243580212211160E-002   4.4681614275272626E-002
   5.6459319754605289E-002  -1.6815628799895802E-002   4.4950449023936218E-002
   5.6216689955704446E-002  -1.6191469067348363E-002   5.0183070408827996E-002
   5.4720859686348461E-002  -1.5846357151539106E-002   4.9901046611321359E-002
   5.3225029416992475E-002  -1.5510525217780062E-002   4.9801447289548731E-002
   5.1729199147636462E-002  -1.5183973266071097E-002   4.9884272443510187E-002
   5.0233368878280477E-002  -1.4866701296412183E-002   5.0149522073205693E-002
   7.4988885245716730E-002  -2.2662411310346520E-002   2.8572237167569292E-002
   7.2694856936504959E-002  -2.1849885554753201E-002   2.8300968027970747E-002
   7.0400828627293216E-002  -2.1078895856652083E-002   2.8190556245655446E-002
   6.8106800318081473E-002  -2.0349442216042932E-002   2.8241001820623016E-002
   6.5812772008869730E-002  -1.9661524632925864E-002   2.8452304752873581E-002
   6.8837077938323415E-002  -2.0713483806862998E-002   3.4161806571118003E-002
   6.6709956756539013E-002  -2.0019394966314705E-002   3.3842065157575971E-002
   6.4582835574754596E-002  -1.9343385110496034E-002   3.3695280641605471E-002
   6.2455714392970187E-002  -1.8685454239406787E-002   3.3721453023206602E-002
   6.0328593211185833E-002  -1.8045602353047141E-002   3.3920582302379543E-002
   6.2660556107952917E-002  -1.8764556303379365E-002   3.9621210523240233E-002
   6.0712441593884531E-002  -1.8188904377876208E-002   3.9276453908517028E-002
   5.8764327079816138E-002  -1.7607874364340005E-002   3.9116753731654290E-002
   5.6816212565747690E-002  -1.7021466262770665E-002   3.9142109992651705E-002
   5.4868098051679325E-002  -1.6429680073168279E-002   3.9352522691509545E-002
   5.6459319754605289E-002  -1.6815628799895802E-002   4.4950449023936218E-002
   5.4702311448541513E-002  -1.6358413789437656E-002   4.4604134280794516E-002
   5.2945303142477765E-002  -1.5872363618183994E-002   4.4454975515801839E-002
   5.1188294836413968E-002  -1.5357478286134589E-002   4.4502972728958159E-002
   4.9431286530350234E-002  -1.4813757793289570E-002   4.4748125920263407E-002
   5.0233368878280477E-002  -1.4866701296412183E-002   5.0149522073205693E-002
   4.8679566320509987E-002  -1.4527923200999188E-002   4.9825106274408171E-002
   4.7125763762739525E-002  -1.4136852872027962E-002   4.9709945994048335E-002
   4.5571961204969091E-002  -1.3693490309498410E-002   4.9804041232125944E-002
   4.4018158647198602E-002  -1.3197835513410694E-002   5.0107391988641337E-002
   6.5812772008869730E-002  -1.9661524632925864E-002   2.8452304752873581E-002
   6.3329872515815760E-002  -1.8984393302789504E-002   2.8088567278778287E-002
   6.0846973022761805E-002  -1.8287298421122380E-002   2.7926274860326727E-002
   5.8364073529707801E-002  -1.7570239987924747E-002   2.7965427497518597E-002
   5.5881174036653880E-002  -1.6833218003196371E-002   2.8206025190354145E-002
   6.0328593211185833E-002  -1.8045602353047141E-002   3.3920582302379543E-002
   5.8045520834363956E-002  -1.7408184153295481E-002   3.3595498108572125E-002
   5.5762448457542052E-002  -1.6757554342030634E-002   3.3468623091585242E-002
   5.3479376080720176E-002  -1.6093712919252393E-002   3.3539957251418936E-002
   5.1196303703898327E-002  -1.5416659884960993E-002   3.3809500588073138E-002
   5.4868098051679325E-002  -1.6429680073168279E-002   3.9352522691509545E-002
   5.2781616912266460E-002  -1.5831975003801430E-002   3.9059339837972523E-002
   5.0695135772853561E-002  -1.5227810262938714E-002   3.8961130282433067E-002
   4.8608654633440697E-002  -1.4617185850580148E-002   3.9057894024891099E-002
   4.6522173494027805E-002  -1.4000101766725614E-002   3.9349631065346474E-002
   4.9431286530350234E-002  -1.4813757793289570E-002   4.4748125920263407E-002
   4.7538160749523301E-002  -1.4255765854307448E-002   4.4480092466979496E-002
   4.5645034968696367E-002  -1.3698066183846769E-002   4.4403796432869985E-002
   4.3751909187869448E-002  -1.3140658781907764E-002   4.4519237817934938E-002
   4.1858783407042507E-002  -1.2583543648490264E-002   4.4826416622174153E-002
   4.4018158647198602E-002  -1.3197835513410694E-002   5.0107391988641337E-002
   4.2315152346134505E-002  -1.2679556704813411E-002   4.9857755995593112E-002
   4.0612146045070407E-002  -1.2168322104755006E-002   4.9796621542896047E-002
   3.8909139744006310E-002  -1.1664131713235566E-002   4.9923988630550434E-002
   3.7206133442942241E-002  -1.1166985530254858E-002   5.0239857258556064E-002
   5.5881174036653880E-002  -1.6833218003196371E-002   2.8206025190354145E-002
   5.3749226170186681E-002  -1.6094618323889254E-002   2.7859274626513664E-002
   5.1617278303719455E-002  -1.5372826806955120E-002   2.7619596586654860E-002
   4.9485330437252242E-002  -1.4667843452394122E-002   2.7486991070777039E-002
   4.7353382570785030E-002  -1.3979668260206357E-002   2.7461458078880452E-002
   5.1196303703898327E-002  -1.5416659884960993E-002   3.3809500588073138E-002
   4.9186416136643471E-002  -1.4736517366957108E-002   3.3476557519118127E-002
   4.7176528569388615E-002  -1.4063407493041649E-002   3.3280662524606763E-002
   4.5166641002133731E-002  -1.3397330263214591E-002   3.3221815604538713E-002
   4.3156753434878875E-002  -1.2738285677475980E-002   3.3300016758913920E-002
   4.6522173494027805E-002  -1.4000101766725614E-002   3.9349631065346474E-002
   4.4664321776447538E-002  -1.3378416410025018E-002   3.9040271009561714E-002
   4.2806470058867167E-002  -1.2753988179128178E-002   3.8897934578682569E-002
   4.0948618341286838E-002  -1.2126817074034950E-002   3.8922621772709026E-002
   3.9090766623706530E-002  -1.1496903094745325E-002   3.9114332591641099E-002
   4.1858783407042507E-002  -1.2583543648490264E-002   4.4826416622174153E-002
   4.0182943089598883E-002  -1.2020315453093039E-002   4.4550415097844243E-002
   3.8507102772155216E-002  -1.1444568865214819E-002   4.4471412748882104E-002
   3.6831262454711612E-002  -1.0856303884855392E-002   4.4589409575287717E-002
   3.5155422137267939E-002  -1.0255520512014699E-002   4.4904405577061171E-002
   3.7206133442942241E-002  -1.1166985530254858E-002   5.0239857258556064E-002
   3.5742280076097477E-002  -1.0662214496160838E-002   5.0006989783965838E-002
   3.4278426709252713E-002  -1.0135149551301251E-002   5.0001097035205416E-002
   3.2814573342407935E-002  -9.5857906956756979E-003   5.0222179012275034E-002
   3.1350719975563185E-002  -9.0141379292842383E-003   5.0670235715174650E-002
   4.7353382570785030E-002  -1.3979668260206357E-002   2.7461458078880452E-002
   4.4745778198851088E-002  -1.3279532126878935E-002   2.6735987513147264E-002
   4.2138173826917091E-002  -1.2538665948898464E-002   2.6134580335324564E-002
   3.9530569454983094E-002  -1.1757069726265459E-002   2.5657236545411855E-002
   3.6922965083049153E-002  -1.0934743458979712E-002   2.5303956143409190E-002
   4.3156753434878875E-002  -1.2738285677475980E-002   3.3300016758913920E-002
   4.0684847441094074E-002  -1.2068004068213067E-002   3.2751941876048712E-002
   3.8212941447309301E-002  -1.1368215767813925E-002   3.2351200361571547E-002
   3.5741035453524445E-002  -1.0638920776278298E-002   3.2097792215482271E-002
   3.3269129459739699E-002  -9.8801190936059768E-003   3.1991717437781508E-002
   3.9090766623706530E-002  -1.1496903094745325E-002   3.9114332591641099E-002
   3.6777828988549012E-002  -1.0856476009547478E-002   3.8732430038126750E-002
   3.4464891353391550E-002  -1.0197765586729385E-002   3.8521130833478870E-002
   3.2151953718234004E-002  -9.5207718262910815E-003   3.8480434977697389E-002
   2.9839016083076514E-002  -8.8254947282323526E-003   3.8610342470782377E-002
   3.5155422137267939E-002  -1.0255520512014699E-002   4.4904405577061171E-002
   3.3024722841215937E-002  -9.6449479508819158E-003   4.4677451999381973E-002
   3.0894023545163917E-002  -9.0273154056446786E-003   4.4644371751047268E-002
   2.8763324249111870E-002  -8.4026228763036150E-003   4.4805164832057168E-002
   2.6632624953059889E-002  -7.7708703628586728E-003   4.5159831242411685E-002
   3.1350719975563185E-002  -9.0141379292842383E-003   5.0670235715174650E-002
   2.9425528999094785E-002  -8.4334198922162429E-003   5.0587007759814229E-002
   2.7500338022626358E-002  -7.8568652245602083E-003   5.0720923114276423E-002
   2.5575147046157945E-002  -7.2844739263166515E-003   5.1071981778561495E-002
   2.3649956069689559E-002  -6.7162459974849931E-003   5.1640183752669211E-002
   5.7152004937229293E-002   0.0000000000000000        3.4690870689445381E-002
   5.7941592031401562E-002  -2.0833969763618312E-003   3.8343323412999716E-002
   5.8731179125573837E-002  -4.1362342011445740E-003   4.2209475597628617E-002
   5.9520766219746113E-002  -6.1585116743482233E-003   4.6289327243332068E-002
   6.0310353313918388E-002  -8.1502293959727946E-003   5.0582878350110091E-002
   4.8652008807222771E-002   0.0000000000000000        3.2790560146664392E-002
   4.9590078753196709E-002  -1.7089727988655445E-003   3.6966193163600954E-002
   5.0528148699170647E-002  -3.4320027286409757E-003   4.1225092423066281E-002
   5.1466218645144578E-002  -5.1690897893262970E-003   4.5567257925060382E-002
   5.2404288591118516E-002  -6.9202339809215077E-003   4.9992689669583250E-002
   4.0732158269536779E-002   0.0000000000000000        3.1286982222624181E-002
   4.1688277848766581E-002  -1.3345486213692578E-003   3.5941178650454007E-002
   4.2644397427996382E-002  -2.7277712561373799E-003   4.0548208102266767E-002
   4.3600517007226176E-002  -4.1796679043043664E-003   4.5108070578062529E-002
   4.4556636586455992E-002  -5.6902385658702207E-003   4.9620766077841251E-002
   3.3392453324171303E-002   0.0000000000000000        3.0180136917324744E-002
   3.4236189318111176E-002  -9.6012444387297063E-004   3.5268279873558836E-002
   3.5079925312051050E-002  -2.0235397836337846E-003   4.0178822635230087E-002
   3.5923661305990923E-002  -3.1902460192824362E-003   4.4911765202338527E-002
   3.6767397299930796E-002  -4.4602431508189355E-003   4.9467107574884137E-002
   2.6632893971126361E-002   0.0000000000000000        2.9470024230766077E-002
   2.7233813161230507E-002  -5.8570026637668436E-004   3.4947496832915460E-002
   2.7834732351334650E-002  -1.3193083111301858E-003   4.0116936021956227E-002
   2.8435651541438796E-002  -2.2008241342605060E-003   4.4978341797888358E-002
   2.9036570731542938E-002  -3.2302477357676459E-003   4.9531714160711865E-002
   6.0310353313918388E-002  -8.1502293959727946E-003   5.0582878350110091E-002
   6.0610021064868208E-002  -1.0029233379621385E-002   5.1522560561214535E-002
   6.0909688815818014E-002  -1.1713369638897079E-002   5.2250409676884428E-002
   6.1209356566767820E-002  -1.3202638173799882E-002   5.2766425697119701E-002
   6.1509024317717639E-002  -1.4497038984329795E-002   5.3070608621920416E-002
   5.2404288591118516E-002  -6.9202339809215077E-003   4.9992689669583250E-002
   5.2530892109225430E-002  -8.5839913136705262E-003   5.1221402747904286E-002
   5.2657495627332351E-002  -1.0058917797817282E-002   5.2315820455974132E-002
   5.2784099145439280E-002  -1.1345013433361764E-002   5.3275942793792774E-002
   5.2910702663546194E-002  -1.2442278220303971E-002   5.4101769761360198E-002
   4.4556636586455992E-002  -5.6902385658702207E-003   4.9620766077841251E-002
   4.4587713596903375E-002  -7.1387492477196831E-003   5.1132473147608284E-002
   4.4618790607350772E-002  -8.4044659567374964E-003   5.2587422572307474E-002
   4.4649867617798163E-002  -9.4873886929236553E-003   5.3985614351938827E-002
   4.4680944628245553E-002  -1.0387517456278163E-002   5.5327048486502307E-002
   3.6767397299930796E-002  -4.4602431508189355E-003   4.9467107574884137E-002
   3.6780485527902029E-002  -5.6935071817688461E-003   5.1255771760326516E-002
   3.6793573755873263E-002  -6.7500141156577034E-003   5.3065216025884432E-002
   3.6806661983844517E-002  -7.6297639524855396E-003   5.4895440371557913E-002
   3.6819750211815744E-002  -8.3327566922523476E-003   5.6746444797346862E-002
   2.9036570731542938E-002  -3.2302477357676459E-003   4.9531714160711865E-002
   2.9109207902221386E-002  -4.2482651158179882E-003   5.1591298586059021E-002
   2.9181845072899837E-002  -5.0955622745779174E-003   5.3749200816705069E-002
   2.9254482243578291E-002  -5.7721392120474316E-003   5.6005420852650020E-002
   2.9327119414256732E-002  -6.2779959282265249E-003   5.8359958693893828E-002
   6.1509024317717639E-002  -1.4497038984329795E-002   5.3070608621920416E-002
   6.0185940727214338E-002  -1.5500666075776083E-002   5.1668250035075899E-002
   5.8862857136711043E-002  -1.6117613453427902E-002   5.0719540803945626E-002
   5.7539773546207762E-002  -1.6347881117285325E-002   5.0224480928529734E-002
   5.6216689955704446E-002  -1.6191469067348363E-002   5.0183070408827996E-002
   5.2910702663546194E-002  -1.2442278220303971E-002   5.4101769761360198E-002
   5.1988844484786585E-002  -1.3292083912772541E-002   5.3361934376485599E-002
   5.1066986306026962E-002  -1.3835802264896023E-002   5.2970900459384143E-002
   5.0145128127267333E-002  -1.4073433276674449E-002   5.2928668010055635E-002
   4.9223269948507731E-002  -1.4004976948107817E-002   5.3235237028500373E-002
   4.4680944628245553E-002  -1.0387517456278163E-002   5.5327048486502307E-002
   4.4055463973288411E-002  -1.1083501749768996E-002   5.5169143930148358E-002
   4.3429983318331269E-002  -1.1553991076364119E-002   5.5255192953626207E-002
   4.2804502663374128E-002  -1.1798985436063584E-002   5.5585195556935973E-002
   4.2179022008416986E-002  -1.1818484828867298E-002   5.6159151740077580E-002
   3.6819750211815744E-002  -8.3327566922523476E-003   5.6746444797346862E-002
   3.6385799192719857E-002  -8.8749195867654316E-003   5.7089878696064106E-002
   3.5951848173623985E-002  -9.2721798878322419E-003   5.7572418286671985E-002
   3.5517897154528091E-002  -9.5245375954526867E-003   5.8194063569170562E-002
   3.5083946135432219E-002  -9.6319927096267660E-003   5.8954814543559816E-002
   2.9327119414256732E-002  -6.2779959282265249E-003   5.8359958693893828E-002
   2.8979850143080910E-002  -6.6663374237619158E-003   5.9124138674232905E-002
   2.8632580871905091E-002  -6.9903686993003488E-003   5.9922576458521462E-002
   2.8285311600729272E-002  -7.2500897548418257E-003   6.0755272046759484E-002
   2.7938042329553436E-002  -7.4455005903862614E-003   6.1622225438946965E-002
   5.6216689955704446E-002  -1.6191469067348363E-002   5.0183070408827996E-002
   5.4720859686348461E-002  -1.5846357151539106E-002   4.9901046611321359E-002
   5.3225029416992475E-002  -1.5510525217780062E-002   4.9801447289548731E-002
   5.1729199147636462E-002  -1.5183973266071097E-002   4.9884272443510187E-002
   5.0233368878280477E-002  -1.4866701296412183E-002   5.0149522073205693E-002
   4.9223269948507731E-002  -1.4004976948107817E-002   5.3235237028500373E-002
   4.7912880344747985E-002  -1.3775598644543634E-002   5.2908639801761796E-002
   4.6602490740988232E-002  -1.3530463731329344E-002   5.2770499430481628E-002
   4.5292101137228480E-002  -1.3269572208465008E-002   5.2820815914659910E-002
   4.3981711533468748E-002  -1.2992924075950651E-002   5.3059589254296657E-002
   4.2179022008416986E-002  -1.1818484828867298E-002   5.6159151740077580E-002
   4.1060105449977825E-002  -1.1704840137548057E-002   5.5813017675807326E-002
   3.9941188891538665E-002  -1.1550402244878629E-002   5.5661372846719820E-002
   3.8822272333099518E-002  -1.1355171150858975E-002   5.5704217252815130E-002
   3.7703355774660358E-002  -1.1119146855489079E-002   5.5941550894093049E-002
   3.5083946135432219E-002  -9.6319927096267660E-003   5.8954814543559816E-002
   3.4162535002037989E-002  -9.6340816305525330E-003   5.8614180233457984E-002
   3.3241123868643745E-002  -9.5703407584278987E-003   5.8474067538263286E-002
   3.2319712735249514E-002  -9.4407700932529690E-003   5.8534476457975597E-002
   3.1398301601855291E-002  -9.2453696350275408E-003   5.8795406992595091E-002
   2.7938042329553436E-002  -7.4455005903862614E-003   6.1622225438946965E-002
   2.7220169000928468E-002  -7.5633231235569809E-003   6.1312127474713776E-002
   2.6502295672303486E-002  -7.5902792719771822E-003   6.1208583505111991E-002
   2.5784422343678511E-002  -7.5263690356469036E-003   6.1311593530141567E-002
   2.5066549015053535E-002  -7.3715924145660028E-003   6.1621157549802713E-002
   5.0233368878280477E-002  -1.4866701296412183E-002   5.0149522073205693E-002
   4.8679566320509987E-002  -1.4527923200999188E-002   4.9825106274408171E-002
   4.7125763762739525E-002  -1.4136852872027962E-002   4.9709945994048335E-002
   4.5571961204969091E-002  -1.3693490309498410E-002   4.9804041232125944E-002
   4.4018158647198602E-002  -1.3197835513410694E-002   5.0107391988641337E-002
   4.3981711533468748E-002  -1.2992924075950651E-002   5.3059589254296657E-002
   4.2634538314546645E-002  -1.2688240432473546E-002   5.2752152184829981E-002
   4.1287365095624529E-002  -1.2343242376721214E-002   5.2648718274622350E-002
   3.9940191876702391E-002  -1.1957929908693578E-002   5.2749287523673798E-002
   3.8593018657780309E-002  -1.1532303028390645E-002   5.3053859931984443E-002
   3.7703355774660358E-002  -1.1119146855489079E-002   5.5941550894093049E-002
   3.6557559535408075E-002  -1.0848557663947947E-002   5.5639114732674244E-002
   3.5411763296155814E-002  -1.0549631881414407E-002   5.5535429371336070E-002
   3.4265967056903539E-002  -1.0222369507888632E-002   5.5630494810078500E-002
   3.3120170817651298E-002  -9.8667705433704289E-003   5.5924311048901484E-002
   3.1398301601855291E-002  -9.2453696350275408E-003   5.8795406992595091E-002
   3.0448629983094354E-002  -9.0088748954223127E-003   5.8485993917941230E-002
   2.9498958364333399E-002  -8.7560213861076850E-003   5.8370079284189490E-002
   2.8549286745572465E-002  -8.4868091070836611E-003   5.8447663091339627E-002
   2.7599615126811507E-002  -8.2012380583502686E-003   5.8718745339392059E-002
   2.5066549015053535E-002  -7.3715924145660028E-003   6.1621157549802713E-002
   2.4307749657605404E-002  -7.1691921268967201E-003   6.1292789740630793E-002
   2.3548950300157294E-002  -6.9624108908008450E-003   6.1152668013182462E-002
   2.2790150942709187E-002  -6.7512487062788267E-003   6.1200792367457700E-002
   2.2031351585261053E-002  -6.5357055733301084E-003   6.1437162803456513E-002
   4.4018158647198602E-002  -1.3197835513410694E-002   5.0107391988641337E-002
   4.2315152346134505E-002  -1.2679556704813411E-002   4.9857755995593112E-002
   4.0612146045070407E-002  -1.2168322104755006E-002   4.9796621542896047E-002
   3.8909139744006310E-002  -1.1664131713235566E-002   4.9923988630550434E-002
   3.7206133442942241E-002  -1.1166985530254858E-002   5.0239857258556064E-002
   3.8593018657780309E-002  -1.1532303028390645E-002   5.3053859931984443E-002
   3.7083522983319114E-002  -1.1086959930775103E-002   5.2757562081382520E-002
   3.5574027308857920E-002  -1.0642498810810141E-002   5.2659783943634936E-002
   3.4064531634396732E-002  -1.0198919668495329E-002   5.2760525518741927E-002
   3.2555035959935544E-002  -9.7562225038310135E-003   5.3059786806703479E-002
   3.3120170817651298E-002  -9.8667705433704289E-003   5.5924311048901484E-002
   3.1814203942296171E-002  -9.4943631567369347E-003   5.5587513571634134E-002
   3.0508237066941078E-002  -9.1166755168652150E-003   5.5459253979724683E-002
   2.9202270191585986E-002  -8.7337076237552023E-003   5.5539532273172890E-002
   2.7896303316230858E-002  -8.3454594774069468E-003   5.5828348451978718E-002
   2.7599615126811507E-002  -8.2012380583502686E-003   5.8718745339392059E-002
   2.6507195223065716E-002  -7.9017663826987522E-003   5.8347610466348343E-002
   2.5414775319319894E-002  -7.5908522229203752E-003   5.8195031651165456E-002
   2.4322355415574079E-002  -7.2684955790150762E-003   5.8261008893843440E-002
   2.3229935511828250E-002  -6.9346964509830189E-003   5.8545542194382280E-002
   2.2031351585261053E-002  -6.5357055733301084E-003   6.1437162803456513E-002
   2.1162496825627708E-002  -6.3091696086604587E-003   6.1037852765524703E-002
   2.0293642065994370E-002  -6.0650289289754106E-003   6.0867116957957101E-002
   1.9424787306361022E-002  -5.8032835342749743E-003   6.0924955380753584E-002
   1.8555932546727688E-002  -5.5239334245589800E-003   6.1211368033914026E-002
   3.7206133442942241E-002  -1.1166985530254858E-002   5.0239857258556064E-002
   3.5742280076097477E-002  -1.0662214496160838E-002   5.0006989783965838E-002
   3.4278426709252713E-002  -1.0135149551301251E-002   5.0001097035205416E-002
   3.2814573342407935E-002  -9.5857906956756979E-003   5.0222179012275034E-002
   3.1350719975563185E-002  -9.0141379292842383E-003   5.0670235715174650E-002
   3.2555035959935544E-002  -9.7562225038310135E-003   5.3059786806703479E-002
   3.1305188660561908E-002  -9.3055931328468178E-003   5.2825835663584259E-002
   3.0055341361188224E-002  -8.8382173715725182E-003   5.2792921929577075E-002
   2.8805494061814565E-002  -8.3540952200081807E-003   5.2961045604682275E-002
   2.7555646762440919E-002  -7.8532266781539684E-003   5.3330206688899984E-002
   2.7896303316230858E-002  -8.3454594774069468E-003   5.5828348451978718E-002
   2.6834524767610633E-002  -7.9489717695323814E-003   5.5587766119854873E-002
   2.5772746218990353E-002  -7.5412851918437232E-003   5.5522283880125443E-002
   2.4710967670370097E-002  -7.1223997443407728E-003   5.5631901732790492E-002
   2.3649189121749847E-002  -6.6923154270236151E-003   5.5916619677850291E-002
   2.3229935511828250E-002  -6.9346964509830189E-003   5.8545542194382280E-002
   2.2330288397243707E-002  -6.5923504062181254E-003   5.8292781152777903E-002
   2.1430641282659160E-002  -6.2443530121149872E-003   5.8189182886850377E-002
   2.0530994168074582E-002  -5.8907042686734213E-003   5.8234747396599527E-002
   1.9631347053490043E-002  -5.5314041758933036E-003   5.8429474682025653E-002
   1.8555932546727688E-002  -5.5239334245589800E-003   6.1211368033914026E-002
   1.7792479549461115E-002  -5.2357290429038694E-003   6.0940880762353322E-002
   1.7029026552194557E-002  -4.9474208323863067E-003   6.0793618949751743E-002
   1.6265573554927991E-002  -4.6590087930059032E-003   6.0769582596109289E-002
   1.5502120557661425E-002  -4.3704929247629365E-003   6.0868771701426072E-002
   3.1350719975563185E-002  -9.0141379292842383E-003   5.0670235715174650E-002
   2.9425528999094785E-002  -8.4334198922162429E-003   5.0587007759814229E-002
   2.7500338022626358E-002  -7.8568652245602083E-003   5.0720923114276423E-002
   2.5575147046157945E-002  -7.2844739263166515E-003   5.1071981778561495E-002
   2.3649956069689559E-002  -6.7162459974849931E-003   5.1640183752669211E-002
   2.7555646762440919E-002  -7.8532266781539684E-003   5.3330206688899984E-002
   2.5850813146459248E-002  -7.3434403552777583E-003   5.3137271257805568E-002
   2.4145979530477653E-002  -6.8325648606481632E-003   5.3167907237861745E-002
   2.2441145914495999E-002  -6.3206001942646313E-003   5.3422114629069289E-002
   2.0736312298514359E-002  -5.8075463561274576E-003   5.3899893431427426E-002
   2.3649189121749847E-002  -6.6923154270236151E-003   5.5916619677850291E-002
   2.2171140967583103E-002  -6.2534608183396623E-003   5.5619229312187893E-002
   2.0693092813416386E-002  -5.8082644967359445E-003   5.5551838459004209E-002
   1.9215044659249603E-002  -5.3567264622126094E-003   5.5714447118299801E-002
   1.7736996505082897E-002  -4.8988467147698112E-003   5.6107055290074148E-002
   1.9631347053490043E-002  -5.5314041758933036E-003   5.8429474682025653E-002
   1.8386512462466316E-002  -5.1634812814012609E-003   5.8032881922961105E-002
   1.7141677871442600E-002  -4.7839641328237571E-003   5.7872716777703365E-002
   1.5896843280418880E-002  -4.3928527301608103E-003   5.7948979246252932E-002
   1.4652008689395139E-002  -3.9901470734121647E-003   5.8261669328609780E-002
   1.5502120557661425E-002  -4.3704929247629365E-003   6.0868771701426072E-002
   1.4496927631108866E-002  -4.0735017444629151E-003   6.0378229090125135E-002
   1.3491734704556294E-002  -3.7596637689116114E-003   6.0130542193959385E-002
   1.2486541778003721E-002  -3.4289789981087164E-003   6.0125711012929059E-002
   1.1481348851451190E-002  -3.0814474320546292E-003   6.0363735547033892E-002
   2.6632893971126361E-002   0.0000000000000000        2.9470024230766077E-002
   2.7233813161230507E-002  -5.8570026637668436E-004   3.4947496832915460E-002
   2.7834732351334650E-002  -1.3193083111301858E-003   4.0116936021956227E-002
   2.8435651541438796E-002  -2.2008241342605060E-003   4.4978341797888358E-002
   2.9036570731542938E-002  -3.2302477357676459E-003   4.9531714160711865E-002
   2.0116223180312399E-002   0.0000000000000000        2.9022246150699049E-002
   2.0448559861207829E-002  -4.3927519983146587E-004   3.4315381882815701E-002
   2.0780896542103255E-002  -9.8948123343429312E-004   3.9379386009623527E-002
   2.1113233222998684E-002  -1.6506181008084783E-003   4.4214258531122562E-002
   2.1445569903894110E-002  -2.4226858019540274E-003   4.8819999447312787E-002
   1.3505183921639890E-002   0.0000000000000000        2.8702404664874503E-002
   1.3647839901126413E-002  -2.9285013328624911E-004   3.3848180471563884E-002
   1.3790495880612935E-002  -6.5965415573840044E-004   3.8843726480744252E-002
   1.3933151860099460E-002  -1.1004120673564540E-003   4.3689042692415629E-002
   1.4075807839585980E-002  -1.6151238681404059E-003   4.8384129106578015E-002
   6.7997761951088271E-003   0.0000000000000000        2.8510499773292453E-002
   6.8316532809862577E-003  -1.4642506674103148E-004   3.3545892599160007E-002
   6.8635303668636866E-003  -3.2982707804250690E-004   3.8509957435318376E-002
   6.8954074527411190E-003  -5.5020603390442454E-004   4.3402694281767559E-002
   6.9272845386185470E-003  -8.0756193432679284E-004   4.8224103138507564E-002
   7.1921288369303227E-013   0.0000000000000000        2.8446531475952889E-002
   7.8736409753199510E-013  -1.9581385124478601E-013   3.3408518265604085E-002
   8.5551422716878545E-013  -3.4661509773492583E-013   3.8378078873345906E-002
   9.2366533258753103E-013  -4.5240027002346750E-013   4.3355213299178352E-002
   9.9181643800627661E-013  -5.1316416393998310E-013   4.8339921543101433E-002
   2.9036570731542938E-002  -3.2302477357676459E-003   4.9531714160711865E-002
   2.9109207902221386E-002  -4.2482651158179882E-003   5.1591298586059021E-002
   2.9181845072899837E-002  -5.0955622745779174E-003   5.3749200816705069E-002
   2.9254482243578291E-002  -5.7721392120474316E-003   5.6005420852650020E-002
   2.9327119414256732E-002  -6.2779959282265249E-003   5.8359958693893828E-002
   2.1445569903894110E-002  -2.4226858019540274E-003   4.8819999447312787E-002
   2.1587405605389881E-002  -3.1861988370043477E-003   5.1221083555145167E-002
   2.1729241306885659E-002  -3.8216717060928383E-003   5.3662246919313331E-002
   2.1871077008381427E-002  -4.3291044092195067E-003   5.6143489539817244E-002
   2.2012912709877201E-002  -4.7084969463843315E-003   5.8664811416656880E-002
   1.4075807839585980E-002  -1.6151238681404059E-003   4.8384129106578015E-002
   1.4228603522935935E-002  -2.1241325581906993E-003   5.1084032841567081E-002
   1.4381399206285892E-002  -2.5477811376077523E-003   5.3765777283928735E-002
   1.4534194889635851E-002  -2.8860696063915813E-003   5.6429362433663019E-002
   1.4686990572985807E-002  -3.1389979645421694E-003   5.9074788290769925E-002
   6.9272845386185470E-003  -8.0756193432679284E-004   4.8224103138507564E-002
   7.0328016548595476E-003  -1.0620662793770583E-003   5.1180146445324690E-002
   7.1383187711005535E-003  -1.2738905691226663E-003   5.4059791910551269E-002
   7.2438358873415532E-003  -1.4430348035636492E-003   5.6863039534187365E-002
   7.3493530035825573E-003  -1.5694989826999916E-003   5.9589889316232887E-002
   9.9181643800627661E-013  -5.1316416393998310E-013   4.8339921543101433E-002
   1.1607216923725794E-012  -5.6341303150686528E-013   5.1509424366418040E-002
   1.3296284646219236E-012  -6.3758677157355059E-013   5.4544290799180960E-002
   1.4985344779297471E-012  -7.3573428165801813E-013   5.7444520841390227E-002
   1.6674404912375707E-012  -8.5782075887053111E-013   6.0210114493045815E-002
   2.9327119414256732E-002  -6.2779959282265249E-003   5.8359958693893828E-002
   2.8979850143080910E-002  -6.6663374237619158E-003   5.9124138674232905E-002
   2.8632580871905091E-002  -6.9903686993003488E-003   5.9922576458521462E-002
   2.8285311600729272E-002  -7.2500897548418257E-003   6.0755272046759484E-002
   2.7938042329553436E-002  -7.4455005903862614E-003   6.1622225438946965E-002
   2.2012912709877201E-002  -4.7084969463843315E-003   5.8664811416656880E-002
   2.1713041121104754E-002  -4.9997530680413356E-003   5.9486687285463469E-002
   2.1413169532332309E-002  -5.2427765246445285E-003   6.0369100715127300E-002
   2.1113297943559858E-002  -5.4375673161938393E-003   6.1312051705648490E-002
   2.0813426354787411E-002  -5.5841254426893111E-003   6.2315540257026958E-002
   1.4686990572985807E-002  -3.1389979645421694E-003   5.9074788290769925E-002
   1.4460796423524575E-002  -3.3331687123207727E-003   5.9938282493100820E-002
   1.4234602274063344E-002  -3.4951843499886953E-003   6.0888594013196871E-002
   1.4008408124602112E-002  -3.6250448775458684E-003   6.1925722851058025E-002
   1.3782213975140883E-002  -3.7227502949923469E-003   6.3049669006684364E-002
   7.3493530035825573E-003  -1.5694989826999916E-003   5.9589889316232887E-002
   7.2231160503403828E-003  -1.6665843566002082E-003   6.0478924297145020E-002
   7.0968790970982057E-003  -1.7475921753328685E-003   6.1481056352730094E-002
   6.9706421438560278E-003  -1.8125224388979453E-003   6.2596285482988137E-002
   6.8444051906138524E-003  -1.8613751472954035E-003   6.3824611687919239E-002
   1.6674404912375707E-012  -8.5782075887053111E-013   6.0210114493045815E-002
   1.5521629120884839E-012  -8.7963317185746348E-013   6.1108612697596022E-002
   1.4368853329393971E-012  -6.7704002126856011E-013   6.2146487733727024E-002
   1.3216086211520484E-012  -2.4997321920738891E-013   6.3323739601438861E-002
   1.2063301746412236E-012   4.0158154579472694E-013   6.4640368300731485E-002
   2.7938042329553436E-002  -7.4455005903862614E-003   6.1622225438946965E-002
   2.7220169000928468E-002  -7.5633231235569809E-003   6.1312127474713776E-002
   2.6502295672303486E-002  -7.5902792719771822E-003   6.1208583505111991E-002
   2.5784422343678511E-002  -7.5263690356469036E-003   6.1311593530141567E-002
   2.5066549015053535E-002  -7.3715924145660028E-003   6.1621157549802713E-002
   2.0813426354787411E-002  -5.5841254426893111E-003   6.2315540257026958E-002
   2.0295335605191235E-002  -5.6724923424310014E-003   6.2171582558912780E-002
   1.9777244855595059E-002  -5.6927094537189589E-003   6.2220636024224715E-002
   1.9259154105998887E-002  -5.6447767765531636E-003   6.2462700652962888E-002
   1.8741063356402708E-002  -5.5286943109336406E-003   6.2897776445127299E-002
   1.3782213975140883E-002  -3.7227502949923469E-003   6.3049669006684364E-002
   1.3450362973368268E-002  -3.7816615613050081E-003   6.3049134978392388E-002
   1.3118511971595651E-002  -3.7951396354607078E-003   6.3228069282321359E-002
   1.2786660969823033E-002  -3.7631845174594929E-003   6.3586471918471221E-002
   1.2454809968050425E-002  -3.6857962073012923E-003   6.4124342886842128E-002
   6.8444051906138524E-003  -1.8613751472954035E-003   6.3824611687919239E-002
   6.6852511054595505E-003  -1.8908307801790217E-003   6.3944784733152668E-002
   6.5260970203052486E-003  -1.8975698172024567E-003   6.4230883279401824E-002
   6.3669429351509450E-003  -1.8815922583658292E-003   6.4682907326666650E-002
   6.2077888499966370E-003  -1.8428981036689648E-003   6.5300856874947175E-002
   1.2063301746412236E-012   4.0158154579472694E-013   6.4640368300731485E-002
   1.4650954061057320E-012   9.4696472885402727E-013   6.4858531823193635E-002
   1.7238623722937163E-012   1.0557908713959563E-012   6.5229078015466152E-002
   1.9826310732051766E-012   7.2792379762764980E-013   6.5752006877549132E-002
   2.2413945699462090E-012  -3.6554093085783279E-014   6.6427318409442576E-002
   2.5066549015053535E-002  -7.3715924145660028E-003   6.1621157549802713E-002
   2.4307749657605404E-002  -7.1691921268967201E-003   6.1292789740630793E-002
   2.3548950300157294E-002  -6.9624108908008450E-003   6.1152668013182462E-002
   2.2790150942709187E-002  -6.7512487062788267E-003   6.1200792367457700E-002
   2.2031351585261053E-002  -6.5357055733301084E-003   6.1437162803456513E-002
   1.8741063356402708E-002  -5.5286943109336406E-003   6.2897776445127299E-002
   1.8170873520182075E-002  -5.3768940954554839E-003   6.2612837675602787E-002
   1.7600683683961432E-002  -5.2218081687136694E-003   6.2516871866809848E-002
   1.7030493847740795E-002  -5.0634365307083342E-003   6.2609879018748149E-002
   1.6460304011520155E-002  -4.9017791814393585E-003   6.2891859131417926E-002
   1.2454809968050425E-002  -3.6857962073012923E-003   6.4124342886842128E-002
   1.2073956532065094E-002  -3.5845960640142685E-003   6.3881737919802284E-002
   1.1693103096079774E-002  -3.4812054466264418E-003   6.3828832792501691E-002
   1.1312249660094451E-002  -3.3756243551379258E-003   6.3965627504940378E-002
   1.0931396224109127E-002  -3.2678527895485254E-003   6.4292122057118220E-002
   6.2077888499966370E-003  -1.8428981036689648E-003   6.5300856874947175E-002
   6.0169986932544772E-003  -1.7922980325730982E-003   6.5099490473229216E-002
   5.8262085365123079E-003  -1.7406027245392957E-003   6.5088550790258215E-002
   5.6354183797701412E-003  -1.6878121795674476E-003   6.5268037826034353E-002
   5.4446282230279806E-003  -1.6339263976578172E-003   6.5637951580557546E-002
   2.2413945699462090E-012  -3.6554093085783279E-014   6.6427318409442576E-002
   3.7502188854343643E-012  -1.1318029846663080E-012   6.6266095335883457E-002
   5.2590414661990437E-012  -2.4520177555054090E-012   6.6296025860079363E-002
   6.7678666490489370E-012  -3.9971029958119075E-012   6.6517109982030087E-002
   8.2766883624518783E-012  -5.7669424791129131E-012   6.6929347701735808E-002
   2.2031351585261053E-002  -6.5357055733301084E-003   6.1437162803456513E-002
   2.1162496825627708E-002  -6.3091696086604587E-003   6.1037852765524703E-002
   2.0293642065994370E-002  -6.0650289289754106E-003   6.0867116957957101E-002
   1.9424787306361022E-002  -5.8032835342749743E-003   6.0924955380753584E-002
   1.8555932546727688E-002  -5.5239334245589800E-003   6.1211368033914026E-002
   1.6460304011520155E-002  -4.9017791814393585E-003   6.2891859131417926E-002
   1.5817183347126319E-002  -4.7318772082195204E-003   6.2547252870518349E-002
   1.5174062682732498E-002  -4.5487716983616672E-003   6.2425540569733484E-002
   1.4530942018338659E-002  -4.3524626518658301E-003   6.2526722229063803E-002
   1.3887821353944833E-002  -4.1429500687317766E-003   6.2850797848509110E-002
   1.0931396224109127E-002  -3.2678527895485254E-003   6.4292122057118220E-002
   1.0508329384705705E-002  -3.1545848077785821E-003   6.3997818394873229E-002
   1.0085262545302265E-002  -3.0325144677478752E-003   6.3920728422494077E-002
   9.6621957058988343E-003  -2.9016417694566320E-003   6.4060852139980820E-002
   9.2391288664954024E-003  -2.7619667129047121E-003   6.4418189547333360E-002
   5.4446282230279806E-003  -1.6339263976578172E-003   6.5637951580557546E-002
   5.2359349383658297E-003  -1.5772924073375882E-003   6.5389549338589745E-002
   5.0272416537036919E-003  -1.5162572371340798E-003   6.5352680516238784E-002
   4.8185483690415471E-003  -1.4508208870474054E-003   6.5527345113504401E-002
   4.6098550843794040E-003  -1.3809833570776059E-003   6.5913543130386859E-002
   8.2766883624518783E-012  -5.7669424791129131E-012   6.6929347701735808E-002
   8.1067236257226227E-012  -6.8966776733958568E-012   6.6722445701667854E-002
   7.9367640931637951E-012  -6.5202981902601209E-012   6.6721396850967424E-002
   7.7668028258814914E-012  -4.6383348550893544E-012   6.6926201149634698E-002
   7.5968398238757118E-012  -1.2504441926353138E-012   6.7336858597669580E-002
   1.8555932546727688E-002  -5.5239334245589800E-003   6.1211368033914026E-002
   1.7792479549461115E-002  -5.2357290429038694E-003   6.0940880762353322E-002
   1.7029026552194557E-002  -4.9474208323863067E-003   6.0793618949751743E-002
   1.6265573554927991E-002  -4.6590087930059032E-003   6.0769582596109289E-002
   1.5502120557661425E-002  -4.3704929247629365E-003   6.0868771701426072E-002
   1.3887821353944833E-002  -4.1429500687317766E-003   6.2850797848509110E-002
   1.3264503263004906E-002  -3.9267967814280991E-003   6.2616729579931280E-002
   1.2641185172064976E-002  -3.7105656224229455E-003   6.2539705665047657E-002
   1.2017867081125040E-002  -3.4942565917161356E-003   6.2619726103858228E-002
   1.1394548990185119E-002  -3.2778696893079329E-003   6.2856790896362702E-002
   9.2391288664954024E-003  -2.7619667129047121E-003   6.4418189547333360E-002
   8.7897645766170859E-003  -2.6178645199523565E-003   6.4220514324577455E-002
   8.3404002867387694E-003  -2.4737104124595843E-003   6.4213702350250701E-002
   7.8910359968604443E-003  -2.3295043904264789E-003   6.4397753624353127E-002
   7.4416717069821295E-003  -2.1852464538529570E-003   6.4772668146884468E-002
   4.6098550843794040E-003  -1.3809833570776059E-003   6.5913543130386859E-002
   4.3682634902976730E-003  -1.3089322584766278E-003   6.5752234996291792E-002
   4.1266718962159454E-003  -1.2368552024961121E-003   6.5815609005360612E-002
   3.8850803021342156E-003  -1.1647521891367668E-003   6.6103665157593680E-002
   3.6434887080524867E-003  -1.0926232183978563E-003   6.6616403452990663E-002
   7.5968398238757118E-012  -1.2504441926353138E-012   6.7336858597669580E-002
   4.0466657802440409E-012   2.9992119898736291E-012   6.7211891595074069E-002
   4.9650561440017782E-013   7.4671518968116857E-012   6.7345425630377570E-002
  -3.0536562861671612E-012   1.2152976541779381E-011   6.7737460703580235E-002
  -6.6038285950753561E-012   1.7057077972282286E-011   6.8387996814681606E-002
   1.5502120557661425E-002  -4.3704929247629365E-003   6.0868771701426072E-002
   1.4496927631108866E-002  -4.0735017444629151E-003   6.0378229090125135E-002
   1.3491734704556294E-002  -3.7596637689116114E-003   6.0130542193959385E-002
   1.2486541778003721E-002  -3.4289789981087164E-003   6.0125711012929059E-002
   1.1481348851451190E-002  -3.0814474320546292E-003   6.0363735547033892E-002
   1.1394548990185119E-002  -3.2778696893079329E-003   6.2856790896362702E-002
   1.0634322407805021E-002  -3.0551263040360099E-003   6.2537794143011166E-002
   9.8740958254249223E-003  -2.8197478247389829E-003   6.2465874362869128E-002
   9.1138692430448552E-003  -2.5717342514157832E-003   6.2641031555936769E-002
   8.3536426606647673E-003  -2.3110855840673405E-003   6.3063265722214434E-002
   7.4416717069821295E-003  -2.1852464538529570E-003   6.4772668146884468E-002
   6.9306327268490488E-003  -2.0367508636092435E-003   6.4621005550255989E-002
   6.4195937467159854E-003  -1.8798318805660283E-003   6.4720641184911859E-002
   5.9085547665829151E-003  -1.7144895047229349E-003   6.5071575050852065E-002
   5.3975157864498136E-003  -1.5407237360800519E-003   6.5673807148076246E-002
   3.6434887080524867E-003  -1.0926232183978563E-003   6.6616403452990663E-002
   3.3858585882409623E-003  -1.0183754231824077E-003   6.6627863311859603E-002
   3.1282284684294387E-003  -9.3991593639312573E-004   6.6894842660087522E-002
   2.8705983486179273E-003  -8.5724475802982213E-004   6.7417341497674046E-002
   2.6129682288063977E-003  -7.7036188809276318E-004   6.8195359824619578E-002
  -6.6038285950753561E-012   1.7057077972282286E-011   6.8387996814681606E-002
  -8.0192658069577760E-012   1.7244372596536550E-011   6.8558367427822342E-002
  -9.4346926104993400E-012   7.7795686559412047E-012   6.8988478788396285E-002
  -1.0850126352934808E-011  -1.1337122213239681E-011   6.9678330896403753E-002
  -1.2265563564817228E-011  -4.0105474496954230E-011   7.0627923751844124E-002
   7.1921288369303227E-013   0.0000000000000000        2.8446531475952889E-002
   7.8736409753199510E-013  -1.9581385124478601E-013   3.3408518265604085E-002
   8.5551422716878545E-013  -3.4661509773492583E-013   3.8378078873345906E-002
   9.2366533258753103E-013  -4.5240027002346750E-013   4.3355213299178352E-002
   9.9181643800627661E-013  -5.1316416393998310E-013   4.8339921543101433E-002
  -6.7997761936985993E-003   0.0000000000000000        2.8510499772870616E-002
  -6.8316532794394360E-003   1.4642506637446533E-004   3.3545892598767550E-002
  -6.8635303651802745E-003   3.2982707739032634E-004   3.8509957434955895E-002
  -6.8954074509211122E-003   5.5020603304757696E-004   4.3402694281435623E-002
  -6.9272845366619490E-003   8.0756193334622674E-004   4.8224103138206756E-002
  -1.3505183920314252E-002   0.0000000000000000        2.8702404664060426E-002
  -1.3647839899663311E-002   2.9285013294474450E-004   3.3848180470799488E-002
  -1.3790495879012366E-002   6.5965415512726257E-004   3.8843726480030726E-002
  -1.3933151858361421E-002   1.1004120665475516E-003   4.3689042691754124E-002
  -1.4075807837710480E-002   1.6151238672056133E-003   4.8384129105969682E-002
  -2.0116223179127750E-002   0.0000000000000000        2.9022246149522330E-002
  -2.0448559859884256E-002   4.3927519951502281E-004   3.4315381881699906E-002
  -2.0780896540640761E-002   9.8948123286419967E-004   3.9379386008570404E-002
  -2.1113233221397274E-002   1.6506181000475258E-003   4.4214258530133860E-002
  -2.1445569902153780E-002   2.4226858010650107E-003   4.8819999446390226E-002
  -2.6632893970139085E-002   0.0000000000000000        2.9470024229256320E-002
  -2.7233813160102274E-002   5.8570026608530199E-004   3.4947496831468777E-002
  -2.7834732350065464E-002   1.3193083106011385E-003   4.0116936020574930E-002
  -2.8435651540028653E-002   2.2008241335475017E-003   4.4978341796574804E-002
  -2.9036570729991846E-002   3.2302477349243942E-003   4.9531714159468360E-002
   9.9181643800627661E-013  -5.1316416393998310E-013   4.8339921543101433E-002
   1.1607216923725794E-012  -5.6341303150686528E-013   5.1509424366418040E-002
   1.3296284646219236E-012  -6.3758677157355059E-013   5.4544290799180960E-002
   1.4985344779297471E-012  -7.3573428165801813E-013   5.7444520841390227E-002
   1.6674404912375707E-012  -8.5782075887053111E-013   6.0210114493045815E-002
  -6.9272845366619490E-003   8.0756193334622674E-004   4.8224103138206756E-002
  -7.0328016525740902E-003   1.0620662782968998E-003   5.1180146444920555E-002
  -7.1383187684862324E-003   1.2738905679102225E-003   5.4059791910025926E-002
  -7.2438358843983754E-003   1.4430348021862360E-003   5.6863039533522876E-002
  -7.3493530003105201E-003   1.5694989811248714E-003   5.9589889315411385E-002
  -1.4075807837710480E-002   1.6151238672056133E-003   4.8384129105969682E-002
  -1.4228603520758436E-002   2.1241325571571879E-003   5.1084032840767298E-002
  -1.4381399203806393E-002   2.5477811364580522E-003   5.3765777282901724E-002
  -1.4534194886854340E-002   2.8860696051081682E-003   5.6429362432372968E-002
  -1.4686990569902303E-002   3.1389979631075531E-003   5.9074788289180974E-002
  -2.1445569902153780E-002   2.4226858010650107E-003   4.8819999446390226E-002
  -2.1587405603392312E-002   3.1861988360174986E-003   5.1221083553958269E-002
  -2.1729241304630845E-002   3.8216717050058788E-003   5.3662246917808340E-002
  -2.1871077005869381E-002   4.3291044080300987E-003   5.6143489537940461E-002
  -2.2012912707107916E-002   4.7084969450902191E-003   5.8664811414354638E-002
  -2.9036570729991846E-002   3.2302477349243942E-003   4.9531714159468360E-002
  -2.9109207900475723E-002   4.2482651148777941E-003   5.1591298584493447E-002
  -2.9181845070959601E-002   5.0955622735536906E-003   5.3749200814745782E-002
  -2.9254482241443471E-002   5.7721392109520639E-003   5.6005420850225390E-002
  -2.9327119411927352E-002   6.2779959270729199E-003   5.8359958690932280E-002
   1.6674404912375707E-012  -8.5782075887053111E-013   6.0210114493045815E-002
   1.5521629120884839E-012  -8.7963317185746348E-013   6.1108612697596022E-002
   1.4368853329393971E-012  -6.7704002126856011E-013   6.2146487733727024E-002
   1.3216086211520484E-012  -2.4997321920738891E-013   6.3323739601438861E-002
   1.2063301746412236E-012   4.0158154579472694E-013   6.4640368300731485E-002
  -7.3493530003105201E-003   1.5694989811248714E-003   5.9589889315411385E-002
  -7.2231160472874568E-003   1.6665843550012945E-003   6.0478924296623951E-002
  -7.0968790942643988E-003   1.7475921740907150E-003   6.1481056352532398E-002
  -6.9706421412413355E-003   1.8125224383930432E-003   6.2596285483136699E-002
  -6.8444051882182739E-003   1.8613751479082535E-003   6.3824611688436866E-002
  -1.4686990569902303E-002   3.1389979631075531E-003   5.9074788289180974E-002
  -1.4460796420625864E-002   3.3331687108822793E-003   5.9938282492044435E-002
  -1.4234602271349428E-002   3.4951843488584136E-003   6.0888594012718761E-002
  -1.4008408122072999E-002   3.6250448770359898E-003   6.1925722851204047E-002
  -1.3782213972796557E-002   3.7227502954149463E-003   6.3049669007500170E-002
  -2.2012912707107916E-002   4.7084969450902191E-003   5.8664811414354638E-002
  -2.1713041118463061E-002   4.9997530667632564E-003   5.9486687283857392E-002
  -2.1413169529818209E-002   5.2427765236261401E-003   6.0369100714286132E-002
  -2.1113297941173361E-002   5.4375673156789300E-003   6.1312051705640781E-002
  -2.0813426352528506E-002   5.5841254429216565E-003   6.2315540257921402E-002
  -2.9327119411927352E-002   6.2779959270729199E-003   5.8359958690932280E-002
  -2.8979850140799047E-002   6.6663374226442022E-003   5.9124138672062912E-002
  -2.8632580869670739E-002   6.9903686983938621E-003   5.9922576457234533E-002
  -2.8285311598542431E-002   7.2500897543219447E-003   6.0755272046447088E-002
  -2.7938042327414127E-002   7.4455005904283250E-003   6.1622225439700654E-002
   1.2063301746412236E-012   4.0158154579472694E-013   6.4640368300731485E-002
   1.4650954061057320E-012   9.4696472885402727E-013   6.4858531823193635E-002
   1.7238623722937163E-012   1.0557908713959563E-012   6.5229078015466152E-002
   1.9826310732051766E-012   7.2792379762764980E-013   6.5752006877549132E-002
   2.2413945699462090E-012  -3.6554093085783279E-014   6.6427318409442576E-002
  -6.8444051882182739E-003   1.8613751479082535E-003   6.3824611688436866E-002
  -6.6852511025600600E-003   1.8908307817365327E-003   6.3944784732822516E-002
  -6.5260970169018443E-003   1.8975698189779462E-003   6.4230883278196663E-002
  -6.3669429312436208E-003   1.8815922596326128E-003   6.4682907324559280E-002
  -6.2077888455854078E-003   1.8428981037003633E-003   6.5300856871910298E-002
  -1.3782213972796557E-002   3.7227502954149463E-003   6.3049669007500170E-002
  -1.3450362970560886E-002   3.7816615625261008E-003   6.3049134977659210E-002
  -1.3118511968325199E-002   3.7951396369002143E-003   6.3228069279984714E-002
  -1.2786660966089516E-002   3.7631845185372745E-003   6.3586471914476736E-002
  -1.2454809963853841E-002   3.6857962074372669E-003   6.4124342881135166E-002
  -2.0813426352528506E-002   5.5841254429216565E-003   6.2315540257921402E-002
  -2.0295335602537351E-002   5.6724923433156826E-003   6.2171582557703671E-002
  -1.9777244852546210E-002   5.6927094548224677E-003   6.2220636020830403E-002
  -1.9259154102555062E-002   5.6447767774419500E-003   6.2462700647301583E-002
  -1.8741063352563914E-002   5.5286943111742329E-003   6.2897776437117275E-002
  -2.7938042327414127E-002   7.4455005904283250E-003   6.1622225439700654E-002
  -2.7220168998489499E-002   7.5633231241052160E-003   6.1312127472955863E-002
  -2.6502295669564864E-002   7.5902792727446274E-003   6.1208583500733584E-002
  -2.5784422340640229E-002   7.5263690363466225E-003   6.1311593523033767E-002
  -2.5066549011715608E-002   7.3715924149110879E-003   6.1621157539856475E-002
   2.2413945699462090E-012  -3.6554093085783279E-014   6.6427318409442576E-002
   3.7502188854343643E-012  -1.1318029846663080E-012   6.6266095335883457E-002
   5.2590414661990437E-012  -2.4520177555054090E-012   6.6296025860079363E-002
   6.7678666490489370E-012  -3.9971029958119075E-012   6.6517109982030087E-002
   8.2766883624518783E-012  -5.7669424791129131E-012   6.6929347701735808E-002
  -6.2077888455854078E-003   1.8428981037003633E-003   6.5300856871910298E-002
  -6.0169986859647615E-003   1.7922980308247988E-003   6.5099490469504237E-002
  -5.8262085263441248E-003   1.7406027206496172E-003   6.5088550785566857E-002
  -5.6354183667234811E-003   1.6878121731746069E-003   6.5268037820098171E-002
  -5.4446282071028348E-003   1.6339263883999311E-003   6.5637951573098208E-002
  -1.2454809963853841E-002   3.6857962074372669E-003   6.4124342881135166E-002
  -1.2073956525407560E-002   3.5845960627814769E-003   6.3881737912807227E-002
  -1.1693103086961282E-002   3.4812054437511446E-003   6.3828832783661846E-002
  -1.1312249648515006E-002   3.3756243503462345E-003   6.3965627493698995E-002
  -1.0931396210068722E-002   3.2678527825668047E-003   6.4292122042918662E-002
  -1.8741063352563914E-002   5.5286943111742329E-003   6.2897776437117275E-002
  -1.8170873514578172E-002   5.3768940947381445E-003   6.2612837665792634E-002
  -1.7600683676592448E-002   5.2218081668526980E-003   6.2516871854364289E-002
  -1.7030493838606702E-002   5.0634365275178759E-003   6.2609879002832491E-002
  -1.6460304000620974E-002   4.9017791767336505E-003   6.2891859111196782E-002
  -2.5066549011715608E-002   7.3715924149110879E-003   6.1621157539856475E-002
  -2.4307749653476599E-002   7.1691921266947289E-003   6.1292789728460306E-002
  -2.3548950295237590E-002   6.9624108899543347E-003   6.1152667997674298E-002
  -2.2790150936998588E-002   6.7512487046894956E-003   6.1200792347498506E-002
  -2.2031351578759583E-002   6.5357055709006073E-003   6.1437162777932874E-002
   8.2766883624518783E-012  -5.7669424791129131E-012   6.6929347701735808E-002
   8.1067236257226227E-012  -6.8966776733958568E-012   6.6722445701667854E-002
   7.9367640931637951E-012  -6.5202981902601209E-012   6.6721396850967424E-002
   7.7668028258814914E-012  -4.6383348550893544E-012   6.6926201149634698E-002
   7.5968398238757118E-012  -1.2504441926353138E-012   6.7336858597669580E-002
  -5.4446282071028348E-003   1.6339263883999311E-003   6.5637951573098208E-002
  -5.2359349227985800E-003   1.5772923962954211E-003   6.5389549332623614E-002
  -5.0272416384943078E-003   1.5162572268315466E-003   6.5352680511729835E-002
  -4.8185483541900442E-003   1.4508208800079400E-003   6.5527345110416912E-002
  -4.6098550698857807E-003   1.3809833558249274E-003   6.5913543128684693E-002
  -1.0931396210068722E-002   3.2678527825668047E-003   6.4292122042918662E-002
  -1.0508329371077030E-002   3.1545847994875059E-003   6.3997818383172034E-002
  -1.0085262532085332E-002   3.0325144601833984E-003   6.3920728413219385E-002
  -9.6621956930936417E-003   2.9016417646542166E-003   6.4060852133060842E-002
  -9.2391288541019429E-003   2.7619667129001879E-003   6.4418189542696166E-002
  -1.6460304000620974E-002   4.9017791767336505E-003   6.2891859111196782E-002
  -1.5817183336728633E-002   4.7318772026797365E-003   6.2547252853312724E-002
  -1.5174062672836290E-002   4.5487716935352189E-003   6.2425540555435997E-002
  -1.4530942008943963E-002   4.3524626493005479E-003   6.2526722217566430E-002
  -1.3887821345051617E-002   4.1429500699754762E-003   6.2850797839704139E-002
  -2.2031351578759583E-002   6.5357055709006073E-003   6.1437162777932874E-002
  -2.1162496819753396E-002   6.3091696058716340E-003   6.1037852743046073E-002
  -2.0293642060747213E-002   6.0650289268870533E-003   6.0867116938379678E-002
  -1.9424787301741030E-002   5.8032835339467854E-003   6.0924955363933789E-002
  -1.8555932542734847E-002   5.5239334270508200E-003   6.1211368019708279E-002
   7.5968398238757118E-012  -1.2504441926353138E-012   6.7336858597669580E-002
   4.0466657802440409E-012   2.9992119898736291E-012   6.7211891595074069E-002
   4.9650561440017782E-013   7.4671518968116857E-012   6.7345425630377570E-002
  -3.0536562861671612E-012   1.2152976541779381E-011   6.7737460703580235E-002
  -6.6038285950753561E-012   1.7057077972282286E-011   6.8387996814681606E-002
  -4.6098550698857807E-003   1.3809833558249274E-003   6.5913543128684693E-002
  -4.3682634826982588E-003   1.3089322644157519E-003   6.5752234993757180E-002
  -4.1266718955107334E-003   1.2368552159144203E-003   6.5815609002406045E-002
  -3.8850803083232081E-003   1.1647522103206652E-003   6.6103665154631244E-002
  -3.6434887211356792E-003   1.0926232476347608E-003   6.6616403450432682E-002
  -9.2391288541019429E-003   2.7619667129001879E-003   6.4418189542696166E-002
  -8.7897645704994379E-003   2.6178645258322641E-003   6.4220514318126323E-002
  -8.3404002868969380E-003   2.4737104243616817E-003   6.4213702342810014E-002
  -7.8910360032944417E-003   2.3295044084883521E-003   6.4397753616747280E-002
  -7.4416717196919401E-003   2.1852464782124159E-003   6.4772668139938330E-002
  -1.3887821345051617E-002   4.1429500699754762E-003   6.2850797839704139E-002
  -1.3264503259356873E-002   3.9267967872487902E-003   6.2616729568181304E-002
  -1.2641185173662122E-002   3.7105656328090021E-003   6.2539705651589533E-002
  -1.2017867087967369E-002   3.4942566066559844E-003   6.2619726089928732E-002
  -1.1394549002272618E-002   3.2778697087900849E-003   6.2856790883198510E-002
  -1.8555932542734847E-002   5.5239334270508200E-003   6.1211368019708279E-002
  -1.7792479549270560E-002   5.2357290486653441E-003   6.0940880743922399E-002
  -1.7029026555806268E-002   4.9474208412562115E-003   6.0793618928744658E-002
  -1.6265573562341984E-002   4.6590088048236444E-003   6.0769582574175141E-002
  -1.5502120568877696E-002   4.3704929393676428E-003   6.0868771680213762E-002
  -6.6038285950753561E-012   1.7057077972282286E-011   6.8387996814681606E-002
  -8.0192658069577760E-012   1.7244372596536550E-011   6.8558367427822342E-002
  -9.4346926104993400E-012   7.7795686559412047E-012   6.8988478788396285E-002
  -1.0850126352934808E-011  -1.1337122213239681E-011   6.9678330896403753E-002
  -1.2265563564817228E-011  -4.0105474496954230E-011   7.0627923751844124E-002
  -3.6434887211356792E-003   1.0926232476347608E-003   6.6616403450432682E-002
  -3.3858586038580107E-003   1.0183754511869370E-003   6.6627863290766920E-002
  -3.1282284865803422E-003   9.3991594430818670E-004   6.6894842621054273E-002
  -2.8705983693026720E-003   8.5724472699796536E-004   6.7417341441294118E-002
  -2.6129682520249914E-003   7.7036179925626946E-004   6.8195359751487272E-002
  -7.4416717196919401E-003   2.1852464782124159E-003   6.4772668139938330E-002
  -6.9306327412016703E-003   2.0367508851297511E-003   6.4621005506686854E-002
  -6.4195937627114048E-003   1.8798318808365203E-003   6.4720641105908000E-002
  -5.9085547842211376E-003   1.7144894653327181E-003   6.5071574937601406E-002
  -5.3975158057308834E-003   1.5407236386182355E-003   6.5673807001767281E-002
  -1.1394549002272618E-002   3.2778697087900849E-003   6.2856790883198510E-002
  -1.0634322420050248E-002   3.0551263190724959E-003   6.2537794075582256E-002
  -9.8740958378278898E-003   2.8197478173648295E-003   6.2465874242958172E-002
  -9.1138692556055265E-003   2.5717342036674163E-003   6.2641031385325549E-002
  -8.3536426733831475E-003   2.3110854779801460E-003   6.3063265502685012E-002
  -1.5502120568877696E-002   4.3704929393676428E-003   6.0868771680213762E-002
  -1.4496927640403740E-002   4.0735017530152406E-003   6.0378228997453265E-002
  -1.3491734711929791E-002   3.7596637538933608E-003   6.0130542032204082E-002
  -1.2486541783455835E-002   3.4289789420024752E-003   6.0125710784466435E-002
  -1.1481348854981879E-002   3.0814473173419454E-003   6.0363735254239881E-002
  -2.6632893970139085E-002   0.0000000000000000        2.9470024229256320E-002
  -2.7233813160102274E-002   5.8570026608530199E-004   3.4947496831468777E-002
  -2.7834732350065464E-002   1.3193083106011385E-003   4.0116936020574930E-002
  -2.8435651540028653E-002   2.2008241335475017E-003   4.4978341796574804E-002
  -2.9036570729991846E-002   3.2302477349243942E-003   4.9531714159468360E-002
  -3.3392453323417490E-002   0.0000000000000000        3.0180136915529676E-002
  -3.4236189317218363E-002   9.6012444363944519E-004   3.5268279871852472E-002
  -3.5079925311019243E-002   2.0235397832044158E-003   4.0178822633606212E-002
  -3.5923661304820109E-002   3.1902460186949162E-003   4.4911765200790869E-002
  -3.6767397298620982E-002   4.4602431501109376E-003   4.9467107573406464E-002
  -4.0732158269032211E-002   0.0000000000000000        3.1286982220609681E-002
  -4.1688277848133531E-002   1.3345486211935862E-003   3.5941178648537811E-002
  -4.2644397427234859E-002   2.7277712558076940E-003   4.0548208100434108E-002
  -4.3600517006336180E-002   4.1796679038423245E-003   4.5108070576298578E-002
  -4.4556636585437515E-002   5.6902385652974775E-003   4.9620766076131188E-002
  -4.8652008806983227E-002   0.0000000000000000        3.2790560144496328E-002
  -4.9590078752847773E-002   1.7089727987477275E-003   3.6966193161524781E-002
  -5.0528148698712326E-002   3.4320027284109730E-003   4.1225092421058651E-002
  -5.1466218644576872E-002   5.1690897889897346E-003   4.5567257923097883E-002
  -5.2404288590441425E-002   6.9202339804840191E-003   4.9992689667642524E-002
  -5.7152004937270545E-002   0.0000000000000000        3.4690870687189623E-002
  -5.7941592031361087E-002   2.0833969763018713E-003   3.8343323410813410E-002
  -5.8731179125451637E-002   4.1362342010142512E-003   4.2209475595479821E-002
  -5.9520766219542186E-002   6.1585116741371473E-003   4.6289327241188852E-002
  -6.0310353313632728E-002   8.1502293956705572E-003   5.0582878347940494E-002
  -2.9036570729991846E-002   3.2302477349243942E-003   4.9531714159468360E-002
  -2.9109207900475723E-002   4.2482651148777941E-003   5.1591298584493447E-002
  -2.9181845070959601E-002   5.0955622735536906E-003   5.3749200814745782E-002
  -2.9254482241443471E-002   5.7721392109520639E-003   5.6005420850225390E-002
  -2.9327119411927352E-002   6.2779959270729199E-003   5.8359958690932280E-002
  -3.6767397298620982E-002   4.4602431501109376E-003   4.9467107573406464E-002
  -3.6780485526466823E-002   5.6935071809739619E-003   5.1255771758500386E-002
  -3.6793573754312671E-002   6.7500141148054893E-003   5.3065216023643107E-002
  -3.6806661982158519E-002   7.6297639516054710E-003   5.4895440368834619E-002
  -3.6819750210004346E-002   8.3327566913739548E-003   5.6746444794074938E-002
  -4.4556636585437515E-002   5.6902385652974775E-003   4.9620766076131188E-002
  -4.4587713595823801E-002   7.1387492470701376E-003   5.1132473145539960E-002
  -4.4618790606210088E-002   8.4044659560572679E-003   5.2587422569819062E-002
  -4.4649867616596374E-002   9.4873886922588989E-003   5.3985614348968473E-002
  -4.4680944626982660E-002   1.0387517455674993E-002   5.5327048482988174E-002
  -5.2404288590441425E-002   6.9202339804840191E-003   4.9992689667642524E-002
  -5.2530892108546633E-002   8.5839913131663063E-003   5.1221402745612162E-002
  -5.2657495626651854E-002   1.0058917797309063E-002   5.2315820453273654E-002
  -5.2784099144757068E-002   1.1345013432912289E-002   5.3275942790626932E-002
  -5.2910702662862290E-002   1.2442278219976037E-002   5.4101769757672093E-002
  -6.0310353313632728E-002   8.1502293956705572E-003   5.0582878347940494E-002
  -6.0610021064635353E-002   1.0029233379262474E-002   5.1522560558716984E-002
  -6.0909688815637970E-002   1.1713369638560837E-002   5.2250409674006834E-002
  -6.1209356566640581E-002   1.3202638173565739E-002   5.2766425693810036E-002
  -6.1509024317643213E-002   1.4497038984277073E-002   5.3070608618126590E-002
  -2.9327119411927352E-002   6.2779959270729199E-003   5.8359958690932280E-002
  -2.8979850140799047E-002   6.6663374226442022E-003   5.9124138672062912E-002
  -2.8632580869670739E-002   6.9903686983938621E-003   5.9922576457234533E-002
  -2.8285311598542431E-002   7.2500897543219447E-003   6.0755272046447088E-002
  -2.7938042327414127E-002   7.4455005904283250E-003   6.1622225439700654E-002
  -3.6819750210004346E-002   8.3327566913739548E-003   5.6746444794074938E-002
  -3.6385799190871052E-002   8.8749195859462240E-003   5.7089878693677050E-002
  -3.5951848171737744E-002   9.2721798871577173E-003   5.7572418285248207E-002
  -3.5517897152604436E-002   9.5245375950083477E-003   5.8194063568788396E-002
  -3.5083946133471121E-002   9.6319927094981050E-003   5.8954814544297608E-002
  -4.4680944626982660E-002   1.0387517455674993E-002   5.5327048482988174E-002
  -4.4055463971916307E-002   1.1083501749248317E-002   5.5169143927522590E-002
  -4.3429983316849934E-002   1.1553991075921571E-002   5.5255192951954100E-002
  -4.2804502661783574E-002   1.1798985435694739E-002   5.5585195556282649E-002
  -4.2179022006717207E-002   1.1818484828567878E-002   5.6159151740508326E-002
  -5.2910702662862290E-002   1.2442278219976037E-002   5.4101769757672093E-002
  -5.1988844483934801E-002   1.3292083912550361E-002   5.3361934373599540E-002
  -5.1066986305007306E-002   1.3835802264685405E-002   5.2970900457352088E-002
  -5.0145128126079824E-002   1.4073433276381176E-002   5.2928668008929869E-002
  -4.9223269947152336E-002   1.4004976947637655E-002   5.3235237028332744E-002
  -6.1509024317643213E-002   1.4497038984277073E-002   5.3070608618126590E-002
  -6.0185940726926540E-002   1.5500666075852435E-002   5.1668250031907878E-002
  -5.8862857136209881E-002   1.6117613453449288E-002   5.0719540801442350E-002
  -5.7539773545493222E-002   1.6347881117067552E-002   5.0224480926730063E-002
  -5.6216689954776557E-002   1.6191469066707417E-002   5.0183070407770938E-002
  -2.7938042327414127E-002   7.4455005904283250E-003   6.1622225439700654E-002
  -2.7220168998489499E-002   7.5633231241052160E-003   6.1312127472955863E-002
  -2.6502295669564864E-002   7.5902792727446274E-003   6.1208583500733584E-002
  -2.5784422340640229E-002   7.5263690363466225E-003   6.1311593523033767E-002
  -2.5066549011715608E-002   7.3715924149110879E-003   6.1621157539856475E-002
  -3.5083946133471121E-002   9.6319927094981050E-003   5.8954814544297608E-002
  -3.4162534999904501E-002   9.6340816307641589E-003   5.8614180231421141E-002
  -3.3241123866337888E-002   9.5703407589433562E-003   5.8474067533306182E-002
  -3.2319712732771268E-002   9.4407700940359034E-003   5.8534476449952751E-002
  -3.1398301599204648E-002   9.2453696360416948E-003   5.8795406981360765E-002
  -4.2179022006717207E-002   1.1818484828567878E-002   5.6159151740508326E-002
  -4.1060105448269581E-002   1.1704840137423001E-002   5.5813017673450906E-002
  -3.9941188889821969E-002   1.1550402245142056E-002   5.5661372841394018E-002
  -3.8822272331374356E-002   1.1355171151725183E-002   5.5704217244337634E-002
  -3.7703355772926744E-002   1.1119146857172274E-002   5.5941550882281754E-002
  -4.9223269947152336E-002   1.4004976947637655E-002   5.3235237028332744E-002
  -4.7912880343584721E-002   1.3775598644081866E-002   5.2908639799045164E-002
  -4.6602490740017127E-002   1.3530463731340685E-002   5.2770499424997050E-002
  -4.5292101136449506E-002   1.3269572209414410E-002   5.2820815906188430E-002
  -4.3981711532881891E-002   1.2992924078302853E-002   5.3059589242619339E-002
  -5.6216689954776557E-002   1.6191469066707417E-002   5.0183070407770938E-002
  -5.4720859685849950E-002   1.5846357150740772E-002   4.9901046608203839E-002
  -5.3225029416923336E-002   1.5510525217539459E-002   4.9801447284115265E-002
  -5.1729199147996729E-002   1.5183973267103724E-002   4.9884272435505181E-002
  -5.0233368879070123E-002   1.4866701299433432E-002   5.0149522062373636E-002
  -2.5066549011715608E-002   7.3715924149110879E-003   6.1621157539856475E-002
  -2.4307749653476599E-002   7.1691921266947289E-003   6.1292789728460306E-002
  -2.3548950295237590E-002   6.9624108899543347E-003   6.1152667997674298E-002
  -2.2790150936998588E-002   6.7512487046894956E-003   6.1200792347498506E-002
  -2.2031351578759583E-002   6.5357055709006073E-003   6.1437162777932874E-002
  -3.1398301599204648E-002   9.2453696360416948E-003   5.8795406981360765E-002
  -3.0448629980701247E-002   9.0088748966150323E-003   5.8485993904234562E-002
  -2.9498958362197861E-002   8.7560213874104328E-003   5.8370079267027031E-002
  -2.8549286743694467E-002   8.4868091084275687E-003   5.8447663069738108E-002
  -2.7599615125191084E-002   8.2012380596667711E-003   5.8718745312367676E-002
  -3.7703355772926744E-002   1.1119146857172274E-002   5.5941550882281754E-002
  -3.6557559534850542E-002   1.0848557666535349E-002   5.5639114718171685E-002
  -3.5411763296774361E-002   1.0549631884866531E-002   5.5535429353288646E-002
  -3.4265967058698173E-002   1.0222369512165669E-002   5.5630494787632621E-002
  -3.3120170820621991E-002   9.8667705484329071E-003   5.5924311021203585E-002
  -4.3981711532881891E-002   1.2992924078302853E-002   5.3059589242619339E-002
  -4.2634538315924495E-002   1.2688240436455687E-002   5.2752152170271530E-002
  -4.1287365098967105E-002   1.2343242382322657E-002   5.2648718256459198E-002
  -3.9940191882009701E-002   1.1957929915903784E-002   5.2749287501182233E-002
  -3.8593018665052284E-002   1.1532303037199057E-002   5.3053859904440698E-002
  -5.0233368879070123E-002   1.4866701299433432E-002   5.0149522062373636E-002
  -4.8679566323923076E-002   1.4527923206375984E-002   4.9825106260534213E-002
  -4.7125763768776058E-002   1.4136852879778776E-002   4.9709945976538619E-002
  -4.5571961213629053E-002   1.3693490319641869E-002   4.9804041210386778E-002
  -4.4018158658482021E-002   1.3197835525965262E-002   5.0107391962078862E-002
  -2.2031351578759583E-002   6.5357055709006073E-003   6.1437162777932874E-002
  -2.1162496819753396E-002   6.3091696058716340E-003   6.1037852743046073E-002
  -2.0293642060747213E-002   6.0650289268870533E-003   6.0867116938379678E-002
  -1.9424787301741030E-002   5.8032835339467854E-003   6.0924955363933789E-002
  -1.8555932542734847E-002   5.5239334270508200E-003   6.1211368019708279E-002
  -2.7599615125191084E-002   8.2012380596667711E-003   5.8718745312367676E-002
  -2.6507195222110660E-002   7.9017663840402486E-003   5.8347610443380882E-002
  -2.5414775319030213E-002   7.5908522244608756E-003   5.8195031632322120E-002
  -2.4322355415949799E-002   7.2684955809281665E-003   5.8261008879191292E-002
  -2.3229935512869344E-002   6.9346964534425792E-003   5.8545542183988691E-002
  -3.3120170820621991E-002   9.8667705484329071E-003   5.5924311021203585E-002
  -3.1814203945759713E-002   9.4943631622088909E-003   5.5587513548119402E-002
  -3.0508237070897452E-002   9.1166755220344689E-003   5.5459253960670883E-002
  -2.9202270196035184E-002   8.7337076279096568E-003   5.5539532258858049E-002
  -2.7896303321172912E-002   8.3454594798343384E-003   5.5828348442680614E-002
  -3.8593018665052284E-002   1.1532303037199057E-002   5.3053859904440698E-002
  -3.7083522990700606E-002   1.1086959940377408E-002   5.2757562057261814E-002
  -3.5574027316348927E-002   1.0642498819608232E-002   5.2659783923426115E-002
  -3.4064531641997256E-002   1.0198919674891092E-002   5.2760525502933565E-002
  -3.2555035967645550E-002   9.7562225062261254E-003   5.3059786795784339E-002
  -4.4018158658482021E-002   1.3197835525965262E-002   5.0107391962078862E-002
  -4.2315152356933325E-002   1.2679556718546092E-002   4.9857755970807882E-002
  -4.0612146055384629E-002   1.2168322117181940E-002   4.9796621520587669E-002
  -3.8909139753835940E-002   1.1664131721872487E-002   4.9923988611418293E-002
  -3.7206133452287279E-002   1.1166985532617857E-002   5.0239857243299657E-002
  -1.8555932542734847E-002   5.5239334270508200E-003   6.1211368019708279E-002
  -1.7792479549270560E-002   5.2357290486653441E-003   6.0940880743922399E-002
  -1.7029026555806268E-002   4.9474208412562115E-003   6.0793618928744658E-002
  -1.6265573562341984E-002   4.6590088048236444E-003   6.0769582574175141E-002
  -1.5502120568877696E-002   4.3704929393676428E-003   6.0868771680213762E-002
  -2.3229935512869344E-002   6.9346964534425792E-003   5.8545542183988691E-002
  -2.2330288400250701E-002   6.5923504091767171E-003   5.8292781139264421E-002
  -2.1430641287632061E-002   6.2443530153036553E-003   5.8189182872240827E-002
  -2.0530994175013417E-002   5.8907042718233035E-003   5.8234747382917819E-002
  -1.9631347062394743E-002   5.5314041787354329E-003   5.8429474671295278E-002
  -2.7896303321172912E-002   8.3454594798343384E-003   5.5828348442680614E-002
  -2.6834524772307522E-002   7.9489717696883538E-003   5.5587766108434383E-002
  -2.5772746223442111E-002   7.5412851893511545E-003   5.5522283868981143E-002
  -2.4710967674576711E-002   7.1223997388227406E-003   5.5631901724320726E-002
  -2.3649189125711314E-002   6.6923154181032785E-003   5.5916619674453327E-002
  -3.2555035967645550E-002   9.7562225062261254E-003   5.3059786795784339E-002
  -3.1305188665441012E-002   9.3055931301999142E-003   5.2825835651432208E-002
  -3.0055341363236454E-002   8.8382173633985706E-003   5.2792921918965299E-002
  -2.8805494061031917E-002   8.3540952058224552E-003   5.2961045598383820E-002
  -2.7555646758827355E-002   7.8532266574712073E-003   5.3330206689687687E-002
  -3.7206133452287279E-002   1.1166985532617857E-002   5.0239857243299657E-002
  -3.5742280079651162E-002   1.0662214490711391E-002   5.0006989768257792E-002
  -3.4278426707015093E-002   1.0135149537446167E-002   5.0001097022193630E-002
  -3.2814573334378996E-002   9.5857906728218263E-003   5.0222179005107156E-002
  -3.1350719961742921E-002   9.0141378968389696E-003   5.0670235716998302E-002
  -1.5502120568877696E-002   4.3704929393676428E-003   6.0868771680213762E-002
  -1.4496927640403740E-002   4.0735017530152406E-003   6.0378228997453265E-002
  -1.3491734711929791E-002   3.7596637538933608E-003   6.0130542032204082E-002
  -1.2486541783455835E-002   3.4289789420024752E-003   6.0125710784466435E-002
  -1.1481348854981879E-002   3.0814473173419454E-003   6.0363735254239881E-002
  -1.9631347062394743E-002   5.5314041787354329E-003   5.8429474671295278E-002
  -1.8386512467496077E-002   5.1634812783077910E-003   5.8032881828727900E-002
  -1.7141677872597395E-002   4.7839641128080979E-003   5.7872716601498730E-002
  -1.5896843277698698E-002   4.3928526822360967E-003   5.7948978989607616E-002
  -1.4652008682800047E-002   3.9901469865917250E-003   5.8261668993054294E-002
  -2.3649189125711314E-002   6.6923154181032785E-003   5.5916619674453327E-002
  -2.2171140966561163E-002   6.2534608036007300E-003   5.5619229219776023E-002
  -2.0693092807411002E-002   5.8082644717229459E-003   5.5551838278263765E-002
  -1.9215044648260873E-002   5.3567264224697181E-003   5.5714446849916138E-002
  -1.7736996489110719E-002   4.8988466558415045E-003   5.6107054934733391E-002
  -2.7555646758827355E-002   7.8532266574712073E-003   5.3330206689687687E-002
  -2.5850813137598960E-002   7.3434403288934191E-003   5.3137271170597543E-002
  -2.4145979516370628E-002   6.8325648306375164E-003   5.3167907062498992E-002
  -2.2441145895142262E-002   6.3206001627036171E-003   5.3422114365392459E-002
  -2.0736312273913902E-002   5.8075463250912840E-003   5.3899893079276909E-002
  -3.1350719961742921E-002   9.0141378968389696E-003   5.0670235716998302E-002
  -2.9425528980609586E-002   8.4334198541863303E-003   5.0587007681192564E-002
  -2.7500337999476231E-002   7.8568651895524894E-003   5.0720922954205022E-002
  -2.5575147018342934E-002   7.2844739029371171E-003   5.1071981536035996E-002
  -2.3649956037209541E-002   6.7162459943410635E-003   5.1640183426685304E-002
  -5.7152004937270545E-002   0.0000000000000000        3.4690870687189623E-002
  -5.7941592031361087E-002   2.0833969763018713E-003   3.8343323410813410E-002
  -5.8731179125451637E-002   4.1362342010142512E-003   4.2209475595479821E-002
  -5.9520766219542186E-002   6.1585116741371473E-003   4.6289327241188852E-002
  -6.0310353313632728E-002   8.1502293956705572E-003   5.0582878347940494E-002
  -6.5820219285268489E-002   0.0000000000000000        3.7211442412239858E-002
  -6.6625184535561183E-002   2.9137346676356181E-003   4.0834514869370959E-002
  -6.7430149785853863E-002   5.7700054745347343E-003   4.4213131553055160E-002
  -6.8235115036146543E-002   8.5688124206973592E-003   4.7347292463292466E-002
  -6.9040080286439237E-002   1.1310155506123489E-002   5.0236997600082857E-002
  -7.4244724476351359E-002   0.0000000000000000        4.0575803883197356E-002
  -7.5523223117335711E-002   3.7440723589693635E-003   4.4142591964688754E-002
  -7.6801721758320063E-002   7.4037767480552210E-003   4.7006769038243745E-002
  -7.8080220399304401E-002   1.0979113167257576E-002   4.9168335103862301E-002
  -7.9358719040288767E-002   1.4470081616576423E-002   5.0627290161544429E-002
  -8.2425520510519157E-002   0.0000000000000000        4.4783955100062084E-002
  -8.4635707776684693E-002   4.5744100503031090E-003   4.8267554696766787E-002
  -8.6845895042850244E-002   9.0375480215757059E-003   5.0590388051045557E-002
  -8.9056082309015766E-002   1.3389413913817781E-002   5.1752455162898357E-002
  -9.1266269575181316E-002   1.7630007727029356E-002   5.1753756032325238E-002
  -9.0362607387771909E-002   0.0000000000000000        4.9835896062834083E-002
  -9.3962638513608143E-002   5.4047477416368558E-003   5.3209403065605065E-002
  -9.7562669639444391E-002   1.0671319295096187E-002   5.4963988591460587E-002
 -0.10116270076528062        1.5799714660378002E-002   5.5099652640400648E-002
 -0.10476273189111687        2.0789933837482288E-002   5.3616395212425227E-002
  -6.0310353313632728E-002   8.1502293956705572E-003   5.0582878347940494E-002
  -6.0610021064635353E-002   1.0029233379262474E-002   5.1522560558716984E-002
  -6.0909688815637970E-002   1.1713369638560837E-002   5.2250409674006834E-002
  -6.1209356566640581E-002   1.3202638173565739E-002   5.2766425693810036E-002
  -6.1509024317643213E-002   1.4497038984277073E-002   5.3070608618126590E-002
  -6.9040080286439237E-002   1.1310155506123489E-002   5.0236997600082857E-002
  -6.9313963054017338E-002   1.3754376610447346E-002   4.9459562195846705E-002
  -6.9587845821595440E-002   1.5661817613303149E-002   4.8945529853946249E-002
  -6.9861728589173527E-002   1.7032478514690901E-002   4.8694900574381444E-002
  -7.0135611356751615E-002   1.7866359314610586E-002   4.8707674357152342E-002
  -7.9358719040288767E-002   1.4470081616576423E-002   5.0627290161544429E-002
  -7.9131580666620016E-002   1.7479519841632232E-002   4.7790824765121108E-002
  -7.8904442292951280E-002   1.9610265588045430E-002   4.5692998588855810E-002
  -7.8677303919282557E-002   2.0862318855816065E-002   4.4333811632748465E-002
  -7.8450165545613806E-002   2.1235679644944095E-002   4.3713263896799165E-002
  -9.1266269575181316E-002   1.7630007727029356E-002   5.1753756032325238E-002
  -9.0062873902443413E-002   2.1204663072817098E-002   4.6516348266540185E-002
  -8.8859478229705482E-002   2.3558713562787735E-002   4.2492815878735463E-002
  -8.7656082556967593E-002   2.4692159196941229E-002   3.9683158868911120E-002
  -8.6452686884229663E-002   2.4604999975277618E-002   3.8087377237067038E-002
 -0.10476273189111687        2.0789933837482288E-002   5.3616395212425227E-002
 -0.10210784276148747        2.4929806304001989E-002   4.5636132700103957E-002
  -9.9452953631858076E-002   2.7507161537530023E-002   3.9344981723585332E-002
  -9.6798064502228692E-002   2.8521999538066403E-002   3.4742942282869324E-002
  -9.4143175372599280E-002   2.7974320305611117E-002   3.1830014377955990E-002
  -6.1509024317643213E-002   1.4497038984277073E-002   5.3070608618126590E-002
  -6.0185940726926540E-002   1.5500666075852435E-002   5.1668250031907878E-002
  -5.8862857136209881E-002   1.6117613453449288E-002   5.0719540801442350E-002
  -5.7539773545493222E-002   1.6347881117067552E-002   5.0224480926730063E-002
  -5.6216689954776557E-002   1.6191469066707417E-002   5.0183070407770938E-002
  -7.0135611356751615E-002   1.7866359314610586E-002   4.8707674357152342E-002
  -6.8405716578489387E-002   1.8320660059069609E-002   4.7265980591256362E-002
  -6.6675821800227159E-002   1.8552580794075273E-002   4.6184259844698317E-002
  -6.4945927021964903E-002   1.8562121519627651E-002   4.5462512117478218E-002
  -6.3216032243702702E-002   1.8349282235726641E-002   4.5100737409596123E-002
  -7.8450165545613806E-002   2.1235679644944095E-002   4.3713263896799165E-002
  -7.6407135916221253E-002   2.1140654042286794E-002   4.2396534655751078E-002
  -7.4364106286828685E-002   2.0987548134701304E-002   4.1346102097625688E-002
  -7.2321076657436131E-002   2.0776361922187691E-002   4.0561966222423008E-002
  -7.0278047028043578E-002   2.0507095404745927E-002   4.0044127030143012E-002
  -8.6452686884229663E-002   2.4604999975277618E-002   3.8087377237067038E-002
  -8.4190198740122055E-002   2.3960648025503954E-002   3.7059912225392039E-002
  -8.1927710596014419E-002   2.3422515475327352E-002   3.6205067560224527E-002
  -7.9665222451906784E-002   2.2990602324747735E-002   3.5522843241564413E-002
  -7.7402734307799176E-002   2.2664908573765196E-002   3.5013239269411779E-002
  -9.4143175372599280E-002   2.7974320305611117E-002   3.1830014377955990E-002
  -9.1754905050191835E-002   2.6780642008721170E-002   3.1256113300179300E-002
  -8.9366634727784403E-002   2.5857482815953320E-002   3.0761156232494785E-002
  -8.6978364405376971E-002   2.5204842727307816E-002   3.0345143174902472E-002
  -8.4590094082969525E-002   2.4822721742784437E-002   3.0008074127402334E-002
  -5.6216689954776557E-002   1.6191469066707417E-002   5.0183070407770938E-002
  -5.4720859685849950E-002   1.5846357150740772E-002   4.9901046608203839E-002
  -5.3225029416923336E-002   1.5510525217539459E-002   4.9801447284115265E-002
  -5.1729199147996729E-002   1.5183973267103724E-002   4.9884272435505181E-002
  -5.0233368879070123E-002   1.4866701299433432E-002   5.0149522062373636E-002
  -6.3216032243702702E-002   1.8349282235726641E-002   4.5100737409596123E-002
  -6.1526854121962612E-002   1.8010406929719794E-002   4.4756758465952742E-002
  -5.9837676000222564E-002   1.7641839588954430E-002   4.4617050752457733E-002
  -5.8148497878482482E-002   1.7243580213430636E-002   4.4681614269111172E-002
  -5.6459319756742447E-002   1.6815628803148269E-002   4.4950449015913010E-002
  -7.0278047028043578E-002   2.0507095404745927E-002   4.0044127030143012E-002
  -6.8373674298820145E-002   2.0174456708698878E-002   3.9599220924899384E-002
  -6.6469301569596698E-002   1.9773153960369397E-002   3.9380432804474085E-002
  -6.4564928840373279E-002   1.9303187159757474E-002   3.9387762668867059E-002
  -6.2660556111149859E-002   1.8764556306863120E-002   3.9621210518078397E-002
  -7.7402734307799176E-002   2.2664908573765196E-002   3.5013239269411779E-002
  -7.5261320216422470E-002   2.2338506487677944E-002   3.4428433985043971E-002
  -7.3119906125045778E-002   2.1904468331784381E-002   3.4091593440164339E-002
  -7.0978492033669099E-002   2.1362794106084392E-002   3.4002717634772951E-002
  -6.8837077942292407E-002   2.0713483810577964E-002   3.4161806568869718E-002
  -8.4590094082969525E-002   2.4822721742784437E-002   3.0008074127402334E-002
  -8.2189791874769644E-002   2.4502556266657011E-002   2.9244397646386269E-002
  -7.9789489666569818E-002   2.4035782703199358E-002   2.8750532659528510E-002
  -7.7389187458369924E-002   2.3422401052411217E-002   2.8526479166828746E-002
  -7.4988885250170084E-002   2.2662411314292835E-002   2.8572237168287162E-002
  -5.0233368879070123E-002   1.4866701299433432E-002   5.0149522062373636E-002
  -4.8679566323923076E-002   1.4527923206375984E-002   4.9825106260534213E-002
  -4.7125763768776058E-002   1.4136852879778776E-002   4.9709945976538619E-002
  -4.5571961213629053E-002   1.3693490319641869E-002   4.9804041210386778E-002
  -4.4018158658482021E-002   1.3197835525965262E-002   5.0107391962078862E-002
  -5.6459319756742447E-002   1.6815628803148269E-002   4.4950449015913010E-002
  -5.4702311453729752E-002   1.6358413795095242E-002   4.4604134270198964E-002
  -5.2945303150717049E-002   1.5872363626259288E-002   4.4454975502372325E-002
  -5.1188294847704402E-002   1.5357478296640489E-002   4.4502972712433184E-002
  -4.9431286544691713E-002   1.4813757806238836E-002   4.4748125900381519E-002
  -6.2660556111149859E-002   1.8764556306863120E-002   3.9621210518078397E-002
  -6.0712441600227894E-002   1.8188904383814548E-002   3.9276453901246559E-002
  -5.8764327089305943E-002   1.7607874372739887E-002   3.9116753722345868E-002
  -5.6816212578383998E-002   1.7021466273639221E-002   3.9142109981376183E-002
  -5.4868098067462040E-002   1.6429680086512494E-002   3.9352522678337720E-002
  -6.8837077942292407E-002   2.0713483810577964E-002   3.4161806568869718E-002
  -6.6709956763417538E-002   2.0019394972533831E-002   3.3842065153677020E-002
  -6.4582835584542628E-002   1.9343385119220402E-002   3.3695280636458907E-002
  -6.2455714405667780E-002   1.8685454250637924E-002   3.3721453017215616E-002
  -6.0328593226792862E-002   1.8045602366786165E-002   3.3920582295947133E-002
  -7.4988885250170084E-002   2.2662411314292835E-002   2.8572237168287162E-002
  -7.2694856943298636E-002   2.1849885561253113E-002   2.8300968027490297E-002
  -7.0400828636427201E-002   2.1078895865701032E-002   2.8190556244711854E-002
  -6.8106800329555767E-002   2.0349442227636551E-002   2.8241001819951699E-002
  -6.5812772022684318E-002   1.9661524647059780E-002   2.8452304753210034E-002
  -4.4018158658482021E-002   1.3197835525965262E-002   5.0107391962078862E-002
  -4.2315152356933325E-002   1.2679556718546092E-002   4.9857755970807882E-002
  -4.0612146055384629E-002   1.2168322117181940E-002   4.9796621520587669E-002
  -3.8909139753835940E-002   1.1664131721872487E-002   4.9923988611418293E-002
  -3.7206133452287279E-002   1.1166985532617857E-002   5.0239857243299657E-002
  -4.9431286544691713E-002   1.4813757806238836E-002   4.4748125900381519E-002
  -4.7538160762800492E-002   1.4255765868344317E-002   4.4480092447767794E-002
  -4.5645034980909292E-002   1.3698066196247291E-002   4.4403796414788296E-002
  -4.3751909199018085E-002   1.3140658789947437E-002   4.4519237801443221E-002
  -4.1858783417126864E-002   1.2583543649444806E-002   4.4826416607732261E-002
  -5.4868098067462040E-002   1.6429680086512494E-002   3.9352522678337720E-002
  -5.2781616926644778E-002   1.5831975018142624E-002   3.9059339824123671E-002
  -5.0695135785827565E-002   1.5227810275312531E-002   3.8961130268127350E-002
  -4.8608654645010324E-002   1.4617185858022221E-002   3.9057894010348787E-002
  -4.6522173504193090E-002   1.4000101766271700E-002   3.9349631050787884E-002
  -6.0328593226792862E-002   1.8045602366786165E-002   3.3920582295947133E-002
  -5.8045520848466176E-002   1.7408184167940807E-002   3.3595498099875165E-002
  -5.5762448470139489E-002   1.6757554354377771E-002   3.3468623080604630E-002
  -5.3479376091812802E-002   1.6093712926097088E-002   3.3539957238135271E-002
  -5.1196303713486116E-002   1.5416659883098482E-002   3.3809500572466941E-002
  -6.5812772022684318E-002   1.9661524647059780E-002   2.8452304753210034E-002
  -6.3329872528264705E-002   1.8984393317739157E-002   2.8088567275022763E-002
  -6.0846973033845037E-002   1.8287298433443094E-002   2.7926274852220268E-002
  -5.8364073539425382E-002   1.7570239994172003E-002   2.7965427484802255E-002
  -5.5881174045005755E-002   1.6833217999925487E-002   2.8206025172769100E-002
  -3.7206133452287279E-002   1.1166985532617857E-002   5.0239857243299657E-002
  -3.5742280079651162E-002   1.0662214490711391E-002   5.0006989768257792E-002
  -3.4278426707015093E-002   1.0135149537446167E-002   5.0001097022193630E-002
  -3.2814573334378996E-002   9.5857906728218263E-003   5.0222179005107156E-002
  -3.1350719961742921E-002   9.0141378968389696E-003   5.0670235716998302E-002
  -4.1858783417126864E-002   1.2583543649444806E-002   4.4826416607732261E-002
  -4.0182943091118632E-002   1.2020315445223584E-002   4.4550415082561301E-002
  -3.8507102765110449E-002   1.1444568847767983E-002   4.4471412735157048E-002
  -3.6831262439102209E-002   1.0856303857078052E-002   4.4589409565519218E-002
  -3.5155422113093970E-002   1.0255520473153423E-002   4.4904405573647943E-002
  -4.6522173504193090E-002   1.4000101766271700E-002   3.9349631050787884E-002
  -4.4664321776023981E-002   1.3378416399735929E-002   3.9040270993612472E-002
  -4.2806470047854865E-002   1.2753988158090125E-002   3.8897934562992349E-002
  -4.0948618319685742E-002   1.2126817041334110E-002   3.8922621758927425E-002
  -3.9090766591516640E-002   1.1496903049467849E-002   3.9114332581417902E-002
  -5.1196303713486116E-002   1.5416659883098482E-002   3.3809500572466941E-002
  -4.9186416134367264E-002   1.4736517354248281E-002   3.3476557501411104E-002
  -4.7176528555248474E-002   1.4063407468412160E-002   3.3280662505699513E-002
  -4.5166640976129623E-002   1.3397330225590084E-002   3.3221815585331917E-002
  -4.3156753397010771E-002   1.2738285625782289E-002   3.3300016740308302E-002
  -5.5881174045005755E-002   1.6833217999925487E-002   2.8206025172769100E-002
  -5.3749226166148467E-002   1.6094618308760522E-002   2.7859274605957496E-002
  -5.1617278287291166E-002   1.5372826778734125E-002   2.7619596563278559E-002
  -4.9485330408433843E-002   1.4667843409846375E-002   2.7486991044732595E-002
  -4.7353382529576576E-002   1.3979668202096618E-002   2.7461458050319520E-002
  -3.1350719961742921E-002   9.0141378968389696E-003   5.0670235716998302E-002
  -2.9425528980609586E-002   8.4334198541863303E-003   5.0587007681192564E-002
  -2.7500337999476231E-002   7.8568651895524894E-003   5.0720922954205022E-002
  -2.5575147018342934E-002   7.2844739029371171E-003   5.1071981536035996E-002
  -2.3649956037209541E-002   6.7162459943410635E-003   5.1640183426685304E-002
  -3.5155422113093970E-002   1.0255520473153423E-002   4.4904405573647943E-002
  -3.3024722813251202E-002   9.6449479091000878E-003   4.4677451926159545E-002
  -3.0894023513408406E-002   9.0273153780241200E-003   4.4644371607271999E-002
  -2.8763324213565603E-002   8.4026228799250688E-003   4.4805164616984694E-002
  -2.6632624913722786E-002   7.7708704148029550E-003   4.5159830955298075E-002
  -3.9090766591516640E-002   1.1496903049467849E-002   3.9114332581417902E-002
  -3.6777828953182240E-002   1.0856475964014234E-002   3.8732429977205302E-002
  -3.4464891314847798E-002   1.0197765566495966E-002   3.8521130721375453E-002
  -3.2151953676513301E-002   9.5207718569128800E-003   3.8480434813928335E-002
  -2.9839016038178887E-002   8.8254948352650686E-003   3.8610342254863983E-002
  -4.3156753397010771E-002   1.2738285625782289E-002   3.3300016740308302E-002
  -4.0684847400402534E-002   1.2068004018928241E-002   3.2751941834329709E-002
  -3.8212941403794234E-002   1.1368215754967870E-002   3.2351200296516121E-002
  -3.5741035407185900E-002   1.0638920833900650E-002   3.2097792126867586E-002
  -3.3269129410577650E-002   9.8801192557271267E-003   3.1991717325383570E-002
  -4.7353382529576576E-002   1.3979668202096618E-002   2.7461458050319520E-002
  -4.4745778154912236E-002   1.3279532073842248E-002   2.6735987497532920E-002
  -4.2138173780247881E-002   1.2538665943439664E-002   2.6134580332693447E-002
  -3.9530569405583672E-002   1.1757069810888560E-002   2.5657236555801266E-002
  -3.6922965030919241E-002   1.0934743676189074E-002   2.5303956166856212E-002
  -9.0362607387771909E-002   0.0000000000000000        4.9835896062834083E-002
  -9.3962638513608143E-002   5.4047477416368558E-003   5.3209403065605065E-002
  -9.7562669639444391E-002   1.0671319295096187E-002   5.4963988591460587E-002
 -0.10116270076528062        1.5799714660378002E-002   5.5099652640400648E-002
 -0.10476273189111687        2.0789933837482288E-002   5.3616395212425227E-002
 -0.10329416949710198        0.0000000000000000        5.8664279698864584E-002
 -0.10683156235605491        1.0884531422002471E-002   5.2119198715942970E-002
 -0.11036895521500784        1.9172262815339118E-002   4.7318315743703425E-002
 -0.11390634807396077        2.4863194180009929E-002   4.4261630782145948E-002
 -0.11744374093291372        2.7957325516014916E-002   4.2949143831270561E-002
 -0.12645839122750174        0.0000000000000000        7.4201758935504847E-002
 -0.12657002633197384        1.6364315102368087E-002   5.5279466126402318E-002
 -0.12668166143644594        2.7673206335582040E-002   4.1464490815579416E-002
 -0.12679329654091800        3.3926673699641849E-002   3.2756833003036112E-002
 -0.12690493164539013        3.5124717194547531E-002   2.9156492688772406E-002
 -0.15985527257897117        0.0000000000000000        9.6448333772754885E-002
 -0.15317803044136488        2.1844098782733704E-002   6.2690205296983159E-002
 -0.14650078830375862        3.6174149855824955E-002   3.7402513807088540E-002
 -0.13982354616615233        4.2990153219273776E-002   2.0585259303071132E-002
 -0.13314630402854605        4.2292108873080145E-002   1.2238441784930817E-002
 -0.20348481355151032        0.0000000000000000       0.12540400421061471     
 -0.18665557468422814        2.7323882463099320E-002   7.4351416227685443E-002
 -0.16982633581694595        4.4675093376067891E-002   3.5132384718230852E-002
 -0.15299709694966374        5.2053632738905717E-002   7.7469096822509464E-003
 -0.13616785808238155        4.9459500551612787E-002  -7.8050088802542605E-003
 -0.10476273189111687        2.0789933837482288E-002   5.3616395212425227E-002
 -0.10210784276148747        2.4929806304001989E-002   4.5636132700103957E-002
  -9.9452953631858076E-002   2.7507161537530023E-002   3.9344981723585332E-002
  -9.6798064502228692E-002   2.8521999538066403E-002   3.4742942282869324E-002
  -9.4143175372599280E-002   2.7974320305611117E-002   3.1830014377955990E-002
 -0.11744374093291372        2.7957325516014916E-002   4.2949143831270561E-002
 -0.11348758051224685        2.9429037283414516E-002   3.6695581232736245E-002
 -0.10953142009157996        3.0252709942269210E-002   3.1355449680474289E-002
 -0.10557525967091308        3.0428343492578998E-002   2.6928749174484637E-002
 -0.10161909925024619        2.9955937934343896E-002   2.3415479714767359E-002
 -0.12690493164539013        3.5124717194547531E-002   2.9156492688772406E-002
 -0.12242318042321608        3.3928268262827056E-002   2.5544108128471868E-002
 -0.11794142920104203        3.2998258347008438E-002   2.2069474124913353E-002
 -0.11345967797886798        3.2334687447091622E-002   1.8732590678096780E-002
 -0.10897792675669396        3.1937555563076661E-002   1.5533457788022224E-002
 -0.13314630402854605        4.2292108873080145E-002   1.2238441784930817E-002
 -0.12891464249439519        3.8427499242239586E-002   1.2181713387310758E-002
 -0.12468298096024430        3.5743806751747619E-002   1.1487055056902409E-002
 -0.12045131942609345        3.4241031401604220E-002   1.0154466793705633E-002
 -0.11621965789194262        3.3919173191809392E-002   8.1839485977206142E-003
 -0.13616785808238155        4.9459500551612787E-002  -7.8050088802542605E-003
 -0.13296196672578420        4.2926730221652151E-002  -3.3916029907470613E-003
 -0.12975607536918682        3.8489355156486806E-002  -3.9180752355849613E-004
 -0.12655018401258947        3.6147375356116861E-002   1.1943775213113794E-003
 -0.12334429265599212        3.5900790820542178E-002   1.3669521438625654E-003
  -9.4143175372599280E-002   2.7974320305611117E-002   3.1830014377955990E-002
  -9.1754905050191835E-002   2.6780642008721170E-002   3.1256113300179300E-002
  -8.9366634727784403E-002   2.5857482815953320E-002   3.0761156232494785E-002
  -8.6978364405376971E-002   2.5204842727307816E-002   3.0345143174902472E-002
  -8.4590094082969525E-002   2.4822721742784437E-002   3.0008074127402334E-002
 -0.10161909925024619        2.9955937934343896E-002   2.3415479714767359E-002
  -9.9137880125284586E-002   2.9184758204297678E-002   2.3133184735174239E-002
  -9.6656661000323024E-002   2.8464069239174314E-002   2.2957843350597258E-002
  -9.4175441875361421E-002   2.7793871038973721E-002   2.2889455561036397E-002
  -9.1694222750399845E-002   2.7174163603695844E-002   2.2928021366491649E-002
 -0.10897792675669396        3.1937555563076661E-002   1.5533457788022224E-002
 -0.10637574924425428        3.1588874399874282E-002   1.5322740567413281E-002
 -0.10377357173181459        3.1070655662395211E-002   1.5246986526744395E-002
 -0.10117139421937492        3.0382899350639557E-002   1.5306195666015508E-002
  -9.8569216706935261E-002   2.9525605464607196E-002   1.5500367985226665E-002
 -0.11621965789194262        3.3919173191809392E-002   8.1839485977206142E-003
 -0.11346851240710092        3.3992990595450842E-002   7.8247807968963683E-003
 -0.11071736692225922        3.3677242085616205E-002   7.6285857609360783E-003
 -0.10796622143741752        3.2971927662305417E-002   7.5953634898397841E-003
 -0.10521507595257586        3.1877047325518520E-002   7.7251139836074546E-003
 -0.12334429265599212        3.5900790820542178E-002   1.3669521438625654E-003
 -0.12041616961382448        3.6397106791027395E-002   6.3930542362353182E-004
 -0.11748804657165685        3.6283828508837122E-002   1.0264105317252248E-004
 -0.11455992352948921        3.5560955973971346E-002  -2.4304096749061879E-004
 -0.11163180048732158        3.4228489186429900E-002  -3.9774063836589546E-004
  -8.4590094082969525E-002   2.4822721742784437E-002   3.0008074127402334E-002
  -8.2189791874769644E-002   2.4502556266657011E-002   2.9244397646386269E-002
  -7.9789489666569818E-002   2.4035782703199358E-002   2.8750532659528510E-002
  -7.7389187458369924E-002   2.3422401052411217E-002   2.8526479166828746E-002
  -7.4988885250170084E-002   2.2662411314292835E-002   2.8572237168287162E-002
  -9.1694222750399845E-002   2.7174163603695844E-002   2.2928021366491649E-002
  -8.9047727690455089E-002   2.6555171232897343E-002   2.2272026592310062E-002
  -8.6401232630510388E-002   2.5887118226134848E-002   2.1838606027460045E-002
  -8.3754737570565646E-002   2.5170004583408158E-002   2.1627759671941721E-002
  -8.1108242510620959E-002   2.4403830304717572E-002   2.1639487525754980E-002
  -9.8569216706935261E-002   2.9525605464607196E-002   1.5500367985226665E-002
  -9.5723766080072187E-002   2.8607786199137633E-002   1.5049602369245837E-002
  -9.2878315453209126E-002   2.7738453749070229E-002   1.4774173677770053E-002
  -9.0032864826346093E-002   2.6917608114405130E-002   1.4674081910799204E-002
  -8.7187414199483004E-002   2.6145249295142295E-002   1.4749327068333644E-002
 -0.10521507595257586        3.1877047325518520E-002   7.7251139836074546E-003
 -0.10221790704362101        3.0660401165377944E-002   7.5771249771935424E-003
  -9.9220738134666073E-002   2.9589789272005639E-002   7.5572356104583521E-003
  -9.6223569225711153E-002   2.8665211645402072E-002   7.6654458834014300E-003
  -9.3226400316756303E-002   2.7886668285566914E-002   7.9017557960232108E-003
 -0.11163180048732158        3.4228489186429900E-002  -3.9774063836589546E-004
 -0.10853015058110138        3.2713016131618255E-002  -1.4540558384654179E-004
 -0.10542850067488119        3.1441124794941155E-002   1.8779182552483564E-004
 -0.10232685076866099        3.0412815176399030E-002   6.0185158974831315E-004
  -9.9225200862440799E-002   2.9628087275991699E-002   1.0967737088236618E-003
  -7.4988885250170084E-002   2.2662411314292835E-002   2.8572237168287162E-002
  -7.2694856943298636E-002   2.1849885561253113E-002   2.8300968027490297E-002
  -7.0400828636427201E-002   2.1078895865701032E-002   2.8190556244711854E-002
  -6.8106800329555767E-002   2.0349442227636551E-002   2.8241001819951699E-002
  -6.5812772022684318E-002   1.9661524647059780E-002   2.8452304753210034E-002
  -8.1108242510620959E-002   2.4403830304717572E-002   2.1639487525754980E-002
  -7.8654252269977437E-002   2.3617712296883933E-002   2.1432863149883311E-002
  -7.6200262029333929E-002   2.2840767466728196E-002   2.1385305283537576E-002
  -7.3746271788690504E-002   2.2072995814250387E-002   2.1496813926717262E-002
  -7.1292281548046968E-002   2.1314397339450647E-002   2.1767389079422939E-002
  -8.7187414199483004E-002   2.6145249295142295E-002   1.4749327068333644E-002
  -8.4575252873560131E-002   2.5385539032514670E-002   1.4574984577577693E-002
  -8.1963091547637285E-002   2.4602639067755273E-002   1.4557917747854646E-002
  -7.9350930221714452E-002   2.3796549400864387E-002   1.4698126579164807E-002
  -7.6738768895791551E-002   2.2967270031841652E-002   1.4995611071507903E-002
  -9.3226400316756303E-002   2.7886668285566914E-002   7.9017557960232108E-003
  -9.0457858754046716E-002   2.7153365768145393E-002   7.7273323105731505E-003
  -8.7689317191337116E-002   2.6364510668782447E-002   7.7083936376634082E-003
  -8.4920775628627584E-002   2.5520102987478279E-002   7.8449397772941357E-003
  -8.2152234065918012E-002   2.4620142724232699E-002   8.1369707294652073E-003
  -9.9225200862440799E-002   2.9628087275991699E-002   1.0967737088236618E-003
  -9.6302069911437194E-002   2.8921192503776116E-002   8.8990634887001208E-004
  -9.3378938960433588E-002   2.8126382269809666E-002   8.3673295296383954E-004
  -9.0455808009429983E-002   2.7243656574092136E-002   9.3725352110530027E-004
  -8.7532677058426378E-002   2.6273015416623635E-002   1.1914680532946753E-003
  -6.5812772022684318E-002   1.9661524647059780E-002   2.8452304753210034E-002
  -6.3329872528264705E-002   1.8984393317739157E-002   2.8088567275022763E-002
  -6.0846973033845037E-002   1.8287298433443094E-002   2.7926274852220268E-002
  -5.8364073539425382E-002   1.7570239994172003E-002   2.7965427484802255E-002
  -5.5881174045005755E-002   1.6833217999925487E-002   2.8206025172769100E-002
  -7.1292281548046968E-002   2.1314397339450647E-002   2.1767389079422939E-002
  -6.8608562513017224E-002   2.0557615688043873E-002   2.1423296721145568E-002
  -6.5924843477987438E-002   1.9795294505745277E-002   2.1279398388703713E-002
  -6.3241124442957666E-002   1.9027433792554650E-002   2.1335694082097643E-002
  -6.0557405407927895E-002   1.8254033548471771E-002   2.1592183801327103E-002
  -7.6738768895791551E-002   2.2967270031841652E-002   1.4995611071507903E-002
  -7.3855481349700713E-002   2.2130838058348756E-002   1.4685587857223827E-002
  -7.0972193803609918E-002   2.1303290578047293E-002   1.4574507639226388E-002
  -6.8088906257519052E-002   2.0484627590937190E-002   1.4662370417515079E-002
  -6.5205618711428270E-002   1.9674849097018304E-002   1.4949176192090727E-002
  -8.2152234065918012E-002   2.4620142724232699E-002   8.1369707294652073E-003
  -7.9070629038315215E-002   2.3704060428653778E-002   7.8754406832575747E-003
  -7.5989024010712447E-002   2.2811286650349392E-002   7.8116026037876526E-003
  -7.2907418983109651E-002   2.1941821389319729E-002   7.9454564910549901E-003
  -6.9825813955506882E-002   2.1095664645564824E-002   8.2770023450599133E-003
  -8.7532677058426378E-002   2.6273015416623635E-002   1.1914680532946753E-003
  -8.4254005578860647E-002   2.5277282798958245E-002   9.9285519924702248E-004
  -8.0975334099295027E-002   2.4319282722651603E-002   9.9068328238786918E-004
  -7.7696662619729295E-002   2.3399015187702349E-002   1.1849523027168511E-003
  -7.4417991140163675E-002   2.2516480194111232E-002   1.5756622602343118E-003
  -5.5881174045005755E-002   1.6833217999925487E-002   2.8206025172769100E-002
  -5.3749226166148467E-002   1.6094618308760522E-002   2.7859274605957496E-002
  -5.1617278287291166E-002   1.5372826778734125E-002   2.7619596563278559E-002
  -4.9485330408433843E-002   1.4667843409846375E-002   2.7486991044732595E-002
  -4.7353382529576576E-002   1.3979668202096618E-002   2.7461458050319520E-002
  -6.0557405407927895E-002   1.8254033548471771E-002   2.1592183801327103E-002
  -5.8305862327535082E-002   1.7481164330811705E-002   2.1297678843777590E-002
  -5.6054319247142284E-002   1.6714896696888693E-002   2.1135291765166153E-002
  -5.3802776166749444E-002   1.5955230646702553E-002   2.1105022565492820E-002
  -5.1551233086356618E-002   1.5202166180253718E-002   2.1206871244757619E-002
  -6.5205618711428270E-002   1.9674849097018304E-002   1.4949176192090727E-002
  -6.2809435074694650E-002   1.8867710352863082E-002   1.4696710266401986E-002
  -6.0413251437961099E-002   1.8056966615043267E-002   1.4601407574456486E-002
  -5.8017067801227541E-002   1.7242617883559068E-002   1.4663268116254322E-002
  -5.5620884164493935E-002   1.6424664158410762E-002   1.4882291891795740E-002
  -6.9825813955506882E-002   2.1095664645564824E-002   8.2770023450599133E-003
  -6.7259944407627253E-002   2.0254256374914306E-002   8.0563688738302802E-003
  -6.4694074859747680E-002   1.9399036533198005E-002   8.0179439911494104E-003
  -6.2128205311868002E-002   1.8530005120415746E-002   8.1617276970173090E-003
  -5.9562335763988457E-002   1.7647162136568001E-002   8.4877199914335996E-003
  -7.4417991140163675E-002   2.2516480194111232E-002   1.5756622602343118E-003
  -7.1657390326332837E-002   2.1640802396965531E-002   1.3766546660630152E-003
  -6.8896789512501944E-002   2.0741106451352437E-002   1.3849010152451324E-003
  -6.6136188698671050E-002   1.9817392357272014E-002   1.6004013077812185E-003
  -6.3375587884840212E-002   1.8869660114724907E-002   2.0231555436713844E-003
  -4.7353382529576576E-002   1.3979668202096618E-002   2.7461458050319520E-002
  -4.4745778154912236E-002   1.3279532073842248E-002   2.6735987497532920E-002
  -4.2138173780247881E-002   1.2538665943439664E-002   2.6134580332693447E-002
  -3.9530569405583672E-002   1.1757069810888560E-002   2.5657236555801266E-002
  -3.6922965030919241E-002   1.0934743676189074E-002   2.5303956166856212E-002
  -5.1551233086356618E-002   1.5202166180253718E-002   2.1206871244757619E-002
  -4.8788617111655039E-002   1.4443065987421483E-002   2.0610846863377968E-002
  -4.6026001136953487E-002   1.3665292758085340E-002   2.0200782294125808E-002
  -4.3263385162251734E-002   1.2868846492245643E-002   1.9976677537000942E-002
  -4.0500769187550356E-002   1.2053727189901942E-002   1.9938532592003622E-002
  -5.5620884164493935E-002   1.6424664158410762E-002   1.4882291891795740E-002
  -5.2641360165574830E-002   1.5606599901000606E-002   1.4437770647467513E-002
  -4.9661836166655593E-002   1.4791919572731071E-002   1.4241105639446694E-002
  -4.6682312167736405E-002   1.3980623173602671E-002   1.4292296867734110E-002
  -4.3702788168817272E-002   1.3172710703614698E-002   1.4591344332328893E-002
  -5.9562335763988457E-002   1.7647162136568001E-002   8.4877199914335996E-003
  -5.6304007316671477E-002   1.6770133814579785E-002   8.2167588498012895E-003
  -5.3045678869354497E-002   1.5918546387376997E-002   8.2555503686570914E-003
  -4.9787350422037413E-002   1.5092399854959727E-002   8.6040945480005161E-003
  -4.6529021974720475E-002   1.4291694217327677E-002   9.2623913878323166E-003
  -6.3375587884840212E-002   1.8869660114724907E-002   2.0231555436713844E-003
  -5.9776558564945126E-002   1.7933667728158742E-002   1.9478114703795901E-003
  -5.6177529245049984E-002   1.7045173202022590E-002   2.2441164817562642E-003
  -5.2578499925154787E-002   1.6204176536316811E-002   2.9120705778012679E-003
  -4.8979470605259756E-002   1.5410677731040323E-002   3.9516737585139072E-003
 </DataArray>
 </PointData>
 </Piece>
 <Piece  NumberOfPoints="          1600 "  NumberOfCells="         1024 ">
 <Points>
 <DataArray  type="Float64" NumberOfComponents="3"  format="ascii" >
  0.50000000000000000        0.0000000000000000        0.0000000000000000     
  0.53125000000000000        0.0000000000000000        0.0000000000000000     
  0.56250000000000000        0.0000000000000000        0.0000000000000000     
  0.59375000000000000        0.0000000000000000        0.0000000000000000     
  0.62500000000000000        0.0000000000000000        0.0000000000000000     
  0.50000000000000000        3.1250000000000000E-002   0.0000000000000000     
  0.53125000000000000        3.1250000000000000E-002   0.0000000000000000     
  0.56250000000000000        3.1250000000000000E-002   0.0000000000000000     
  0.59375000000000000        3.1250000000000000E-002   0.0000000000000000     
  0.62500000000000000        3.1250000000000000E-002   0.0000000000000000     
  0.50000000000000000        6.2500000000000000E-002   0.0000000000000000     
  0.53125000000000000        6.2500000000000000E-002   0.0000000000000000     
  0.56250000000000000        6.2500000000000000E-002   0.0000000000000000     
  0.59375000000000000        6.2500000000000000E-002   0.0000000000000000     
  0.62500000000000000        6.2500000000000000E-002   0.0000000000000000     
  0.50000000000000000        9.3750000000000000E-002   0.0000000000000000     
  0.53125000000000000        9.3750000000000000E-002   0.0000000000000000     
  0.56250000000000000        9.3750000000000000E-002   0.0000000000000000     
  0.59375000000000000        9.3750000000000000E-002   0.0000000000000000     
  0.62500000000000000        9.3750000000000000E-002   0.0000000000000000     
  0.50000000000000000       0.12500000000000000        0.0000000000000000     
  0.53125000000000000       0.12500000000000000        0.0000000000000000     
  0.56250000000000000       0.12500000000000000        0.0000000000000000     
  0.59375000000000000       0.12500000000000000        0.0000000000000000     
  0.62500000000000000       0.12500000000000000        0.0000000000000000     
  0.62500000000000000        0.0000000000000000        0.0000000000000000     
  0.65625000000000000        0.0000000000000000        0.0000000000000000     
  0.68750000000000000        0.0000000000000000        0.0000000000000000     
  0.71875000000000000        0.0000000000000000        0.0000000000000000     
  0.75000000000000000        0.0000000000000000        0.0000000000000000     
  0.62500000000000000        3.1250000000000000E-002   0.0000000000000000     
  0.65625000000000000        3.1250000000000000E-002   0.0000000000000000     
  0.68750000000000000        3.1250000000000000E-002   0.0000000000000000     
  0.71875000000000000        3.1250000000000000E-002   0.0000000000000000     
  0.75000000000000000        3.1250000000000000E-002   0.0000000000000000     
  0.62500000000000000        6.2500000000000000E-002   0.0000000000000000     
  0.65625000000000000        6.2500000000000000E-002   0.0000000000000000     
  0.68750000000000000        6.2500000000000000E-002   0.0000000000000000     
  0.71875000000000000        6.2500000000000000E-002   0.0000000000000000     
  0.75000000000000000        6.2500000000000000E-002   0.0000000000000000     
  0.62500000000000000        9.3750000000000000E-002   0.0000000000000000     
  0.65625000000000000        9.3750000000000000E-002   0.0000000000000000     
  0.68750000000000000        9.3750000000000000E-002   0.0000000000000000     
  0.71875000000000000        9.3750000000000000E-002   0.0000000000000000     
  0.75000000000000000        9.3750000000000000E-002   0.0000000000000000     
  0.62500000000000000       0.12500000000000000        0.0000000000000000     
  0.65625000000000000       0.12500000000000000        0.0000000000000000     
  0.68750000000000000       0.12500000000000000        0.0000000000000000     
  0.71875000000000000       0.12500000000000000        0.0000000000000000     
  0.75000000000000000       0.12500000000000000        0.0000000000000000     
  0.75000000000000000        0.0000000000000000        0.0000000000000000     
  0.78125000000000000        0.0000000000000000        0.0000000000000000     
  0.81250000000000000        0.0000000000000000        0.0000000000000000     
  0.84375000000000000        0.0000000000000000        0.0000000000000000     
  0.87500000000000000        0.0000000000000000        0.0000000000000000     
  0.75000000000000000        3.1250000000000000E-002   0.0000000000000000     
  0.78125000000000000        3.1250000000000000E-002   0.0000000000000000     
  0.81250000000000000        3.1250000000000000E-002   0.0000000000000000     
  0.84375000000000000        3.1250000000000000E-002   0.0000000000000000     
  0.87500000000000000        3.1250000000000000E-002   0.0000000000000000     
  0.75000000000000000        6.2500000000000000E-002   0.0000000000000000     
  0.78125000000000000        6.2500000000000000E-002   0.0000000000000000     
  0.81250000000000000        6.2500000000000000E-002   0.0000000000000000     
  0.84375000000000000        6.2500000000000000E-002   0.0000000000000000     
  0.87500000000000000        6.2500000000000000E-002   0.0000000000000000     
  0.75000000000000000        9.3750000000000000E-002   0.0000000000000000     
  0.78125000000000000        9.3750000000000000E-002   0.0000000000000000     
  0.81250000000000000        9.3750000000000000E-002   0.0000000000000000     
  0.84375000000000000        9.3750000000000000E-002   0.0000000000000000     
  0.87500000000000000        9.3750000000000000E-002   0.0000000000000000     
  0.75000000000000000       0.12500000000000000        0.0000000000000000     
  0.78125000000000000       0.12500000000000000        0.0000000000000000     
  0.81250000000000000       0.12500000000000000        0.0000000000000000     
  0.84375000000000000       0.12500000000000000        0.0000000000000000     
  0.87500000000000000       0.12500000000000000        0.0000000000000000     
  0.87500000000000000        0.0000000000000000        0.0000000000000000     
  0.90625000000000000        0.0000000000000000        0.0000000000000000     
  0.93750000000000000        0.0000000000000000        0.0000000000000000     
  0.96875000000000000        0.0000000000000000        0.0000000000000000     
   1.0000000000000000        0.0000000000000000        0.0000000000000000     
  0.87500000000000000        3.1250000000000000E-002   0.0000000000000000     
  0.90625000000000000        3.1250000000000000E-002   0.0000000000000000     
  0.93750000000000000        3.1250000000000000E-002   0.0000000000000000     
  0.96875000000000000        3.1250000000000000E-002   0.0000000000000000     
   1.0000000000000000        3.1250000000000000E-002   0.0000000000000000     
  0.87500000000000000        6.2500000000000000E-002   0.0000000000000000     
  0.90625000000000000        6.2500000000000000E-002   0.0000000000000000     
  0.93750000000000000        6.2500000000000000E-002   0.0000000000000000     
  0.96875000000000000        6.2500000000000000E-002   0.0000000000000000     
   1.0000000000000000        6.2500000000000000E-002   0.0000000000000000     
  0.87500000000000000        9.3750000000000000E-002   0.0000000000000000     
  0.90625000000000000        9.3750000000000000E-002   0.0000000000000000     
  0.93750000000000000        9.3750000000000000E-002   0.0000000000000000     
  0.96875000000000000        9.3750000000000000E-002   0.0000000000000000     
   1.0000000000000000        9.3750000000000000E-002   0.0000000000000000     
  0.87500000000000000       0.12500000000000000        0.0000000000000000     
  0.90625000000000000       0.12500000000000000        0.0000000000000000     
  0.93750000000000000       0.12500000000000000        0.0000000000000000     
  0.96875000000000000       0.12500000000000000        0.0000000000000000     
   1.0000000000000000       0.12500000000000000        0.0000000000000000     
   1.0000000000000000        0.0000000000000000        0.0000000000000000     
   1.0312500000000000        0.0000000000000000        0.0000000000000000     
   1.0625000000000000        0.0000000000000000        0.0000000000000000     
   1.0937500000000000        0.0000000000000000        0.0000000000000000     
   1.1250000000000000        0.0000000000000000        0.0000000000000000     
   1.0000000000000000        3.1250000000000000E-002   0.0000000000000000     
   1.0312500000000000        3.1250000000000000E-002   0.0000000000000000     
   1.0625000000000000        3.1250000000000000E-002   0.0000000000000000     
   1.0937500000000000        3.1250000000000000E-002   0.0000000000000000     
   1.1250000000000000        3.1250000000000000E-002   0.0000000000000000     
   1.0000000000000000        6.2500000000000000E-002   0.0000000000000000     
   1.0312500000000000        6.2500000000000000E-002   0.0000000000000000     
   1.0625000000000000        6.2500000000000000E-002   0.0000000000000000     
   1.0937500000000000        6.2500000000000000E-002   0.0000000000000000     
   1.1250000000000000        6.2500000000000000E-002   0.0000000000000000     
   1.0000000000000000        9.3750000000000000E-002   0.0000000000000000     
   1.0312500000000000        9.3750000000000000E-002   0.0000000000000000     
   1.0625000000000000        9.3750000000000000E-002   0.0000000000000000     
   1.0937500000000000        9.3750000000000000E-002   0.0000000000000000     
   1.1250000000000000        9.3750000000000000E-002   0.0000000000000000     
   1.0000000000000000       0.12500000000000000        0.0000000000000000     
   1.0312500000000000       0.12500000000000000        0.0000000000000000     
   1.0625000000000000       0.12500000000000000        0.0000000000000000     
   1.0937500000000000       0.12500000000000000        0.0000000000000000     
   1.1250000000000000       0.12500000000000000        0.0000000000000000     
   1.1250000000000000        0.0000000000000000        0.0000000000000000     
   1.1562500000000000        0.0000000000000000        0.0000000000000000     
   1.1875000000000000        0.0000000000000000        0.0000000000000000     
   1.2187500000000000        0.0000000000000000        0.0000000000000000     
   1.2500000000000000        0.0000000000000000        0.0000000000000000     
   1.1250000000000000        3.1250000000000000E-002   0.0000000000000000     
   1.1562500000000000        3.1250000000000000E-002   0.0000000000000000     
   1.1875000000000000        3.1250000000000000E-002   0.0000000000000000     
   1.2187500000000000        3.1250000000000000E-002   0.0000000000000000     
   1.2500000000000000        3.1250000000000000E-002   0.0000000000000000     
   1.1250000000000000        6.2500000000000000E-002   0.0000000000000000     
   1.1562500000000000        6.2500000000000000E-002   0.0000000000000000     
   1.1875000000000000        6.2500000000000000E-002   0.0000000000000000     
   1.2187500000000000        6.2500000000000000E-002   0.0000000000000000     
   1.2500000000000000        6.2500000000000000E-002   0.0000000000000000     
   1.1250000000000000        9.3750000000000000E-002   0.0000000000000000     
   1.1562500000000000        9.3750000000000000E-002   0.0000000000000000     
   1.1875000000000000        9.3750000000000000E-002   0.0000000000000000     
   1.2187500000000000        9.3750000000000000E-002   0.0000000000000000     
   1.2500000000000000        9.3750000000000000E-002   0.0000000000000000     
   1.1250000000000000       0.12500000000000000        0.0000000000000000     
   1.1562500000000000       0.12500000000000000        0.0000000000000000     
   1.1875000000000000       0.12500000000000000        0.0000000000000000     
   1.2187500000000000       0.12500000000000000        0.0000000000000000     
   1.2500000000000000       0.12500000000000000        0.0000000000000000     
   1.2500000000000000        0.0000000000000000        0.0000000000000000     
   1.2812500000000000        0.0000000000000000        0.0000000000000000     
   1.3125000000000000        0.0000000000000000        0.0000000000000000     
   1.3437500000000000        0.0000000000000000        0.0000000000000000     
   1.3750000000000000        0.0000000000000000        0.0000000000000000     
   1.2500000000000000        3.1250000000000000E-002   0.0000000000000000     
   1.2812500000000000        3.1250000000000000E-002   0.0000000000000000     
   1.3125000000000000        3.1250000000000000E-002   0.0000000000000000     
   1.3437500000000000        3.1250000000000000E-002   0.0000000000000000     
   1.3750000000000000        3.1250000000000000E-002   0.0000000000000000     
   1.2500000000000000        6.2500000000000000E-002   0.0000000000000000     
   1.2812500000000000        6.2500000000000000E-002   0.0000000000000000     
   1.3125000000000000        6.2500000000000000E-002   0.0000000000000000     
   1.3437500000000000        6.2500000000000000E-002   0.0000000000000000     
   1.3750000000000000        6.2500000000000000E-002   0.0000000000000000     
   1.2500000000000000        9.3750000000000000E-002   0.0000000000000000     
   1.2812500000000000        9.3750000000000000E-002   0.0000000000000000     
   1.3125000000000000        9.3750000000000000E-002   0.0000000000000000     
   1.3437500000000000        9.3750000000000000E-002   0.0000000000000000     
   1.3750000000000000        9.3750000000000000E-002   0.0000000000000000     
   1.2500000000000000       0.12500000000000000        0.0000000000000000     
   1.2812500000000000       0.12500000000000000        0.0000000000000000     
   1.3125000000000000       0.12500000000000000        0.0000000000000000     
   1.3437500000000000       0.12500000000000000        0.0000000000000000     
   1.3750000000000000       0.12500000000000000        0.0000000000000000     
   1.3750000000000000        0.0000000000000000        0.0000000000000000     
   1.4062500000000000        0.0000000000000000        0.0000000000000000     
   1.4375000000000000        0.0000000000000000        0.0000000000000000     
   1.4687500000000000        0.0000000000000000        0.0000000000000000     
   1.5000000000000000        0.0000000000000000        0.0000000000000000     
   1.3750000000000000        3.1250000000000000E-002   0.0000000000000000     
   1.4062500000000000        3.1250000000000000E-002   0.0000000000000000     
   1.4375000000000000        3.1250000000000000E-002   0.0000000000000000     
   1.4687500000000000        3.1250000000000000E-002   0.0000000000000000     
   1.5000000000000000        3.1250000000000000E-002   0.0000000000000000     
   1.3750000000000000        6.2500000000000000E-002   0.0000000000000000     
   1.4062500000000000        6.2500000000000000E-002   0.0000000000000000     
   1.4375000000000000        6.2500000000000000E-002   0.0000000000000000     
   1.4687500000000000        6.2500000000000000E-002   0.0000000000000000     
   1.5000000000000000        6.2500000000000000E-002   0.0000000000000000     
   1.3750000000000000        9.3750000000000000E-002   0.0000000000000000     
   1.4062500000000000        9.3750000000000000E-002   0.0000000000000000     
   1.4375000000000000        9.3750000000000000E-002   0.0000000000000000     
   1.4687500000000000        9.3750000000000000E-002   0.0000000000000000     
   1.5000000000000000        9.3750000000000000E-002   0.0000000000000000     
   1.3750000000000000       0.12500000000000000        0.0000000000000000     
   1.4062500000000000       0.12500000000000000        0.0000000000000000     
   1.4375000000000000       0.12500000000000000        0.0000000000000000     
   1.4687500000000000       0.12500000000000000        0.0000000000000000     
   1.5000000000000000       0.12500000000000000        0.0000000000000000     
  0.50000000000000000       0.12500000000000000        0.0000000000000000     
  0.53125000000000000       0.12500000000000000        0.0000000000000000     
  0.56250000000000000       0.12500000000000000        0.0000000000000000     
  0.59375000000000000       0.12500000000000000        0.0000000000000000     
  0.62500000000000000       0.12500000000000000        0.0000000000000000     
  0.50000000000000000       0.15625000000000000        0.0000000000000000     
  0.53125000000000000       0.15625000000000000        0.0000000000000000     
  0.56250000000000000       0.15625000000000000        0.0000000000000000     
  0.59375000000000000       0.15625000000000000        0.0000000000000000     
  0.62500000000000000       0.15625000000000000        0.0000000000000000     
  0.50000000000000000       0.18750000000000000        0.0000000000000000     
  0.53125000000000000       0.18750000000000000        0.0000000000000000     
  0.56250000000000000       0.18750000000000000        0.0000000000000000     
  0.59375000000000000       0.18750000000000000        0.0000000000000000     
  0.62500000000000000       0.18750000000000000        0.0000000000000000     
  0.50000000000000000       0.21875000000000000        0.0000000000000000     
  0.53125000000000000       0.21875000000000000        0.0000000000000000     
  0.56250000000000000       0.21875000000000000        0.0000000000000000     
  0.59375000000000000       0.21875000000000000        0.0000000000000000     
  0.62500000000000000       0.21875000000000000        0.0000000000000000     
  0.50000000000000000       0.25000000000000000        0.0000000000000000     
  0.53125000000000000       0.25000000000000000        0.0000000000000000     
  0.56250000000000000       0.25000000000000000        0.0000000000000000     
  0.59375000000000000       0.25000000000000000        0.0000000000000000     
  0.62500000000000000       0.25000000000000000        0.0000000000000000     
  0.62500000000000000       0.12500000000000000        0.0000000000000000     
  0.65625000000000000       0.12500000000000000        0.0000000000000000     
  0.68750000000000000       0.12500000000000000        0.0000000000000000     
  0.71875000000000000       0.12500000000000000        0.0000000000000000     
  0.75000000000000000       0.12500000000000000        0.0000000000000000     
  0.62500000000000000       0.15625000000000000        0.0000000000000000     
  0.65625000000000000       0.15625000000000000        0.0000000000000000     
  0.68750000000000000       0.15625000000000000        0.0000000000000000     
  0.71875000000000000       0.15625000000000000        0.0000000000000000     
  0.75000000000000000       0.15625000000000000        0.0000000000000000     
  0.62500000000000000       0.18750000000000000        0.0000000000000000     
  0.65625000000000000       0.18750000000000000        0.0000000000000000     
  0.68750000000000000       0.18750000000000000        0.0000000000000000     
  0.71875000000000000       0.18750000000000000        0.0000000000000000     
  0.75000000000000000       0.18750000000000000        0.0000000000000000     
  0.62500000000000000       0.21875000000000000        0.0000000000000000     
  0.65625000000000000       0.21875000000000000        0.0000000000000000     
  0.68750000000000000       0.21875000000000000        0.0000000000000000     
  0.71875000000000000       0.21875000000000000        0.0000000000000000     
  0.75000000000000000       0.21875000000000000        0.0000000000000000     
  0.62500000000000000       0.25000000000000000        0.0000000000000000     
  0.65625000000000000       0.25000000000000000        0.0000000000000000     
  0.68750000000000000       0.25000000000000000        0.0000000000000000     
  0.71875000000000000       0.25000000000000000        0.0000000000000000     
  0.75000000000000000       0.25000000000000000        0.0000000000000000     
  0.75000000000000000       0.12500000000000000        0.0000000000000000     
  0.78125000000000000       0.12500000000000000        0.0000000000000000     
  0.81250000000000000       0.12500000000000000        0.0000000000000000     
  0.84375000000000000       0.12500000000000000        0.0000000000000000     
  0.87500000000000000       0.12500000000000000        0.0000000000000000     
  0.75000000000000000       0.15625000000000000        0.0000000000000000     
  0.78125000000000000       0.15625000000000000        0.0000000000000000     
  0.81250000000000000       0.15625000000000000        0.0000000000000000     
  0.84375000000000000       0.15625000000000000        0.0000000000000000     
  0.87500000000000000       0.15625000000000000        0.0000000000000000     
  0.75000000000000000       0.18750000000000000        0.0000000000000000     
  0.78125000000000000       0.18750000000000000        0.0000000000000000     
  0.81250000000000000       0.18750000000000000        0.0000000000000000     
  0.84375000000000000       0.18750000000000000        0.0000000000000000     
  0.87500000000000000       0.18750000000000000        0.0000000000000000     
  0.75000000000000000       0.21875000000000000        0.0000000000000000     
  0.78125000000000000       0.21875000000000000        0.0000000000000000     
  0.81250000000000000       0.21875000000000000        0.0000000000000000     
  0.84375000000000000       0.21875000000000000        0.0000000000000000     
  0.87500000000000000       0.21875000000000000        0.0000000000000000     
  0.75000000000000000       0.25000000000000000        0.0000000000000000     
  0.78125000000000000       0.25000000000000000        0.0000000000000000     
  0.81250000000000000       0.25000000000000000        0.0000000000000000     
  0.84375000000000000       0.25000000000000000        0.0000000000000000     
  0.87500000000000000       0.25000000000000000        0.0000000000000000     
  0.87500000000000000       0.12500000000000000        0.0000000000000000     
  0.90625000000000000       0.12500000000000000        0.0000000000000000     
  0.93750000000000000       0.12500000000000000        0.0000000000000000     
  0.96875000000000000       0.12500000000000000        0.0000000000000000     
   1.0000000000000000       0.12500000000000000        0.0000000000000000     
  0.87500000000000000       0.15625000000000000        0.0000000000000000     
  0.90625000000000000       0.15625000000000000        0.0000000000000000     
  0.93750000000000000       0.15625000000000000        0.0000000000000000     
  0.96875000000000000       0.15625000000000000        0.0000000000000000     
   1.0000000000000000       0.15625000000000000        0.0000000000000000     
  0.87500000000000000       0.18750000000000000        0.0000000000000000     
  0.90625000000000000       0.18750000000000000        0.0000000000000000     
  0.93750000000000000       0.18750000000000000        0.0000000000000000     
  0.96875000000000000       0.18750000000000000        0.0000000000000000     
   1.0000000000000000       0.18750000000000000        0.0000000000000000     
  0.87500000000000000       0.21875000000000000        0.0000000000000000     
  0.90625000000000000       0.21875000000000000        0.0000000000000000     
  0.93750000000000000       0.21875000000000000        0.0000000000000000     
  0.96875000000000000       0.21875000000000000        0.0000000000000000     
   1.0000000000000000       0.21875000000000000        0.0000000000000000     
  0.87500000000000000       0.25000000000000000        0.0000000000000000     
  0.90625000000000000       0.25000000000000000        0.0000000000000000     
  0.93750000000000000       0.25000000000000000        0.0000000000000000     
  0.96875000000000000       0.25000000000000000        0.0000000000000000     
   1.0000000000000000       0.25000000000000000        0.0000000000000000     
   1.0000000000000000       0.12500000000000000        0.0000000000000000     
   1.0312500000000000       0.12500000000000000        0.0000000000000000     
   1.0625000000000000       0.12500000000000000        0.0000000000000000     
   1.0937500000000000       0.12500000000000000        0.0000000000000000     
   1.1250000000000000       0.12500000000000000        0.0000000000000000     
   1.0000000000000000       0.15625000000000000        0.0000000000000000     
   1.0312500000000000       0.15625000000000000        0.0000000000000000     
   1.0625000000000000       0.15625000000000000        0.0000000000000000     
   1.0937500000000000       0.15625000000000000        0.0000000000000000     
   1.1250000000000000       0.15625000000000000        0.0000000000000000     
   1.0000000000000000       0.18750000000000000        0.0000000000000000     
   1.0312500000000000       0.18750000000000000        0.0000000000000000     
   1.0625000000000000       0.18750000000000000        0.0000000000000000     
   1.0937500000000000       0.18750000000000000        0.0000000000000000     
   1.1250000000000000       0.18750000000000000        0.0000000000000000     
   1.0000000000000000       0.21875000000000000        0.0000000000000000     
   1.0312500000000000       0.21875000000000000        0.0000000000000000     
   1.0625000000000000       0.21875000000000000        0.0000000000000000     
   1.0937500000000000       0.21875000000000000        0.0000000000000000     
   1.1250000000000000       0.21875000000000000        0.0000000000000000     
   1.0000000000000000       0.25000000000000000        0.0000000000000000     
   1.0312500000000000       0.25000000000000000        0.0000000000000000     
   1.0625000000000000       0.25000000000000000        0.0000000000000000     
   1.0937500000000000       0.25000000000000000        0.0000000000000000     
   1.1250000000000000       0.25000000000000000        0.0000000000000000     
   1.1250000000000000       0.12500000000000000        0.0000000000000000     
   1.1562500000000000       0.12500000000000000        0.0000000000000000     
   1.1875000000000000       0.12500000000000000        0.0000000000000000     
   1.2187500000000000       0.12500000000000000        0.0000000000000000     
   1.2500000000000000       0.12500000000000000        0.0000000000000000     
   1.1250000000000000       0.15625000000000000        0.0000000000000000     
   1.1562500000000000       0.15625000000000000        0.0000000000000000     
   1.1875000000000000       0.15625000000000000        0.0000000000000000     
   1.2187500000000000       0.15625000000000000        0.0000000000000000     
   1.2500000000000000       0.15625000000000000        0.0000000000000000     
   1.1250000000000000       0.18750000000000000        0.0000000000000000     
   1.1562500000000000       0.18750000000000000        0.0000000000000000     
   1.1875000000000000       0.18750000000000000        0.0000000000000000     
   1.2187500000000000       0.18750000000000000        0.0000000000000000     
   1.2500000000000000       0.18750000000000000        0.0000000000000000     
   1.1250000000000000       0.21875000000000000        0.0000000000000000     
   1.1562500000000000       0.21875000000000000        0.0000000000000000     
   1.1875000000000000       0.21875000000000000        0.0000000000000000     
   1.2187500000000000       0.21875000000000000        0.0000000000000000     
   1.2500000000000000       0.21875000000000000        0.0000000000000000     
   1.1250000000000000       0.25000000000000000        0.0000000000000000     
   1.1562500000000000       0.25000000000000000        0.0000000000000000     
   1.1875000000000000       0.25000000000000000        0.0000000000000000     
   1.2187500000000000       0.25000000000000000        0.0000000000000000     
   1.2500000000000000       0.25000000000000000        0.0000000000000000     
   1.2500000000000000       0.12500000000000000        0.0000000000000000     
   1.2812500000000000       0.12500000000000000        0.0000000000000000     
   1.3125000000000000       0.12500000000000000        0.0000000000000000     
   1.3437500000000000       0.12500000000000000        0.0000000000000000     
   1.3750000000000000       0.12500000000000000        0.0000000000000000     
   1.2500000000000000       0.15625000000000000        0.0000000000000000     
   1.2812500000000000       0.15625000000000000        0.0000000000000000     
   1.3125000000000000       0.15625000000000000        0.0000000000000000     
   1.3437500000000000       0.15625000000000000        0.0000000000000000     
   1.3750000000000000       0.15625000000000000        0.0000000000000000     
   1.2500000000000000       0.18750000000000000        0.0000000000000000     
   1.2812500000000000       0.18750000000000000        0.0000000000000000     
   1.3125000000000000       0.18750000000000000        0.0000000000000000     
   1.3437500000000000       0.18750000000000000        0.0000000000000000     
   1.3750000000000000       0.18750000000000000        0.0000000000000000     
   1.2500000000000000       0.21875000000000000        0.0000000000000000     
   1.2812500000000000       0.21875000000000000        0.0000000000000000     
   1.3125000000000000       0.21875000000000000        0.0000000000000000     
   1.3437500000000000       0.21875000000000000        0.0000000000000000     
   1.3750000000000000       0.21875000000000000        0.0000000000000000     
   1.2500000000000000       0.25000000000000000        0.0000000000000000     
   1.2812500000000000       0.25000000000000000        0.0000000000000000     
   1.3125000000000000       0.25000000000000000        0.0000000000000000     
   1.3437500000000000       0.25000000000000000        0.0000000000000000     
   1.3750000000000000       0.25000000000000000        0.0000000000000000     
   1.3750000000000000       0.12500000000000000        0.0000000000000000     
   1.4062500000000000       0.12500000000000000        0.0000000000000000     
   1.4375000000000000       0.12500000000000000        0.0000000000000000     
   1.4687500000000000       0.12500000000000000        0.0000000000000000     
   1.5000000000000000       0.12500000000000000        0.0000000000000000     
   1.3750000000000000       0.15625000000000000        0.0000000000000000     
   1.4062500000000000       0.15625000000000000        0.0000000000000000     
   1.4375000000000000       0.15625000000000000        0.0000000000000000     
   1.4687500000000000       0.15625000000000000        0.0000000000000000     
   1.5000000000000000       0.15625000000000000        0.0000000000000000     
   1.3750000000000000       0.18750000000000000        0.0000000000000000     
   1.4062500000000000       0.18750000000000000        0.0000000000000000     
   1.4375000000000000       0.18750000000000000        0.0000000000000000     
   1.4687500000000000       0.18750000000000000        0.0000000000000000     
   1.5000000000000000       0.18750000000000000        0.0000000000000000     
   1.3750000000000000       0.21875000000000000        0.0000000000000000     
   1.4062500000000000       0.21875000000000000        0.0000000000000000     
   1.4375000000000000       0.21875000000000000        0.0000000000000000     
   1.4687500000000000       0.21875000000000000        0.0000000000000000     
   1.5000000000000000       0.21875000000000000        0.0000000000000000     
   1.3750000000000000       0.25000000000000000        0.0000000000000000     
   1.4062500000000000       0.25000000000000000        0.0000000000000000     
   1.4375000000000000       0.25000000000000000        0.0000000000000000     
   1.4687500000000000       0.25000000000000000        0.0000000000000000     
   1.5000000000000000       0.25000000000000000        0.0000000000000000     
  0.50000000000000000       0.25000000000000000        0.0000000000000000     
  0.53125000000000000       0.25000000000000000        0.0000000000000000     
  0.56250000000000000       0.25000000000000000        0.0000000000000000     
  0.59375000000000000       0.25000000000000000        0.0000000000000000     
  0.62500000000000000       0.25000000000000000        0.0000000000000000     
  0.50000000000000000       0.28125000000000000        0.0000000000000000     
  0.53125000000000000       0.28125000000000000        0.0000000000000000     
  0.56250000000000000       0.28125000000000000        0.0000000000000000     
  0.59375000000000000       0.28125000000000000        0.0000000000000000     
  0.62500000000000000       0.28125000000000000        0.0000000000000000     
  0.50000000000000000       0.31250000000000000        0.0000000000000000     
  0.53125000000000000       0.31250000000000000        0.0000000000000000     
  0.56250000000000000       0.31250000000000000        0.0000000000000000     
  0.59375000000000000       0.31250000000000000        0.0000000000000000     
  0.62500000000000000       0.31250000000000000        0.0000000000000000     
  0.50000000000000000       0.34375000000000000        0.0000000000000000     
  0.53125000000000000       0.34375000000000000        0.0000000000000000     
  0.56250000000000000       0.34375000000000000        0.0000000000000000     
  0.59375000000000000       0.34375000000000000        0.0000000000000000     
  0.62500000000000000       0.34375000000000000        0.0000000000000000     
  0.50000000000000000       0.37500000000000000        0.0000000000000000     
  0.53125000000000000       0.37500000000000000        0.0000000000000000     
  0.56250000000000000       0.37500000000000000        0.0000000000000000     
  0.59375000000000000       0.37500000000000000        0.0000000000000000     
  0.62500000000000000       0.37500000000000000        0.0000000000000000     
  0.62500000000000000       0.25000000000000000        0.0000000000000000     
  0.65625000000000000       0.25000000000000000        0.0000000000000000     
  0.68750000000000000       0.25000000000000000        0.0000000000000000     
  0.71875000000000000       0.25000000000000000        0.0000000000000000     
  0.75000000000000000       0.25000000000000000        0.0000000000000000     
  0.62500000000000000       0.28125000000000000        0.0000000000000000     
  0.65625000000000000       0.28125000000000000        0.0000000000000000     
  0.68750000000000000       0.28125000000000000        0.0000000000000000     
  0.71875000000000000       0.28125000000000000        0.0000000000000000     
  0.75000000000000000       0.28125000000000000        0.0000000000000000     
  0.62500000000000000       0.31250000000000000        0.0000000000000000     
  0.65625000000000000       0.31250000000000000        0.0000000000000000     
  0.68750000000000000       0.31250000000000000        0.0000000000000000     
  0.71875000000000000       0.31250000000000000        0.0000000000000000     
  0.75000000000000000       0.31250000000000000        0.0000000000000000     
  0.62500000000000000       0.34375000000000000        0.0000000000000000     
  0.65625000000000000       0.34375000000000000        0.0000000000000000     
  0.68750000000000000       0.34375000000000000        0.0000000000000000     
  0.71875000000000000       0.34375000000000000        0.0000000000000000     
  0.75000000000000000       0.34375000000000000        0.0000000000000000     
  0.62500000000000000       0.37500000000000000        0.0000000000000000     
  0.65625000000000000       0.37500000000000000        0.0000000000000000     
  0.68750000000000000       0.37500000000000000        0.0000000000000000     
  0.71875000000000000       0.37500000000000000        0.0000000000000000     
  0.75000000000000000       0.37500000000000000        0.0000000000000000     
  0.75000000000000000       0.25000000000000000        0.0000000000000000     
  0.78125000000000000       0.25000000000000000        0.0000000000000000     
  0.81250000000000000       0.25000000000000000        0.0000000000000000     
  0.84375000000000000       0.25000000000000000        0.0000000000000000     
  0.87500000000000000       0.25000000000000000        0.0000000000000000     
  0.75000000000000000       0.28125000000000000        0.0000000000000000     
  0.78125000000000000       0.28125000000000000        0.0000000000000000     
  0.81250000000000000       0.28125000000000000        0.0000000000000000     
  0.84375000000000000       0.28125000000000000        0.0000000000000000     
  0.87500000000000000       0.28125000000000000        0.0000000000000000     
  0.75000000000000000       0.31250000000000000        0.0000000000000000     
  0.78125000000000000       0.31250000000000000        0.0000000000000000     
  0.81250000000000000       0.31250000000000000        0.0000000000000000     
  0.84375000000000000       0.31250000000000000        0.0000000000000000     
  0.87500000000000000       0.31250000000000000        0.0000000000000000     
  0.75000000000000000       0.34375000000000000        0.0000000000000000     
  0.78125000000000000       0.34375000000000000        0.0000000000000000     
  0.81250000000000000       0.34375000000000000        0.0000000000000000     
  0.84375000000000000       0.34375000000000000        0.0000000000000000     
  0.87500000000000000       0.34375000000000000        0.0000000000000000     
  0.75000000000000000       0.37500000000000000        0.0000000000000000     
  0.78125000000000000       0.37500000000000000        0.0000000000000000     
  0.81250000000000000       0.37500000000000000        0.0000000000000000     
  0.84375000000000000       0.37500000000000000        0.0000000000000000     
  0.87500000000000000       0.37500000000000000        0.0000000000000000     
  0.87500000000000000       0.25000000000000000        0.0000000000000000     
  0.90625000000000000       0.25000000000000000        0.0000000000000000     
  0.93750000000000000       0.25000000000000000        0.0000000000000000     
  0.96875000000000000       0.25000000000000000        0.0000000000000000     
   1.0000000000000000       0.25000000000000000        0.0000000000000000     
  0.87500000000000000       0.28125000000000000        0.0000000000000000     
  0.90625000000000000       0.28125000000000000        0.0000000000000000     
  0.93750000000000000       0.28125000000000000        0.0000000000000000     
  0.96875000000000000       0.28125000000000000        0.0000000000000000     
   1.0000000000000000       0.28125000000000000        0.0000000000000000     
  0.87500000000000000       0.31250000000000000        0.0000000000000000     
  0.90625000000000000       0.31250000000000000        0.0000000000000000     
  0.93750000000000000       0.31250000000000000        0.0000000000000000     
  0.96875000000000000       0.31250000000000000        0.0000000000000000     
   1.0000000000000000       0.31250000000000000        0.0000000000000000     
  0.87500000000000000       0.34375000000000000        0.0000000000000000     
  0.90625000000000000       0.34375000000000000        0.0000000000000000     
  0.93750000000000000       0.34375000000000000        0.0000000000000000     
  0.96875000000000000       0.34375000000000000        0.0000000000000000     
   1.0000000000000000       0.34375000000000000        0.0000000000000000     
  0.87500000000000000       0.37500000000000000        0.0000000000000000     
  0.90625000000000000       0.37500000000000000        0.0000000000000000     
  0.93750000000000000       0.37500000000000000        0.0000000000000000     
  0.96875000000000000       0.37500000000000000        0.0000000000000000     
   1.0000000000000000       0.37500000000000000        0.0000000000000000     
   1.0000000000000000       0.25000000000000000        0.0000000000000000     
   1.0312500000000000       0.25000000000000000        0.0000000000000000     
   1.0625000000000000       0.25000000000000000        0.0000000000000000     
   1.0937500000000000       0.25000000000000000        0.0000000000000000     
   1.1250000000000000       0.25000000000000000        0.0000000000000000     
   1.0000000000000000       0.28125000000000000        0.0000000000000000     
   1.0312500000000000       0.28125000000000000        0.0000000000000000     
   1.0625000000000000       0.28125000000000000        0.0000000000000000     
   1.0937500000000000       0.28125000000000000        0.0000000000000000     
   1.1250000000000000       0.28125000000000000        0.0000000000000000     
   1.0000000000000000       0.31250000000000000        0.0000000000000000     
   1.0312500000000000       0.31250000000000000        0.0000000000000000     
   1.0625000000000000       0.31250000000000000        0.0000000000000000     
   1.0937500000000000       0.31250000000000000        0.0000000000000000     
   1.1250000000000000       0.31250000000000000        0.0000000000000000     
   1.0000000000000000       0.34375000000000000        0.0000000000000000     
   1.0312500000000000       0.34375000000000000        0.0000000000000000     
   1.0625000000000000       0.34375000000000000        0.0000000000000000     
   1.0937500000000000       0.34375000000000000        0.0000000000000000     
   1.1250000000000000       0.34375000000000000        0.0000000000000000     
   1.0000000000000000       0.37500000000000000        0.0000000000000000     
   1.0312500000000000       0.37500000000000000        0.0000000000000000     
   1.0625000000000000       0.37500000000000000        0.0000000000000000     
   1.0937500000000000       0.37500000000000000        0.0000000000000000     
   1.1250000000000000       0.37500000000000000        0.0000000000000000     
   1.1250000000000000       0.25000000000000000        0.0000000000000000     
   1.1562500000000000       0.25000000000000000        0.0000000000000000     
   1.1875000000000000       0.25000000000000000        0.0000000000000000     
   1.2187500000000000       0.25000000000000000        0.0000000000000000     
   1.2500000000000000       0.25000000000000000        0.0000000000000000     
   1.1250000000000000       0.28125000000000000        0.0000000000000000     
   1.1562500000000000       0.28125000000000000        0.0000000000000000     
   1.1875000000000000       0.28125000000000000        0.0000000000000000     
   1.2187500000000000       0.28125000000000000        0.0000000000000000     
   1.2500000000000000       0.28125000000000000        0.0000000000000000     
   1.1250000000000000       0.31250000000000000        0.0000000000000000     
   1.1562500000000000       0.31250000000000000        0.0000000000000000     
   1.1875000000000000       0.31250000000000000        0.0000000000000000     
   1.2187500000000000       0.31250000000000000        0.0000000000000000     
   1.2500000000000000       0.31250000000000000        0.0000000000000000     
   1.1250000000000000       0.34375000000000000        0.0000000000000000     
   1.1562500000000000       0.34375000000000000        0.0000000000000000     
   1.1875000000000000       0.34375000000000000        0.0000000000000000     
   1.2187500000000000       0.34375000000000000        0.0000000000000000     
   1.2500000000000000       0.34375000000000000        0.0000000000000000     
   1.1250000000000000       0.37500000000000000        0.0000000000000000     
   1.1562500000000000       0.37500000000000000        0.0000000000000000     
   1.1875000000000000       0.37500000000000000        0.0000000000000000     
   1.2187500000000000       0.37500000000000000        0.0000000000000000     
   1.2500000000000000       0.37500000000000000        0.0000000000000000     
   1.2500000000000000       0.25000000000000000        0.0000000000000000     
   1.2812500000000000       0.25000000000000000        0.0000000000000000     
   1.3125000000000000       0.25000000000000000        0.0000000000000000     
   1.3437500000000000       0.25000000000000000        0.0000000000000000     
   1.3750000000000000       0.25000000000000000        0.0000000000000000     
   1.2500000000000000       0.28125000000000000        0.0000000000000000     
   1.2812500000000000       0.28125000000000000        0.0000000000000000     
   1.3125000000000000       0.28125000000000000        0.0000000000000000     
   1.3437500000000000       0.28125000000000000        0.0000000000000000     
   1.3750000000000000       0.28125000000000000        0.0000000000000000     
   1.2500000000000000       0.31250000000000000        0.0000000000000000     
   1.2812500000000000       0.31250000000000000        0.0000000000000000     
   1.3125000000000000       0.31250000000000000        0.0000000000000000     
   1.3437500000000000       0.31250000000000000        0.0000000000000000     
   1.3750000000000000       0.31250000000000000        0.0000000000000000     
   1.2500000000000000       0.34375000000000000        0.0000000000000000     
   1.2812500000000000       0.34375000000000000        0.0000000000000000     
   1.3125000000000000       0.34375000000000000        0.0000000000000000     
   1.3437500000000000       0.34375000000000000        0.0000000000000000     
   1.3750000000000000       0.34375000000000000        0.0000000000000000     
   1.2500000000000000       0.37500000000000000        0.0000000000000000     
   1.2812500000000000       0.37500000000000000        0.0000000000000000     
   1.3125000000000000       0.37500000000000000        0.0000000000000000     
   1.3437500000000000       0.37500000000000000        0.0000000000000000     
   1.3750000000000000       0.37500000000000000        0.0000000000000000     
   1.3750000000000000       0.25000000000000000        0.0000000000000000     
   1.4062500000000000       0.25000000000000000        0.0000000000000000     
   1.4375000000000000       0.25000000000000000        0.0000000000000000     
   1.4687500000000000       0.25000000000000000        0.0000000000000000     
   1.5000000000000000       0.25000000000000000        0.0000000000000000     
   1.3750000000000000       0.28125000000000000        0.0000000000000000     
   1.4062500000000000       0.28125000000000000        0.0000000000000000     
   1.4375000000000000       0.28125000000000000        0.0000000000000000     
   1.4687500000000000       0.28125000000000000        0.0000000000000000     
   1.5000000000000000       0.28125000000000000        0.0000000000000000     
   1.3750000000000000       0.31250000000000000        0.0000000000000000     
   1.4062500000000000       0.31250000000000000        0.0000000000000000     
   1.4375000000000000       0.31250000000000000        0.0000000000000000     
   1.4687500000000000       0.31250000000000000        0.0000000000000000     
   1.5000000000000000       0.31250000000000000        0.0000000000000000     
   1.3750000000000000       0.34375000000000000        0.0000000000000000     
   1.4062500000000000       0.34375000000000000        0.0000000000000000     
   1.4375000000000000       0.34375000000000000        0.0000000000000000     
   1.4687500000000000       0.34375000000000000        0.0000000000000000     
   1.5000000000000000       0.34375000000000000        0.0000000000000000     
   1.3750000000000000       0.37500000000000000        0.0000000000000000     
   1.4062500000000000       0.37500000000000000        0.0000000000000000     
   1.4375000000000000       0.37500000000000000        0.0000000000000000     
   1.4687500000000000       0.37500000000000000        0.0000000000000000     
   1.5000000000000000       0.37500000000000000        0.0000000000000000     
  0.50000000000000000       0.37500000000000000        0.0000000000000000     
  0.53125000000000000       0.37500000000000000        0.0000000000000000     
  0.56250000000000000       0.37500000000000000        0.0000000000000000     
  0.59375000000000000       0.37500000000000000        0.0000000000000000     
  0.62500000000000000       0.37500000000000000        0.0000000000000000     
  0.50000000000000000       0.40625000000000000        0.0000000000000000     
  0.53125000000000000       0.40625000000000000        0.0000000000000000     
  0.56250000000000000       0.40625000000000000        0.0000000000000000     
  0.59375000000000000       0.40625000000000000        0.0000000000000000     
  0.62500000000000000       0.40625000000000000        0.0000000000000000     
  0.50000000000000000       0.43750000000000000        0.0000000000000000     
  0.53125000000000000       0.43750000000000000        0.0000000000000000     
  0.56250000000000000       0.43750000000000000        0.0000000000000000     
  0.59375000000000000       0.43750000000000000        0.0000000000000000     
  0.62500000000000000       0.43750000000000000        0.0000000000000000     
  0.50000000000000000       0.46875000000000000        0.0000000000000000     
  0.53125000000000000       0.46875000000000000        0.0000000000000000     
  0.56250000000000000       0.46875000000000000        0.0000000000000000     
  0.59375000000000000       0.46875000000000000        0.0000000000000000     
  0.62500000000000000       0.46875000000000000        0.0000000000000000     
  0.50000000000000000       0.50000000000000000        0.0000000000000000     
  0.53125000000000000       0.50000000000000000        0.0000000000000000     
  0.56250000000000000       0.50000000000000000        0.0000000000000000     
  0.59375000000000000       0.50000000000000000        0.0000000000000000     
  0.62500000000000000       0.50000000000000000        0.0000000000000000     
  0.62500000000000000       0.37500000000000000        0.0000000000000000     
  0.65625000000000000       0.37500000000000000        0.0000000000000000     
  0.68750000000000000       0.37500000000000000        0.0000000000000000     
  0.71875000000000000       0.37500000000000000        0.0000000000000000     
  0.75000000000000000       0.37500000000000000        0.0000000000000000     
  0.62500000000000000       0.40625000000000000        0.0000000000000000     
  0.65625000000000000       0.40625000000000000        0.0000000000000000     
  0.68750000000000000       0.40625000000000000        0.0000000000000000     
  0.71875000000000000       0.40625000000000000        0.0000000000000000     
  0.75000000000000000       0.40625000000000000        0.0000000000000000     
  0.62500000000000000       0.43750000000000000        0.0000000000000000     
  0.65625000000000000       0.43750000000000000        0.0000000000000000     
  0.68750000000000000       0.43750000000000000        0.0000000000000000     
  0.71875000000000000       0.43750000000000000        0.0000000000000000     
  0.75000000000000000       0.43750000000000000        0.0000000000000000     
  0.62500000000000000       0.46875000000000000        0.0000000000000000     
  0.65625000000000000       0.46875000000000000        0.0000000000000000     
  0.68750000000000000       0.46875000000000000        0.0000000000000000     
  0.71875000000000000       0.46875000000000000        0.0000000000000000     
  0.75000000000000000       0.46875000000000000        0.0000000000000000     
  0.62500000000000000       0.50000000000000000        0.0000000000000000     
  0.65625000000000000       0.50000000000000000        0.0000000000000000     
  0.68750000000000000       0.50000000000000000        0.0000000000000000     
  0.71875000000000000       0.50000000000000000        0.0000000000000000     
  0.75000000000000000       0.50000000000000000        0.0000000000000000     
  0.75000000000000000       0.37500000000000000        0.0000000000000000     
  0.78125000000000000       0.37500000000000000        0.0000000000000000     
  0.81250000000000000       0.37500000000000000        0.0000000000000000     
  0.84375000000000000       0.37500000000000000        0.0000000000000000     
  0.87500000000000000       0.37500000000000000        0.0000000000000000     
  0.75000000000000000       0.40625000000000000        0.0000000000000000     
  0.78125000000000000       0.40625000000000000        0.0000000000000000     
  0.81250000000000000       0.40625000000000000        0.0000000000000000     
  0.84375000000000000       0.40625000000000000        0.0000000000000000     
  0.87500000000000000       0.40625000000000000        0.0000000000000000     
  0.75000000000000000       0.43750000000000000        0.0000000000000000     
  0.78125000000000000       0.43750000000000000        0.0000000000000000     
  0.81250000000000000       0.43750000000000000        0.0000000000000000     
  0.84375000000000000       0.43750000000000000        0.0000000000000000     
  0.87500000000000000       0.43750000000000000        0.0000000000000000     
  0.75000000000000000       0.46875000000000000        0.0000000000000000     
  0.78125000000000000       0.46875000000000000        0.0000000000000000     
  0.81250000000000000       0.46875000000000000        0.0000000000000000     
  0.84375000000000000       0.46875000000000000        0.0000000000000000     
  0.87500000000000000       0.46875000000000000        0.0000000000000000     
  0.75000000000000000       0.50000000000000000        0.0000000000000000     
  0.78125000000000000       0.50000000000000000        0.0000000000000000     
  0.81250000000000000       0.50000000000000000        0.0000000000000000     
  0.84375000000000000       0.50000000000000000        0.0000000000000000     
  0.87500000000000000       0.50000000000000000        0.0000000000000000     
  0.87500000000000000       0.37500000000000000        0.0000000000000000     
  0.90625000000000000       0.37500000000000000        0.0000000000000000     
  0.93750000000000000       0.37500000000000000        0.0000000000000000     
  0.96875000000000000       0.37500000000000000        0.0000000000000000     
   1.0000000000000000       0.37500000000000000        0.0000000000000000     
  0.87500000000000000       0.40625000000000000        0.0000000000000000     
  0.90625000000000000       0.40625000000000000        0.0000000000000000     
  0.93750000000000000       0.40625000000000000        0.0000000000000000     
  0.96875000000000000       0.40625000000000000        0.0000000000000000     
   1.0000000000000000       0.40625000000000000        0.0000000000000000     
  0.87500000000000000       0.43750000000000000        0.0000000000000000     
  0.90625000000000000       0.43750000000000000        0.0000000000000000     
  0.93750000000000000       0.43750000000000000        0.0000000000000000     
  0.96875000000000000       0.43750000000000000        0.0000000000000000     
   1.0000000000000000       0.43750000000000000        0.0000000000000000     
  0.87500000000000000       0.46875000000000000        0.0000000000000000     
  0.90625000000000000       0.46875000000000000        0.0000000000000000     
  0.93750000000000000       0.46875000000000000        0.0000000000000000     
  0.96875000000000000       0.46875000000000000        0.0000000000000000     
   1.0000000000000000       0.46875000000000000        0.0000000000000000     
  0.87500000000000000       0.50000000000000000        0.0000000000000000     
  0.90625000000000000       0.50000000000000000        0.0000000000000000     
  0.93750000000000000       0.50000000000000000        0.0000000000000000     
  0.96875000000000000       0.50000000000000000        0.0000000000000000     
   1.0000000000000000       0.50000000000000000        0.0000000000000000     
   1.0000000000000000       0.37500000000000000        0.0000000000000000     
   1.0312500000000000       0.37500000000000000        0.0000000000000000     
   1.0625000000000000       0.37500000000000000        0.0000000000000000     
   1.0937500000000000       0.37500000000000000        0.0000000000000000     
   1.1250000000000000       0.37500000000000000        0.0000000000000000     
   1.0000000000000000       0.40625000000000000        0.0000000000000000     
   1.0312500000000000       0.40625000000000000        0.0000000000000000     
   1.0625000000000000       0.40625000000000000        0.0000000000000000     
   1.0937500000000000       0.40625000000000000        0.0000000000000000     
   1.1250000000000000       0.40625000000000000        0.0000000000000000     
   1.0000000000000000       0.43750000000000000        0.0000000000000000     
   1.0312500000000000       0.43750000000000000        0.0000000000000000     
   1.0625000000000000       0.43750000000000000        0.0000000000000000     
   1.0937500000000000       0.43750000000000000        0.0000000000000000     
   1.1250000000000000       0.43750000000000000        0.0000000000000000     
   1.0000000000000000       0.46875000000000000        0.0000000000000000     
   1.0312500000000000       0.46875000000000000        0.0000000000000000     
   1.0625000000000000       0.46875000000000000        0.0000000000000000     
   1.0937500000000000       0.46875000000000000        0.0000000000000000     
   1.1250000000000000       0.46875000000000000        0.0000000000000000     
   1.0000000000000000       0.50000000000000000        0.0000000000000000     
   1.0312500000000000       0.50000000000000000        0.0000000000000000     
   1.0625000000000000       0.50000000000000000        0.0000000000000000     
   1.0937500000000000       0.50000000000000000        0.0000000000000000     
   1.1250000000000000       0.50000000000000000        0.0000000000000000     
   1.1250000000000000       0.37500000000000000        0.0000000000000000     
   1.1562500000000000       0.37500000000000000        0.0000000000000000     
   1.1875000000000000       0.37500000000000000        0.0000000000000000     
   1.2187500000000000       0.37500000000000000        0.0000000000000000     
   1.2500000000000000       0.37500000000000000        0.0000000000000000     
   1.1250000000000000       0.40625000000000000        0.0000000000000000     
   1.1562500000000000       0.40625000000000000        0.0000000000000000     
   1.1875000000000000       0.40625000000000000        0.0000000000000000     
   1.2187500000000000       0.40625000000000000        0.0000000000000000     
   1.2500000000000000       0.40625000000000000        0.0000000000000000     
   1.1250000000000000       0.43750000000000000        0.0000000000000000     
   1.1562500000000000       0.43750000000000000        0.0000000000000000     
   1.1875000000000000       0.43750000000000000        0.0000000000000000     
   1.2187500000000000       0.43750000000000000        0.0000000000000000     
   1.2500000000000000       0.43750000000000000        0.0000000000000000     
   1.1250000000000000       0.46875000000000000        0.0000000000000000     
   1.1562500000000000       0.46875000000000000        0.0000000000000000     
   1.1875000000000000       0.46875000000000000        0.0000000000000000     
   1.2187500000000000       0.46875000000000000        0.0000000000000000     
   1.2500000000000000       0.46875000000000000        0.0000000000000000     
   1.1250000000000000       0.50000000000000000        0.0000000000000000     
   1.1562500000000000       0.50000000000000000        0.0000000000000000     
   1.1875000000000000       0.50000000000000000        0.0000000000000000     
   1.2187500000000000       0.50000000000000000        0.0000000000000000     
   1.2500000000000000       0.50000000000000000        0.0000000000000000     
   1.2500000000000000       0.37500000000000000        0.0000000000000000     
   1.2812500000000000       0.37500000000000000        0.0000000000000000     
   1.3125000000000000       0.37500000000000000        0.0000000000000000     
   1.3437500000000000       0.37500000000000000        0.0000000000000000     
   1.3750000000000000       0.37500000000000000        0.0000000000000000     
   1.2500000000000000       0.40625000000000000        0.0000000000000000     
   1.2812500000000000       0.40625000000000000        0.0000000000000000     
   1.3125000000000000       0.40625000000000000        0.0000000000000000     
   1.3437500000000000       0.40625000000000000        0.0000000000000000     
   1.3750000000000000       0.40625000000000000        0.0000000000000000     
   1.2500000000000000       0.43750000000000000        0.0000000000000000     
   1.2812500000000000       0.43750000000000000        0.0000000000000000     
   1.3125000000000000       0.43750000000000000        0.0000000000000000     
   1.3437500000000000       0.43750000000000000        0.0000000000000000     
   1.3750000000000000       0.43750000000000000        0.0000000000000000     
   1.2500000000000000       0.46875000000000000        0.0000000000000000     
   1.2812500000000000       0.46875000000000000        0.0000000000000000     
   1.3125000000000000       0.46875000000000000        0.0000000000000000     
   1.3437500000000000       0.46875000000000000        0.0000000000000000     
   1.3750000000000000       0.46875000000000000        0.0000000000000000     
   1.2500000000000000       0.50000000000000000        0.0000000000000000     
   1.2812500000000000       0.50000000000000000        0.0000000000000000     
   1.3125000000000000       0.50000000000000000        0.0000000000000000     
   1.3437500000000000       0.50000000000000000        0.0000000000000000     
   1.3750000000000000       0.50000000000000000        0.0000000000000000     
   1.3750000000000000       0.37500000000000000        0.0000000000000000     
   1.4062500000000000       0.37500000000000000        0.0000000000000000     
   1.4375000000000000       0.37500000000000000        0.0000000000000000     
   1.4687500000000000       0.37500000000000000        0.0000000000000000     
   1.5000000000000000       0.37500000000000000        0.0000000000000000     
   1.3750000000000000       0.40625000000000000        0.0000000000000000     
   1.4062500000000000       0.40625000000000000        0.0000000000000000     
   1.4375000000000000       0.40625000000000000        0.0000000000000000     
   1.4687500000000000       0.40625000000000000        0.0000000000000000     
   1.5000000000000000       0.40625000000000000        0.0000000000000000     
   1.3750000000000000       0.43750000000000000        0.0000000000000000     
   1.4062500000000000       0.43750000000000000        0.0000000000000000     
   1.4375000000000000       0.43750000000000000        0.0000000000000000     
   1.4687500000000000       0.43750000000000000        0.0000000000000000     
   1.5000000000000000       0.43750000000000000        0.0000000000000000     
   1.3750000000000000       0.46875000000000000        0.0000000000000000     
   1.4062500000000000       0.46875000000000000        0.0000000000000000     
   1.4375000000000000       0.46875000000000000        0.0000000000000000     
   1.4687500000000000       0.46875000000000000        0.0000000000000000     
   1.5000000000000000       0.46875000000000000        0.0000000000000000     
   1.3750000000000000       0.50000000000000000        0.0000000000000000     
   1.4062500000000000       0.50000000000000000        0.0000000000000000     
   1.4375000000000000       0.50000000000000000        0.0000000000000000     
   1.4687500000000000       0.50000000000000000        0.0000000000000000     
   1.5000000000000000       0.50000000000000000        0.0000000000000000     
  0.50000000000000000       0.50000000000000000        0.0000000000000000     
  0.53125000000000000       0.50000000000000000        0.0000000000000000     
  0.56250000000000000       0.50000000000000000        0.0000000000000000     
  0.59375000000000000       0.50000000000000000        0.0000000000000000     
  0.62500000000000000       0.50000000000000000        0.0000000000000000     
  0.50000000000000000       0.53125000000000000        0.0000000000000000     
  0.53125000000000000       0.53125000000000000        0.0000000000000000     
  0.56250000000000000       0.53125000000000000        0.0000000000000000     
  0.59375000000000000       0.53125000000000000        0.0000000000000000     
  0.62500000000000000       0.53125000000000000        0.0000000000000000     
  0.50000000000000000       0.56250000000000000        0.0000000000000000     
  0.53125000000000000       0.56250000000000000        0.0000000000000000     
  0.56250000000000000       0.56250000000000000        0.0000000000000000     
  0.59375000000000000       0.56250000000000000        0.0000000000000000     
  0.62500000000000000       0.56250000000000000        0.0000000000000000     
  0.50000000000000000       0.59375000000000000        0.0000000000000000     
  0.53125000000000000       0.59375000000000000        0.0000000000000000     
  0.56250000000000000       0.59375000000000000        0.0000000000000000     
  0.59375000000000000       0.59375000000000000        0.0000000000000000     
  0.62500000000000000       0.59375000000000000        0.0000000000000000     
  0.50000000000000000       0.62500000000000000        0.0000000000000000     
  0.53125000000000000       0.62500000000000000        0.0000000000000000     
  0.56250000000000000       0.62500000000000000        0.0000000000000000     
  0.59375000000000000       0.62500000000000000        0.0000000000000000     
  0.62500000000000000       0.62500000000000000        0.0000000000000000     
  0.62500000000000000       0.50000000000000000        0.0000000000000000     
  0.65625000000000000       0.50000000000000000        0.0000000000000000     
  0.68750000000000000       0.50000000000000000        0.0000000000000000     
  0.71875000000000000       0.50000000000000000        0.0000000000000000     
  0.75000000000000000       0.50000000000000000        0.0000000000000000     
  0.62500000000000000       0.53125000000000000        0.0000000000000000     
  0.65625000000000000       0.53125000000000000        0.0000000000000000     
  0.68750000000000000       0.53125000000000000        0.0000000000000000     
  0.71875000000000000       0.53125000000000000        0.0000000000000000     
  0.75000000000000000       0.53125000000000000        0.0000000000000000     
  0.62500000000000000       0.56250000000000000        0.0000000000000000     
  0.65625000000000000       0.56250000000000000        0.0000000000000000     
  0.68750000000000000       0.56250000000000000        0.0000000000000000     
  0.71875000000000000       0.56250000000000000        0.0000000000000000     
  0.75000000000000000       0.56250000000000000        0.0000000000000000     
  0.62500000000000000       0.59375000000000000        0.0000000000000000     
  0.65625000000000000       0.59375000000000000        0.0000000000000000     
  0.68750000000000000       0.59375000000000000        0.0000000000000000     
  0.71875000000000000       0.59375000000000000        0.0000000000000000     
  0.75000000000000000       0.59375000000000000        0.0000000000000000     
  0.62500000000000000       0.62500000000000000        0.0000000000000000     
  0.65625000000000000       0.62500000000000000        0.0000000000000000     
  0.68750000000000000       0.62500000000000000        0.0000000000000000     
  0.71875000000000000       0.62500000000000000        0.0000000000000000     
  0.75000000000000000       0.62500000000000000        0.0000000000000000     
  0.75000000000000000       0.50000000000000000        0.0000000000000000     
  0.78125000000000000       0.50000000000000000        0.0000000000000000     
  0.81250000000000000       0.50000000000000000        0.0000000000000000     
  0.84375000000000000       0.50000000000000000        0.0000000000000000     
  0.87500000000000000       0.50000000000000000        0.0000000000000000     
  0.75000000000000000       0.53125000000000000        0.0000000000000000     
  0.78125000000000000       0.53125000000000000        0.0000000000000000     
  0.81250000000000000       0.53125000000000000        0.0000000000000000     
  0.84375000000000000       0.53125000000000000        0.0000000000000000     
  0.87500000000000000       0.53125000000000000        0.0000000000000000     
  0.75000000000000000       0.56250000000000000        0.0000000000000000     
  0.78125000000000000       0.56250000000000000        0.0000000000000000     
  0.81250000000000000       0.56250000000000000        0.0000000000000000     
  0.84375000000000000       0.56250000000000000        0.0000000000000000     
  0.87500000000000000       0.56250000000000000        0.0000000000000000     
  0.75000000000000000       0.59375000000000000        0.0000000000000000     
  0.78125000000000000       0.59375000000000000        0.0000000000000000     
  0.81250000000000000       0.59375000000000000        0.0000000000000000     
  0.84375000000000000       0.59375000000000000        0.0000000000000000     
  0.87500000000000000       0.59375000000000000        0.0000000000000000     
  0.75000000000000000       0.62500000000000000        0.0000000000000000     
  0.78125000000000000       0.62500000000000000        0.0000000000000000     
  0.81250000000000000       0.62500000000000000        0.0000000000000000     
  0.84375000000000000       0.62500000000000000        0.0000000000000000     
  0.87500000000000000       0.62500000000000000        0.0000000000000000     
  0.87500000000000000       0.50000000000000000        0.0000000000000000     
  0.90625000000000000       0.50000000000000000        0.0000000000000000     
  0.93750000000000000       0.50000000000000000        0.0000000000000000     
  0.96875000000000000       0.50000000000000000        0.0000000000000000     
   1.0000000000000000       0.50000000000000000        0.0000000000000000     
  0.87500000000000000       0.53125000000000000        0.0000000000000000     
  0.90625000000000000       0.53125000000000000        0.0000000000000000     
  0.93750000000000000       0.53125000000000000        0.0000000000000000     
  0.96875000000000000       0.53125000000000000        0.0000000000000000     
   1.0000000000000000       0.53125000000000000        0.0000000000000000     
  0.87500000000000000       0.56250000000000000        0.0000000000000000     
  0.90625000000000000       0.56250000000000000        0.0000000000000000     
  0.93750000000000000       0.56250000000000000        0.0000000000000000     
  0.96875000000000000       0.56250000000000000        0.0000000000000000     
   1.0000000000000000       0.56250000000000000        0.0000000000000000     
  0.87500000000000000       0.59375000000000000        0.0000000000000000     
  0.90625000000000000       0.59375000000000000        0.0000000000000000     
  0.93750000000000000       0.59375000000000000        0.0000000000000000     
  0.96875000000000000       0.59375000000000000        0.0000000000000000     
   1.0000000000000000       0.59375000000000000        0.0000000000000000     
  0.87500000000000000       0.62500000000000000        0.0000000000000000     
  0.90625000000000000       0.62500000000000000        0.0000000000000000     
  0.93750000000000000       0.62500000000000000        0.0000000000000000     
  0.96875000000000000       0.62500000000000000        0.0000000000000000     
   1.0000000000000000       0.62500000000000000        0.0000000000000000     
   1.0000000000000000       0.50000000000000000        0.0000000000000000     
   1.0312500000000000       0.50000000000000000        0.0000000000000000     
   1.0625000000000000       0.50000000000000000        0.0000000000000000     
   1.0937500000000000       0.50000000000000000        0.0000000000000000     
   1.1250000000000000       0.50000000000000000        0.0000000000000000     
   1.0000000000000000       0.53125000000000000        0.0000000000000000     
   1.0312500000000000       0.53125000000000000        0.0000000000000000     
   1.0625000000000000       0.53125000000000000        0.0000000000000000     
   1.0937500000000000       0.53125000000000000        0.0000000000000000     
   1.1250000000000000       0.53125000000000000        0.0000000000000000     
   1.0000000000000000       0.56250000000000000        0.0000000000000000     
   1.0312500000000000       0.56250000000000000        0.0000000000000000     
   1.0625000000000000       0.56250000000000000        0.0000000000000000     
   1.0937500000000000       0.56250000000000000        0.0000000000000000     
   1.1250000000000000       0.56250000000000000        0.0000000000000000     
   1.0000000000000000       0.59375000000000000        0.0000000000000000     
   1.0312500000000000       0.59375000000000000        0.0000000000000000     
   1.0625000000000000       0.59375000000000000        0.0000000000000000     
   1.0937500000000000       0.59375000000000000        0.0000000000000000     
   1.1250000000000000       0.59375000000000000        0.0000000000000000     
   1.0000000000000000       0.62500000000000000        0.0000000000000000     
   1.0312500000000000       0.62500000000000000        0.0000000000000000     
   1.0625000000000000       0.62500000000000000        0.0000000000000000     
   1.0937500000000000       0.62500000000000000        0.0000000000000000     
   1.1250000000000000       0.62500000000000000        0.0000000000000000     
   1.1250000000000000       0.50000000000000000        0.0000000000000000     
   1.1562500000000000       0.50000000000000000        0.0000000000000000     
   1.1875000000000000       0.50000000000000000        0.0000000000000000     
   1.2187500000000000       0.50000000000000000        0.0000000000000000     
   1.2500000000000000       0.50000000000000000        0.0000000000000000     
   1.1250000000000000       0.53125000000000000        0.0000000000000000     
   1.1562500000000000       0.53125000000000000        0.0000000000000000     
   1.1875000000000000       0.53125000000000000        0.0000000000000000     
   1.2187500000000000       0.53125000000000000        0.0000000000000000     
   1.2500000000000000       0.53125000000000000        0.0000000000000000     
   1.1250000000000000       0.56250000000000000        0.0000000000000000     
   1.1562500000000000       0.56250000000000000        0.0000000000000000     
   1.1875000000000000       0.56250000000000000        0.0000000000000000     
   1.2187500000000000       0.56250000000000000        0.0000000000000000     
   1.2500000000000000       0.56250000000000000        0.0000000000000000     
   1.1250000000000000       0.59375000000000000        0.0000000000000000     
   1.1562500000000000       0.59375000000000000        0.0000000000000000     
   1.1875000000000000       0.59375000000000000        0.0000000000000000     
   1.2187500000000000       0.59375000000000000        0.0000000000000000     
   1.2500000000000000       0.59375000000000000        0.0000000000000000     
   1.1250000000000000       0.62500000000000000        0.0000000000000000     
   1.1562500000000000       0.62500000000000000        0.0000000000000000     
   1.1875000000000000       0.62500000000000000        0.0000000000000000     
   1.2187500000000000       0.62500000000000000        0.0000000000000000     
   1.2500000000000000       0.62500000000000000        0.0000000000000000     
   1.2500000000000000       0.50000000000000000        0.0000000000000000     
   1.2812500000000000       0.50000000000000000        0.0000000000000000     
   1.3125000000000000       0.50000000000000000        0.0000000000000000     
   1.3437500000000000       0.50000000000000000        0.0000000000000000     
   1.3750000000000000       0.50000000000000000        0.0000000000000000     
   1.2500000000000000       0.53125000000000000        0.0000000000000000     
   1.2812500000000000       0.53125000000000000        0.0000000000000000     
   1.3125000000000000       0.53125000000000000        0.0000000000000000     
   1.3437500000000000       0.53125000000000000        0.0000000000000000     
   1.3750000000000000       0.53125000000000000        0.0000000000000000     
   1.2500000000000000       0.56250000000000000        0.0000000000000000     
   1.2812500000000000       0.56250000000000000        0.0000000000000000     
   1.3125000000000000       0.56250000000000000        0.0000000000000000     
   1.3437500000000000       0.56250000000000000        0.0000000000000000     
   1.3750000000000000       0.56250000000000000        0.0000000000000000     
   1.2500000000000000       0.59375000000000000        0.0000000000000000     
   1.2812500000000000       0.59375000000000000        0.0000000000000000     
   1.3125000000000000       0.59375000000000000        0.0000000000000000     
   1.3437500000000000       0.59375000000000000        0.0000000000000000     
   1.3750000000000000       0.59375000000000000        0.0000000000000000     
   1.2500000000000000       0.62500000000000000        0.0000000000000000     
   1.2812500000000000       0.62500000000000000        0.0000000000000000     
   1.3125000000000000       0.62500000000000000        0.0000000000000000     
   1.3437500000000000       0.62500000000000000        0.0000000000000000     
   1.3750000000000000       0.62500000000000000        0.0000000000000000     
   1.3750000000000000       0.50000000000000000        0.0000000000000000     
   1.4062500000000000       0.50000000000000000        0.0000000000000000     
   1.4375000000000000       0.50000000000000000        0.0000000000000000     
   1.4687500000000000       0.50000000000000000        0.0000000000000000     
   1.5000000000000000       0.50000000000000000        0.0000000000000000     
   1.3750000000000000       0.53125000000000000        0.0000000000000000     
   1.4062500000000000       0.53125000000000000        0.0000000000000000     
   1.4375000000000000       0.53125000000000000        0.0000000000000000     
   1.4687500000000000       0.53125000000000000        0.0000000000000000     
   1.5000000000000000       0.53125000000000000        0.0000000000000000     
   1.3750000000000000       0.56250000000000000        0.0000000000000000     
   1.4062500000000000       0.56250000000000000        0.0000000000000000     
   1.4375000000000000       0.56250000000000000        0.0000000000000000     
   1.4687500000000000       0.56250000000000000        0.0000000000000000     
   1.5000000000000000       0.56250000000000000        0.0000000000000000     
   1.3750000000000000       0.59375000000000000        0.0000000000000000     
   1.4062500000000000       0.59375000000000000        0.0000000000000000     
   1.4375000000000000       0.59375000000000000        0.0000000000000000     
   1.4687500000000000       0.59375000000000000        0.0000000000000000     
   1.5000000000000000       0.59375000000000000        0.0000000000000000     
   1.3750000000000000       0.62500000000000000        0.0000000000000000     
   1.4062500000000000       0.62500000000000000        0.0000000000000000     
   1.4375000000000000       0.62500000000000000        0.0000000000000000     
   1.4687500000000000       0.62500000000000000        0.0000000000000000     
   1.5000000000000000       0.62500000000000000        0.0000000000000000     
  0.50000000000000000       0.62500000000000000        0.0000000000000000     
  0.53125000000000000       0.62500000000000000        0.0000000000000000     
  0.56250000000000000       0.62500000000000000        0.0000000000000000     
  0.59375000000000000       0.62500000000000000        0.0000000000000000     
  0.62500000000000000       0.62500000000000000        0.0000000000000000     
  0.50000000000000000       0.65625000000000000        0.0000000000000000     
  0.53125000000000000       0.65625000000000000        0.0000000000000000     
  0.56250000000000000       0.65625000000000000        0.0000000000000000     
  0.59375000000000000       0.65625000000000000        0.0000000000000000     
  0.62500000000000000       0.65625000000000000        0.0000000000000000     
  0.50000000000000000       0.68750000000000000        0.0000000000000000     
  0.53125000000000000       0.68750000000000000        0.0000000000000000     
  0.56250000000000000       0.68750000000000000        0.0000000000000000     
  0.59375000000000000       0.68750000000000000        0.0000000000000000     
  0.62500000000000000       0.68750000000000000        0.0000000000000000     
  0.50000000000000000       0.71875000000000000        0.0000000000000000     
  0.53125000000000000       0.71875000000000000        0.0000000000000000     
  0.56250000000000000       0.71875000000000000        0.0000000000000000     
  0.59375000000000000       0.71875000000000000        0.0000000000000000     
  0.62500000000000000       0.71875000000000000        0.0000000000000000     
  0.50000000000000000       0.75000000000000000        0.0000000000000000     
  0.53125000000000000       0.75000000000000000        0.0000000000000000     
  0.56250000000000000       0.75000000000000000        0.0000000000000000     
  0.59375000000000000       0.75000000000000000        0.0000000000000000     
  0.62500000000000000       0.75000000000000000        0.0000000000000000     
  0.62500000000000000       0.62500000000000000        0.0000000000000000     
  0.65625000000000000       0.62500000000000000        0.0000000000000000     
  0.68750000000000000       0.62500000000000000        0.0000000000000000     
  0.71875000000000000       0.62500000000000000        0.0000000000000000     
  0.75000000000000000       0.62500000000000000        0.0000000000000000     
  0.62500000000000000       0.65625000000000000        0.0000000000000000     
  0.65625000000000000       0.65625000000000000        0.0000000000000000     
  0.68750000000000000       0.65625000000000000        0.0000000000000000     
  0.71875000000000000       0.65625000000000000        0.0000000000000000     
  0.75000000000000000       0.65625000000000000        0.0000000000000000     
  0.62500000000000000       0.68750000000000000        0.0000000000000000     
  0.65625000000000000       0.68750000000000000        0.0000000000000000     
  0.68750000000000000       0.68750000000000000        0.0000000000000000     
  0.71875000000000000       0.68750000000000000        0.0000000000000000     
  0.75000000000000000       0.68750000000000000        0.0000000000000000     
  0.62500000000000000       0.71875000000000000        0.0000000000000000     
  0.65625000000000000       0.71875000000000000        0.0000000000000000     
  0.68750000000000000       0.71875000000000000        0.0000000000000000     
  0.71875000000000000       0.71875000000000000        0.0000000000000000     
  0.75000000000000000       0.71875000000000000        0.0000000000000000     
  0.62500000000000000       0.75000000000000000        0.0000000000000000     
  0.65625000000000000       0.75000000000000000        0.0000000000000000     
  0.68750000000000000       0.75000000000000000        0.0000000000000000     
  0.71875000000000000       0.75000000000000000        0.0000000000000000     
  0.75000000000000000       0.75000000000000000        0.0000000000000000     
  0.75000000000000000       0.62500000000000000        0.0000000000000000     
  0.78125000000000000       0.62500000000000000        0.0000000000000000     
  0.81250000000000000       0.62500000000000000        0.0000000000000000     
  0.84375000000000000       0.62500000000000000        0.0000000000000000     
  0.87500000000000000       0.62500000000000000        0.0000000000000000     
  0.75000000000000000       0.65625000000000000        0.0000000000000000     
  0.78125000000000000       0.65625000000000000        0.0000000000000000     
  0.81250000000000000       0.65625000000000000        0.0000000000000000     
  0.84375000000000000       0.65625000000000000        0.0000000000000000     
  0.87500000000000000       0.65625000000000000        0.0000000000000000     
  0.75000000000000000       0.68750000000000000        0.0000000000000000     
  0.78125000000000000       0.68750000000000000        0.0000000000000000     
  0.81250000000000000       0.68750000000000000        0.0000000000000000     
  0.84375000000000000       0.68750000000000000        0.0000000000000000     
  0.87500000000000000       0.68750000000000000        0.0000000000000000     
  0.75000000000000000       0.71875000000000000        0.0000000000000000     
  0.78125000000000000       0.71875000000000000        0.0000000000000000     
  0.81250000000000000       0.71875000000000000        0.0000000000000000     
  0.84375000000000000       0.71875000000000000        0.0000000000000000     
  0.87500000000000000       0.71875000000000000        0.0000000000000000     
  0.75000000000000000       0.75000000000000000        0.0000000000000000     
  0.78125000000000000       0.75000000000000000        0.0000000000000000     
  0.81250000000000000       0.75000000000000000        0.0000000000000000     
  0.84375000000000000       0.75000000000000000        0.0000000000000000     
  0.87500000000000000       0.75000000000000000        0.0000000000000000     
  0.87500000000000000       0.62500000000000000        0.0000000000000000     
  0.90625000000000000       0.62500000000000000        0.0000000000000000     
  0.93750000000000000       0.62500000000000000        0.0000000000000000     
  0.96875000000000000       0.62500000000000000        0.0000000000000000     
   1.0000000000000000       0.62500000000000000        0.0000000000000000     
  0.87500000000000000       0.65625000000000000        0.0000000000000000     
  0.90625000000000000       0.65625000000000000        0.0000000000000000     
  0.93750000000000000       0.65625000000000000        0.0000000000000000     
  0.96875000000000000       0.65625000000000000        0.0000000000000000     
   1.0000000000000000       0.65625000000000000        0.0000000000000000     
  0.87500000000000000       0.68750000000000000        0.0000000000000000     
  0.90625000000000000       0.68750000000000000        0.0000000000000000     
  0.93750000000000000       0.68750000000000000        0.0000000000000000     
  0.96875000000000000       0.68750000000000000        0.0000000000000000     
   1.0000000000000000       0.68750000000000000        0.0000000000000000     
  0.87500000000000000       0.71875000000000000        0.0000000000000000     
  0.90625000000000000       0.71875000000000000        0.0000000000000000     
  0.93750000000000000       0.71875000000000000        0.0000000000000000     
  0.96875000000000000       0.71875000000000000        0.0000000000000000     
   1.0000000000000000       0.71875000000000000        0.0000000000000000     
  0.87500000000000000       0.75000000000000000        0.0000000000000000     
  0.90625000000000000       0.75000000000000000        0.0000000000000000     
  0.93750000000000000       0.75000000000000000        0.0000000000000000     
  0.96875000000000000       0.75000000000000000        0.0000000000000000     
   1.0000000000000000       0.75000000000000000        0.0000000000000000     
   1.0000000000000000       0.62500000000000000        0.0000000000000000     
   1.0312500000000000       0.62500000000000000        0.0000000000000000     
   1.0625000000000000       0.62500000000000000        0.0000000000000000     
   1.0937500000000000       0.62500000000000000        0.0000000000000000     
   1.1250000000000000       0.62500000000000000        0.0000000000000000     
   1.0000000000000000       0.65625000000000000        0.0000000000000000     
   1.0312500000000000       0.65625000000000000        0.0000000000000000     
   1.0625000000000000       0.65625000000000000        0.0000000000000000     
   1.0937500000000000       0.65625000000000000        0.0000000000000000     
   1.1250000000000000       0.65625000000000000        0.0000000000000000     
   1.0000000000000000       0.68750000000000000        0.0000000000000000     
   1.0312500000000000       0.68750000000000000        0.0000000000000000     
   1.0625000000000000       0.68750000000000000        0.0000000000000000     
   1.0937500000000000       0.68750000000000000        0.0000000000000000     
   1.1250000000000000       0.68750000000000000        0.0000000000000000     
   1.0000000000000000       0.71875000000000000        0.0000000000000000     
   1.0312500000000000       0.71875000000000000        0.0000000000000000     
   1.0625000000000000       0.71875000000000000        0.0000000000000000     
   1.0937500000000000       0.71875000000000000        0.0000000000000000     
   1.1250000000000000       0.71875000000000000        0.0000000000000000     
   1.0000000000000000       0.75000000000000000        0.0000000000000000     
   1.0312500000000000       0.75000000000000000        0.0000000000000000     
   1.0625000000000000       0.75000000000000000        0.0000000000000000     
   1.0937500000000000       0.75000000000000000        0.0000000000000000     
   1.1250000000000000       0.75000000000000000        0.0000000000000000     
   1.1250000000000000       0.62500000000000000        0.0000000000000000     
   1.1562500000000000       0.62500000000000000        0.0000000000000000     
   1.1875000000000000       0.62500000000000000        0.0000000000000000     
   1.2187500000000000       0.62500000000000000        0.0000000000000000     
   1.2500000000000000       0.62500000000000000        0.0000000000000000     
   1.1250000000000000       0.65625000000000000        0.0000000000000000     
   1.1562500000000000       0.65625000000000000        0.0000000000000000     
   1.1875000000000000       0.65625000000000000        0.0000000000000000     
   1.2187500000000000       0.65625000000000000        0.0000000000000000     
   1.2500000000000000       0.65625000000000000        0.0000000000000000     
   1.1250000000000000       0.68750000000000000        0.0000000000000000     
   1.1562500000000000       0.68750000000000000        0.0000000000000000     
   1.1875000000000000       0.68750000000000000        0.0000000000000000     
   1.2187500000000000       0.68750000000000000        0.0000000000000000     
   1.2500000000000000       0.68750000000000000        0.0000000000000000     
   1.1250000000000000       0.71875000000000000        0.0000000000000000     
   1.1562500000000000       0.71875000000000000        0.0000000000000000     
   1.1875000000000000       0.71875000000000000        0.0000000000000000     
   1.2187500000000000       0.71875000000000000        0.0000000000000000     
   1.2500000000000000       0.71875000000000000        0.0000000000000000     
   1.1250000000000000       0.75000000000000000        0.0000000000000000     
   1.1562500000000000       0.75000000000000000        0.0000000000000000     
   1.1875000000000000       0.75000000000000000        0.0000000000000000     
   1.2187500000000000       0.75000000000000000        0.0000000000000000     
   1.2500000000000000       0.75000000000000000        0.0000000000000000     
   1.2500000000000000       0.62500000000000000        0.0000000000000000     
   1.2812500000000000       0.62500000000000000        0.0000000000000000     
   1.3125000000000000       0.62500000000000000        0.0000000000000000     
   1.3437500000000000       0.62500000000000000        0.0000000000000000     
   1.3750000000000000       0.62500000000000000        0.0000000000000000     
   1.2500000000000000       0.65625000000000000        0.0000000000000000     
   1.2812500000000000       0.65625000000000000        0.0000000000000000     
   1.3125000000000000       0.65625000000000000        0.0000000000000000     
   1.3437500000000000       0.65625000000000000        0.0000000000000000     
   1.3750000000000000       0.65625000000000000        0.0000000000000000     
   1.2500000000000000       0.68750000000000000        0.0000000000000000     
   1.2812500000000000       0.68750000000000000        0.0000000000000000     
   1.3125000000000000       0.68750000000000000        0.0000000000000000     
   1.3437500000000000       0.68750000000000000        0.0000000000000000     
   1.3750000000000000       0.68750000000000000        0.0000000000000000     
   1.2500000000000000       0.71875000000000000        0.0000000000000000     
   1.2812500000000000       0.71875000000000000        0.0000000000000000     
   1.3125000000000000       0.71875000000000000        0.0000000000000000     
   1.3437500000000000       0.71875000000000000        0.0000000000000000     
   1.3750000000000000       0.71875000000000000        0.0000000000000000     
   1.2500000000000000       0.75000000000000000        0.0000000000000000     
   1.2812500000000000       0.75000000000000000        0.0000000000000000     
   1.3125000000000000       0.75000000000000000        0.0000000000000000     
   1.3437500000000000       0.75000000000000000        0.0000000000000000     
   1.3750000000000000       0.75000000000000000        0.0000000000000000     
   1.3750000000000000       0.62500000000000000        0.0000000000000000     
   1.4062500000000000       0.62500000000000000        0.0000000000000000     
   1.4375000000000000       0.62500000000000000        0.0000000000000000     
   1.4687500000000000       0.62500000000000000        0.0000000000000000     
   1.5000000000000000       0.62500000000000000        0.0000000000000000     
   1.3750000000000000       0.65625000000000000        0.0000000000000000     
   1.4062500000000000       0.65625000000000000        0.0000000000000000     
   1.4375000000000000       0.65625000000000000        0.0000000000000000     
   1.4687500000000000       0.65625000000000000        0.0000000000000000     
   1.5000000000000000       0.65625000000000000        0.0000000000000000     
   1.3750000000000000       0.68750000000000000        0.0000000000000000     
   1.4062500000000000       0.68750000000000000        0.0000000000000000     
   1.4375000000000000       0.68750000000000000        0.0000000000000000     
   1.4687500000000000       0.68750000000000000        0.0000000000000000     
   1.5000000000000000       0.68750000000000000        0.0000000000000000     
   1.3750000000000000       0.71875000000000000        0.0000000000000000     
   1.4062500000000000       0.71875000000000000        0.0000000000000000     
   1.4375000000000000       0.71875000000000000        0.0000000000000000     
   1.4687500000000000       0.71875000000000000        0.0000000000000000     
   1.5000000000000000       0.71875000000000000        0.0000000000000000     
   1.3750000000000000       0.75000000000000000        0.0000000000000000     
   1.4062500000000000       0.75000000000000000        0.0000000000000000     
   1.4375000000000000       0.75000000000000000        0.0000000000000000     
   1.4687500000000000       0.75000000000000000        0.0000000000000000     
   1.5000000000000000       0.75000000000000000        0.0000000000000000     
  0.50000000000000000       0.75000000000000000        0.0000000000000000     
  0.53125000000000000       0.75000000000000000        0.0000000000000000     
  0.56250000000000000       0.75000000000000000        0.0000000000000000     
  0.59375000000000000       0.75000000000000000        0.0000000000000000     
  0.62500000000000000       0.75000000000000000        0.0000000000000000     
  0.50000000000000000       0.78125000000000000        0.0000000000000000     
  0.53125000000000000       0.78125000000000000        0.0000000000000000     
  0.56250000000000000       0.78125000000000000        0.0000000000000000     
  0.59375000000000000       0.78125000000000000        0.0000000000000000     
  0.62500000000000000       0.78125000000000000        0.0000000000000000     
  0.50000000000000000       0.81250000000000000        0.0000000000000000     
  0.53125000000000000       0.81250000000000000        0.0000000000000000     
  0.56250000000000000       0.81250000000000000        0.0000000000000000     
  0.59375000000000000       0.81250000000000000        0.0000000000000000     
  0.62500000000000000       0.81250000000000000        0.0000000000000000     
  0.50000000000000000       0.84375000000000000        0.0000000000000000     
  0.53125000000000000       0.84375000000000000        0.0000000000000000     
  0.56250000000000000       0.84375000000000000        0.0000000000000000     
  0.59375000000000000       0.84375000000000000        0.0000000000000000     
  0.62500000000000000       0.84375000000000000        0.0000000000000000     
  0.50000000000000000       0.87500000000000000        0.0000000000000000     
  0.53125000000000000       0.87500000000000000        0.0000000000000000     
  0.56250000000000000       0.87500000000000000        0.0000000000000000     
  0.59375000000000000       0.87500000000000000        0.0000000000000000     
  0.62500000000000000       0.87500000000000000        0.0000000000000000     
  0.62500000000000000       0.75000000000000000        0.0000000000000000     
  0.65625000000000000       0.75000000000000000        0.0000000000000000     
  0.68750000000000000       0.75000000000000000        0.0000000000000000     
  0.71875000000000000       0.75000000000000000        0.0000000000000000     
  0.75000000000000000       0.75000000000000000        0.0000000000000000     
  0.62500000000000000       0.78125000000000000        0.0000000000000000     
  0.65625000000000000       0.78125000000000000        0.0000000000000000     
  0.68750000000000000       0.78125000000000000        0.0000000000000000     
  0.71875000000000000       0.78125000000000000        0.0000000000000000     
  0.75000000000000000       0.78125000000000000        0.0000000000000000     
  0.62500000000000000       0.81250000000000000        0.0000000000000000     
  0.65625000000000000       0.81250000000000000        0.0000000000000000     
  0.68750000000000000       0.81250000000000000        0.0000000000000000     
  0.71875000000000000       0.81250000000000000        0.0000000000000000     
  0.75000000000000000       0.81250000000000000        0.0000000000000000     
  0.62500000000000000       0.84375000000000000        0.0000000000000000     
  0.65625000000000000       0.84375000000000000        0.0000000000000000     
  0.68750000000000000       0.84375000000000000        0.0000000000000000     
  0.71875000000000000       0.84375000000000000        0.0000000000000000     
  0.75000000000000000       0.84375000000000000        0.0000000000000000     
  0.62500000000000000       0.87500000000000000        0.0000000000000000     
  0.65625000000000000       0.87500000000000000        0.0000000000000000     
  0.68750000000000000       0.87500000000000000        0.0000000000000000     
  0.71875000000000000       0.87500000000000000        0.0000000000000000     
  0.75000000000000000       0.87500000000000000        0.0000000000000000     
  0.75000000000000000       0.75000000000000000        0.0000000000000000     
  0.78125000000000000       0.75000000000000000        0.0000000000000000     
  0.81250000000000000       0.75000000000000000        0.0000000000000000     
  0.84375000000000000       0.75000000000000000        0.0000000000000000     
  0.87500000000000000       0.75000000000000000        0.0000000000000000     
  0.75000000000000000       0.78125000000000000        0.0000000000000000     
  0.78125000000000000       0.78125000000000000        0.0000000000000000     
  0.81250000000000000       0.78125000000000000        0.0000000000000000     
  0.84375000000000000       0.78125000000000000        0.0000000000000000     
  0.87500000000000000       0.78125000000000000        0.0000000000000000     
  0.75000000000000000       0.81250000000000000        0.0000000000000000     
  0.78125000000000000       0.81250000000000000        0.0000000000000000     
  0.81250000000000000       0.81250000000000000        0.0000000000000000     
  0.84375000000000000       0.81250000000000000        0.0000000000000000     
  0.87500000000000000       0.81250000000000000        0.0000000000000000     
  0.75000000000000000       0.84375000000000000        0.0000000000000000     
  0.78125000000000000       0.84375000000000000        0.0000000000000000     
  0.81250000000000000       0.84375000000000000        0.0000000000000000     
  0.84375000000000000       0.84375000000000000        0.0000000000000000     
  0.87500000000000000       0.84375000000000000        0.0000000000000000     
  0.75000000000000000       0.87500000000000000        0.0000000000000000     
  0.78125000000000000       0.87500000000000000        0.0000000000000000     
  0.81250000000000000       0.87500000000000000        0.0000000000000000     
  0.84375000000000000       0.87500000000000000        0.0000000000000000     
  0.87500000000000000       0.87500000000000000        0.0000000000000000     
  0.87500000000000000       0.75000000000000000        0.0000000000000000     
  0.90625000000000000       0.75000000000000000        0.0000000000000000     
  0.93750000000000000       0.75000000000000000        0.0000000000000000     
  0.96875000000000000       0.75000000000000000        0.0000000000000000     
   1.0000000000000000       0.75000000000000000        0.0000000000000000     
  0.87500000000000000       0.78125000000000000        0.0000000000000000     
  0.90625000000000000       0.78125000000000000        0.0000000000000000     
  0.93750000000000000       0.78125000000000000        0.0000000000000000     
  0.96875000000000000       0.78125000000000000        0.0000000000000000     
   1.0000000000000000       0.78125000000000000        0.0000000000000000     
  0.87500000000000000       0.81250000000000000        0.0000000000000000     
  0.90625000000000000       0.81250000000000000        0.0000000000000000     
  0.93750000000000000       0.81250000000000000        0.0000000000000000     
  0.96875000000000000       0.81250000000000000        0.0000000000000000     
   1.0000000000000000       0.81250000000000000        0.0000000000000000     
  0.87500000000000000       0.84375000000000000        0.0000000000000000     
  0.90625000000000000       0.84375000000000000        0.0000000000000000     
  0.93750000000000000       0.84375000000000000        0.0000000000000000     
  0.96875000000000000       0.84375000000000000        0.0000000000000000     
   1.0000000000000000       0.84375000000000000        0.0000000000000000     
  0.87500000000000000       0.87500000000000000        0.0000000000000000     
  0.90625000000000000       0.87500000000000000        0.0000000000000000     
  0.93750000000000000       0.87500000000000000        0.0000000000000000     
  0.96875000000000000       0.87500000000000000        0.0000000000000000     
   1.0000000000000000       0.87500000000000000        0.0000000000000000     
   1.0000000000000000       0.75000000000000000        0.0000000000000000     
   1.0312500000000000       0.75000000000000000        0.0000000000000000     
   1.0625000000000000       0.75000000000000000        0.0000000000000000     
   1.0937500000000000       0.75000000000000000        0.0000000000000000     
   1.1250000000000000       0.75000000000000000        0.0000000000000000     
   1.0000000000000000       0.78125000000000000        0.0000000000000000     
   1.0312500000000000       0.78125000000000000        0.0000000000000000     
   1.0625000000000000       0.78125000000000000        0.0000000000000000     
   1.0937500000000000       0.78125000000000000        0.0000000000000000     
   1.1250000000000000       0.78125000000000000        0.0000000000000000     
   1.0000000000000000       0.81250000000000000        0.0000000000000000     
   1.0312500000000000       0.81250000000000000        0.0000000000000000     
   1.0625000000000000       0.81250000000000000        0.0000000000000000     
   1.0937500000000000       0.81250000000000000        0.0000000000000000     
   1.1250000000000000       0.81250000000000000        0.0000000000000000     
   1.0000000000000000       0.84375000000000000        0.0000000000000000     
   1.0312500000000000       0.84375000000000000        0.0000000000000000     
   1.0625000000000000       0.84375000000000000        0.0000000000000000     
   1.0937500000000000       0.84375000000000000        0.0000000000000000     
   1.1250000000000000       0.84375000000000000        0.0000000000000000     
   1.0000000000000000       0.87500000000000000        0.0000000000000000     
   1.0312500000000000       0.87500000000000000        0.0000000000000000     
   1.0625000000000000       0.87500000000000000        0.0000000000000000     
   1.0937500000000000       0.87500000000000000        0.0000000000000000     
   1.1250000000000000       0.87500000000000000        0.0000000000000000     
   1.1250000000000000       0.75000000000000000        0.0000000000000000     
   1.1562500000000000       0.75000000000000000        0.0000000000000000     
   1.1875000000000000       0.75000000000000000        0.0000000000000000     
   1.2187500000000000       0.75000000000000000        0.0000000000000000     
   1.2500000000000000       0.75000000000000000        0.0000000000000000     
   1.1250000000000000       0.78125000000000000        0.0000000000000000     
   1.1562500000000000       0.78125000000000000        0.0000000000000000     
   1.1875000000000000       0.78125000000000000        0.0000000000000000     
   1.2187500000000000       0.78125000000000000        0.0000000000000000     
   1.2500000000000000       0.78125000000000000        0.0000000000000000     
   1.1250000000000000       0.81250000000000000        0.0000000000000000     
   1.1562500000000000       0.81250000000000000        0.0000000000000000     
   1.1875000000000000       0.81250000000000000        0.0000000000000000     
   1.2187500000000000       0.81250000000000000        0.0000000000000000     
   1.2500000000000000       0.81250000000000000        0.0000000000000000     
   1.1250000000000000       0.84375000000000000        0.0000000000000000     
   1.1562500000000000       0.84375000000000000        0.0000000000000000     
   1.1875000000000000       0.84375000000000000        0.0000000000000000     
   1.2187500000000000       0.84375000000000000        0.0000000000000000     
   1.2500000000000000       0.84375000000000000        0.0000000000000000     
   1.1250000000000000       0.87500000000000000        0.0000000000000000     
   1.1562500000000000       0.87500000000000000        0.0000000000000000     
   1.1875000000000000       0.87500000000000000        0.0000000000000000     
   1.2187500000000000       0.87500000000000000        0.0000000000000000     
   1.2500000000000000       0.87500000000000000        0.0000000000000000     
   1.2500000000000000       0.75000000000000000        0.0000000000000000     
   1.2812500000000000       0.75000000000000000        0.0000000000000000     
   1.3125000000000000       0.75000000000000000        0.0000000000000000     
   1.3437500000000000       0.75000000000000000        0.0000000000000000     
   1.3750000000000000       0.75000000000000000        0.0000000000000000     
   1.2500000000000000       0.78125000000000000        0.0000000000000000     
   1.2812500000000000       0.78125000000000000        0.0000000000000000     
   1.3125000000000000       0.78125000000000000        0.0000000000000000     
   1.3437500000000000       0.78125000000000000        0.0000000000000000     
   1.3750000000000000       0.78125000000000000        0.0000000000000000     
   1.2500000000000000       0.81250000000000000        0.0000000000000000     
   1.2812500000000000       0.81250000000000000        0.0000000000000000     
   1.3125000000000000       0.81250000000000000        0.0000000000000000     
   1.3437500000000000       0.81250000000000000        0.0000000000000000     
   1.3750000000000000       0.81250000000000000        0.0000000000000000     
   1.2500000000000000       0.84375000000000000        0.0000000000000000     
   1.2812500000000000       0.84375000000000000        0.0000000000000000     
   1.3125000000000000       0.84375000000000000        0.0000000000000000     
   1.3437500000000000       0.84375000000000000        0.0000000000000000     
   1.3750000000000000       0.84375000000000000        0.0000000000000000     
   1.2500000000000000       0.87500000000000000        0.0000000000000000     
   1.2812500000000000       0.87500000000000000        0.0000000000000000     
   1.3125000000000000       0.87500000000000000        0.0000000000000000     
   1.3437500000000000       0.87500000000000000        0.0000000000000000     
   1.3750000000000000       0.87500000000000000        0.0000000000000000     
   1.3750000000000000       0.75000000000000000        0.0000000000000000     
   1.4062500000000000       0.75000000000000000        0.0000000000000000     
   1.4375000000000000       0.75000000000000000        0.0000000000000000     
   1.4687500000000000       0.75000000000000000        0.0000000000000000     
   1.5000000000000000       0.75000000000000000        0.0000000000000000     
   1.3750000000000000       0.78125000000000000        0.0000000000000000     
   1.4062500000000000       0.78125000000000000        0.0000000000000000     
   1.4375000000000000       0.78125000000000000        0.0000000000000000     
   1.4687500000000000       0.78125000000000000        0.0000000000000000     
   1.5000000000000000       0.78125000000000000        0.0000000000000000     
   1.3750000000000000       0.81250000000000000        0.0000000000000000     
   1.4062500000000000       0.81250000000000000        0.0000000000000000     
   1.4375000000000000       0.81250000000000000        0.0000000000000000     
   1.4687500000000000       0.81250000000000000        0.0000000000000000     
   1.5000000000000000       0.81250000000000000        0.0000000000000000     
   1.3750000000000000       0.84375000000000000        0.0000000000000000     
   1.4062500000000000       0.84375000000000000        0.0000000000000000     
   1.4375000000000000       0.84375000000000000        0.0000000000000000     
   1.4687500000000000       0.84375000000000000        0.0000000000000000     
   1.5000000000000000       0.84375000000000000        0.0000000000000000     
   1.3750000000000000       0.87500000000000000        0.0000000000000000     
   1.4062500000000000       0.87500000000000000        0.0000000000000000     
   1.4375000000000000       0.87500000000000000        0.0000000000000000     
   1.4687500000000000       0.87500000000000000        0.0000000000000000     
   1.5000000000000000       0.87500000000000000        0.0000000000000000     
  0.50000000000000000       0.87500000000000000        0.0000000000000000     
  0.53125000000000000       0.87500000000000000        0.0000000000000000     
  0.56250000000000000       0.87500000000000000        0.0000000000000000     
  0.59375000000000000       0.87500000000000000        0.0000000000000000     
  0.62500000000000000       0.87500000000000000        0.0000000000000000     
  0.50000000000000000       0.90625000000000000        0.0000000000000000     
  0.53125000000000000       0.90625000000000000        0.0000000000000000     
  0.56250000000000000       0.90625000000000000        0.0000000000000000     
  0.59375000000000000       0.90625000000000000        0.0000000000000000     
  0.62500000000000000       0.90625000000000000        0.0000000000000000     
  0.50000000000000000       0.93750000000000000        0.0000000000000000     
  0.53125000000000000       0.93750000000000000        0.0000000000000000     
  0.56250000000000000       0.93750000000000000        0.0000000000000000     
  0.59375000000000000       0.93750000000000000        0.0000000000000000     
  0.62500000000000000       0.93750000000000000        0.0000000000000000     
  0.50000000000000000       0.96875000000000000        0.0000000000000000     
  0.53125000000000000       0.96875000000000000        0.0000000000000000     
  0.56250000000000000       0.96875000000000000        0.0000000000000000     
  0.59375000000000000       0.96875000000000000        0.0000000000000000     
  0.62500000000000000       0.96875000000000000        0.0000000000000000     
  0.50000000000000000        1.0000000000000000        0.0000000000000000     
  0.53125000000000000        1.0000000000000000        0.0000000000000000     
  0.56250000000000000        1.0000000000000000        0.0000000000000000     
  0.59375000000000000        1.0000000000000000        0.0000000000000000     
  0.62500000000000000        1.0000000000000000        0.0000000000000000     
  0.62500000000000000       0.87500000000000000        0.0000000000000000     
  0.65625000000000000       0.87500000000000000        0.0000000000000000     
  0.68750000000000000       0.87500000000000000        0.0000000000000000     
  0.71875000000000000       0.87500000000000000        0.0000000000000000     
  0.75000000000000000       0.87500000000000000        0.0000000000000000     
  0.62500000000000000       0.90625000000000000        0.0000000000000000     
  0.65625000000000000       0.90625000000000000        0.0000000000000000     
  0.68750000000000000       0.90625000000000000        0.0000000000000000     
  0.71875000000000000       0.90625000000000000        0.0000000000000000     
  0.75000000000000000       0.90625000000000000        0.0000000000000000     
  0.62500000000000000       0.93750000000000000        0.0000000000000000     
  0.65625000000000000       0.93750000000000000        0.0000000000000000     
  0.68750000000000000       0.93750000000000000        0.0000000000000000     
  0.71875000000000000       0.93750000000000000        0.0000000000000000     
  0.75000000000000000       0.93750000000000000        0.0000000000000000     
  0.62500000000000000       0.96875000000000000        0.0000000000000000     
  0.65625000000000000       0.96875000000000000        0.0000000000000000     
  0.68750000000000000       0.96875000000000000        0.0000000000000000     
  0.71875000000000000       0.96875000000000000        0.0000000000000000     
  0.75000000000000000       0.96875000000000000        0.0000000000000000     
  0.62500000000000000        1.0000000000000000        0.0000000000000000     
  0.65625000000000000        1.0000000000000000        0.0000000000000000     
  0.68750000000000000        1.0000000000000000        0.0000000000000000     
  0.71875000000000000        1.0000000000000000        0.0000000000000000     
  0.75000000000000000        1.0000000000000000        0.0000000000000000     
  0.75000000000000000       0.87500000000000000        0.0000000000000000     
  0.78125000000000000       0.87500000000000000        0.0000000000000000     
  0.81250000000000000       0.87500000000000000        0.0000000000000000     
  0.84375000000000000       0.87500000000000000        0.0000000000000000     
  0.87500000000000000       0.87500000000000000        0.0000000000000000     
  0.75000000000000000       0.90625000000000000        0.0000000000000000     
  0.78125000000000000       0.90625000000000000        0.0000000000000000     
  0.81250000000000000       0.90625000000000000        0.0000000000000000     
  0.84375000000000000       0.90625000000000000        0.0000000000000000     
  0.87500000000000000       0.90625000000000000        0.0000000000000000     
  0.75000000000000000       0.93750000000000000        0.0000000000000000     
  0.78125000000000000       0.93750000000000000        0.0000000000000000     
  0.81250000000000000       0.93750000000000000        0.0000000000000000     
  0.84375000000000000       0.93750000000000000        0.0000000000000000     
  0.87500000000000000       0.93750000000000000        0.0000000000000000     
  0.75000000000000000       0.96875000000000000        0.0000000000000000     
  0.78125000000000000       0.96875000000000000        0.0000000000000000     
  0.81250000000000000       0.96875000000000000        0.0000000000000000     
  0.84375000000000000       0.96875000000000000        0.0000000000000000     
  0.87500000000000000       0.96875000000000000        0.0000000000000000     
  0.75000000000000000        1.0000000000000000        0.0000000000000000     
  0.78125000000000000        1.0000000000000000        0.0000000000000000     
  0.81250000000000000        1.0000000000000000        0.0000000000000000     
  0.84375000000000000        1.0000000000000000        0.0000000000000000     
  0.87500000000000000        1.0000000000000000        0.0000000000000000     
  0.87500000000000000       0.87500000000000000        0.0000000000000000     
  0.90625000000000000       0.87500000000000000        0.0000000000000000     
  0.93750000000000000       0.87500000000000000        0.0000000000000000     
  0.96875000000000000       0.87500000000000000        0.0000000000000000     
   1.0000000000000000       0.87500000000000000        0.0000000000000000     
  0.87500000000000000       0.90625000000000000        0.0000000000000000     
  0.90625000000000000       0.90625000000000000        0.0000000000000000     
  0.93750000000000000       0.90625000000000000        0.0000000000000000     
  0.96875000000000000       0.90625000000000000        0.0000000000000000     
   1.0000000000000000       0.90625000000000000        0.0000000000000000     
  0.87500000000000000       0.93750000000000000        0.0000000000000000     
  0.90625000000000000       0.93750000000000000        0.0000000000000000     
  0.93750000000000000       0.93750000000000000        0.0000000000000000     
  0.96875000000000000       0.93750000000000000        0.0000000000000000     
   1.0000000000000000       0.93750000000000000        0.0000000000000000     
  0.87500000000000000       0.96875000000000000        0.0000000000000000     
  0.90625000000000000       0.96875000000000000        0.0000000000000000     
  0.93750000000000000       0.96875000000000000        0.0000000000000000     
  0.96875000000000000       0.96875000000000000        0.0000000000000000     
   1.0000000000000000       0.96875000000000000        0.0000000000000000     
  0.87500000000000000        1.0000000000000000        0.0000000000000000     
  0.90625000000000000        1.0000000000000000        0.0000000000000000     
  0.93750000000000000        1.0000000000000000        0.0000000000000000     
  0.96875000000000000        1.0000000000000000        0.0000000000000000     
   1.0000000000000000        1.0000000000000000        0.0000000000000000     
   1.0000000000000000       0.87500000000000000        0.0000000000000000     
   1.0312500000000000       0.87500000000000000        0.0000000000000000     
   1.0625000000000000       0.87500000000000000        0.0000000000000000     
   1.0937500000000000       0.87500000000000000        0.0000000000000000     
   1.1250000000000000       0.87500000000000000        0.0000000000000000     
   1.0000000000000000       0.90625000000000000        0.0000000000000000     
   1.0312500000000000       0.90625000000000000        0.0000000000000000     
   1.0625000000000000       0.90625000000000000        0.0000000000000000     
   1.0937500000000000       0.90625000000000000        0.0000000000000000     
   1.1250000000000000       0.90625000000000000        0.0000000000000000     
   1.0000000000000000       0.93750000000000000        0.0000000000000000     
   1.0312500000000000       0.93750000000000000        0.0000000000000000     
   1.0625000000000000       0.93750000000000000        0.0000000000000000     
   1.0937500000000000       0.93750000000000000        0.0000000000000000     
   1.1250000000000000       0.93750000000000000        0.0000000000000000     
   1.0000000000000000       0.96875000000000000        0.0000000000000000     
   1.0312500000000000       0.96875000000000000        0.0000000000000000     
   1.0625000000000000       0.96875000000000000        0.0000000000000000     
   1.0937500000000000       0.96875000000000000        0.0000000000000000     
   1.1250000000000000       0.96875000000000000        0.0000000000000000     
   1.0000000000000000        1.0000000000000000        0.0000000000000000     
   1.0312500000000000        1.0000000000000000        0.0000000000000000     
   1.0625000000000000        1.0000000000000000        0.0000000000000000     
   1.0937500000000000        1.0000000000000000        0.0000000000000000     
   1.1250000000000000        1.0000000000000000        0.0000000000000000     
   1.1250000000000000       0.87500000000000000        0.0000000000000000     
   1.1562500000000000       0.87500000000000000        0.0000000000000000     
   1.1875000000000000       0.87500000000000000        0.0000000000000000     
   1.2187500000000000       0.87500000000000000        0.0000000000000000     
   1.2500000000000000       0.87500000000000000        0.0000000000000000     
   1.1250000000000000       0.90625000000000000        0.0000000000000000     
   1.1562500000000000       0.90625000000000000        0.0000000000000000     
   1.1875000000000000       0.90625000000000000        0.0000000000000000     
   1.2187500000000000       0.90625000000000000        0.0000000000000000     
   1.2500000000000000       0.90625000000000000        0.0000000000000000     
   1.1250000000000000       0.93750000000000000        0.0000000000000000     
   1.1562500000000000       0.93750000000000000        0.0000000000000000     
   1.1875000000000000       0.93750000000000000        0.0000000000000000     
   1.2187500000000000       0.93750000000000000        0.0000000000000000     
   1.2500000000000000       0.93750000000000000        0.0000000000000000     
   1.1250000000000000       0.96875000000000000        0.0000000000000000     
   1.1562500000000000       0.96875000000000000        0.0000000000000000     
   1.1875000000000000       0.96875000000000000        0.0000000000000000     
   1.2187500000000000       0.96875000000000000        0.0000000000000000     
   1.2500000000000000       0.96875000000000000        0.0000000000000000     
   1.1250000000000000        1.0000000000000000        0.0000000000000000     
   1.1562500000000000        1.0000000000000000        0.0000000000000000     
   1.1875000000000000        1.0000000000000000        0.0000000000000000     
   1.2187500000000000        1.0000000000000000        0.0000000000000000     
   1.2500000000000000        1.0000000000000000        0.0000000000000000     
   1.2500000000000000       0.87500000000000000        0.0000000000000000     
   1.2812500000000000       0.87500000000000000        0.0000000000000000     
   1.3125000000000000       0.87500000000000000        0.0000000000000000     
   1.3437500000000000       0.87500000000000000        0.0000000000000000     
   1.3750000000000000       0.87500000000000000        0.0000000000000000     
   1.2500000000000000       0.90625000000000000        0.0000000000000000     
   1.2812500000000000       0.90625000000000000        0.0000000000000000     
   1.3125000000000000       0.90625000000000000        0.0000000000000000     
   1.3437500000000000       0.90625000000000000        0.0000000000000000     
   1.3750000000000000       0.90625000000000000        0.0000000000000000     
   1.2500000000000000       0.93750000000000000        0.0000000000000000     
   1.2812500000000000       0.93750000000000000        0.0000000000000000     
   1.3125000000000000       0.93750000000000000        0.0000000000000000     
   1.3437500000000000       0.93750000000000000        0.0000000000000000     
   1.3750000000000000       0.93750000000000000        0.0000000000000000     
   1.2500000000000000       0.96875000000000000        0.0000000000000000     
   1.2812500000000000       0.96875000000000000        0.0000000000000000     
   1.3125000000000000       0.96875000000000000        0.0000000000000000     
   1.3437500000000000       0.96875000000000000        0.0000000000000000     
   1.3750000000000000       0.96875000000000000        0.0000000000000000     
   1.2500000000000000        1.0000000000000000        0.0000000000000000     
   1.2812500000000000        1.0000000000000000        0.0000000000000000     
   1.3125000000000000        1.0000000000000000        0.0000000000000000     
   1.3437500000000000        1.0000000000000000        0.0000000000000000     
   1.3750000000000000        1.0000000000000000        0.0000000000000000     
   1.3750000000000000       0.87500000000000000        0.0000000000000000     
   1.4062500000000000       0.87500000000000000        0.0000000000000000     
   1.4375000000000000       0.87500000000000000        0.0000000000000000     
   1.4687500000000000       0.87500000000000000        0.0000000000000000     
   1.5000000000000000       0.87500000000000000        0.0000000000000000     
   1.3750000000000000       0.90625000000000000        0.0000000000000000     
   1.4062500000000000       0.90625000000000000        0.0000000000000000     
   1.4375000000000000       0.90625000000000000        0.0000000000000000     
   1.4687500000000000       0.90625000000000000        0.0000000000000000     
   1.5000000000000000       0.90625000000000000        0.0000000000000000     
   1.3750000000000000       0.93750000000000000        0.0000000000000000     
   1.4062500000000000       0.93750000000000000        0.0000000000000000     
   1.4375000000000000       0.93750000000000000        0.0000000000000000     
   1.4687500000000000       0.93750000000000000        0.0000000000000000     
   1.5000000000000000       0.93750000000000000        0.0000000000000000     
   1.3750000000000000       0.96875000000000000        0.0000000000000000     
   1.4062500000000000       0.96875000000000000        0.0000000000000000     
   1.4375000000000000       0.96875000000000000        0.0000000000000000     
   1.4687500000000000       0.96875000000000000        0.0000000000000000     
   1.5000000000000000       0.96875000000000000        0.0000000000000000     
   1.3750000000000000        1.0000000000000000        0.0000000000000000     
   1.4062500000000000        1.0000000000000000        0.0000000000000000     
   1.4375000000000000        1.0000000000000000        0.0000000000000000     
   1.4687500000000000        1.0000000000000000        0.0000000000000000     
   1.5000000000000000        1.0000000000000000        0.0000000000000000     
 </DataArray>
 </Points>
 <Cells>
 <DataArray  type="Int32"  Name="connectivity"  format="ascii">
           0           1           6           5
           1           2           7           6
           2           3           8           7
           3           4           9           8
           5           6          11          10
           6           7          12          11
           7           8          13          12
           8           9          14          13
          10          11          16          15
          11          12          17          16
          12          13          18          17
          13          14          19          18
          15          16          21          20
          16          17          22          21
          17          18          23          22
          18          19          24          23
          25          26          31          30
          26          27          32          31
          27          28          33          32
          28          29          34          33
          30          31          36          35
          31          32          37          36
          32          33          38          37
          33          34          39          38
          35          36          41          40
          36          37          42          41
          37          38          43          42
          38          39          44          43
          40          41          46          45
          41          42          47          46
          42          43          48          47
          43          44          49          48
          50          51          56          55
          51          52          57          56
          52          53          58          57
          53          54          59          58
          55          56          61          60
          56          57          62          61
          57          58          63          62
          58          59          64          63
          60          61          66          65
          61          62          67          66
          62          63          68          67
          63          64          69          68
          65          66          71          70
          66          67          72          71
          67          68          73          72
          68          69          74          73
          75          76          81          80
          76          77          82          81
          77          78          83          82
          78          79          84          83
          80          81          86          85
          81          82          87          86
          82          83          88          87
          83          84          89          88
          85          86          91          90
          86          87          92          91
          87          88          93          92
          88          89          94          93
          90          91          96          95
          91          92          97          96
          92          93          98          97
          93          94          99          98
         100         101         106         105
         101         102         107         106
         102         103         108         107
         103         104         109         108
         105         106         111         110
         106         107         112         111
         107         108         113         112
         108         109         114         113
         110         111         116         115
         111         112         117         116
         112         113         118         117
         113         114         119         118
         115         116         121         120
         116         117         122         121
         117         118         123         122
         118         119         124         123
         125         126         131         130
         126         127         132         131
         127         128         133         132
         128         129         134         133
         130         131         136         135
         131         132         137         136
         132         133         138         137
         133         134         139         138
         135         136         141         140
         136         137         142         141
         137         138         143         142
         138         139         144         143
         140         141         146         145
         141         142         147         146
         142         143         148         147
         143         144         149         148
         150         151         156         155
         151         152         157         156
         152         153         158         157
         153         154         159         158
         155         156         161         160
         156         157         162         161
         157         158         163         162
         158         159         164         163
         160         161         166         165
         161         162         167         166
         162         163         168         167
         163         164         169         168
         165         166         171         170
         166         167         172         171
         167         168         173         172
         168         169         174         173
         175         176         181         180
         176         177         182         181
         177         178         183         182
         178         179         184         183
         180         181         186         185
         181         182         187         186
         182         183         188         187
         183         184         189         188
         185         186         191         190
         186         187         192         191
         187         188         193         192
         188         189         194         193
         190         191         196         195
         191         192         197         196
         192         193         198         197
         193         194         199         198
         200         201         206         205
         201         202         207         206
         202         203         208         207
         203         204         209         208
         205         206         211         210
         206         207         212         211
         207         208         213         212
         208         209         214         213
         210         211         216         215
         211         212         217         216
         212         213         218         217
         213         214         219         218
         215         216         221         220
         216         217         222         221
         217         218         223         222
         218         219         224         223
         225         226         231         230
         226         227         232         231
         227         228         233         232
         228         229         234         233
         230         231         236         235
         231         232         237         236
         232         233         238         237
         233         234         239         238
         235         236         241         240
         236         237         242         241
         237         238         243         242
         238         239         244         243
         240         241         246         245
         241         242         247         246
         242         243         248         247
         243         244         249         248
         250         251         256         255
         251         252         257         256
         252         253         258         257
         253         254         259         258
         255         256         261         260
         256         257         262         261
         257         258         263         262
         258         259         264         263
         260         261         266         265
         261         262         267         266
         262         263         268         267
         263         264         269         268
         265         266         271         270
         266         267         272         271
         267         268         273         272
         268         269         274         273
         275         276         281         280
         276         277         282         281
         277         278         283         282
         278         279         284         283
         280         281         286         285
         281         282         287         286
         282         283         288         287
         283         284         289         288
         285         286         291         290
         286         287         292         291
         287         288         293         292
         288         289         294         293
         290         291         296         295
         291         292         297         296
         292         293         298         297
         293         294         299         298
         300         301         306         305
         301         302         307         306
         302         303         308         307
         303         304         309         308
         305         306         311         310
         306         307         312         311
         307         308         313         312
         308         309         314         313
         310         311         316         315
         311         312         317         316
         312         313         318         317
         313         314         319         318
         315         316         321         320
         316         317         322         321
         317         318         323         322
         318         319         324         323
         325         326         331         330
         326         327         332         331
         327         328         333         332
         328         329         334         333
         330         331         336         335
         331         332         337         336
         332         333         338         337
         333         334         339         338
         335         336         341         340
         336         337         342         341
         337         338         343         342
         338         339         344         343
         340         341         346         345
         341         342         347         346
         342         343         348         347
         343         344         349         348
         350         351         356         355
         351         352         357         356
         352         353         358         357
         353         354         359         358
         355         356         361         360
         356         357         362         361
         357         358         363         362
         358         359         364         363
         360         361         366         365
         361         362         367         366
         362         363         368         367
         363         364         369         368
         365         366         371         370
         366         367         372         371
         367         368         373         372
         368         369         374         373
         375         376         381         380
         376         377         382         381
         377         378         383         382
         378         379         384         383
         380         381         386         385
         381         382         387         386
         382         383         388         387
         383         384         389         388
         385         386         391         390
         386         387         392         391
         387         388         393         392
         388         389         394         393
         390         391         396         395
         391         392         397         396
         392         393         398         397
         393         394         399         398
         400         401         406         405
         401         402         407         406
         402         403         408         407
         403         404         409         408
         405         406         411         410
         406         407         412         411
         407         408         413         412
         408         409         414         413
         410         411         416         415
         411         412         417         416
         412         413         418         417
         413         414         419         418
         415         416         421         420
         416         417         422         421
         417         418         423         422
         418         419         424         423
         425         426         431         430
         426         427         432         431
         427         428         433         432
         428         429         434         433
         430         431         436         435
         431         432         437         436
         432         433         438         437
         433         434         439         438
         435         436         441         440
         436         437         442         441
         437         438         443         442
         438         439         444         443
         440         441         446         445
         441         442         447         446
         442         443         448         447
         443         444         449         448
         450         451         456         455
         451         452         457         456
         452         453         458         457
         453         454         459         458
         455         456         461         460
         456         457         462         461
         457         458         463         462
         458         459         464         463
         460         461         466         465
         461         462         467         466
         462         463         468         467
         463         464         469         468
         465         466         471         470
         466         467         472         471
         467         468         473         472
         468         469         474         473
         475         476         481         480
         476         477         482         481
         477         478         483         482
         478         479         484         483
         480         481         486         485
         481         482         487         486
         482         483         488         487
         483         484         489         488
         485         486         491         490
         486         487         492         491
         487         488         493         492
         488         489         494         493
         490         491         496         495
         491         492         497         496
         492         493         498         497
         493         494         499         498
         500         501         506         505
         501         502         507         506
         502         503         508         507
         503         504         509         508
         505         506         511         510
         506         507         512         511
         507         508         513         512
         508         509         514         513
         510         511         516         515
         511         512         517         516
         512         513         518         517
         513         514         519         518
         515         516         521         520
         516         517         522         521
         517         518         523         522
         518         519         524         523
         525         526         531         530
         526         527         532         531
         527         528         533         532
         528         529         534         533
         530         531         536         535
         531         532         537         536
         532         533         538         537
         533         534         539         538
         535         536         541         540
         536         537         542         541
         537         538         543         542
         538         539         544         543
         540         541         546         545
         541         542         547         546
         542         543         548         547
         543         544         549         548
         550         551         556         555
         551         552         557         556
         552         553         558         557
         553         554         559         558
         555         556         561         560
         556         557         562         561
         557         558         563         562
         558         559         564         563
         560         561         566         565
         561         562         567         566
         562         563         568         567
         563         564         569         568
         565         566         571         570
         566         567         572         571
         567         568         573         572
         568         569         574         573
         575         576         581         580
         576         577         582         581
         577         578         583         582
         578         579         584         583
         580         581         586         585
         581         582         587         586
         582         583         588         587
         583         584         589         588
         585         586         591         590
         586         587         592         591
         587         588         593         592
         588         589         594         593
         590         591         596         595
         591         592         597         596
         592         593         598         597
         593         594         599         598
         600         601         606         605
         601         602         607         606
         602         603         608         607
         603         604         609         608
         605         606         611         610
         606         607         612         611
         607         608         613         612
         608         609         614         613
         610         611         616         615
         611         612         617         616
         612         613         618         617
         613         614         619         618
         615         616         621         620
         616         617         622         621
         617         618         623         622
         618         619         624         623
         625         626         631         630
         626         627         632         631
         627         628         633         632
         628         629         634         633
         630         631         636         635
         631         632         637         636
         632         633         638         637
         633         634         639         638
         635         636         641         640
         636         637         642         641
         637         638         643         642
         638         639         644         643
         640         641         646         645
         641         642         647         646
         642         643         648         647
         643         644         649         648
         650         651         656         655
         651         652         657         656
         652         653         658         657
         653         654         659         658
         655         656         661         660
         656         657         662         661
         657         658         663         662
         658         659         664         663
         660         661         666         665
         661         662         667         666
         662         663         668         667
         663         664         669         668
         665         666         671         670
         666         667         672         671
         667         668         673         672
         668         669         674         673
         675         676         681         680
         676         677         682         681
         677         678         683         682
         678         679         684         683
         680         681         686         685
         681         682         687         686
         682         683         688         687
         683         684         689         688
         685         686         691         690
         686         687         692         691
         687         688         693         692
         688         689         694         693
         690         691         696         695
         691         692         697         696
         692         693         698         697
         693         694         699         698
         700         701         706         705
         701         702         707         706
         702         703         708         707
         703         704         709         708
         705         706         711         710
         706         707         712         711
         707         708         713         712
         708         709         714         713
         710         711         716         715
         711         712         717         716
         712         713         718         717
         713         714         719         718
         715         716         721         720
         716         717         722         721
         717         718         723         722
         718         719         724         723
         725         726         731         730
         726         727         732         731
         727         728         733         732
         728         729         734         733
         730         731         736         735
         731         732         737         736
         732         733         738         737
         733         734         739         738
         735         736         741         740
         736         737         742         741
         737         738         743         742
         738         739         744         743
         740         741         746         745
         741         742         747         746
         742         743         748         747
         743         744         749         748
         750         751         756         755
         751         752         757         756
         752         753         758         757
         753         754         759         758
         755         756         761         760
         756         757         762         761
         757         758         763         762
         758         759         764         763
         760         761         766         765
         761         762         767         766
         762         763         768         767
         763         764         769         768
         765         766         771         770
         766         767         772         771
         767         768         773         772
         768         769         774         773
         775         776         781         780
         776         777         782         781
         777         778         783         782
         778         779         784         783
         780         781         786         785
         781         782         787         786
         782         783         788         787
         783         784         789         788
         785         786         791         790
         786         787         792         791
         787         788         793         792
         788         789         794         793
         790         791         796         795
         791         792         797         796
         792         793         798         797
         793         794         799         798
         800         801         806         805
         801         802         807         806
         802         803         808         807
         803         804         809         808
         805         806         811         810
         806         807         812         811
         807         808         813         812
         808         809         814         813
         810         811         816         815
         811         812         817         816
         812         813         818         817
         813         814         819         818
         815         816         821         820
         816         817         822         821
         817         818         823         822
         818         819         824         823
         825         826         831         830
         826         827         832         831
         827         828         833         832
         828         829         834         833
         830         831         836         835
         831         832         837         836
         832         833         838         837
         833         834         839         838
         835         836         841         840
         836         837         842         841
         837         838         843         842
         838         839         844         843
         840         841         846         845
         841         842         847         846
         842         843         848         847
         843         844         849         848
         850         851         856         855
         851         852         857         856
         852         853         858         857
         853         854         859         858
         855         856         861         860
         856         857         862         861
         857         858         863         862
         858         859         864         863
         860         861         866         865
         861         862         867         866
         862         863         868         867
         863         864         869         868
         865         866         871         870
         866         867         872         871
         867         868         873         872
         868         869         874         873
         875         876         881         880
         876         877         882         881
         877         878         883         882
         878         879         884         883
         880         881         886         885
         881         882         887         886
         882         883         888         887
         883         884         889         888
         885         886         891         890
         886         887         892         891
         887         888         893         892
         888         889         894         893
         890         891         896         895
         891         892         897         896
         892         893         898         897
         893         894         899         898
         900         901         906         905
         901         902         907         906
         902         903         908         907
         903         904         909         908
         905         906         911         910
         906         907         912         911
         907         908         913         912
         908         909         914         913
         910         911         916         915
         911         912         917         916
         912         913         918         917
         913         914         919         918
         915         916         921         920
         916         917         922         921
         917         918         923         922
         918         919         924         923
         925         926         931         930
         926         927         932         931
         927         928         933         932
         928         929         934         933
         930         931         936         935
         931         932         937         936
         932         933         938         937
         933         934         939         938
         935         936         941         940
         936         937         942         941
         937         938         943         942
         938         939         944         943
         940         941         946         945
         941         942         947         946
         942         943         948         947
         943         944         949         948
         950         951         956         955
         951         952         957         956
         952         953         958         957
         953         954         959         958
         955         956         961         960
         956         957         962         961
         957         958         963         962
         958         959         964         963
         960         961         966         965
         961         962         967         966
         962         963         968         967
         963         964         969         968
         965         966         971         970
         966         967         972         971
         967         968         973         972
         968         969         974         973
         975         976         981         980
         976         977         982         981
         977         978         983         982
         978         979         984         983
         980         981         986         985
         981         982         987         986
         982         983         988         987
         983         984         989         988
         985         986         991         990
         986         987         992         991
         987         988         993         992
         988         989         994         993
         990         991         996         995
         991         992         997         996
         992         993         998         997
         993         994         999         998
        1000        1001        1006        1005
        1001        1002        1007        1006
        1002        1003        1008        1007
        1003        1004        1009        1008
        1005        1006        1011        1010
        1006        1007        1012        1011
        1007        1008        1013        1012
        1008        1009        1014        1013
        1010        1011        1016        1015
        1011        1012        1017        1016
        1012        1013        1018        1017
        1013        1014        1019        1018
        1015        1016        1021        1020
        1016        1017        1022        1021
        1017        1018        1023        1022
        1018        1019        1024        1023
        1025        1026        1031        1030
        1026        1027        1032        1031
        1027        1028        1033        1032
        1028        1029        1034        1033
        1030        1031        1036        1035
        1031        1032        1037        1036
        1032        1033        1038        1037
        1033        1034        1039        1038
        1035        1036        1041        1040
        1036        1037        1042        1041
        1037        1038        1043        1042
        1038        1039        1044        1043
        1040        1041        1046        1045
        1041        1042        1047        1046
        1042        1043        1048        1047
        1043        1044        1049        1048
        1050        1051        1056        1055
        1051        1052        1057        1056
        1052        1053        1058        1057
        1053        1054        1059        1058
        1055        1056        1061        1060
        1056        1057        1062        1061
        1057        1058        1063        1062
        1058        1059        1064        1063
        1060        1061        1066        1065
        1061        1062        1067        1066
        1062        1063        1068        1067
        1063        1064        1069        1068
        1065        1066        1071        1070
        1066        1067        1072        1071
        1067        1068        1073        1072
        1068        1069        1074        1073
        1075        1076        1081        1080
        1076        1077        1082        1081
        1077        1078        1083        1082
        1078        1079        1084        1083
        1080        1081        1086        1085
        1081        1082        1087        1086
        1082        1083        1088        1087
        1083        1084        1089        1088
        1085        1086        1091        1090
        1086        1087        1092        1091
        1087        1088        1093        1092
        1088        1089        1094        1093
        1090        1091        1096        1095
        1091        1092        1097        1096
        1092        1093        1098        1097
        1093        1094        1099        1098
        1100        1101        1106        1105
        1101        1102        1107        1106
        1102        1103        1108        1107
        1103        1104        1109        1108
        1105        1106        1111        1110
        1106        1107        1112        1111
        1107        1108        1113        1112
        1108        1109        1114        1113
        1110        1111        1116        1115
        1111        1112        1117        1116
        1112        1113        1118        1117
        1113        1114        1119        1118
        1115        1116        1121        1120
        1116        1117        1122        1121
        1117        1118        1123        1122
        1118        1119        1124        1123
        1125        1126        1131        1130
        1126        1127        1132        1131
        1127        1128        1133        1132
        1128        1129        1134        1133
        1130        1131        1136        1135
        1131        1132        1137        1136
        1132        1133        1138        1137
        1133        1134        1139        1138
        1135        1136        1141        1140
        1136        1137        1142        1141
        1137        1138        1143        1142
        1138        1139        1144        1143
        1140        1141        1146        1145
        1141        1142        1147        1146
        1142        1143        1148        1147
        1143        1144        1149        1148
        1150        1151        1156        1155
        1151        1152        1157        1156
        1152        1153        1158        1157
        1153        1154        1159        1158
        1155        1156        1161        1160
        1156        1157        1162        1161
        1157        1158        1163        1162
        1158        1159        1164        1163
        1160        1161        1166        1165
        1161        1162        1167        1166
        1162        1163        1168        1167
        1163        1164        1169        1168
        1165        1166        1171        1170
        1166        1167        1172        1171
        1167        1168        1173        1172
        1168        1169        1174        1173
        1175        1176        1181        1180
        1176        1177        1182        1181
        1177        1178        1183        1182
        1178        1179        1184        1183
        1180        1181        1186        1185
        1181        1182        1187        1186
        1182        1183        1188        1187
        1183        1184        1189        1188
        1185        1186        1191        1190
        1186        1187        1192        1191
        1187        1188        1193        1192
        1188        1189        1194        1193
        1190        1191        1196        1195
        1191        1192        1197        1196
        1192        1193        1198        1197
        1193        1194        1199        1198
        1200        1201        1206        1205
        1201        1202        1207        1206
        1202        1203        1208        1207
        1203        1204        1209        1208
        1205        1206        1211        1210
        1206        1207        1212        1211
        1207        1208        1213        1212
        1208        1209        1214        1213
        1210        1211        1216        1215
        1211        1212        1217        1216
        1212        1213        1218        1217
        1213        1214        1219        1218
        1215        1216        1221        1220
        1216        1217        1222        1221
        1217        1218        1223        1222
        1218        1219        1224        1223
        1225        1226        1231        1230
        1226        1227        1232        1231
        1227        1228        1233        1232
        1228        1229        1234        1233
        1230        1231        1236        1235
        1231        1232        1237        1236
        1232        1233        1238        1237
        1233        1234        1239        1238
        1235        1236        1241        1240
        1236        1237        1242        1241
        1237        1238        1243        1242
        1238        1239        1244        1243
        1240        1241        1246        1245
        1241        1242        1247        1246
        1242        1243        1248        1247
        1243        1244        1249        1248
        1250        1251        1256        1255
        1251        1252        1257        1256
        1252        1253        1258        1257
        1253        1254        1259        1258
        1255        1256        1261        1260
        1256        1257        1262        1261
        1257        1258        1263        1262
        1258        1259        1264        1263
        1260        1261        1266        1265
        1261        1262        1267        1266
        1262        1263        1268        1267
        1263        1264        1269        1268
        1265        1266        1271        1270
        1266        1267        1272        1271
        1267        1268        1273        1272
        1268        1269        1274        1273
        1275        1276        1281        1280
        1276        1277        1282        1281
        1277        1278        1283        1282
        1278        1279        1284        1283
        1280        1281        1286        1285
        1281        1282        1287        1286
        1282        1283        1288        1287
        1283        1284        1289        1288
        1285        1286        1291        1290
        1286        1287        1292        1291
        1287        1288        1293        1292
        1288        1289        1294        1293
        1290        1291        1296        1295
        1291        1292        1297        1296
        1292        1293        1298        1297
        1293        1294        1299        1298
        1300        1301        1306        1305
        1301        1302        1307        1306
        1302        1303        1308        1307
        1303        1304        1309        1308
        1305        1306        1311        1310
        1306        1307        1312        1311
        1307        1308        1313        1312
        1308        1309        1314        1313
        1310        1311        1316        1315
        1311        1312        1317        1316
        1312        1313        1318        1317
        1313        1314        1319        1318
        1315        1316        1321        1320
        1316        1317        1322        1321
        1317        1318        1323        1322
        1318        1319        1324        1323
        1325        1326        1331        1330
        1326        1327        1332        1331
        1327        1328        1333        1332
        1328        1329        1334        1333
        1330        1331        1336        1335
        1331        1332        1337        1336
        1332        1333        1338        1337
        1333        1334        1339        1338
        1335        1336        1341        1340
        1336        1337        1342        1341
        1337        1338        1343        1342
        1338        1339        1344        1343
        1340        1341        1346        1345
        1341        1342        1347        1346
        1342        1343        1348        1347
        1343        1344        1349        1348
        1350        1351        1356        1355
        1351        1352        1357        1356
        1352        1353        1358        1357
        1353        1354        1359        1358
        1355        1356        1361        1360
        1356        1357        1362        1361
        1357        1358        1363        1362
        1358        1359        1364        1363
        1360        1361        1366        1365
        1361        1362        1367        1366
        1362        1363        1368        1367
        1363        1364        1369        1368
        1365        1366        1371        1370
        1366        1367        1372        1371
        1367        1368        1373        1372
        1368        1369        1374        1373
        1375        1376        1381        1380
        1376        1377        1382        1381
        1377        1378        1383        1382
        1378        1379        1384        1383
        1380        1381        1386        1385
        1381        1382        1387        1386
        1382        1383        1388        1387
        1383        1384        1389        1388
        1385        1386        1391        1390
        1386        1387        1392        1391
        1387        1388        1393        1392
        1388        1389        1394        1393
        1390        1391        1396        1395
        1391        1392        1397        1396
        1392        1393        1398        1397
        1393        1394        1399        1398
        1400        1401        1406        1405
        1401        1402        1407        1406
        1402        1403        1408        1407
        1403        1404        1409        1408
        1405        1406        1411        1410
        1406        1407        1412        1411
        1407        1408        1413        1412
        1408        1409        1414        1413
        1410        1411        1416        1415
        1411        1412        1417        1416
        1412        1413        1418        1417
        1413        1414        1419        1418
        1415        1416        1421        1420
        1416        1417        1422        1421
        1417        1418        1423        1422
        1418        1419        1424        1423
        1425        1426        1431        1430
        1426        1427        1432        1431
        1427        1428        1433        1432
        1428        1429        1434        1433
        1430        1431        1436        1435
        1431        1432        1437        1436
        1432        1433        1438        1437
        1433        1434        1439        1438
        1435        1436        1441        1440
        1436        1437        1442        1441
        1437        1438        1443        1442
        1438        1439        1444        1443
        1440        1441        1446        1445
        1441        1442        1447        1446
        1442        1443        1448        1447
        1443        1444        1449        1448
        1450        1451        1456        1455
        1451        1452        1457        1456
        1452        1453        1458        1457
        1453        1454        1459        1458
        1455        1456        1461        1460
        1456        1457        1462        1461
        1457        1458        1463        1462
        1458        1459        1464        1463
        1460        1461        1466        1465
        1461        1462        1467        1466
        1462        1463        1468        1467
        1463        1464        1469        1468
        1465        1466        1471        1470
        1466        1467        1472        1471
        1467        1468        1473        1472
        1468        1469        1474        1473
        1475        1476        1481        1480
        1476        1477        1482        1481
        1477        1478        1483        1482
        1478        1479        1484        1483
        1480        1481        1486        1485
        1481        1482        1487        1486
        1482        1483        1488        1487
        1483        1484        1489        1488
        1485        1486        1491        1490
        1486        1487        1492        1491
        1487        1488        1493        1492
        1488        1489        1494        1493
        1490        1491        1496        1495
        1491        1492        1497        1496
        1492        1493        1498        1497
        1493        1494        1499        1498
        1500        1501        1506        1505
        1501        1502        1507        1506
        1502        1503        1508        1507
        1503        1504        1509        1508
        1505        1506        1511        1510
        1506        1507        1512        1511
        1507        1508        1513        1512
        1508        1509        1514        1513
        1510        1511        1516        1515
        1511        1512        1517        1516
        1512        1513        1518        1517
        1513        1514        1519        1518
        1515        1516        1521        1520
        1516        1517        1522        1521
        1517        1518        1523        1522
        1518        1519        1524        1523
        1525        1526        1531        1530
        1526        1527        1532        1531
        1527        1528        1533        1532
        1528        1529        1534        1533
        1530        1531        1536        1535
        1531        1532        1537        1536
        1532        1533        1538        1537
        1533        1534        1539        1538
        1535        1536        1541        1540
        1536        1537        1542        1541
        1537        1538        1543        1542
        1538        1539        1544        1543
        1540        1541        1546        1545
        1541        1542        1547        1546
        1542        1543        1548        1547
        1543        1544        1549        1548
        1550        1551        1556        1555
        1551        1552        1557        1556
        1552        1553        1558        1557
        1553        1554        1559        1558
        1555        1556        1561        1560
        1556        1557        1562        1561
        1557        1558        1563        1562
        1558        1559        1564        1563
        1560        1561        1566        1565
        1561        1562        1567        1566
        1562        1563        1568        1567
        1563        1564        1569        1568
        1565        1566        1571        1570
        1566        1567        1572        1571
        1567        1568        1573        1572
        1568        1569        1574        1573
        1575        1576        1581        1580
        1576        1577        1582        1581
        1577        1578        1583        1582
        1578        1579        1584        1583
        1580        1581        1586        1585
        1581        1582        1587        1586
        1582        1583        1588        1587
        1583        1584        1589        1588
        1585        1586        1591        1590
        1586        1587        1592        1591
        1587        1588        1593        1592
        1588        1589        1594        1593
        1590        1591        1596        1595
        1591        1592        1597        1596
        1592        1593        1598        1597
        1593        1594        1599        1598
 </DataArray>
 <DataArray  type="Int32"  Name="offsets"  format="ascii"> 
           4
           8
          12
          16
          20
          24
          28
          32
          36
          40
          44
          48
          52
          56
          60
          64
          68
          72
          76
          80
          84
          88
          92
          96
         100
         104
         108
         112
         116
         120
         124
         128
         132
         136
         140
         144
         148
         152
         156
         160
         164
         168
         172
         176
         180
         184
         188
         192
         196
         200
         204
         208
         212
         216
         220
         224
         228
         232
         236
         240
         244
         248
         252
         256
         260
         264
         268
         272
         276
         280
         284
         288
         292
         296
         300
         304
         308
         312
         316
         320
         324
         328
         332
         336
         340
         344
         348
         352
         356
         360
         364
         368
         372
         376
         380
         384
         388
         392
         396
         400
         404
         408
         412
         416
         420
         424
         428
         432
         436
         440
         444
         448
         452
         456
         460
         464
         468
         472
         476
         480
         484
         488
         492
         496
         500
         504
         508
         512
         516
         520
         524
         528
         532
         536
         540
         544
         548
         552
         556
         560
         564
         568
         572
         576
         580
         584
         588
         592
         596
         600
         604
         608
         612
         616
         620
         624
         628
         632
         636
         640
         644
         648
         652
         656
         660
         664
         668
         672
         676
         680
         684
         688
         692
         696
         700
         704
         708
         712
         716
         720
         724
         728
         732
         736
         740
         744
         748
         752
         756
         760
         764
         768
         772
         776
         780
         784
         788
         792
         796
         800
         804
         808
         812
         816
         820
         824
         828
         832
         836
         840
         844
         848
         852
         856
         860
         864
         868
         872
         876
         880
         884
         888
         892
         896
         900
         904
         908
         912
         916
         920
         924
         928
         932
         936
         940
         944
         948
         952
         956
         960
         964
         968
         972
         976
         980
         984
         988
         992
         996
        1000
        1004
        1008
        1012
        1016
        1020
        1024
        1028
        1032
        1036
        1040
        1044
        1048
        1052
        1056
        1060
        1064
        1068
        1072
        1076
        1080
        1084
        1088
        1092
        1096
        1100
        1104
        1108
        1112
        1116
        1120
        1124
        1128
        1132
        1136
        1140
        1144
        1148
        1152
        1156
        1160
        1164
        1168
        1172
        1176
        1180
        1184
        1188
        1192
        1196
        1200
        1204
        1208
        1212
        1216
        1220
        1224
        1228
        1232
        1236
        1240
        1244
        1248
        1252
        1256
        1260
        1264
        1268
        1272
        1276
        1280
        1284
        1288
        1292
        1296
        1300
        1304
        1308
        1312
        1316
        1320
        1324
        1328
        1332
        1336
        1340
        1344
        1348
        1352
        1356
        1360
        1364
        1368
        1372
        1376
        1380
        1384
        1388
        1392
        1396
        1400
        1404
        1408
        1412
        1416
        1420
        1424
        1428
        1432
        1436
        1440
        1444
        1448
        1452
        1456
        1460
        1464
        1468
        1472
        1476
        1480
        1484
        1488
        1492
        1496
        1500
        1504
        1508
        1512
        1516
        1520
        1524
        1528
        1532
        1536
        1540
        1544
        1548
        1552
        1556
        1560
        1564
        1568
        1572
        1576
        1580
        1584
        1588
        1592
        1596
        1600
        1604
        1608
        1612
        1616
        1620
        1624
        1628
        1632
        1636
        1640
        1644
        1648
        1652
        1656
        1660
        1664
        1668
        1672
        1676
        1680
        1684
        1688
        1692
        1696
        1700
        1704
        1708
        1712
        1716
        1720
        1724
        1728
        1732
        1736
        1740
        1744
        1748
        1752
        1756
        1760
        1764
        1768
        1772
        1776
        1780
        1784
        1788
        1792
        1796
        1800
        1804
        1808
        1812
        1816
        1820
        1824
        1828
        1832
        1836
        1840
        1844
        1848
        1852
        1856
        1860
        1864
        1868
        1872
        1876
        1880
        1884
        1888
        1892
        1896
        1900
        1904
        1908
        1912
        1916
        1920
        1924
        1928
        1932
        1936
        1940
        1944
        1948
        1952
        1956
        1960
        1964
        1968
        1972
        1976
        1980
        1984
        1988
        1992
        1996
        2000
        2004
        2008
        2012
        2016
        2020
        2024
        2028
        2032
        2036
        2040
        2044
        2048
        2052
        2056
        2060
        2064
        2068
        2072
        2076
        2080
        2084
        2088
        2092
        2096
        2100
        2104
        2108
        2112
        2116
        2120
        2124
        2128
        2132
        2136
        2140
        2144
        2148
        2152
        2156
        2160
        2164
        2168
        2172
        2176
        2180
        2184
        2188
        2192
        2196
        2200
        2204
        2208
        2212
        2216
        2220
        2224
        2228
        2232
        2236
        2240
        2244
        2248
        2252
        2256
        2260
        2264
        2268
        2272
        2276
        2280
        2284
        2288
        2292
        2296
        2300
        2304
        2308
        2312
        2316
        2320
        2324
        2328
        2332
        2336
        2340
        2344
        2348
        2352
        2356
        2360
        2364
        2368
        2372
        2376
        2380
        2384
        2388
        2392
        2396
        2400
        2404
        2408
        2412
        2416
        2420
        2424
        2428
        2432
        2436
        2440
        2444
        2448
        2452
        2456
        2460
        2464
        2468
        2472
        2476
        2480
        2484
        2488
        2492
        2496
        2500
        2504
        2508
        2512
        2516
        2520
        2524
        2528
        2532
        2536
        2540
        2544
        2548
        2552
        2556
        2560
        2564
        2568
        2572
        2576
        2580
        2584
        2588
        2592
        2596
        2600
        2604
        2608
        2612
        2616
        2620
        2624
        2628
        2632
        2636
        2640
        2644
        2648
        2652
        2656
        2660
        2664
        2668
        2672
        2676
        2680
        2684
        2688
        2692
        2696
        2700
        2704
        2708
        2712
        2716
        2720
        2724
        2728
        2732
        2736
        2740
        2744
        2748
        2752
        2756
        2760
        2764
        2768
        2772
        2776
        2780
        2784
        2788
        2792
        2796
        2800
        2804
        2808
        2812
        2816
        2820
        2824
        2828
        2832
        2836
        2840
        2844
        2848
        2852
        2856
        2860
        2864
        2868
        2872
        2876
        2880
        2884
        2888
        2892
        2896
        2900
        2904
        2908
        2912
        2916
        2920
        2924
        2928
        2932
        2936
        2940
        2944
        2948
        2952
        2956
        2960
        2964
        2968
        2972
        2976
        2980
        2984
        2988
        2992
        2996
        3000
        3004
        3008
        3012
        3016
        3020
        3024
        3028
        3032
        3036
        3040
        3044
        3048
        3052
        3056
        3060
        3064
        3068
        3072
        3076
        3080
        3084
        3088
        3092
        3096
        3100
        3104
        3108
        3112
        3116
        3120
        3124
        3128
        3132
        3136
        3140
        3144
        3148
        3152
        3156
        3160
        3164
        3168
        3172
        3176
        3180
        3184
        3188
        3192
        3196
        3200
        3204
        3208
        3212
        3216
        3220
        3224
        3228
        3232
        3236
        3240
        3244
        3248
        3252
        3256
        3260
        3264
        3268
        3272
        3276
        3280
        3284
        3288
        3292
        3296
        3300
        3304
        3308
        3312
        3316
        3320
        3324
        3328
        3332
        3336
        3340
        3344
        3348
        3352
        3356
        3360
        3364
        3368
        3372
        3376
        3380
        3384
        3388
        3392
        3396
        3400
        3404
        3408
        3412
        3416
        3420
        3424
        3428
        3432
        3436
        3440
        3444
        3448
        3452
        3456
        3460
        3464
        3468
        3472
        3476
        3480
        3484
        3488
        3492
        3496
        3500
        3504
        3508
        3512
        3516
        3520
        3524
        3528
        3532
        3536
        3540
        3544
        3548
        3552
        3556
        3560
        3564
        3568
        3572
        3576
        3580
        3584
        3588
        3592
        3596
        3600
        3604
        3608
        3612
        3616
        3620
        3624
        3628
        3632
        3636
        3640
        3644
        3648
        3652
        3656
        3660
        3664
        3668
        3672
        3676
        3680
        3684
        3688
        3692
        3696
        3700
        3704
        3708
        3712
        3716
        3720
        3724
        3728
        3732
        3736
        3740
        3744
        3748
        3752
        3756
        3760
        3764
        3768
        3772
        3776
        3780
        3784
        3788
        3792
        3796
        3800
        3804
        3808
        3812
        3816
        3820
        3824
        3828
        3832
        3836
        3840
        3844
        3848
        3852
        3856
        3860
        3864
        3868
        3872
        3876
        3880
        3884
        3888
        3892
        3896
        3900
        3904
        3908
        3912
        3916
        3920
        3924
        3928
        3932
        3936
        3940
        3944
        3948
        3952
        3956
        3960
        3964
        3968
        3972
        3976
        3980
        3984
        3988
        3992
        3996
        4000
        4004
        4008
        4012
        4016
        4020
        4024
        4028
        4032
        4036
        4040
        4044
        4048
        4052
        4056
        4060
        4064
        4068
        4072
        4076
        4080
        4084
        4088
        4092
        4096
 </DataArray>
 <DataArray  type="UInt8"  Name="types"  format="ascii">
 9
 9
 9
 9
 9
 9
 9
 9
 9
 9
 9
 9
 9
 9
 9
 9
 9
 9
 9
 9
 9
 9
 9
 9
 9
 9
 9
 9
 9
 9
 9
 9
 9
 9
 9
 9
 9
 9
 9
 9
 9
 9
 9
 9
 9
 9
 9
 9
 9
 9
 9
 9
 9
 9
 9
 9
 9
 9
 9
 9
 9
 9
 9
 9
 9
 9
 9
 9
 9
 9
 9
 9
 9
 9
 9
 9
 9
 9
 9
 9
 9
 9
 9
 9
 9
 9
 9
 9
 9
 9
 9
 9
 9
 9
 9
 9
 9
 9
 9
 9
 9
 9
 9
 9
 9
 9
 9
 9
 9
 9
 9
 9
 9
 9
 9
 9
 9
 9
 9
 9
 9
 9
 9
 9
 9
 9
 9
 9
 9
 9
 9
 9
 9
 9
 9
 9
 9
 9
 9
 9
 9
 9
 9
 9
 9
 9
 9
 9
 9
 9
 9
 9
 9
 9
 9
 9
 9
 9
 9
 9
 9
 9
 9
 9
 9
 9
 9
 9
 9
 9
 9
 9
 9
 9
 9
 9
 9
 9
 9
 9
 9
 9
 9
 9
 9
 9
 9
 9
 9
 9
 9
 9
 9
 9
 9
 9
 9
 9
 9
 9
 9
 9
 9
 9
 9
 9
 9
 9
 9
 9
 9
 9
 9
 9
 9
 9
 9
 9
 9
 9
 9
 9
 9
 9
 9
 9
 9
 9
 9
 9
 9
 9
 9
 9
 9
 9
 9
 9
 9
 9
 9
 9
 9
 9
 9
 9
 9
 9
 9
 9
 9
 9
 9
 9
 9
 9
 9
 9
 9
 9
 9
 9
 9
 9
 9
 9
 9
 9
 9
 9
 9
 9
 9
 9
 9
 9
 9
 9
 9
 9
 9
 9
 9
 9
 9
 9
 9
 9
 9
 9
 9
 9
 9
 9
 9
 9
 9
 9
 9
 9
 9
 9
 9
 9
 9
 9
 9
 9
 9
 9
 9
 9
 9
 9
 9
 9
 9
 9
 9
 9
 9
 9
 9
 9
 9
 9
 9
 9
 9
 9
 9
 9
 9
 9
 9
 9
 9
 9
 9
 9
 9
 9
 9
 9
 9
 9
 9
 9
 9
 9
 9
 9
 9
 9
 9
 9
 9
 9
 9
 9
 9
 9
 9
 9
 9
 9
 9
 9
 9
 9
 9
 9
 9
 9
 9
 9
 9
 9
 9
 9
 9
 9
 9
 9
 9
 9
 9
 9
 9
 9
 9
 9
 9
 9
 9
 9
 9
 9
 9
 9
 9
 9
 9
 9
 9
 9
 9
 9
 9
 9
 9
 9
 9
 9
 9
 9
 9
 9
 9
 9
 9
 9
 9
 9
 9
 9
 9
 9
 9
 9
 9
 9
 9
 9
 9
 9
 9
 9
 9
 9
 9
 9
 9
 9
 9
 9
 9
 9
 9
 9
 9
 9
 9
 9
 9
 9
 9
 9
 9
 9
 9
 9
 9
 9
 9
 9
 9
 9
 9
 9
 9
 9
 9
 9
 9
 9
 9
 9
 9
 9
 9
 9
 9
 9
 9
 9
 9
 9
 9
 9
 9
 9
 9
 9
 9
 9
 9
 9
 9
 9
 9
 9
 9
 9
 9
 9
 9
 9
 9
 9
 9
 9
 9
 9
 9
 9
 9
 9
 9
 9
 9
 9
 9
 9
 9
 9
 9
 9
 9
 9
 9
 9
 9
 9
 9
 9
 9
 9
 9
 9
 9
 9
 9
 9
 9
 9
 9
 9
 9
 9
 9
 9
 9
 9
 9
 9
 9
 9
 9
 9
 9
 9
 9
 9
 9
 9
 9
 9
 9
 9
 9
 9
 9
 9
 9
 9
 9
 9
 9
 9
 9
 9
 9
 9
 9
 9
 9
 9
 9
 9
 9
 9
 9
 9
 9
 9
 9
 9
 9
 9
 9
 9
 9
 9
 9
 9
 9
 9
 9
 9
 9
 9
 9
 9
 9
 9
 9
 9
 9
 9
 9
 9
 9
 9
 9
 9
 9
 9
 9
 9
 9
 9
 9
 9
 9
 9
 9
 9
 9
 9
 9
 9
 9
 9
 9
 9
 9
 9
 9
 9
 9
 9
 9
 9
 9
 9
 9
 9
 9
 9
 9
 9
 9
 9
 9
 9
 9
 9
 9
 9
 9
 9
 9
 9
 9
 9
 9
 9
 9
 9
 9
 9
 9
 9
 9
 9
 9
 9
 9
 9
 9
 9
 9
 9
 9
 9
 9
 9
 9
 9
 9
 9
 9
 9
 9
 9
 9
 9
 9
 9
 9
 9
 9
 9
 9
 9
 9
 9
 9
 9
 9
 9
 9
 9
 9
 9
 9
 9
 9
 9
 9
 9
 9
 9
 9
 9
 9
 9
 9
 9
 9
 9
 9
 9
 9
 9
 9
 9
 9
 9
 9
 9
 9
 9
 9
 9
 9
 9
 9
 9
 9
 9
 9
 9
 9
 9
 9
 9
 9
 9
 9
 9
 9
 9
 9
 9
 9
 9
 9
 9
 9
 9
 9
 9
 9
 9
 9
 9
 9
 9
 9
 9
 9
 9
 9
 9
 9
 9
 9
 9
 9
 9
 9
 9
 9
 9
 9
 9
 9
 9
 9
 9
 9
 9
 9
 9
 9
 9
 9
 9
 9
 9
 9
 9
 9
 9
 9
 9
 9
 9
 9
 9
 9
 9
 9
 9
 9
 9
 9
 9
 9
 9
 9
 9
 9
 9
 9
 9
 9
 9
 9
 9
 9
 9
 9
 9
 9
 9
 9
 9
 9
 9
 9
 9
 9
 9
 9
 9
 9
 9
 9
 9
 9
 9
 9
 9
 9
 9
 9
 9
 9
 9
 9
 9
 9
 9
 9
 9
 9
 9
 9
 9
 9
 9
 9
 9
 9
 9
 9
 9
 9
 9
 9
 9
 9
 9
 9
 9
 9
 9
 9
 9
 9
 9
 9
 9
 9
 9
 9
 9
 9
 9
 9
 9
 9
 9
 9
 9
 9
 9
 9
 9
 9
 9
 9
 9
 9
 9
 9
 9
 9
 9
 9
 9
 9
 9
 9
 9
 9
 9
 9
 9
 9
 9
 9
 9
 9
 9
 9
 9
 9
 9
 9
 9
 9
 9
 9
 9
 9
 9
 9
 9
 9
 9
 9
 9
 9
 9
 9
 9
 9
 9
 9
 9
 9
 9
 9
 9
 9
 9
 9
 9
 9
 9
 9
 9
 9
 9
 9
 9
 9
 9
 9
 9
 9
 9
 9
 9
 9
 9
 9
 9
 9
 9
 9
 9
 9
 9
 9
 9
 9
 9
 9
 9
 </DataArray>
 </Cells> 
 <PointData>
 <DataArray  type="Float64" Name="disp" NumberOfComponents="3" format="ascii">
   6.5489591284902435E-002   6.2785303449487476E-002   0.0000000000000000     
   6.8488805021204885E-002   6.8178854891020851E-002   0.0000000000000000     
   7.1405489871144409E-002   7.3748775173447828E-002   0.0000000000000000     
   7.4239645834720994E-002   7.9495064296768350E-002   0.0000000000000000     
   7.6991272911934666E-002   8.5417722260982473E-002   0.0000000000000000     
   6.0108330273441771E-002   6.1886224012422567E-002   0.0000000000000000     
   6.2992070107305578E-002   6.7302428578499857E-002   0.0000000000000000     
   6.5779377824613516E-002   7.2897244885289508E-002   0.0000000000000000     
   6.8470253425365599E-002   7.8670672932791536E-002   0.0000000000000000     
   7.1064696909561811E-002   8.4622712721005924E-002   0.0000000000000000     
   5.5028829615756142E-002   6.1041944705358217E-002   0.0000000000000000     
   5.7763681110802434E-002   6.6481257444267028E-002   0.0000000000000000     
   6.0396562104307133E-002   7.2100588727268183E-002   0.0000000000000000     
   6.2927472596270226E-002   7.7899938554361753E-002   0.0000000000000000     
   6.5356412586691712E-002   8.3879306925547695E-002   0.0000000000000000     
   5.0251089311845541E-002   6.0252465528294448E-002   0.0000000000000000     
   5.2803638031695493E-002   6.5715341488322351E-002   0.0000000000000000     
   5.5257042710225281E-002   7.1358806699383881E-002   0.0000000000000000     
   5.7611303347434910E-002   7.7182861161479016E-002   0.0000000000000000     
   5.9866419943324360E-002   8.3187504874607757E-002   0.0000000000000000     
   4.5775109361709976E-002   5.9517786481231238E-002   0.0000000000000000     
   4.8111940869984729E-002   6.5004680710665869E-002   0.0000000000000000     
   5.0360819642367938E-002   7.0671898801636573E-002   0.0000000000000000     
   5.2521745678859623E-002   7.6519440754143311E-002   0.0000000000000000     
   5.4594718979459771E-002   8.2547306568186124E-002   0.0000000000000000     
   7.6991272911934666E-002   8.5417722260982473E-002   0.0000000000000000     
   7.9657427812870801E-002   9.1508547833554083E-002   0.0000000000000000     
   8.2235167247614815E-002   9.7759339781947077E-002   0.0000000000000000     
   8.4724491216166709E-002  0.10417009810616147        0.0000000000000000     
   8.7125399718526481E-002  0.11074082280619726        0.0000000000000000     
   7.1064696909561811E-002   8.4622712721005924E-002   0.0000000000000000     
   7.3569312515792670E-002   9.0743513860546812E-002   0.0000000000000000     
   7.5990704482648649E-002   9.7023225962028350E-002   0.0000000000000000     
   7.8328872810129749E-002  0.10346184902545053        0.0000000000000000     
   8.0583817498235996E-002  0.11005938305081336        0.0000000000000000     
   6.5356412586691712E-002   8.3879306925547695E-002   0.0000000000000000     
   6.7695572468594270E-002   9.0027779961998608E-002   0.0000000000000000     
   6.9957142635000608E-002   9.6334443784887161E-002   0.0000000000000000     
   7.2141123085910683E-002  0.10279929839421331        0.0000000000000000     
   7.4247513821324523E-002  0.10942234378997708        0.0000000000000000     
   5.9866419943324360E-002   8.3187504874607757E-002   0.0000000000000000     
   6.2036207671275628E-002   8.9361346137909456E-002   0.0000000000000000     
   6.4134481704670690E-002   9.5692993250523439E-002   0.0000000000000000     
   6.6161242043509511E-002  0.10218244621244978        0.0000000000000000     
   6.8116488687792132E-002  0.10882970502368837        0.0000000000000000     
   5.4594718979459771E-002   8.2547306568186124E-002   0.0000000000000000     
   5.6591218123836745E-002   8.8744212388279342E-002   0.0000000000000000     
   5.8522721691658897E-002   9.5098874358937255E-002   0.0000000000000000     
   6.0389229682926232E-002  0.10161129248015990        0.0000000000000000     
   6.2190742097638745E-002  0.10828146675194728        0.0000000000000000     
   8.7125399718526481E-002  0.11074082280619726        0.0000000000000000     
   8.9431445390460329E-002  0.11745752614287321        0.0000000000000000     
   9.1636180867734368E-002  0.12430622037700802        0.0000000000000000     
   9.3739606150348667E-002  0.13128690550860173        0.0000000000000000     
   9.5741721238303185E-002  0.13839958153765430        0.0000000000000000     
   8.0583817498235996E-002  0.11005938305081336        0.0000000000000000     
   8.2749370827382387E-002  0.11680271437359462        0.0000000000000000     
   8.4819365077984044E-002  0.12367872932927207        0.0000000000000000     
   8.6793800250040895E-002  0.13068742791784577        0.0000000000000000     
   8.8672676343552970E-002  0.13782881013931564        0.0000000000000000     
   7.4247513821324523E-002  0.10942234378997708        0.0000000000000000     
   7.6270291744991031E-002  0.11619107104049187        0.0000000000000000     
   7.8203433760659011E-002  0.12309297121407115        0.0000000000000000     
   8.0046939868328532E-002  0.13012804431071490        0.0000000000000000     
   8.1800810067999552E-002  0.13729629033042312        0.0000000000000000     
   6.8116488687792132E-002  0.10882970502368837        0.0000000000000000     
   6.9994208143286163E-002  0.11562259614356496        0.0000000000000000     
   7.1788386915759311E-002  0.12254894603140522        0.0000000000000000     
   7.3499025005211549E-002  0.12960875468720914        0.0000000000000000     
   7.5126122411642945E-002  0.13680202211097672        0.0000000000000000     
   6.2190742097638745E-002  0.10828146675194728        0.0000000000000000     
   6.3921120022267838E-002  0.11509728968281391        0.0000000000000000     
   6.5574224543284931E-002  0.12204665378127431        0.0000000000000000     
   6.7150055660690017E-002  0.12912955904732845        0.0000000000000000     
   6.8648613374483081E-002  0.13634600548097642        0.0000000000000000     
   9.5741721238303185E-002  0.13839958153765430        0.0000000000000000     
   9.7647894107980263E-002  0.14563355258220473        0.0000000000000000     
   9.9463492735762216E-002  0.15297812276029196        0.0000000000000000     
  0.10118851712164906       0.16043329207191598        0.0000000000000000     
  0.10282296726564077       0.16799906051707686        0.0000000000000000     
   8.8672676343552970E-002  0.13782881013931564        0.0000000000000000     
   9.0461219672499926E-002  0.14509126331228922        0.0000000000000000     
   9.2164656550861410E-002  0.15246317475537388        0.0000000000000000     
   9.3782986978637406E-002  0.15994454446856973        0.0000000000000000     
   9.5316210955827943E-002  0.16753537245187664        0.0000000000000000     
   8.1800810067999552E-002  0.13729629033042312        0.0000000000000000     
   8.3469832574177880E-002  0.14458553853362424        0.0000000000000000     
   8.5058795601369266E-002  0.15198361818074682        0.0000000000000000     
   8.6567699149573726E-002  0.15949052927179067        0.0000000000000000     
   8.7996543218791218E-002  0.16710627180675600        0.0000000000000000     
   7.5126122411642945E-002  0.13680202211097672        0.0000000000000000     
   7.6673732813014081E-002  0.14411637824620990        0.0000000000000000     
   7.8145909887285758E-002  0.15153945303641067        0.0000000000000000     
   7.9542653634457935E-002  0.15907124648157897        0.0000000000000000     
   8.0863964054530654E-002  0.16671175858171489        0.0000000000000000     
   6.8648613374483081E-002  0.13634600548097642        0.0000000000000000     
   7.0072920389008572E-002  0.14368378245004609        0.0000000000000000     
   7.1425999408610913E-002  0.15113067932236551        0.0000000000000000     
   7.2707850433290103E-002  0.15868669609793457        0.0000000000000000     
   7.3918473463046155E-002  0.16635183277675336        0.0000000000000000     
  0.10282296726564077       0.16799906051707686        0.0000000000000000     
  0.10436927663329469       0.17566482176192733        0.0000000000000000     
  0.10582987869016819       0.18341996947262021        0.0000000000000000     
  0.10720477343626125       0.19126450364915554        0.0000000000000000     
  0.10849396087157387       0.19919842429153331        0.0000000000000000     
   9.5316210955827943E-002  0.16753537245187664        0.0000000000000000     
   9.6764801421225399E-002  0.17522605111294026        0.0000000000000000     
   9.8129231313622167E-002  0.18300697285940618        0.0000000000000000     
   9.9409500633018233E-002  0.19087813769127437        0.0000000000000000     
  0.10060560937941365       0.19883954560854483        0.0000000000000000     
   8.7996543218791218E-002  0.16710627180675600        0.0000000000000000     
   8.9344457350261003E-002  0.17482172589024106        0.0000000000000000     
   9.0610571085222164E-002  0.18262777162684435        0.0000000000000000     
   9.1794884423674741E-002  0.19052440901656575        0.0000000000000000     
   9.2897397365618750E-002  0.19851163805940536        0.0000000000000000     
   8.0863964054530654E-002  0.16671175858171489        0.0000000000000000     
   8.2108244420401502E-002  0.17445184609382966        0.0000000000000000     
   8.3273898004968233E-002  0.18228236577493456        0.0000000000000000     
   8.4360924808230792E-002  0.19020331762502965        0.0000000000000000     
   8.5369324830189192E-002  0.19821470164411489        0.0000000000000000     
   7.3918473463046155E-002  0.16635183277675336        0.0000000000000000     
   7.5056162631646939E-002  0.17411641172370607        0.0000000000000000     
   7.6119212072860334E-002  0.18197075530367698        0.0000000000000000     
   7.7107621786686356E-002  0.18991486351666609        0.0000000000000000     
   7.8021391773124962E-002  0.19794873636267329        0.0000000000000000     
  0.10849396087157387       0.19919842429153331        0.0000000000000000     
  0.10970252896158167       0.20721791919884591        0.0000000000000000     
  0.11083556567176031       0.21531917617018584        0.0000000000000000     
  0.11189307100210978       0.22350219520555303        0.0000000000000000     
  0.11287504495263007       0.23176697630494753        0.0000000000000000     
  0.10060560937941365       0.19883954560854483        0.0000000000000000     
  0.10172301072940151       0.20688482110254208        0.0000000000000000     
  0.10276715785957505       0.21500758866459060        0.0000000000000000     
  0.10373805076993420       0.22320784829469031        0.0000000000000000     
  0.10463568946047896       0.23148559999284124        0.0000000000000000     
   9.2897397365618750E-002  0.19851163805940536        0.0000000000000000     
   9.3922956377071543E-002  0.20658165792286365        0.0000000000000000     
   9.4876407924050429E-002  0.21472666777444094        0.0000000000000000     
   9.5757752006555494E-002  0.22294666761413737        0.0000000000000000     
   9.6566988624586708E-002  0.23124165744195274        0.0000000000000000     
   8.5369324830189192E-002  0.19821470164411489        0.0000000000000000     
   8.6302365904591713E-002  0.20630842965981055        0.0000000000000000     
   8.7163315865186539E-002  0.21447641349973698        0.0000000000000000     
   8.7952174711973710E-002  0.22271865316389408        0.0000000000000000     
   8.8668942444953214E-002  0.23103514865228197        0.0000000000000000     
   7.8021391773124962E-002  0.19794873636267329        0.0000000000000000     
   7.8861239311962011E-002  0.20606513631338280        0.0000000000000000     
   7.9627881682983292E-002  0.21425682584047856        0.0000000000000000     
   8.0321318886188806E-002  0.22252380494396062        0.0000000000000000     
   8.0941550921578578E-002  0.23086607362382894        0.0000000000000000     
  0.11287504495263007       0.23176697630494753        0.0000000000000000     
  0.11380974960255674       0.24013006762450717        0.0000000000000000     
  0.11472544703112528       0.24860801732036997        0.0000000000000000     
  0.11562213723833570       0.25720082539253586        0.0000000000000000     
  0.11649982022418803       0.26590849184100490        0.0000000000000000     
  0.10463568946047896       0.23148559999284124        0.0000000000000000     
  0.10546513084291816       0.23986435276132137        0.0000000000000000     
  0.10623143182896048       0.24836761560240855        0.0000000000000000     
  0.10693459241860599       0.25699538851610276        0.0000000000000000     
  0.10757461261185464       0.26574767150240403        0.0000000000000000     
   9.6566988624586708E-002  0.23124165744195274        0.0000000000000000     
   9.7294957434678808E-002  0.23963814607457612        0.0000000000000000     
   9.7932498093366682E-002  0.24816264232869636        0.0000000000000000     
   9.8479610600650275E-002  0.25681514620431339        0.0000000000000000     
   9.8936294956529586E-002  0.26559565770142723        0.0000000000000000     
   8.8668942444953214E-002  0.23103514865228197        0.0000000000000000     
   8.9299229377838726E-002  0.23945144756427145        0.0000000000000000     
   8.9828645824343856E-002  0.24799309749923340        0.0000000000000000     
   9.0257191784468560E-002  0.25666009845716775        0.0000000000000000     
   9.0584867258212923E-002  0.26545245043807453        0.0000000000000000     
   8.0941550921578578E-002  0.23086607362382894        0.0000000000000000     
   8.1477946672397869E-002  0.23930425723040738        0.0000000000000000     
   8.1919875021891964E-002  0.24785898111401972        0.0000000000000000     
   8.2267335970060876E-002  0.25653024527466589        0.0000000000000000     
   8.2520329516904606E-002  0.26531804971234596        0.0000000000000000     
  0.11649982022418803       0.26590849184100490        0.0000000000000000     
  0.11729882571595357       0.27489561411100177        0.0000000000000000     
  0.11795948344090360       0.28432678964775132        0.0000000000000000     
  0.11848179339903811       0.29420201845125338        0.0000000000000000     
  0.11886575559035716       0.30452130052150811        0.0000000000000000     
  0.10757461261185464       0.26574767150240403        0.0000000000000000     
  0.10813251549437036       0.27475659265998831        0.0000000000000000     
  0.10858932415181706       0.28415428008753152        0.0000000000000000     
  0.10894503858419476       0.29394073378503371        0.0000000000000000     
  0.10919965879150342       0.30411595375249478        0.0000000000000000     
   9.8936294956529586E-002  0.26559565770142723        0.0000000000000000     
   9.9313580852591996E-002  0.27460244765352715        0.0000000000000000     
   9.9622497980424857E-002  0.28393378689410237        0.0000000000000000     
   9.9863046340028155E-002  0.29358967542315284        0.0000000000000000     
  0.10003522593140189       0.30357011324067867        0.0000000000000000     
   9.0584867258212923E-002  0.26545245043807453        0.0000000000000000     
   9.0842021790618496E-002  0.27443317909161846        0.0000000000000000     
   9.1059004926726986E-002  0.28366531006746387        0.0000000000000000     
   9.1235816666538322E-002  0.29314884336561092        0.0000000000000000     
   9.1372457010052532E-002  0.30288377898605962        0.0000000000000000     
   8.2520329516904606E-002  0.26531804971234596        0.0000000000000000     
   8.2717838308449851E-002  0.27424878697426197        0.0000000000000000     
   8.2898844990723419E-002  0.28334884960761592        0.0000000000000000     
   8.3063349563725228E-002  0.29261823761240779        0.0000000000000000     
   8.3211352027455332E-002  0.30205695098863761        0.0000000000000000     
   4.5775109361709976E-002   5.9517786481231238E-002   0.0000000000000000     
   4.8111940869984729E-002   6.5004680710665869E-002   0.0000000000000000     
   5.0360819642367938E-002   7.0671898801636573E-002   0.0000000000000000     
   5.2521745678859623E-002   7.6519440754143311E-002   0.0000000000000000     
   5.4594718979459771E-002   8.2547306568186124E-002   0.0000000000000000     
   4.1479969353063598E-002   5.8840778249788200E-002   0.0000000000000000     
   4.3593661554692534E-002   6.4350279892896878E-002   0.0000000000000000     
   4.5632971350885759E-002   7.0039677400050210E-002   0.0000000000000000     
   4.7597898741643274E-002   7.5908970771248210E-002   0.0000000000000000     
   4.9488443726965078E-002   8.1958160006490866E-002   0.0000000000000000     
   3.7244748873620573E-002   5.8224311519584911E-002   0.0000000000000000     
   3.9153872014841308E-002   6.3753143816614719E-002   0.0000000000000000     
   4.0998576285929365E-002   6.9461954860648836E-002   0.0000000000000000     
   4.2778861686884745E-002   7.5350744651687285E-002   0.0000000000000000     
   4.4494728217707440E-002   8.1419513189730036E-002   0.0000000000000000     
   3.3069447923380894E-002   5.7668386290621404E-002   0.0000000000000000     
   3.4792572250431038E-002   6.3213272481819377E-002   0.0000000000000000     
   3.6457634447498749E-002   6.8938731183432411E-002   0.0000000000000000     
   3.8064634514584028E-002   7.4844762395460507E-002   0.0000000000000000     
   3.9613572451686861E-002   8.0931366117903636E-002   0.0000000000000000     
   2.8954066502344569E-002   5.7173002562897646E-002   0.0000000000000000     
   3.0509762261461737E-002   6.2730665888510881E-002   0.0000000000000000     
   3.2010145835593917E-002   6.8470006368400962E-002   0.0000000000000000     
   3.3455217224741117E-002   7.4391024002567877E-002   0.0000000000000000     
   3.4844976428903329E-002   8.0493718791011651E-002   0.0000000000000000     
   5.4594718979459771E-002   8.2547306568186124E-002   0.0000000000000000     
   5.6591218123836745E-002   8.8744212388279342E-002   0.0000000000000000     
   5.8522721691658897E-002   9.5098874358937255E-002   0.0000000000000000     
   6.0389229682926232E-002  0.10161129248015990        0.0000000000000000     
   6.2190742097638745E-002  0.10828146675194728        0.0000000000000000     
   4.9488443726965078E-002   8.1958160006490866E-002   0.0000000000000000     
   5.1312431852683880E-002   8.8176225534253458E-002   0.0000000000000000     
   5.3077688664632396E-002   9.4552147783011325E-002   0.0000000000000000     
   5.4784214162810603E-002  0.10108592675276441        0.0000000000000000     
   5.6432008347218530E-002  0.10777756244351280        0.0000000000000000     
   4.4494728217707440E-002   8.1419513189730036E-002   0.0000000000000000     
   4.6151676884223350E-002   8.7657232396977092E-002   0.0000000000000000     
   4.7755208692258348E-002   9.4052874195628397E-002   0.0000000000000000     
   4.9305323641812414E-002  0.10060643858568402        0.0000000000000000     
   5.0802021732885574E-002  0.10731792556714391        0.0000000000000000     
   3.9613572451686861E-002   8.0931366117903636E-002   0.0000000000000000     
   4.1108953218455140E-002   8.7187232976450160E-002   0.0000000000000000     
   4.2555281774536734E-002   9.3601053596788511E-002   0.0000000000000000     
   4.3952558119931651E-002  0.10017282797891866        0.0000000000000000     
   4.5300782254639897E-002  0.10690255612284061        0.0000000000000000     
   3.4844976428903329E-002   8.0493718791011651E-002   0.0000000000000000     
   3.6184260855379256E-002   8.6766227272672747E-002   0.0000000000000000     
   3.7477907911467587E-002   9.3196685986491667E-002   0.0000000000000000     
   3.8725917597168334E-002   9.9785094932468371E-002   0.0000000000000000     
   3.9928289912481485E-002  0.10653145411060291        0.0000000000000000     
   6.2190742097638745E-002  0.10828146675194728        0.0000000000000000     
   6.3921120022267838E-002  0.11509728968281391        0.0000000000000000     
   6.5574224543284931E-002  0.12204665378127431        0.0000000000000000     
   6.7150055660690017E-002  0.12912955904732845        0.0000000000000000     
   6.8648613374483081E-002  0.13634600548097642        0.0000000000000000     
   5.6432008347218530E-002  0.10777756244351280        0.0000000000000000     
   5.8014913260487126E-002  0.11461491971439598        0.0000000000000000     
   5.9526770945247373E-002  0.12158586342455358        0.0000000000000000     
   6.0967581401499278E-002  0.12869039357398554        0.0000000000000000     
   6.2337344629242820E-002  0.13592851016269189        0.0000000000000000     
   5.0802021732885574E-002  0.10731792556714391        0.0000000000000000     
   5.2239473736495068E-002  0.11417525429446848        0.0000000000000000     
   5.3611850423658132E-002  0.12116634392211814        0.0000000000000000     
   5.4919151794374746E-002  0.12829119445009288        0.0000000000000000     
   5.6161377848644924E-002  0.13554980587839269        0.0000000000000000     
   4.5300782254639897E-002  0.10690255612284061        0.0000000000000000     
   4.6594801450291670E-002  0.11377829342303139        0.0000000000000000     
   4.7829462978517180E-002  0.12078809527396803        0.0000000000000000     
   4.9004766839316434E-002  0.12793196167565049        0.0000000000000000     
   5.0120713032689432E-002  0.13520989262807886        0.0000000000000000     
   3.9928289912481485E-002  0.10653145411060291        0.0000000000000000     
   4.1080896401876926E-002  0.11342403710008471        0.0000000000000000     
   4.2179608609824545E-002  0.12045111748010322        0.0000000000000000     
   4.3224426536324322E-002  0.12761269525065841        0.0000000000000000     
   4.4215350181376289E-002  0.13490877041175037        0.0000000000000000     
   6.8648613374483081E-002  0.13634600548097642        0.0000000000000000     
   7.0072920389008572E-002  0.14368378245004609        0.0000000000000000     
   7.1425999408610913E-002  0.15113067932236551        0.0000000000000000     
   7.2707850433290103E-002  0.15868669609793457        0.0000000000000000     
   7.3918473463046155E-002  0.16635183277675336        0.0000000000000000     
   6.2337344629242820E-002  0.13592851016269189        0.0000000000000000     
   6.3638080053096055E-002  0.14328827691065255        0.0000000000000000     
   6.4871807097676995E-002  0.15075775753784737        0.0000000000000000     
   6.6038525762985689E-002  0.15833695204427639        0.0000000000000000     
   6.7138236049022110E-002  0.16602586042993961        0.0000000000000000     
   5.6161377848644924E-002  0.13554980587839269        0.0000000000000000     
   5.7339896556211287E-002  0.14293038739354880        0.0000000000000000     
   5.8456075886816367E-002  0.15042114818209235        0.0000000000000000     
   5.9509915840460191E-002  0.15802208824402342        0.0000000000000000     
   6.0501416417142767E-002  0.16573320757934193        0.0000000000000000     
   5.0120713032689432E-002  0.13520989262807886        0.0000000000000000     
   5.1178369898354233E-002  0.14261011389873490        0.0000000000000000     
   5.2178805776028965E-002  0.15012085125510050        0.0000000000000000     
   5.3122020665713622E-002  0.15774210469717559        0.0000000000000000     
   5.4008014567408183E-002  0.16547387422496027        0.0000000000000000     
   4.4215350181376289E-002  0.13490877041175037        0.0000000000000000     
   4.5153500079524941E-002  0.14232745642621086        0.0000000000000000     
   4.6039996765314839E-002  0.14985686675687174        0.0000000000000000     
   4.6874840238745961E-002  0.15749700140373299        0.0000000000000000     
   4.7658030499818316E-002  0.16524786036679465        0.0000000000000000     
   7.3918473463046155E-002  0.16635183277675336        0.0000000000000000     
   7.5056162631646939E-002  0.17411641172370607        0.0000000000000000     
   7.6119212072860334E-002  0.18197075530367698        0.0000000000000000     
   7.7107621786686356E-002  0.18991486351666609        0.0000000000000000     
   7.8021391773124962E-002  0.19794873636267329        0.0000000000000000     
   6.7138236049022110E-002  0.16602586042993961        0.0000000000000000     
   6.8169348240561714E-002  0.17381412430303531        0.0000000000000000     
   6.9130272622380057E-002  0.18169138527176168        0.0000000000000000     
   7.0021009194477096E-002  0.18965764333611873        0.0000000000000000     
   7.0841557956852846E-002  0.19771289849610646        0.0000000000000000     
   6.0501416417142767E-002  0.16573320757934193        0.0000000000000000     
   6.1428937503710285E-002  0.17354368535498227        0.0000000000000000     
   6.2290838987008941E-002  0.18144270073787871        0.0000000000000000     
   6.3087120867038729E-002  0.18943025372803138        0.0000000000000000     
   6.3817783143799670E-002  0.19750634432544012        0.0000000000000000     
   5.4008014567408183E-002  0.16547387422496027        0.0000000000000000     
   5.4834930421092637E-002  0.17330509487954701        0.0000000000000000     
   5.5600911166746994E-002  0.18122470170202820        0.0000000000000000     
   5.6305956804371241E-002  0.18923269469240400        0.0000000000000000     
   5.6950067333965390E-002  0.19732907385067425        0.0000000000000000     
   4.7658030499818316E-002  0.16524786036679465        0.0000000000000000     
   4.8387326992708771E-002  0.17309835287672939        0.0000000000000000     
   4.9060489161594216E-002  0.18103738816421006        0.0000000000000000     
   4.9677517006474631E-002  0.18906496622923655        0.0000000000000000     
   5.0238410527350029E-002  0.19718108707180890        0.0000000000000000     
   7.8021391773124962E-002  0.19794873636267329        0.0000000000000000     
   7.8861239311962011E-002  0.20606513631338280        0.0000000000000000     
   7.9627881682983292E-002  0.21425682584047856        0.0000000000000000     
   8.0321318886188806E-002  0.22252380494396062        0.0000000000000000     
   8.0941550921578578E-002  0.23086607362382894        0.0000000000000000     
   7.0841557956852846E-002  0.19771289849610646        0.0000000000000000     
   7.1590173522575365E-002  0.20585090379889787        0.0000000000000000     
   7.2265110504712654E-002  0.21406541229166579        0.0000000000000000     
   7.2866368903264742E-002  0.22235642397441024        0.0000000000000000     
   7.3393948718231627E-002  0.23072393884713127        0.0000000000000000     
   6.3817783143799670E-002  0.19750634432544012        0.0000000000000000     
   6.4479765459824645E-002  0.20566485803167320        0.0000000000000000     
   6.5070007457646545E-002  0.21389968034829862        0.0000000000000000     
   6.5588509137265424E-002  0.22221081127531644        0.0000000000000000     
   6.6035270498681242E-002  0.23059825081272661        0.0000000000000000     
   5.6950067333965390E-002  0.19732907385067425        0.0000000000000000     
   5.7530015123709831E-002  0.20550699901170874        0.0000000000000000     
   5.8042572541784986E-002  0.21375963001037704        0.0000000000000000     
   5.8487739588190847E-002  0.22208696684667906        0.0000000000000000     
   5.8865516262927423E-002  0.23048900952061493        0.0000000000000000     
   5.0238410527350029E-002  0.19718108707180890        0.0000000000000000     
   5.0740922514230950E-002  0.20537732673900458        0.0000000000000000     
   5.1182805757127948E-002  0.21364526127790101        0.0000000000000000     
   5.1564060256041030E-002  0.22198489068849825        0.0000000000000000     
   5.1884686010970182E-002  0.23039621497079626        0.0000000000000000     
   8.0941550921578578E-002  0.23086607362382894        0.0000000000000000     
   8.1477946672397869E-002  0.23930425723040738        0.0000000000000000     
   8.1919875021891964E-002  0.24785898111401972        0.0000000000000000     
   8.2267335970060876E-002  0.25653024527466589        0.0000000000000000     
   8.2520329516904606E-002  0.26531804971234596        0.0000000000000000     
   7.3393948718231627E-002  0.23072393884713127        0.0000000000000000     
   7.3844579018614520E-002  0.23918159093901892        0.0000000000000000     
   7.4214988873414600E-002  0.24774301427926326        0.0000000000000000     
   7.4505178282631923E-002  0.25640820886786425        0.0000000000000000     
   7.4715147246266447E-002  0.26517717470482199        0.0000000000000000     
   6.6035270498681242E-002  0.23059825081272661        0.0000000000000000     
   6.6412596116746894E-002  0.23906846455614120        0.0000000000000000     
   6.6722790566315304E-002  0.24762791810117207        0.0000000000000000     
   6.6965853847386417E-002  0.25627661144781932        0.0000000000000000     
   6.7141785959960260E-002  0.26501454459608292        0.0000000000000000     
   5.8865516262927423E-002  0.23048900952061493        0.0000000000000000     
   5.9181997966795047E-002  0.23896487808177413        0.0000000000000000     
   5.9443280100594013E-002  0.24751369257974626        0.0000000000000000     
   5.9649362664324371E-002  0.25613545301453117        0.0000000000000000     
   5.9800245657986070E-002  0.26483015938612897        0.0000000000000000     
   5.1884686010970182E-002  0.23039621497079626        0.0000000000000000     
   5.2152784568758929E-002  0.23887083151591781        0.0000000000000000     
   5.2376457476250797E-002  0.24740033771498560        0.0000000000000000     
   5.2555704733445771E-002  0.25598473356799967        0.0000000000000000     
   5.2690526340343852E-002  0.26462401907496003        0.0000000000000000     
   8.2520329516904606E-002  0.26531804971234596        0.0000000000000000     
   8.2717838308449851E-002  0.27424878697426197        0.0000000000000000     
   8.2898844990723419E-002  0.28334884960761592        0.0000000000000000     
   8.3063349563725228E-002  0.29261823761240779        0.0000000000000000     
   8.3211352027455332E-002  0.30205695098863761        0.0000000000000000     
   7.4715147246266447E-002  0.26517717470482199        0.0000000000000000     
   7.4885836011070017E-002  0.27404358354680736        0.0000000000000000     
   7.5058184823794449E-002  0.28300110715049132        0.0000000000000000     
   7.5232193684439785E-002  0.29204974551587382        0.0000000000000000     
   7.5407862593005998E-002  0.30118949864295502        0.0000000000000000     
   6.7141785959960260E-002  0.26501454459608292        0.0000000000000000     
   6.7290820503462925E-002  0.27381188105460375        0.0000000000000000     
   6.7453191077320465E-002  0.28263878433202250        0.0000000000000000     
   6.7628897681532851E-002  0.29149525442833918        0.0000000000000000     
   6.7817940316100125E-002  0.30038129134355401        0.0000000000000000     
   5.9800245657986070E-002  0.26483015938612897        0.0000000000000000     
   5.9932791785628589E-002  0.27355367949765125        0.0000000000000000     
   6.0083863751301370E-002  0.28226188115220963        0.0000000000000000     
   6.0253461555004453E-002  0.29095476434980405        0.0000000000000000     
   6.0441585196737757E-002  0.29963232909043447        0.0000000000000000     
   5.2690526340343852E-002  0.26462401907496003        0.0000000000000000     
   5.2811749857567016E-002  0.27326897887594986        0.0000000000000000     
   5.2950202845737260E-002  0.28187039761105259        0.0000000000000000     
   5.3105885304854543E-002  0.29042827528026816        0.0000000000000000     
   5.3278797234918886E-002  0.29894261188359661        0.0000000000000000     
   2.8954066502344569E-002   5.7173002562897646E-002   0.0000000000000000     
   3.0509762261461737E-002   6.2730665888510881E-002   0.0000000000000000     
   3.2010145835593917E-002   6.8470006368400962E-002   0.0000000000000000     
   3.3455217224741117E-002   7.4391024002567877E-002   0.0000000000000000     
   3.4844976428903329E-002   8.0493718791011651E-002   0.0000000000000000     
   2.4956599321766193E-002   5.6737280533245490E-002   0.0000000000000000     
   2.6345197289495539E-002   6.2305419507359010E-002   0.0000000000000000     
   2.7680857606623137E-002   6.8056476396617688E-002   0.0000000000000000     
   2.8963580273148992E-002   7.3990451201021545E-002   0.0000000000000000     
   3.0193365289073099E-002   8.0107343920570562E-002   0.0000000000000000     
   2.1135041092900365E-002   5.6360340398496800E-002   0.0000000000000000     
   2.2338632576094586E-002   6.1937628809033585E-002   0.0000000000000000     
   2.3494516916994675E-002   6.7698837249145841E-002   0.0000000000000000     
   2.4602694115600614E-002   7.3643965718833554E-002   0.0000000000000000     
   2.5663164171912421E-002   7.9773014218096794E-002   0.0000000000000000     
   1.7489391815747084E-002   5.6042182158651560E-002   0.0000000000000000     
   1.8490068121258887E-002   6.1627293793534606E-002   0.0000000000000000     
   1.9451123766708520E-002   6.7397088925985435E-002   0.0000000000000000     
   2.0372558752095989E-002   7.3351567556004013E-002   0.0000000000000000     
   2.1254373077421292E-002   7.9490729683590347E-002   0.0000000000000000     
   1.4019651490306352E-002   5.5782805813709764E-002   0.0000000000000000     
   1.4799503924988432E-002   6.1374414460862087E-002   0.0000000000000000     
   1.5550678155764684E-002   6.7151231427136443E-002   0.0000000000000000     
   1.6273174182635110E-002   7.3113256712532812E-002   0.0000000000000000     
   1.6966992005599712E-002   7.9260490317051235E-002   0.0000000000000000     
   3.4844976428903329E-002   8.0493718791011651E-002   0.0000000000000000     
   3.6184260855379256E-002   8.6766227272672747E-002   0.0000000000000000     
   3.7477907911467587E-002   9.3196685986491667E-002   0.0000000000000000     
   3.8725917597168334E-002   9.9785094932468371E-002   0.0000000000000000     
   3.9928289912481485E-002  0.10653145411060291        0.0000000000000000     
   3.0193365289073099E-002   8.0107343920570562E-002   0.0000000000000000     
   3.1375680294097832E-002   8.6394681744883683E-002   0.0000000000000000     
   3.2515992927925577E-002   9.2839991863579843E-002   0.0000000000000000     
   3.3614303190556326E-002   9.9443274276659069E-002   0.0000000000000000     
   3.4670611081990065E-002  0.10620452898412135        0.0000000000000000     
   2.5663164171912421E-002   7.9773014218096794E-002   0.0000000000000000     
   2.6681292033713024E-002   8.6073062852321844E-002   0.0000000000000000     
   2.7662442648785389E-002   9.2531191726895140E-002   0.0000000000000000     
   2.8606616017129497E-002   9.9147400841816682E-002   0.0000000000000000     
   2.9513812138745366E-002  0.10592169019708644        0.0000000000000000     
   2.1254373077421292E-002   7.9490729683590347E-002   0.0000000000000000     
   2.2101096074224832E-002   8.5801370594987256E-002   0.0000000000000000     
   2.2917257074047025E-002   9.2270285576437516E-002   0.0000000000000000     
   2.3702856076887879E-002   9.8897474627941198E-002   0.0000000000000000     
   2.4457893082747383E-002  0.10568293774949822        0.0000000000000000     
   1.6966992005599712E-002   7.9260490317051235E-002   0.0000000000000000     
   1.7635092415633252E-002   8.5579604972879919E-002   0.0000000000000000     
   1.8280436203710500E-002   9.2057273412207027E-002   0.0000000000000000     
   1.8903023369831462E-002   9.8693495635032616E-002   0.0000000000000000     
   1.9502853913996126E-002  0.10548827164135667        0.0000000000000000     
   3.9928289912481485E-002  0.10653145411060291        0.0000000000000000     
   4.1080896401876926E-002  0.11342403710008471        0.0000000000000000     
   4.2179608609824545E-002  0.12045111748010322        0.0000000000000000     
   4.3224426536324322E-002  0.12761269525065841        0.0000000000000000     
   4.4215350181376289E-002  0.13490877041175037        0.0000000000000000     
   3.4670611081990065E-002  0.10620452898412135        0.0000000000000000     
   3.5681781322427365E-002  0.11311225058291172        0.0000000000000000     
   3.6644678632068772E-002  0.12015493366997519        0.0000000000000000     
   3.7559303010914286E-002  0.12733257824531183        0.0000000000000000     
   3.8425654458963898E-002  0.13464518430892161        0.0000000000000000     
   2.9513812138745366E-002  0.10592169019708644        0.0000000000000000     
   3.0381478943119499E-002  0.11284269912879565        0.0000000000000000     
   3.1207064359738419E-002  0.11989906697303546        0.0000000000000000     
   3.1990568388602134E-002  0.12709079372980592        0.0000000000000000     
   3.2731991029710639E-002  0.13441787939910699        0.0000000000000000     
   2.4457893082747383E-002  0.10568293774949822        0.0000000000000000     
   2.5179989263953328E-002  0.11261538273773654        0.0000000000000000     
   2.5866765792833493E-002  0.11968351738928402        0.0000000000000000     
   2.6518222669387883E-002  0.12688734170414065        0.0000000000000000     
   2.7134359893616494E-002  0.13422685568230647        0.0000000000000000     
   1.9502853913996126E-002  0.10548827164135667        0.0000000000000000     
   2.0077312284928851E-002  0.11243030140973434        0.0000000000000000     
   2.0623782931353984E-002  0.11950828491872080        0.0000000000000000     
   2.1142265853271527E-002  0.12672222216831605        0.0000000000000000     
   2.1632761050681480E-002  0.13407211315852011        0.0000000000000000     
   4.4215350181376289E-002  0.13490877041175037        0.0000000000000000     
   4.5153500079524941E-002  0.14232745642621086        0.0000000000000000     
   4.6039996765314839E-002  0.14985686675687174        0.0000000000000000     
   4.6874840238745961E-002  0.15749700140373299        0.0000000000000000     
   4.7658030499818316E-002  0.16524786036679465        0.0000000000000000     
   3.8425654458963898E-002  0.13464518430892161        0.0000000000000000     
   3.9244980135413804E-002  0.14208071236439496        0.0000000000000000     
   4.0018527199460169E-002  0.14962712291532212        0.0000000000000000     
   4.0746295651103000E-002  0.15728441596170323        0.0000000000000000     
   4.1428285490342297E-002  0.16505259150353824        0.0000000000000000     
   3.2731991029710639E-002  0.13441787939910699        0.0000000000000000     
   3.3432503101711225E-002  0.14186817910170535        0.0000000000000000     
   3.4093275423251176E-002  0.14942954795836766        0.0000000000000000     
   3.4714307994330521E-002  0.15710198596909392        0.0000000000000000     
   3.5295600814949236E-002  0.16488549313388418        0.0000000000000000     
   2.7134359893616494E-002  0.13422685568230647        0.0000000000000000     
   2.7716068978417205E-002  0.14168985663814215        0.0000000000000000     
   2.8264241436687879E-002  0.14926414188600837        0.0000000000000000     
   2.8778877268428527E-002  0.15694971142590516        0.0000000000000000     
   2.9259976473639138E-002  0.16474656525783243        0.0000000000000000     
   2.1632761050681480E-002  0.13407211315852011        0.0000000000000000     
   2.2095677765531750E-002  0.14154574497370534        0.0000000000000000     
   2.2531425239770263E-002  0.14913090469824425        0.0000000000000000     
   2.2940003473397017E-002  0.15682759233213681        0.0000000000000000     
   2.3321412466412006E-002  0.16463580787538307        0.0000000000000000     
   4.7658030499818316E-002  0.16524786036679465        0.0000000000000000     
   4.8387326992708771E-002  0.17309835287672939        0.0000000000000000     
   4.9060489161594216E-002  0.18103738816421006        0.0000000000000000     
   4.9677517006474631E-002  0.18906496622923655        0.0000000000000000     
   5.0238410527350029E-002  0.19718108707180890        0.0000000000000000     
   4.1428285490342297E-002  0.16505259150353824        0.0000000000000000     
   4.2061947000557091E-002  0.17292058105042155        0.0000000000000000     
   4.2644730465126429E-002  0.18087731611194763        0.0000000000000000     
   4.3176635884050296E-002  0.18892279668811648        0.0000000000000000     
   4.3657663257328706E-002  0.19705702277892806        0.0000000000000000     
   3.5295600814949236E-002  0.16488549313388418        0.0000000000000000     
   3.5834610226636004E-002  0.17276890110451526        0.0000000000000000     
   3.6328792570919470E-002  0.18074104153276430        0.0000000000000000     
   3.6778147847799661E-002  0.18880191441863109        0.0000000000000000     
   3.7182676057276556E-002  0.19695151976211578        0.0000000000000000     
   2.9259976473639138E-002  0.16474656525783243        0.0000000000000000     
   2.9705316670945493E-002  0.17264331303901059        0.0000000000000000     
   3.0112675478973349E-002  0.18062856442665989        0.0000000000000000     
   3.0482052897722711E-002  0.18870231942078039        0.0000000000000000     
   3.0813448927193572E-002  0.19686457802137206        0.0000000000000000     
   2.3321412466412006E-002  0.16463580787538307        0.0000000000000000     
   2.3674066333485570E-002  0.17254381685390746        0.0000000000000000     
   2.3996379189288052E-002  0.18053988479363459        0.0000000000000000     
   2.4288351033819450E-002  0.18862401169456439        0.0000000000000000     
   2.4549981867079761E-002  0.19679619755669689        0.0000000000000000     
   5.0238410527350029E-002  0.19718108707180890        0.0000000000000000     
   5.0740922514230950E-002  0.20537732673900458        0.0000000000000000     
   5.1182805757127948E-002  0.21364526127790101        0.0000000000000000     
   5.1564060256041030E-002  0.22198489068849825        0.0000000000000000     
   5.1884686010970182E-002  0.23039621497079626        0.0000000000000000     
   4.3657663257328706E-002  0.19705702277892806        0.0000000000000000     
   4.4086909250467841E-002  0.20526962890983080        0.0000000000000000     
   4.4463470528973884E-002  0.21355024960627331        0.0000000000000000     
   4.4787347092846840E-002  0.22189888486825543        0.0000000000000000     
   4.5058538942086709E-002  0.23031553469577720        0.0000000000000000     
   3.7182676057276556E-002  0.19695151976211578        0.0000000000000000     
   3.7542396951500349E-002  0.20517769322045773        0.0000000000000000     
   3.7857330282621227E-002  0.21346827045089650        0.0000000000000000     
   3.8127476050639174E-002  0.22182325145343212        0.0000000000000000     
   3.8352834255554226E-002  0.23024263622806446        0.0000000000000000     
   3.0813448927193572E-002  0.19686457802137206        0.0000000000000000     
   3.1107385617328485E-002  0.20510151967088533        0.0000000000000000     
   3.1364385018069978E-002  0.21339932381177068        0.0000000000000000     
   3.1584447129418054E-002  0.22175799044402830        0.0000000000000000     
   3.1767571951372704E-002  0.23017751956765792        0.0000000000000000     
   2.4549981867079761E-002  0.19679619755669689        0.0000000000000000     
   2.4781875247952237E-002  0.20504110826111357        0.0000000000000000     
   2.4984634735320130E-002  0.21334340968889595        0.0000000000000000     
   2.5158260329183446E-002  0.22170310184004396        0.0000000000000000     
   2.5302752029542172E-002  0.23012018471455764        0.0000000000000000     
   5.1884686010970182E-002  0.23039621497079626        0.0000000000000000     
   5.2152784568758929E-002  0.23887083151591781        0.0000000000000000     
   5.2376457476250797E-002  0.24740033771498560        0.0000000000000000     
   5.2555704733445771E-002  0.25598473356799967        0.0000000000000000     
   5.2690526340343852E-002  0.26462401907496003        0.0000000000000000     
   4.5058538942086709E-002  0.23031553469577720        0.0000000000000000     
   4.5285869184684815E-002  0.23878489623770474        0.0000000000000000     
   4.5478160928632480E-002  0.24729166664290397        0.0000000000000000     
   4.5635414173929689E-002  0.25583584591137493        0.0000000000000000     
   4.5757628920576464E-002  0.26441743404311757        0.0000000000000000     
   3.8352834255554226E-002  0.23024263622806446        0.0000000000000000     
   3.8542165076618937E-002  0.23870564362626745        0.0000000000000000     
   3.8704228693085929E-002  0.24719149249951497        0.0000000000000000     
   3.8839025104955197E-002  0.25570018284780693        0.0000000000000000     
   3.8946554312226746E-002  0.26423171467114337        0.0000000000000000     
   3.1767571951372704E-002  0.23017751956765792        0.0000000000000000     
   3.1921672244561293E-002  0.23863307368160591        0.0000000000000000     
   3.2054660769611151E-002  0.24709981528481847        0.0000000000000000     
   3.2166537526522286E-002  0.25557774437729563        0.0000000000000000     
   3.2257302515294704E-002  0.26406686095903731        0.0000000000000000     
   2.5302752029542172E-002  0.23012018471455764        0.0000000000000000     
   2.5424390688511884E-002  0.23856718640372016        0.0000000000000000     
   2.5529457158208150E-002  0.24701663499881465        0.0000000000000000     
   2.5617951438630965E-002  0.25546853049984103        0.0000000000000000     
   2.5689873529780340E-002  0.26392287290679944        0.0000000000000000     
   5.2690526340343852E-002  0.26462401907496003        0.0000000000000000     
   5.2811749857567016E-002  0.27326897887594986        0.0000000000000000     
   5.2950202845737260E-002  0.28187039761105259        0.0000000000000000     
   5.3105885304854543E-002  0.29042827528026816        0.0000000000000000     
   5.3278797234918886E-002  0.29894261188359661        0.0000000000000000     
   4.5757628920576464E-002  0.26441743404311757        0.0000000000000000     
   4.5868942516522411E-002  0.27298648725208352        0.0000000000000000     
   4.5993492309717172E-002  0.28149306175222399        0.0000000000000000     
   4.6131278300160755E-002  0.28993715754353905        0.0000000000000000     
   4.6282300487853131E-002  0.29831877462602885        0.0000000000000000     
   3.8946554312226746E-002  0.26423171467114337        0.0000000000000000     
   3.9045617559738961E-002  0.27273491268863598        0.0000000000000000     
   3.9155016092330276E-002  0.28115860161939621        0.0000000000000000     
   3.9274749910000656E-002  0.28950278146342423        0.0000000000000000     
   3.9404819012750135E-002  0.29776745222071987        0.0000000000000000     
   3.2257302515294704E-002  0.26406686095903731        0.0000000000000000     
   3.2341774987216687E-002  0.27251425518560740        0.0000000000000000     
   3.2434774193576550E-002  0.28086701721256940        0.0000000000000000     
   3.2536300134374294E-002  0.28912514703992354        0.0000000000000000     
   3.2646352809609896E-002  0.29728864466766969        0.0000000000000000     
   2.5689873529780340E-002  0.26392287290679944        0.0000000000000000     
   2.5757414798955575E-002  0.27232451474299763        0.0000000000000000     
   2.5832766613456001E-002  0.28061830853174352        0.0000000000000000     
   2.5915928973281609E-002  0.28880425427303702        0.0000000000000000     
   2.6006901878432406E-002  0.29688235196687818        0.0000000000000000     
   1.4019651490306352E-002   5.5782805813709764E-002   0.0000000000000000     
   1.4799503924988432E-002   6.1374414460862087E-002   0.0000000000000000     
   1.5550678155764684E-002   6.7151231427136443E-002   0.0000000000000000     
   1.6273174182635110E-002   7.3113256712532812E-002   0.0000000000000000     
   1.6966992005599712E-002   7.9260490317051235E-002   0.0000000000000000     
   1.0607083884985038E-002   5.5581568590401781E-002   0.0000000000000000     
   1.1165861879420494E-002   6.1178281905781007E-002   0.0000000000000000     
   1.1707031890031812E-002   6.6960558351240720E-002   0.0000000000000000     
   1.2230593916818995E-002   7.2928397926780950E-002   0.0000000000000000     
   1.2736547959782043E-002   7.9081800632401666E-002   0.0000000000000000     
   7.1329527681900096E-003   5.5437827715457966E-002   0.0000000000000000     
   7.4880638766923425E-003   6.1038187223056373E-002   0.0000000000000000     
   7.8340367753785573E-003   6.6824363296940151E-002   0.0000000000000000     
   8.1708714642486566E-003   7.2796355937109328E-002   0.0000000000000000     
   8.4985679433026359E-003   7.8954165143563876E-002   0.0000000000000000     
   3.5972581399212663E-003   5.5351583188878312E-002   0.0000000000000000     
   3.7661099168039775E-003   6.0954130412688184E-002   0.0000000000000000     
   3.9316928118049207E-003   6.6742646264234720E-002   0.0000000000000000     
   4.0940068249240942E-003   7.2717130743517919E-002   0.0000000000000000     
   4.2530519561614979E-003   7.8877583850537822E-002   0.0000000000000000     
   1.7880792332891637E-013   5.5322835010662832E-002   0.0000000000000000     
  -2.4459947955968175E-013   6.0926111474676442E-002   0.0000000000000000     
  -6.8909851783094389E-013   6.6715407253124415E-002   0.0000000000000000     
  -1.1546907093679115E-012   7.2690722346006778E-002   0.0000000000000000     
  -1.6413749699684121E-012   7.8852056753323532E-002   0.0000000000000000     
   1.6966992005599712E-002   7.9260490317051235E-002   0.0000000000000000     
   1.7635092415633252E-002   8.5579604972879919E-002   0.0000000000000000     
   1.8280436203710500E-002   9.2057273412207027E-002   0.0000000000000000     
   1.8903023369831462E-002   9.8693495635032616E-002   0.0000000000000000     
   1.9502853913996126E-002  0.10548827164135667        0.0000000000000000     
   1.2736547959782043E-002   7.9081800632401666E-002   0.0000000000000000     
   1.3226218508420175E-002   8.5407402956512835E-002   0.0000000000000000     
   1.3700930052232621E-002   9.1891841387524334E-002   0.0000000000000000     
   1.4160682591219378E-002   9.8535115925436262E-002   0.0000000000000000     
   1.4605476125380445E-002  0.10533722657024852        0.0000000000000000     
   8.4985679433026359E-003   7.8954165143563876E-002   0.0000000000000000     
   8.8174118030674882E-003   8.5284401516399058E-002   0.0000000000000000     
   9.1276886340702010E-003   9.1773675655710263E-002   0.0000000000000000     
   9.4293984363107708E-003   9.8421987561497420E-002   0.0000000000000000     
   9.7225412097892028E-003  0.10522933723376054        0.0000000000000000     
   4.2530519561614979E-003   7.8877583850537822E-002   0.0000000000000000     
   4.4086722995751925E-003   8.5210600652538659E-002   0.0000000000000000     
   4.5607119492232420E-003   9.1702776216764745E-002   0.0000000000000000     
   4.7091709051056436E-003   9.8354110543216119E-002   0.0000000000000000     
   4.8540491672223966E-003  0.10516460363189273        0.0000000000000000     
  -1.6413749699684121E-012   7.8852056753323532E-002   0.0000000000000000     
  -2.0567102708424212E-012   8.5186000364931583E-002   0.0000000000000000     
  -2.3082552579392623E-012   9.1679143070687849E-002   0.0000000000000000     
  -2.3960085489011657E-012   9.8331484870592345E-002   0.0000000000000000     
  -2.3199723392375304E-012  0.10514302576464506        0.0000000000000000     
   1.9502853913996126E-002  0.10548827164135667        0.0000000000000000     
   2.0077312284928851E-002  0.11243030140973434        0.0000000000000000     
   2.0623782931353984E-002  0.11950828491872080        0.0000000000000000     
   2.1142265853271527E-002  0.12672222216831605        0.0000000000000000     
   2.1632761050681480E-002  0.13407211315852011        0.0000000000000000     
   1.4605476125380445E-002  0.10533722657024852        0.0000000000000000     
   1.5032527295271117E-002  0.11228683308781301        0.0000000000000000     
   1.5439052741446687E-002  0.11937259524398147        0.0000000000000000     
   1.5825052463907148E-002  0.12659451303875394        0.0000000000000000     
   1.6190526462652503E-002  0.13395258647213040        0.0000000000000000     
   9.7225412097892028E-003  0.10522933723376054        0.0000000000000000     
   1.0004713584205179E-002  0.11218435571499637        0.0000000000000000     
   1.0273512189258389E-002  0.11927567404770154        0.0000000000000000     
   1.0528937024948830E-002  0.12650329223187609        0.0000000000000000     
   1.0770988091276499E-002  0.13386721026752002        0.0000000000000000     
   4.8540491672223966E-003  0.10516460363189273        0.0000000000000000     
   4.9938711517310370E-003  0.11212286929128441        0.0000000000000000     
   5.1271612747890933E-003  0.11921752132988103        0.0000000000000000     
   5.2539195363965653E-003  0.12644855974768254        0.0000000000000000     
   5.3741459365534558E-003  0.13381598454468896        0.0000000000000000     
  -2.3199723392375304E-012  0.10514302576464506        0.0000000000000000     
  -2.1513147166474234E-012  0.11210237381667720        0.0000000000000000     
  -1.9612020341064351E-012  0.11919813709051993        0.0000000000000000     
  -1.7496381947423867E-012  0.12643031558617324        0.0000000000000000     
  -1.5166201627891951E-012  0.13379890930363719        0.0000000000000000     
   2.1632761050681480E-002  0.13407211315852011        0.0000000000000000     
   2.2095677765531750E-002  0.14154574497370534        0.0000000000000000     
   2.2531425239770263E-002  0.14913090469824425        0.0000000000000000     
   2.2940003473397017E-002  0.15682759233213681        0.0000000000000000     
   2.3321412466412006E-002  0.16463580787538307        0.0000000000000000     
   1.6190526462652503E-002  0.13395258647213040        0.0000000000000000     
   1.6535420586844454E-002  0.14143461449192390        0.0000000000000000     
   1.6859680685644682E-002  0.14902839604594756        0.0000000000000000     
   1.7163306759053192E-002  0.15673393113420134        0.0000000000000000     
   1.7446298807069983E-002  0.16455121975668519        0.0000000000000000     
   1.0770988091276499E-002  0.13386721026752002        0.0000000000000000     
   1.0999388566144882E-002  0.14135523557632698        0.0000000000000000     
   1.1213861627457467E-002  0.14895517557999061        0.0000000000000000     
   1.1414407275214249E-002  0.15666703027851100        0.0000000000000000     
   1.1601025509415230E-002  0.16449079967188798        0.0000000000000000     
   5.3741459365534558E-003  0.13381598454468896        0.0000000000000000     
   5.4875817034330480E-003  0.14130760822691452        0.0000000000000000     
   5.5939680652086271E-003  0.14891124330037342        0.0000000000000000     
   5.6933050218801939E-003  0.15662688976506572        0.0000000000000000     
   5.7855925734477441E-003  0.16445454762099140        0.0000000000000000     
  -1.5166201627891951E-012  0.13379890930363719        0.0000000000000000     
  -1.2910536355270619E-012  0.14129173244368648        0.0000000000000000     
  -1.1018395397466296E-012  0.14889659920709597        0.0000000000000000     
  -9.4897928491072259E-013  0.15661350959386564        0.0000000000000000     
  -8.3247167839695102E-013  0.16444246360399548        0.0000000000000000     
   2.3321412466412006E-002  0.16463580787538307        0.0000000000000000     
   2.3674066333485570E-002  0.17254381685390746        0.0000000000000000     
   2.3996379189288052E-002  0.18053988479363459        0.0000000000000000     
   2.4288351033819450E-002  0.18862401169456439        0.0000000000000000     
   2.4549981867079761E-002  0.19679619755669689        0.0000000000000000     
   1.7446298807069983E-002  0.16455121975668519        0.0000000000000000     
   1.7707765641337813E-002  0.17246817288961566        0.0000000000000000     
   1.7946816073499440E-002  0.18047270150920927        0.0000000000000000     
   1.8163450103554860E-002  0.18856480561546601        0.0000000000000000     
   1.8357667731504081E-002  0.19674448520838589        0.0000000000000000     
   1.1601025509415230E-002  0.16449079967188798        0.0000000000000000     
   1.1773321021583807E-002  0.17241414148654491        0.0000000000000000     
   1.1930898503243373E-002  0.18042471344890498        0.0000000000000000     
   1.2073757954393935E-002  0.18852251555896818        0.0000000000000000     
   1.2201899375035486E-002  0.19670754781673463        0.0000000000000000     
   5.7855925734477441E-003  0.16445454762099140        0.0000000000000000     
   5.8707324742235441E-003  0.17238172264469512        0.0000000000000000     
   5.9486264785198516E-003  0.18039592061272164        0.0000000000000000     
   6.0192745863366648E-003  0.18849714152507097        0.0000000000000000     
   6.0826767976739880E-003  0.19668538538174304        0.0000000000000000     
  -8.3247167839695102E-013  0.16444246360399548        0.0000000000000000     
  -7.4297209010087961E-013  0.17237091636406643        0.0000000000000000     
  -6.7112808366243115E-013  0.18038632300065935        0.0000000000000000     
  -6.1694529693290256E-013  0.18848868351377429        0.0000000000000000     
  -5.8041982678447290E-013  0.19667799790341123        0.0000000000000000     
   2.4549981867079761E-002  0.19679619755669689        0.0000000000000000     
   2.4781875247952237E-002  0.20504110826111357        0.0000000000000000     
   2.4984634735320130E-002  0.21334340968889595        0.0000000000000000     
   2.5158260329183446E-002  0.22170310184004396        0.0000000000000000     
   2.5302752029542172E-002  0.23012018471455764        0.0000000000000000     
   1.8357667731504081E-002  0.19674448520838589        0.0000000000000000     
   1.8529938129686875E-002  0.20499514421372467        0.0000000000000000     
   1.8680730470443049E-002  0.21330018655723798        0.0000000000000000     
   1.8810044753772591E-002  0.22165961223892594        0.0000000000000000     
   1.8917880979675509E-002  0.23007342125878852        0.0000000000000000     
   1.2201899375035486E-002  0.19670754781673463        0.0000000000000000     
   1.2315646548847654E-002  0.20496231275130067        0.0000000000000000     
   1.2415323259510065E-002  0.21326931289176274        0.0000000000000000     
   1.2500929507022718E-002  0.22162854823812100        0.0000000000000000     
   1.2572465291385612E-002  0.23004001879037536        0.0000000000000000     
   6.0826767976739880E-003  0.19668538538174304        0.0000000000000000     
   6.1390005054345748E-003  0.20494261387384161        0.0000000000000000     
   6.1884131025211854E-003  0.21325078869247033        0.0000000000000000     
   6.2309145889338198E-003  0.22160990983762915        0.0000000000000000     
   6.2665049646724790E-003  0.23001997730931814        0.0000000000000000     
  -5.8041982678447290E-013  0.19667799790341123        0.0000000000000000     
  -5.5236544505010698E-013  0.20493604758134759        0.0000000000000000     
  -5.2359408041907640E-013  0.21324461395936065        0.0000000000000000     
  -4.9409974267437817E-013  0.22160369703745045        0.0000000000000000     
  -4.6388977728573089E-013  0.23001329681561700        0.0000000000000000     
   2.5302752029542172E-002  0.23012018471455764        0.0000000000000000     
   2.5424390688511884E-002  0.23856718640372016        0.0000000000000000     
   2.5529457158208150E-002  0.24701663499881465        0.0000000000000000     
   2.5617951438630965E-002  0.25546853049984103        0.0000000000000000     
   2.5689873529780340E-002  0.26392287290679944        0.0000000000000000     
   1.8917880979675509E-002  0.23007342125878852        0.0000000000000000     
   1.9008609331918697E-002  0.23851245870228160        0.0000000000000000     
   1.9086599994269045E-002  0.24694756965486123        0.0000000000000000     
   1.9151852966726567E-002  0.25537875411652733        0.0000000000000000     
   1.9204368249291247E-002  0.26380601208727994        0.0000000000000000     
   1.2572465291385612E-002  0.23004001879037536        0.0000000000000000     
   1.2632617098229711E-002  0.23847336748696174        0.0000000000000000     
   1.2684071413185984E-002  0.24689823726631610        0.0000000000000000     
   1.2726828236254427E-002  0.25531462812843858        0.0000000000000000     
   1.2760887567435044E-002  0.26372254007332896        0.0000000000000000     
   6.2665049646724790E-003  0.23001997730931814        0.0000000000000000     
   6.2964139874449321E-003  0.23844991275776045        0.0000000000000000     
   6.3218714149589576E-003  0.24686863783317933        0.0000000000000000     
   6.3428772472145512E-003  0.25527615253557473        0.0000000000000000     
   6.3594314842117146E-003  0.26367245686494667        0.0000000000000000     
  -4.6388977728573089E-013  0.23001329681561700        0.0000000000000000     
  -4.3564023916031758E-013  0.23844209451467790        0.0000000000000000     
  -4.1203173685444572E-013  0.24685877135545087        0.0000000000000000     
  -3.9306280669518245E-013  0.25526332733793583        0.0000000000000000     
  -3.7873480393524339E-013  0.26365576246213285        0.0000000000000000     
   2.5689873529780340E-002  0.26392287290679944        0.0000000000000000     
   2.5757414798955575E-002  0.27232451474299763        0.0000000000000000     
   2.5832766613456001E-002  0.28061830853174352        0.0000000000000000     
   2.5915928973281609E-002  0.28880425427303702        0.0000000000000000     
   2.6006901878432406E-002  0.29688235196687818        0.0000000000000000     
   1.9204368249291247E-002  0.26380601208727994        0.0000000000000000     
   1.9254112126900060E-002  0.27217201806964320        0.0000000000000000     
   1.9311050884489964E-002  0.28041944656614132        0.0000000000000000     
   1.9375184522060954E-002  0.28854829757677425        0.0000000000000000     
   1.9446513039613041E-002  0.29655857110154205        0.0000000000000000     
   1.2760887567435044E-002  0.26372254007332896        0.0000000000000000     
   1.2793442102994577E-002  0.27206309187438038        0.0000000000000000     
   1.2831684539199773E-002  0.28027740230498560        0.0000000000000000     
   1.2875614876050635E-002  0.28836547136514473        0.0000000000000000     
   1.2925233113547163E-002  0.29632729905485766        0.0000000000000000     
   6.3594314842117146E-003  0.26367245686494667        0.0000000000000000     
   6.3754047272391156E-003  0.27199773615720918        0.0000000000000000     
   6.3946675775854262E-003  0.28019217574827637        0.0000000000000000     
   6.4172200352506465E-003  0.28825577563814841        0.0000000000000000     
   6.4430621002347739E-003  0.29618853582682514        0.0000000000000000     
  -3.7873480393524339E-013  0.26365576246213285        0.0000000000000000     
  -3.6631591857072543E-013  0.27197595091812959        0.0000000000000000     
  -3.5307509953924621E-013  0.28016376689601380        0.0000000000000000     
  -3.3901112711336168E-013  0.28821921039578535        0.0000000000000000     
  -3.2412527523062451E-013  0.29614228141744436        0.0000000000000000     
   1.7880792332891637E-013   5.5322835010662832E-002   0.0000000000000000     
  -2.4459947955968175E-013   6.0926111474676442E-002   0.0000000000000000     
  -6.8909851783094389E-013   6.6715407253124415E-002   0.0000000000000000     
  -1.1546907093679115E-012   7.2690722346006778E-002   0.0000000000000000     
  -1.6413749699684121E-012   7.8852056753323532E-002   0.0000000000000000     
  -3.5972581397234939E-003   5.5351583181530807E-002   0.0000000000000000     
  -3.7661099174091418E-003   6.0954130409345136E-002   0.0000000000000000     
  -3.9316928132524494E-003   6.6742646263659763E-002   0.0000000000000000     
  -4.0940068272534141E-003   7.2717130744474640E-002   0.0000000000000000     
  -4.2530519594120332E-003   7.8877583851789820E-002   0.0000000000000000     
  -7.1329527684717677E-003   5.5437827702201500E-002   0.0000000000000000     
  -7.4880638776454065E-003   6.1038187217018300E-002   0.0000000000000000     
  -7.8340367770340785E-003   6.6824363295891212E-002   0.0000000000000000     
  -8.1708714666377923E-003   7.2796355938820292E-002   0.0000000000000000     
  -8.4985679464565349E-003   7.8954165145805472E-002   0.0000000000000000     
  -1.0607083886066014E-002   5.5581568572674933E-002   0.0000000000000000     
  -1.1165861880953389E-002   6.1178281897695898E-002   0.0000000000000000     
  -1.1707031892033991E-002   6.6960558349818816E-002   0.0000000000000000     
  -1.2230593919307819E-002   7.2928397929043695E-002   0.0000000000000000     
  -1.2736547962774873E-002   7.9081800635370500E-002   0.0000000000000000     
  -1.4019651492506231E-002   5.5782805792951098E-002   0.0000000000000000     
  -1.4799503927333091E-002   6.1374414451377951E-002   0.0000000000000000     
  -1.5550678158252181E-002   6.7151231425442534E-002   0.0000000000000000     
  -1.6273174185263500E-002   7.3113256715144861E-002   0.0000000000000000     
  -1.6966992008367050E-002   7.9260490320484905E-002   0.0000000000000000     
  -1.6413749699684121E-012   7.8852056753323532E-002   0.0000000000000000     
  -2.0567102708424212E-012   8.5186000364931583E-002   0.0000000000000000     
  -2.3082552579392623E-012   9.1679143070687849E-002   0.0000000000000000     
  -2.3960085489011657E-012   9.8331484870592345E-002   0.0000000000000000     
  -2.3199723392375304E-012  0.10514302576464506        0.0000000000000000     
  -4.2530519594120332E-003   7.8877583851789820E-002   0.0000000000000000     
  -4.4086723036101273E-003   8.5210600653476548E-002   0.0000000000000000     
  -4.5607119537295054E-003   9.1702776217406190E-002   0.0000000000000000     
  -4.7091709097701710E-003   9.8354110543578704E-002   0.0000000000000000     
  -4.8540491717321216E-003  0.10516460363199413        0.0000000000000000     
  -8.4985679464565349E-003   7.8954165145805472E-002   0.0000000000000000     
  -8.8174118068669628E-003   8.5284401518072345E-002   0.0000000000000000     
  -9.1276886382457307E-003   9.1773675656846465E-002   0.0000000000000000     
  -9.4293984405928316E-003   9.8421987562127833E-002   0.0000000000000000     
  -9.7225412139082673E-003  0.10522933723391648        0.0000000000000000     
  -1.2736547962774873E-002   7.9081800635370500E-002   0.0000000000000000     
  -1.3226218511827216E-002   8.5407402958718931E-002   0.0000000000000000     
  -1.3700930055856923E-002   9.1891841389008688E-002   0.0000000000000000     
  -1.4160682594863987E-002   9.8535115926239758E-002   0.0000000000000000     
  -1.4605476128848414E-002  0.10533722657041213        0.0000000000000000     
  -1.6966992008367050E-002   7.9260490320484905E-002   0.0000000000000000     
  -1.7635092418490893E-002   8.5579604975416348E-002   0.0000000000000000     
  -1.8280436206563090E-002   9.2057273413892859E-002   0.0000000000000000     
  -1.8903023372583642E-002   9.8693495635914424E-002   0.0000000000000000     
  -1.9502853916552553E-002  0.10548827164148106        0.0000000000000000     
  -2.3199723392375304E-012  0.10514302576464506        0.0000000000000000     
  -2.1513147166474234E-012  0.11210237381667720        0.0000000000000000     
  -1.9612020341064351E-012  0.11919813709051993        0.0000000000000000     
  -1.7496381947423867E-012  0.12643031558617324        0.0000000000000000     
  -1.5166201627891951E-012  0.13379890930363719        0.0000000000000000     
  -4.8540491717321216E-003  0.10516460363199413        0.0000000000000000     
  -4.9938711559095132E-003  0.11212286929117146        0.0000000000000000     
  -5.1271612785964999E-003  0.11921752132962976        0.0000000000000000     
  -5.2539195397930819E-003  0.12644855974736902        0.0000000000000000     
  -5.3741459394992599E-003  0.13381598454438920        0.0000000000000000     
  -9.7225412139082673E-003  0.10522933723391648        0.0000000000000000     
  -1.0004713588011206E-002  0.11218435571476398        0.0000000000000000     
  -1.0273512192720807E-002  0.11927567404722200        0.0000000000000000     
  -1.0528937028037064E-002  0.12650329223129053        0.0000000000000000     
  -1.0770988093959988E-002  0.13386721026696954        0.0000000000000000     
  -1.4605476128848414E-002  0.10533722657041213        0.0000000000000000     
  -1.5032527298456390E-002  0.11228683308745477        0.0000000000000000     
  -1.5439052744334115E-002  0.11937259524329667        0.0000000000000000     
  -1.5825052466481589E-002  0.12659451303793778        0.0000000000000000     
  -1.6190526464898807E-002  0.13395258647137817        0.0000000000000000     
  -1.9502853916552553E-002  0.10548827164148106        0.0000000000000000     
  -2.0077312287245064E-002  0.11243030140924379        0.0000000000000000     
  -2.0623782933436433E-002  0.11950828491785372        0.0000000000000000     
  -2.1142265855126647E-002  0.12672222216731083        0.0000000000000000     
  -2.1632761052315715E-002  0.13407211315761508        0.0000000000000000     
  -1.5166201627891951E-012  0.13379890930363719        0.0000000000000000     
  -1.2910536355270619E-012  0.14129173244368648        0.0000000000000000     
  -1.1018395397466296E-012  0.14889659920709597        0.0000000000000000     
  -9.4897928491072259E-013  0.15661350959386564        0.0000000000000000     
  -8.3247167839695102E-013  0.16444246360399548        0.0000000000000000     
  -5.3741459394992599E-003  0.13381598454438920        0.0000000000000000     
  -5.4875817059435259E-003  0.14130760822666760        0.0000000000000000     
  -5.5939680673543716E-003  0.14891124330018132        0.0000000000000000     
  -5.6933050237318022E-003  0.15662688976493044        0.0000000000000000     
  -5.7855925750758125E-003  0.16445454762091494        0.0000000000000000     
  -1.0770988093959988E-002  0.13386721026696954        0.0000000000000000     
  -1.0999388568440471E-002  0.14135523557588245        0.0000000000000000     
  -1.1213861629429413E-002  0.14895517557965257        0.0000000000000000     
  -1.1414407276926808E-002  0.15666703027827991        0.0000000000000000     
  -1.1601025510932663E-002  0.16449079967176447        0.0000000000000000     
  -1.6190526464898807E-002  0.13395258647137817        0.0000000000000000     
  -1.6535420588781893E-002  0.14143461449133102        0.0000000000000000     
  -1.6859680687326961E-002  0.14902839604550969        0.0000000000000000     
  -1.7163306760534007E-002  0.15673393113391401        0.0000000000000000     
  -1.7446298808403031E-002  0.16455121975654416        0.0000000000000000     
  -2.1632761052315715E-002  0.13407211315761508        0.0000000000000000     
  -2.2095677766967785E-002  0.14154574497301342        0.0000000000000000     
  -2.2531425241047010E-002  0.14913090469775267        0.0000000000000000     
  -2.2940003474553380E-002  0.15682759233183280        0.0000000000000000     
  -2.3321412467486913E-002  0.16463580787525386        0.0000000000000000     
  -8.3247167839695102E-013  0.16444246360399548        0.0000000000000000     
  -7.4297209010087961E-013  0.17237091636406643        0.0000000000000000     
  -6.7112808366243115E-013  0.18038632300065935        0.0000000000000000     
  -6.1694529693290256E-013  0.18848868351377429        0.0000000000000000     
  -5.8041982678447290E-013  0.19667799790341123        0.0000000000000000     
  -5.7855925750758125E-003  0.16445454762091494        0.0000000000000000     
  -5.8707324756801056E-003  0.17238172264466822        0.0000000000000000     
  -5.9486264798383889E-003  0.18039592061272378        0.0000000000000000     
  -6.0192745875506581E-003  0.18849714152508154        0.0000000000000000     
  -6.0826767988169175E-003  0.19668538538174155        0.0000000000000000     
  -1.1601025510932663E-002  0.16449079967176447        0.0000000000000000     
  -1.1773321022952227E-002  0.17241414148651013        0.0000000000000000     
  -1.1930898504490754E-002  0.18042471344892061        0.0000000000000000     
  -1.2073757955548239E-002  0.18852251555899599        0.0000000000000000     
  -1.2201899376124682E-002  0.19670754781673627        0.0000000000000000     
  -1.7446298808403031E-002  0.16455121975654416        0.0000000000000000     
  -1.7707765642559339E-002  0.17246817288959207        0.0000000000000000     
  -1.7946816074628221E-002  0.18047270150924996        0.0000000000000000     
  -1.8163450104609687E-002  0.18856480561551772        0.0000000000000000     
  -1.8357667732503719E-002  0.19674448520839546        0.0000000000000000     
  -2.3321412467486913E-002  0.16463580787525386        0.0000000000000000     
  -2.3674066334501438E-002  0.17254381685391412        0.0000000000000000     
  -2.3996379190250796E-002  0.18053988479371169        0.0000000000000000     
  -2.4288351034734992E-002  0.18862401169464676        0.0000000000000000     
  -2.4549981867954027E-002  0.19679619755671912        0.0000000000000000     
  -5.8041982678447290E-013  0.19667799790341123        0.0000000000000000     
  -5.5236544505010698E-013  0.20493604758134759        0.0000000000000000     
  -5.2359408041907640E-013  0.21324461395936065        0.0000000000000000     
  -4.9409974267437817E-013  0.22160369703745045        0.0000000000000000     
  -4.6388977728573089E-013  0.23001329681561700        0.0000000000000000     
  -6.0826767988169175E-003  0.19668538538174155        0.0000000000000000     
  -6.1390005065224771E-003  0.20494261387382062        0.0000000000000000     
  -6.1884131035526545E-003  0.21325078869243558        0.0000000000000000     
  -6.2309145899074438E-003  0.22160990983758644        0.0000000000000000     
  -6.2665049655868527E-003  0.23001997730927320        0.0000000000000000     
  -1.2201899376124682E-002  0.19670754781673627        0.0000000000000000     
  -1.2315646549885071E-002  0.20496231275126278        0.0000000000000000     
  -1.2415323260494382E-002  0.21326931289169695        0.0000000000000000     
  -1.2500929507952613E-002  0.22162854823803876        0.0000000000000000     
  -1.2572465292259770E-002  0.23004001879028821        0.0000000000000000     
  -1.8357667732503719E-002  0.19674448520839546        0.0000000000000000     
  -1.8529938130640147E-002  0.20499514421367412        0.0000000000000000     
  -1.8680730471348776E-002  0.21330018655714481        0.0000000000000000     
  -1.8810044754629610E-002  0.22165961223880745        0.0000000000000000     
  -1.8917880980482638E-002  0.23007342125866209        0.0000000000000000     
  -2.4549981867954027E-002  0.19679619755671912        0.0000000000000000     
  -2.4781875248787704E-002  0.20504110826105468        0.0000000000000000     
  -2.4984634736115837E-002  0.21334340968877910        0.0000000000000000     
  -2.5158260329938422E-002  0.22170310183989247        0.0000000000000000     
  -2.5302752030255466E-002  0.23012018471439474        0.0000000000000000     
  -4.6388977728573089E-013  0.23001329681561700        0.0000000000000000     
  -4.3564023916031758E-013  0.23844209451467790        0.0000000000000000     
  -4.1203173685444572E-013  0.24685877135545087        0.0000000000000000     
  -3.9306280669518245E-013  0.25526332733793583        0.0000000000000000     
  -3.7873480393524339E-013  0.26365576246213285        0.0000000000000000     
  -6.2665049655868527E-003  0.23001997730927320        0.0000000000000000     
  -6.2964139883038769E-003  0.23844991275771521        0.0000000000000000     
  -6.3218714157715211E-003  0.24686863783313184        0.0000000000000000     
  -6.3428772479897809E-003  0.25527615253552305        0.0000000000000000     
  -6.3594314849586588E-003  0.26367245686488888        0.0000000000000000     
  -1.2572465292259770E-002  0.23004001879028821        0.0000000000000000     
  -1.2632617099051651E-002  0.23847336748687364        0.0000000000000000     
  -1.2684071413964050E-002  0.24689823726622337        0.0000000000000000     
  -1.2726828236996973E-002  0.25531462812833738        0.0000000000000000     
  -1.2760887568150416E-002  0.26372254007321572        0.0000000000000000     
  -1.8917880980482638E-002  0.23007342125866209        0.0000000000000000     
  -1.9008609332678953E-002  0.23851245870215326        0.0000000000000000     
  -1.9086599994989618E-002  0.24694756965472553        0.0000000000000000     
  -1.9151852967414638E-002  0.25537875411637895        0.0000000000000000     
  -1.9204368249954015E-002  0.26380601208711341        0.0000000000000000     
  -2.5302752030255466E-002  0.23012018471439474        0.0000000000000000     
  -2.5424390689185790E-002  0.23856718640355398        0.0000000000000000     
  -2.5529457158848228E-002  0.24701663499863832        0.0000000000000000     
  -2.5617951439242777E-002  0.25546853049964763        0.0000000000000000     
  -2.5689873530369438E-002  0.26392287290658206        0.0000000000000000     
  -3.7873480393524339E-013  0.26365576246213285        0.0000000000000000     
  -3.6631591857072543E-013  0.27197595091812959        0.0000000000000000     
  -3.5307509953924621E-013  0.28016376689601380        0.0000000000000000     
  -3.3901112711336168E-013  0.28821921039578535        0.0000000000000000     
  -3.2412527523062451E-013  0.29614228141744436        0.0000000000000000     
  -6.3594314849586588E-003  0.26367245686488888        0.0000000000000000     
  -6.3754047279614865E-003  0.27199773615714296        0.0000000000000000     
  -6.3946675782815899E-003  0.28019217574819910        0.0000000000000000     
  -6.4172200359189713E-003  0.28825577563805732        0.0000000000000000     
  -6.4430621008736309E-003  0.29618853582671756        0.0000000000000000     
  -1.2760887568150416E-002  0.26372254007321572        0.0000000000000000     
  -1.2793442103686162E-002  0.27206309187425048        0.0000000000000000     
  -1.2831684539865979E-002  0.28027740230483394        0.0000000000000000     
  -1.2875614876689871E-002  0.28836547136496610        0.0000000000000000     
  -1.2925233114157834E-002  0.29632729905464694        0.0000000000000000     
  -1.9204368249954015E-002  0.26380601208711341        0.0000000000000000     
  -1.9254112127540343E-002  0.27217201806945218        0.0000000000000000     
  -1.9311050885106245E-002  0.28041944656591822        0.0000000000000000     
  -1.9375184522651707E-002  0.28854829757651168        0.0000000000000000     
  -1.9446513040176742E-002  0.29655857110123246        0.0000000000000000     
  -2.5689873530369438E-002  0.26392287290658206        0.0000000000000000     
  -2.5757414799524033E-002  0.27232451474274799        0.0000000000000000     
  -2.5832766614002384E-002  0.28061830853145203        0.0000000000000000     
  -2.5915928973804483E-002  0.28880425427269413        0.0000000000000000     
  -2.6006901878930348E-002  0.29688235196647417        0.0000000000000000     
  -1.4019651492506231E-002   5.5782805792951098E-002   0.0000000000000000     
  -1.4799503927333091E-002   6.1374414451377951E-002   0.0000000000000000     
  -1.5550678158252181E-002   6.7151231425442534E-002   0.0000000000000000     
  -1.6273174185263500E-002   7.3113256715144861E-002   0.0000000000000000     
  -1.6966992008367050E-002   7.9260490320484905E-002   0.0000000000000000     
  -1.7489391819008295E-002   5.6042182136399596E-002   0.0000000000000000     
  -1.8490068124332820E-002   6.1627293783310208E-002   0.0000000000000000     
  -1.9451123769577354E-002   6.7397088924073242E-002   0.0000000000000000     
  -2.0372558754741893E-002   7.3351567558688699E-002   0.0000000000000000     
  -2.1254373079826441E-002   7.9490729687156578E-002   0.0000000000000000     
  -2.1135041096788078E-002   5.6360340376389984E-002   0.0000000000000000     
  -2.2338632579500882E-002   6.1937628798738403E-002   0.0000000000000000     
  -2.3494516919898203E-002   6.7698837247021776E-002   0.0000000000000000     
  -2.4602694117980051E-002   7.3643965721240115E-002   0.0000000000000000     
  -2.5663164173746419E-002   7.9773014221393421E-002   0.0000000000000000     
  -2.4956599325845576E-002   5.6737280512922282E-002   0.0000000000000000     
  -2.6345197292837266E-002   6.2305419497662558E-002   0.0000000000000000     
  -2.7680857609214734E-002   6.8056476394288148E-002   0.0000000000000000     
  -2.8963580274977977E-002   7.3990451202799110E-002   0.0000000000000000     
  -3.0193365290126992E-002   8.0107343923195393E-002   0.0000000000000000     
  -2.8954066506180796E-002   5.7173002545996485E-002   0.0000000000000000     
  -3.0509762264341989E-002   6.2730665880082651E-002   0.0000000000000000     
  -3.2010145837526940E-002   6.8470006365872360E-002   0.0000000000000000     
  -3.3455217225735669E-002   7.4391024003365669E-002   0.0000000000000000     
  -3.4844976428968145E-002   8.0493718792562521E-002   0.0000000000000000     
  -1.6966992008367050E-002   7.9260490320484905E-002   0.0000000000000000     
  -1.7635092418490893E-002   8.5579604975416348E-002   0.0000000000000000     
  -1.8280436206563090E-002   9.2057273413892859E-002   0.0000000000000000     
  -1.8903023372583642E-002   9.8693495635914424E-002   0.0000000000000000     
  -1.9502853916552553E-002  0.10548827164148106        0.0000000000000000     
  -2.1254373079826441E-002   7.9490729687156578E-002   0.0000000000000000     
  -2.2101096076387057E-002   8.5801370597601484E-002   0.0000000000000000     
  -2.2917257075979802E-002   9.2270285578147995E-002   0.0000000000000000     
  -2.3702856078604676E-002   9.8897474628796139E-002   0.0000000000000000     
  -2.4457893084261682E-002  0.10568293774954587        0.0000000000000000     
  -2.5663164173746419E-002   7.9773014221393421E-002   0.0000000000000000     
  -2.6681292035044792E-002   8.6073062854711224E-002   0.0000000000000000     
  -2.7662442649722646E-002   9.2531191728423126E-002   0.0000000000000000     
  -2.8606616017779980E-002   9.9147400842529140E-002   0.0000000000000000     
  -2.9513812139216798E-002  0.10592169019702923        0.0000000000000000     
  -3.0193365290126992E-002   8.0107343923195393E-002   0.0000000000000000     
  -3.1375680294464102E-002   8.6394681746745611E-002   0.0000000000000000     
  -3.2515992927791622E-002   9.2839991864718280E-002   0.0000000000000000     
  -3.3614303190109551E-002   9.9443274277113428E-002   0.0000000000000000     
  -3.4670611081417883E-002  0.10620452898393108        0.0000000000000000     
  -3.4844976428968145E-002   8.0493718792562521E-002   0.0000000000000000     
  -3.6184260854644969E-002   8.6766227273704574E-002   0.0000000000000000     
  -3.7477907910186722E-002   9.3196685987033415E-002   0.0000000000000000     
  -3.8725917595593379E-002   9.9785094932549029E-002   0.0000000000000000     
  -3.9928289910864959E-002  0.10653145411025143        0.0000000000000000     
  -1.9502853916552553E-002  0.10548827164148106        0.0000000000000000     
  -2.0077312287245064E-002  0.11243030140924379        0.0000000000000000     
  -2.0623782933436433E-002  0.11950828491785372        0.0000000000000000     
  -2.1142265855126647E-002  0.12672222216731083        0.0000000000000000     
  -2.1632761052315715E-002  0.13407211315761508        0.0000000000000000     
  -2.4457893084261682E-002  0.10568293774954587        0.0000000000000000     
  -2.5179989265285998E-002  0.11261538273713276        0.0000000000000000     
  -2.5866765794012810E-002  0.11968351738829222        0.0000000000000000     
  -2.6518222670442113E-002  0.12688734170302429        0.0000000000000000     
  -2.7134359894573915E-002  0.13422685568132897        0.0000000000000000     
  -2.9513812139216798E-002  0.10592169019702923        0.0000000000000000     
  -3.0381478943487947E-002  0.11284269912812328        0.0000000000000000     
  -3.1207064360048300E-002  0.11989906697201116        0.0000000000000000     
  -3.1990568388897855E-002  0.12709079372869289        0.0000000000000000     
  -3.2731991030036614E-002  0.13441787939816843        0.0000000000000000     
  -3.4670611081417883E-002  0.10620452898393108        0.0000000000000000     
  -3.5681781321850910E-002  0.11311225058221540        0.0000000000000000     
  -3.6644678631542915E-002  0.12015493366901056        0.0000000000000000     
  -3.7559303010493879E-002  0.12733257824431660        0.0000000000000000     
  -3.8425654458703808E-002  0.13464518430813349        0.0000000000000000     
  -3.9928289910864959E-002  0.10653145411025143        0.0000000000000000     
  -4.1080896400374899E-002  0.11342403709940907        0.0000000000000000     
  -4.2179608608496635E-002  0.12045111747929041        0.0000000000000000     
  -4.3224426535230169E-002  0.12761269524989541        0.0000000000000000     
  -4.4215350180575506E-002  0.13490877041122415        0.0000000000000000     
  -2.1632761052315715E-002  0.13407211315761508        0.0000000000000000     
  -2.2095677766967785E-002  0.14154574497301342        0.0000000000000000     
  -2.2531425241047010E-002  0.14913090469775267        0.0000000000000000     
  -2.2940003474553380E-002  0.15682759233183280        0.0000000000000000     
  -2.3321412467486913E-002  0.16463580787525386        0.0000000000000000     
  -2.7134359894573915E-002  0.13422685568132897        0.0000000000000000     
  -2.7716068979302115E-002  0.14168985663742328        0.0000000000000000     
  -2.8264241437520602E-002  0.14926414188552434        0.0000000000000000     
  -2.8778877269229380E-002  0.15694971142563210        0.0000000000000000     
  -2.9259976474428458E-002  0.16474656525774656        0.0000000000000000     
  -3.2731991030036614E-002  0.13441787939816843        0.0000000000000000     
  -3.3432503102088840E-002  0.14186817910105443        0.0000000000000000     
  -3.4093275423678772E-002  0.14942954795796751        0.0000000000000000     
  -3.4714307994806431E-002  0.15710198596890773        0.0000000000000000     
  -3.5295600815471825E-002  0.16488549313387502        0.0000000000000000     
  -3.8425654458703808E-002  0.13464518430813349        0.0000000000000000     
  -3.9244980135327949E-002  0.14208071236390687        0.0000000000000000     
  -4.0018527199521543E-002  0.14962712291508221        0.0000000000000000     
  -4.0746295651284556E-002  0.15728441596165976        0.0000000000000000     
  -4.1428285490617014E-002  0.16505259150363927        0.0000000000000000     
  -4.4215350180575506E-002  0.13490877041122415        0.0000000000000000     
  -4.5153500079019457E-002  0.14232745642598049        0.0000000000000000     
  -4.6039996765048871E-002  0.14985686675686846        0.0000000000000000     
  -4.6874840238663722E-002  0.15749700140388809        0.0000000000000000     
  -4.7658030499864029E-002  0.16524786036703931        0.0000000000000000     
  -2.3321412467486913E-002  0.16463580787525386        0.0000000000000000     
  -2.3674066334501438E-002  0.17254381685391412        0.0000000000000000     
  -2.3996379190250796E-002  0.18053988479371169        0.0000000000000000     
  -2.4288351034734992E-002  0.18862401169464676        0.0000000000000000     
  -2.4549981867954027E-002  0.19679619755671912        0.0000000000000000     
  -2.9259976474428458E-002  0.16474656525774656        0.0000000000000000     
  -2.9705316671729775E-002  0.17264331303906380        0.0000000000000000     
  -3.0112675479745280E-002  0.18062856442677980        0.0000000000000000     
  -3.0482052898474974E-002  0.18870231942089460        0.0000000000000000     
  -3.0813448927918850E-002  0.19686457802140817        0.0000000000000000     
  -3.5295600815471825E-002  0.16488549313387502        0.0000000000000000     
  -3.5834610227195619E-002  0.17276890110462870        0.0000000000000000     
  -3.6328792571498472E-002  0.18074104153292803        0.0000000000000000     
  -3.6778147848380419E-002  0.18880191441877295        0.0000000000000000     
  -3.7182676057841438E-002  0.19695151976216355        0.0000000000000000     
  -4.1428285490617014E-002  0.16505259150363927        0.0000000000000000     
  -4.2061947000898950E-002  0.17292058105060881        0.0000000000000000     
  -4.2644730465510407E-002  0.18087731611215635        0.0000000000000000     
  -4.3176635884451343E-002  0.18892279668828182        0.0000000000000000     
  -4.3657663257721788E-002  0.19705702277898524        0.0000000000000000     
  -4.7658030499864029E-002  0.16524786036703931        0.0000000000000000     
  -4.8387326992839791E-002  0.17309835287700417        0.0000000000000000     
  -4.9060489161781025E-002  0.18103738816446482        0.0000000000000000     
  -4.9677517006687731E-002  0.18906496622942121        0.0000000000000000     
  -5.0238410527559910E-002  0.19718108707187329        0.0000000000000000     
  -2.4549981867954027E-002  0.19679619755671912        0.0000000000000000     
  -2.4781875248787704E-002  0.20504110826105468        0.0000000000000000     
  -2.4984634736115837E-002  0.21334340968877910        0.0000000000000000     
  -2.5158260329938422E-002  0.22170310183989247        0.0000000000000000     
  -2.5302752030255466E-002  0.23012018471439474        0.0000000000000000     
  -3.0813448927918850E-002  0.19686457802140817        0.0000000000000000     
  -3.1107385618022908E-002  0.20510151967082135        0.0000000000000000     
  -3.1364385018733142E-002  0.21339932381163490        0.0000000000000000     
  -3.1584447130049556E-002  0.22175799044384886        0.0000000000000000     
  -3.1767571951972141E-002  0.23017751956746313        0.0000000000000000     
  -3.7182676057841438E-002  0.19695151976216355        0.0000000000000000     
  -3.7542396952040924E-002  0.20517769322039114        0.0000000000000000     
  -3.7857330283138271E-002  0.21346827045074715        0.0000000000000000     
  -3.8127476051133501E-002  0.22182325145323145        0.0000000000000000     
  -3.8352834256026570E-002  0.23024263622784419        0.0000000000000000     
  -4.3657663257721788E-002  0.19705702277898524        0.0000000000000000     
  -4.4086909250841751E-002  0.20526962890976416        0.0000000000000000     
  -4.4463470529331243E-002  0.21355024960611582        0.0000000000000000     
  -4.4787347093190231E-002  0.22189888486804041        0.0000000000000000     
  -4.5058538942418742E-002  0.23031553469553784        0.0000000000000000     
  -5.0238410527559910E-002  0.19718108707187329        0.0000000000000000     
  -5.0740922514425392E-002  0.20537732673894021        0.0000000000000000     
  -5.1182805757312017E-002  0.21364526127774100        0.0000000000000000     
  -5.1564060256219790E-002  0.22198489068827562        0.0000000000000000     
  -5.1884686011148679E-002  0.23039621497054413        0.0000000000000000     
  -2.5302752030255466E-002  0.23012018471439474        0.0000000000000000     
  -2.5424390689185790E-002  0.23856718640355398        0.0000000000000000     
  -2.5529457158848228E-002  0.24701663499863832        0.0000000000000000     
  -2.5617951439242777E-002  0.25546853049964763        0.0000000000000000     
  -2.5689873530369438E-002  0.26392287290658206        0.0000000000000000     
  -3.1767571951972141E-002  0.23017751956746313        0.0000000000000000     
  -3.1921672245130261E-002  0.23863307368140585        0.0000000000000000     
  -3.2054660770153252E-002  0.24709981528460501        0.0000000000000000     
  -3.2166537527041135E-002  0.25557774437706060        0.0000000000000000     
  -3.2257302515793895E-002  0.26406686095877263        0.0000000000000000     
  -3.8352834256026570E-002  0.23024263622784419        0.0000000000000000     
  -3.8542165077070444E-002  0.23870564362603883        0.0000000000000000     
  -3.8704228693518090E-002  0.24719149249926911        0.0000000000000000     
  -3.8839025105369462E-002  0.25570018284753487        0.0000000000000000     
  -3.8946554312624594E-002  0.26423171467083623        0.0000000000000000     
  -4.5058538942418742E-002  0.23031553469553784        0.0000000000000000     
  -4.5285869185006378E-002  0.23878489623745294        0.0000000000000000     
  -4.5478160928942718E-002  0.24729166664263047        0.0000000000000000     
  -4.5635414174227770E-002  0.25583584591107056        0.0000000000000000     
  -4.5757628920861527E-002  0.26441743404277296        0.0000000000000000     
  -5.1884686011148679E-002  0.23039621497054413        0.0000000000000000     
  -5.2152784568938029E-002  0.23887083151564814        0.0000000000000000     
  -5.2376457476427156E-002  0.24740033771468922        0.0000000000000000     
  -5.2555704733616031E-002  0.25598473356766738        0.0000000000000000     
  -5.2690526340504681E-002  0.26462401907458266        0.0000000000000000     
  -2.5689873530369438E-002  0.26392287290658206        0.0000000000000000     
  -2.5757414799524033E-002  0.27232451474274799        0.0000000000000000     
  -2.5832766614002384E-002  0.28061830853145203        0.0000000000000000     
  -2.5915928973804483E-002  0.28880425427269413        0.0000000000000000     
  -2.6006901878930348E-002  0.29688235196647417        0.0000000000000000     
  -3.2257302515793895E-002  0.26406686095877263        0.0000000000000000     
  -3.2341774987697386E-002  0.27251425518530320        0.0000000000000000     
  -3.2434774194037452E-002  0.28086701721221446        0.0000000000000000     
  -3.2536300134814088E-002  0.28912514703950637        0.0000000000000000     
  -3.2646352810027292E-002  0.29728864466717886        0.0000000000000000     
  -3.8946554312624594E-002  0.26423171467083623        0.0000000000000000     
  -3.9045617560120566E-002  0.27273491268828293        0.0000000000000000     
  -3.9155016092694499E-002  0.28115860161898470        0.0000000000000000     
  -3.9274749910346386E-002  0.28950278146294151        0.0000000000000000     
  -3.9404819013076214E-002  0.29776745222015333        0.0000000000000000     
  -4.5757628920861527E-002  0.26441743404277296        0.0000000000000000     
  -4.5868942516793590E-002  0.27298648725168723        0.0000000000000000     
  -4.5993492309973530E-002  0.28149306175176275        0.0000000000000000     
  -4.6131278300401375E-002  0.28993715754299954        0.0000000000000000     
  -4.6282300488077119E-002  0.29831877462539758        0.0000000000000000     
  -5.2690526340504681E-002  0.26462401907458266        0.0000000000000000     
  -5.2811749857716424E-002  0.27326897887551610        0.0000000000000000     
  -5.2950202845874553E-002  0.28187039761054866        0.0000000000000000     
  -5.3105885304979075E-002  0.29042827527968051        0.0000000000000000     
  -5.3278797235029998E-002  0.29894261188291160        0.0000000000000000     
  -2.8954066506180796E-002   5.7173002545996485E-002   0.0000000000000000     
  -3.0509762264341989E-002   6.2730665880082651E-002   0.0000000000000000     
  -3.2010145837526940E-002   6.8470006365872360E-002   0.0000000000000000     
  -3.3455217225735669E-002   7.4391024003365669E-002   0.0000000000000000     
  -3.4844976428968145E-002   8.0493718792562521E-002   0.0000000000000000     
  -3.3069447926652284E-002   5.7668386277821254E-002   0.0000000000000000     
  -3.4792572252595390E-002   6.3213272474905477E-002   0.0000000000000000     
  -3.6457634448590195E-002   6.8938731180658602E-002   0.0000000000000000     
  -3.8064634514636708E-002   7.4844762395080686E-002   0.0000000000000000     
  -3.9613572450734928E-002   8.0931366118171671E-002   0.0000000000000000     
  -3.7244748876118582E-002   5.8224311510605219E-002   0.0000000000000000     
  -3.9153872016177815E-002   6.3753143811037805E-002   0.0000000000000000     
  -4.0998576286159855E-002   6.9461954857531080E-002   0.0000000000000000     
  -4.2778861686064706E-002   7.5350744650085025E-002   0.0000000000000000     
  -4.4494728215892371E-002   8.1419513188699694E-002   0.0000000000000000     
  -4.1479969354579704E-002   5.8840778244348399E-002   0.0000000000000000     
  -4.3593661555089272E-002   6.4350279888479647E-002   0.0000000000000000     
  -4.5632971350235918E-002   7.0039677396489766E-002   0.0000000000000000     
  -4.7597898740019656E-002   7.5908970768378728E-002   0.0000000000000000     
  -4.9488443724440473E-002   8.1958160004146560E-002   0.0000000000000000     
  -4.5775109362035632E-002   5.9517786479050788E-002   0.0000000000000000     
  -4.8111940869329746E-002   6.5004680707231019E-002   0.0000000000000000     
  -5.0360819640818386E-002   7.0671898797534674E-002   0.0000000000000000     
  -5.2521745676501551E-002   7.6519440749961781E-002   0.0000000000000000     
  -5.4594718976379228E-002   8.2547306564512299E-002   0.0000000000000000     
  -3.4844976428968145E-002   8.0493718792562521E-002   0.0000000000000000     
  -3.6184260854644969E-002   8.6766227273704574E-002   0.0000000000000000     
  -3.7477907910186722E-002   9.3196685987033415E-002   0.0000000000000000     
  -3.8725917595593379E-002   9.9785094932549029E-002   0.0000000000000000     
  -3.9928289910864959E-002  0.10653145411025143        0.0000000000000000     
  -3.9613572450734928E-002   8.0931366118171671E-002   0.0000000000000000     
  -4.1108953216664260E-002   8.7187232976501383E-002   0.0000000000000000     
  -4.2555281772204114E-002   9.3601053596639588E-002   0.0000000000000000     
  -4.3952558117354504E-002  0.10017282797858627        0.0000000000000000     
  -4.5300782252115417E-002  0.10690255612234147        0.0000000000000000     
  -4.4494728215892371E-002   8.1419513188699694E-002   0.0000000000000000     
  -4.6151676881598810E-002   8.7657232396049223E-002   0.0000000000000000     
  -4.7755208689140016E-002   9.4052874194807845E-002   0.0000000000000000     
  -4.9305323638515960E-002  0.10060643858497556        0.0000000000000000     
  -5.0802021729726664E-002  0.10731792556655238        0.0000000000000000     
  -4.9488443724440473E-002   8.1958160004146560E-002   0.0000000000000000     
  -5.1312431849448628E-002   8.8176225532348093E-002   0.0000000000000000     
  -5.3077688660994389E-002   9.4552147781538212E-002   0.0000000000000000     
  -5.4784214159077735E-002  0.10108592675171689        0.0000000000000000     
  -5.6432008343698707E-002  0.10777756244288413        0.0000000000000000     
  -5.4594718976379228E-002   8.2547306564512299E-002   0.0000000000000000     
  -5.6591218120213699E-002   8.8744212385398008E-002   0.0000000000000000     
  -5.8522721687767246E-002   9.5098874356830662E-002   0.0000000000000000     
  -6.0389229679039855E-002  0.10161129247881023        0.0000000000000000     
  -6.2190742094031533E-002  0.10828146675133675        0.0000000000000000     
  -3.9928289910864959E-002  0.10653145411025143        0.0000000000000000     
  -4.1080896400374899E-002  0.11342403709940907        0.0000000000000000     
  -4.2179608608496635E-002  0.12045111747929041        0.0000000000000000     
  -4.3224426535230169E-002  0.12761269524989541        0.0000000000000000     
  -4.4215350180575506E-002  0.13490877041122415        0.0000000000000000     
  -4.5300782252115417E-002  0.10690255612234147        0.0000000000000000     
  -4.6594801447997623E-002  0.11377829342243281        0.0000000000000000     
  -4.7829462976511895E-002  0.12078809527338798        0.0000000000000000     
  -4.9004766837658240E-002  0.12793196167520693        0.0000000000000000     
  -5.0120713031436642E-002  0.13520989262788968        0.0000000000000000     
  -5.0802021729726664E-002  0.10731792556655238        0.0000000000000000     
  -5.2239473733656824E-002  0.11417525429401509        0.0000000000000000     
  -5.3611850421191126E-002  0.12116634392184049        0.0000000000000000     
  -5.4919151792329583E-002  0.12829119445002862        0.0000000000000000     
  -5.6161377847072182E-002  0.13554980587857943        0.0000000000000000     
  -5.6432008343698707E-002  0.10777756244288413        0.0000000000000000     
  -5.8014913257352488E-002  0.11461491971415584        0.0000000000000000     
  -5.9526770942534321E-002  0.12158586342464799        0.0000000000000000     
  -6.0967581399244193E-002  0.12869039357436049        0.0000000000000000     
  -6.2337344627482118E-002  0.13592851016329341        0.0000000000000000     
  -6.2190742094031533E-002  0.10828146675133675        0.0000000000000000     
  -6.3921120019084621E-002  0.11509728968285515        0.0000000000000000     
  -6.5574224540541459E-002  0.12204665378181040        0.0000000000000000     
  -6.7150055658402069E-002  0.12912955904820253        0.0000000000000000     
  -6.8648613372666437E-002  0.13634600548203149        0.0000000000000000     
  -4.4215350180575506E-002  0.13490877041122415        0.0000000000000000     
  -4.5153500079019457E-002  0.14232745642598049        0.0000000000000000     
  -4.6039996765048871E-002  0.14985686675686846        0.0000000000000000     
  -4.6874840238663722E-002  0.15749700140388809        0.0000000000000000     
  -4.7658030499864029E-002  0.16524786036703931        0.0000000000000000     
  -5.0120713031436642E-002  0.13520989262788968        0.0000000000000000     
  -5.1178369897495225E-002  0.14261011389881728        0.0000000000000000     
  -5.2178805775482097E-002  0.15012085125537059        0.0000000000000000     
  -5.3122020665397257E-002  0.15774210469754971        0.0000000000000000     
  -5.4008014567240713E-002  0.16547387422535456        0.0000000000000000     
  -5.6161377847072182E-002  0.13554980587857943        0.0000000000000000     
  -5.7339896555087103E-002  0.14293038739395889        0.0000000000000000     
  -5.8456075886042541E-002  0.15042114818263294        0.0000000000000000     
  -5.9509915839938476E-002  0.15802208824460146        0.0000000000000000     
  -6.0501416416774922E-002  0.16573320757986451        0.0000000000000000     
  -6.2337344627482118E-002  0.13592851016329341        0.0000000000000000     
  -6.3638080051795123E-002  0.14328827691140544        0.0000000000000000     
  -6.4871807096730183E-002  0.15075775753865539        0.0000000000000000     
  -6.6038525762287387E-002  0.15833695204504333        0.0000000000000000     
  -6.7138236048466665E-002  0.16602586043056919        0.0000000000000000     
  -6.8648613372666437E-002  0.13634600548203149        0.0000000000000000     
  -7.0072920387619211E-002  0.14368378245115684        0.0000000000000000     
  -7.1425999407545029E-002  0.15113067932343818        0.0000000000000000     
  -7.2707850432443946E-002  0.15868669609887537        0.0000000000000000     
  -7.3918473462315934E-002  0.16635183277746851        0.0000000000000000     
  -4.7658030499864029E-002  0.16524786036703931        0.0000000000000000     
  -4.8387326992839791E-002  0.17309835287700417        0.0000000000000000     
  -4.9060489161781025E-002  0.18103738816446482        0.0000000000000000     
  -4.9677517006687731E-002  0.18906496622942121        0.0000000000000000     
  -5.0238410527559910E-002  0.19718108707187329        0.0000000000000000     
  -5.4008014567240713E-002  0.16547387422535456        0.0000000000000000     
  -5.4834930421017961E-002  0.17330509487990448        0.0000000000000000     
  -5.5600911166734504E-002  0.18122470170231869        0.0000000000000000     
  -5.6305956804390364E-002  0.18923269469259726        0.0000000000000000     
  -5.6950067333985520E-002  0.19732907385074017        0.0000000000000000     
  -6.0501416416774922E-002  0.16573320757986451        0.0000000000000000     
  -6.1428937503433284E-002  0.17354368535539938        0.0000000000000000     
  -6.2290838986794973E-002  0.18144270073818330        0.0000000000000000     
  -6.3087120866859969E-002  0.18943025372821634        0.0000000000000000     
  -6.3817783143628320E-002  0.19750634432549832        0.0000000000000000     
  -6.7138236048466665E-002  0.16602586043056919        0.0000000000000000     
  -6.8169348240085775E-002  0.17381412430348891        0.0000000000000000     
  -6.9130272621962419E-002  0.18169138527205864        0.0000000000000000     
  -7.0021009194096595E-002  0.18965764333627827        0.0000000000000000     
  -7.0841557956488332E-002  0.19771289849614787        0.0000000000000000     
  -7.3918473462315934E-002  0.16635183277746851        0.0000000000000000     
  -7.5056162630975407E-002  0.17411641172417311        0.0000000000000000     
  -7.6119212072236847E-002  0.18197075530394466        0.0000000000000000     
  -7.7107621786100214E-002  0.18991486351678316        0.0000000000000000     
  -7.8021391772565535E-002  0.19794873636268864        0.0000000000000000     
  -5.0238410527559910E-002  0.19718108707187329        0.0000000000000000     
  -5.0740922514425392E-002  0.20537732673894021        0.0000000000000000     
  -5.1182805757312017E-002  0.21364526127774100        0.0000000000000000     
  -5.1564060256219790E-002  0.22198489068827562        0.0000000000000000     
  -5.1884686011148679E-002  0.23039621497054413        0.0000000000000000     
  -5.6950067333985520E-002  0.19732907385074017        0.0000000000000000     
  -5.7530015123719261E-002  0.20550699901164748        0.0000000000000000     
  -5.8042572541790856E-002  0.21375963001021933        0.0000000000000000     
  -5.8487739588200319E-002  0.22208696684645571        0.0000000000000000     
  -5.8865516262947649E-002  0.23048900952035667        0.0000000000000000     
  -6.3817783143628320E-002  0.19750634432549832        0.0000000000000000     
  -6.4479765459650729E-002  0.20566485803161388        0.0000000000000000     
  -6.5070007457477971E-002  0.21389968034814758        0.0000000000000000     
  -6.5588509137110021E-002  0.22221081127509926        0.0000000000000000     
  -6.6035270498546905E-002  0.23059825081246907        0.0000000000000000     
  -7.0841557956488332E-002  0.19771289849614787        0.0000000000000000     
  -7.1590173522219844E-002  0.20585090379883955        0.0000000000000000     
  -7.2265110504373370E-002  0.21406541229152568        0.0000000000000000     
  -7.2866368902948911E-002  0.22235642397420627        0.0000000000000000     
  -7.3393948717946494E-002  0.23072393884688125        0.0000000000000000     
  -7.8021391772565535E-002  0.19794873636268864        0.0000000000000000     
  -7.8861239311426551E-002  0.20606513631332440        0.0000000000000000     
  -7.9627881682477031E-002  0.21425682584035377        0.0000000000000000     
  -8.0321318885716975E-002  0.22252380494377672        0.0000000000000000     
  -8.0941550921146382E-002  0.23086607362359327        0.0000000000000000     
  -5.1884686011148679E-002  0.23039621497054413        0.0000000000000000     
  -5.2152784568938029E-002  0.23887083151564814        0.0000000000000000     
  -5.2376457476427156E-002  0.24740033771468922        0.0000000000000000     
  -5.2555704733616031E-002  0.25598473356766738        0.0000000000000000     
  -5.2690526340504681E-002  0.26462401907458266        0.0000000000000000     
  -5.8865516262947649E-002  0.23048900952035667        0.0000000000000000     
  -5.9181997966826716E-002  0.23896487808149208        0.0000000000000000     
  -5.9443280100631414E-002  0.24751369257943176        0.0000000000000000     
  -5.9649362664361751E-002  0.25613545301417573        0.0000000000000000     
  -5.9800245658017719E-002  0.26483015938572396        0.0000000000000000     
  -6.6035270498546905E-002  0.23059825081246907        0.0000000000000000     
  -6.6412596116633721E-002  0.23906846455585229        0.0000000000000000     
  -6.6722790566215551E-002  0.24762791810084445        0.0000000000000000     
  -6.6965853847292395E-002  0.25627661144744551        0.0000000000000000     
  -6.7141785959864267E-002  0.26501454459565543        0.0000000000000000     
  -7.3393948717946494E-002  0.23072393884688125        0.0000000000000000     
  -7.3844579018359030E-002  0.23918159093872887        0.0000000000000000     
  -7.4214988873179538E-002  0.24774301427892745        0.0000000000000000     
  -7.4505178282407936E-002  0.25640820886747678        0.0000000000000000     
  -7.4715147246044333E-002  0.26517717470437718        0.0000000000000000     
  -8.0941550921146382E-002  0.23086607362359327        0.0000000000000000     
  -8.1477946672002699E-002  0.23930425723012178        0.0000000000000000     
  -8.1919875021523383E-002  0.24785898111368057        0.0000000000000000     
  -8.2267335969708463E-002  0.25653024527426965        0.0000000000000000     
  -8.2520329516557911E-002  0.26531804971188905        0.0000000000000000     
  -5.2690526340504681E-002  0.26462401907458266        0.0000000000000000     
  -5.2811749857716424E-002  0.27326897887551610        0.0000000000000000     
  -5.2950202845874553E-002  0.28187039761054866        0.0000000000000000     
  -5.3105885304979075E-002  0.29042827527968051        0.0000000000000000     
  -5.3278797235029998E-002  0.29894261188291160        0.0000000000000000     
  -5.9800245658017719E-002  0.26483015938572396        0.0000000000000000     
  -5.9932791785651418E-002  0.27355367949718573        0.0000000000000000     
  -6.0083863751314935E-002  0.28226188115167000        0.0000000000000000     
  -6.0253461555008297E-002  0.29095476434917700        0.0000000000000000     
  -6.0441585196731464E-002  0.29963232908970655        0.0000000000000000     
  -6.7141785959864267E-002  0.26501454459565543        0.0000000000000000     
  -6.7290820503360924E-002  0.27381188105411242        0.0000000000000000     
  -6.7453191077212121E-002  0.28263878433145451        0.0000000000000000     
  -6.7628897681417846E-002  0.29149525442768154        0.0000000000000000     
  -6.7817940315978070E-002  0.30038129134279379        0.0000000000000000     
  -7.4715147246044333E-002  0.26517717470437718        0.0000000000000000     
  -7.4885836010844933E-002  0.27404358354629627        0.0000000000000000     
  -7.5058184823566076E-002  0.28300110714990195        0.0000000000000000     
  -7.5232193684207707E-002  0.29204974551519425        0.0000000000000000     
  -7.5407862592769881E-002  0.30118949864217326        0.0000000000000000     
  -8.2520329516557911E-002  0.26531804971188905        0.0000000000000000     
  -8.2717838308103434E-002  0.27424878697373722        0.0000000000000000     
  -8.2898844990376766E-002  0.28334884960701257        0.0000000000000000     
  -8.3063349563377908E-002  0.29261823761171513        0.0000000000000000     
  -8.3211352027106833E-002  0.30205695098784496        0.0000000000000000     
  -4.5775109362035632E-002   5.9517786479050788E-002   0.0000000000000000     
  -4.8111940869329746E-002   6.5004680707231019E-002   0.0000000000000000     
  -5.0360819640818386E-002   7.0671898797534674E-002   0.0000000000000000     
  -5.2521745676501551E-002   7.6519440749961781E-002   0.0000000000000000     
  -5.4594718976379228E-002   8.2547306564512299E-002   0.0000000000000000     
  -5.0251089310691388E-002   6.0252465528882998E-002   0.0000000000000000     
  -5.2803638029864833E-002   6.5715341485720294E-002   0.0000000000000000     
  -5.5257042707798715E-002   7.1358806694819685E-002   0.0000000000000000     
  -5.7611303344493055E-002   7.7182861156181129E-002   0.0000000000000000     
  -5.9866419939947832E-002   8.3187504869804724E-002   0.0000000000000000     
  -5.5028829612751975E-002   6.1041944708015668E-002   0.0000000000000000     
  -5.7763681107660086E-002   6.6481257442375874E-002   0.0000000000000000     
  -6.0396562101068370E-002   7.2100588722498596E-002   0.0000000000000000     
  -6.2927472592976832E-002   7.7899938548383840E-002   0.0000000000000000     
  -6.5356412583385468E-002   8.3879306920031607E-002   0.0000000000000000     
  -6.0108330268217401E-002   6.1886224016448790E-002   0.0000000000000000     
  -6.2992070102715514E-002   6.7302428577197745E-002   0.0000000000000000     
  -6.5779377820627344E-002   7.2897244880571449E-002   0.0000000000000000     
  -6.8470253421952884E-002   7.8670672926569832E-002   0.0000000000000000     
  -7.1064696906692149E-002   8.4622712715192949E-002   0.0000000000000000     
  -6.5489591277087644E-002   6.2785303454182359E-002   0.0000000000000000     
  -6.8488805015031101E-002   6.8178854890185950E-002   0.0000000000000000     
  -7.1405489866475630E-002   7.3748775169038230E-002   0.0000000000000000     
  -7.4239645831421230E-002   7.9495064290739159E-002   0.0000000000000000     
  -7.6991272909867875E-002   8.5417722255288792E-002   0.0000000000000000     
  -5.4594718976379228E-002   8.2547306564512299E-002   0.0000000000000000     
  -5.6591218120213699E-002   8.8744212385398008E-002   0.0000000000000000     
  -5.8522721687767246E-002   9.5098874356830662E-002   0.0000000000000000     
  -6.0389229679039855E-002  0.10161129247881023        0.0000000000000000     
  -6.2190742094031533E-002  0.10828146675133675        0.0000000000000000     
  -5.9866419939947832E-002   8.3187504869804724E-002   0.0000000000000000     
  -6.2036207667603871E-002   8.9361346134203046E-002   0.0000000000000000     
  -6.4134481700901982E-002   9.5692993247888811E-002   0.0000000000000000     
  -6.6161242039842166E-002  0.10218244621086199        0.0000000000000000     
  -6.8116488684424437E-002  0.10882970502312260        0.0000000000000000     
  -6.5356412583385468E-002   8.3879306920031607E-002   0.0000000000000000     
  -6.7695572465328979E-002   9.0027779957767257E-002   0.0000000000000000     
  -6.9957142631842023E-002   9.6334443781916246E-002   0.0000000000000000     
  -7.2141123082924613E-002  0.10279929839247852        0.0000000000000000     
  -7.4247513818576708E-002  0.10942234378945409        0.0000000000000000     
  -7.1064696906692149E-002   8.4622712715192949E-002   0.0000000000000000     
  -7.3569312513388996E-002   9.0743513856090696E-002   0.0000000000000000     
  -7.5990704480587326E-002   9.7023225958913009E-002   0.0000000000000000     
  -7.8328872808287126E-002  0.10346184902365982        0.0000000000000000     
  -8.0583817496488380E-002  0.11005938305033118        0.0000000000000000     
  -7.6991272909867875E-002   8.5417722255288792E-002   0.0000000000000000     
  -7.9657427811783976E-002   9.1508547829173337E-002   0.0000000000000000     
  -8.2235167247137947E-002   9.7759339778879045E-002   0.0000000000000000     
  -8.4724491215929745E-002  0.10417009810440590        0.0000000000000000     
  -8.7125399718159399E-002  0.11074082280575395        0.0000000000000000     
  -6.2190742094031533E-002  0.10828146675133675        0.0000000000000000     
  -6.3921120019084621E-002  0.11509728968285515        0.0000000000000000     
  -6.5574224540541459E-002  0.12204665378181040        0.0000000000000000     
  -6.7150055658402069E-002  0.12912955904820253        0.0000000000000000     
  -6.8648613372666437E-002  0.13634600548203149        0.0000000000000000     
  -6.8116488684424437E-002  0.10882970502312260        0.0000000000000000     
  -6.9994208140315803E-002  0.11562259614388307        0.0000000000000000     
  -7.1788386913183302E-002  0.12254894603235583        0.0000000000000000     
  -7.3499025003026922E-002  0.12960875468854088        0.0000000000000000     
  -7.5126122409846660E-002  0.13680202211243817        0.0000000000000000     
  -7.4247513818576708E-002  0.10942234378945409        0.0000000000000000     
  -7.6270291742508628E-002  0.11619107104100976        0.0000000000000000     
  -7.8203433758430502E-002  0.12309297121531224        0.0000000000000000     
  -8.0046939866342398E-002  0.13012804431236158        0.0000000000000000     
  -8.1800810066244303E-002  0.13729629033215782        0.0000000000000000     
  -8.0583817496488380E-002  0.11005938305033118        0.0000000000000000     
  -8.2749370825663054E-002  0.11680271437423514        0.0000000000000000     
  -8.4819365076283113E-002  0.12367872933067965        0.0000000000000000     
  -8.6793800248348554E-002  0.13068742791966470        0.0000000000000000     
  -8.8672676341859366E-002  0.13782881014119036        0.0000000000000000     
  -8.7125399718159399E-002  0.11074082280575395        0.0000000000000000     
  -8.9431445389779124E-002  0.11745752614355927        0.0000000000000000     
  -9.1636180866741079E-002  0.12430622037845805        0.0000000000000000     
  -9.3739606149045335E-002  0.13128690551045022        0.0000000000000000     
  -9.5741721236691849E-002  0.13839958153953585        0.0000000000000000     
  -6.8648613372666437E-002  0.13634600548203149        0.0000000000000000     
  -7.0072920387619211E-002  0.14368378245115684        0.0000000000000000     
  -7.1425999407545029E-002  0.15113067932343818        0.0000000000000000     
  -7.2707850432443946E-002  0.15868669609887537        0.0000000000000000     
  -7.3918473462315934E-002  0.16635183277746851        0.0000000000000000     
  -7.5126122409846660E-002  0.13680202211243817        0.0000000000000000     
  -7.6673732811562395E-002  0.14411637824763174        0.0000000000000000     
  -7.8145909886093989E-002  0.15153945303770547        0.0000000000000000     
  -7.9542653633441401E-002  0.15907124648265933        0.0000000000000000     
  -8.0863964053604659E-002  0.16671175858249340        0.0000000000000000     
  -8.1800810066244303E-002  0.13729629033215782        0.0000000000000000     
  -8.3469832572627647E-002  0.14458553853524858        0.0000000000000000     
  -8.5058795599983819E-002  0.15198361818218167        0.0000000000000000     
  -8.6567699148312874E-002  0.15949052927295701        0.0000000000000000     
  -8.7996543217614742E-002  0.16710627180757467        0.0000000000000000     
  -8.8672676341859366E-002  0.13782881014119036        0.0000000000000000     
  -9.0461219670814955E-002  0.14509126331400743        0.0000000000000000     
  -9.2164656549214602E-002  0.15246317475686680        0.0000000000000000     
  -9.3782986977058364E-002  0.15994454446976847        0.0000000000000000     
  -9.5316210954346212E-002  0.16753537245271236        0.0000000000000000     
  -9.5741721236691849E-002  0.13839958153953585        0.0000000000000000     
  -9.7647894106124289E-002  0.14563355258390825        0.0000000000000000     
  -9.9463492733786296E-002  0.15297812276176084        0.0000000000000000     
 -0.10118851711967790       0.16043329207309354        0.0000000000000000     
 -0.10282296726379907       0.16799906051790642        0.0000000000000000     
  -7.3918473462315934E-002  0.16635183277746851        0.0000000000000000     
  -7.5056162630975407E-002  0.17411641172417311        0.0000000000000000     
  -7.6119212072236847E-002  0.18197075530394466        0.0000000000000000     
  -7.7107621786100214E-002  0.18991486351678316        0.0000000000000000     
  -7.8021391772565535E-002  0.19794873636268864        0.0000000000000000     
  -8.0863964053604659E-002  0.16671175858249340        0.0000000000000000     
  -8.2108244419523038E-002  0.17445184609429995        0.0000000000000000     
  -8.3273898004135774E-002  0.18228236577517121        0.0000000000000000     
  -8.4360924807442908E-002  0.19020331762510725        0.0000000000000000     
  -8.5369324829444440E-002  0.19821470164410809        0.0000000000000000     
  -8.7996543217614742E-002  0.16710627180757467        0.0000000000000000     
  -8.9344457349149406E-002  0.17482172589071746        0.0000000000000000     
  -9.0610571084176764E-002  0.18262777162706814        0.0000000000000000     
  -9.1794884422696787E-002  0.19052440901662682        0.0000000000000000     
  -9.2897397364709491E-002  0.19851163805939340        0.0000000000000000     
  -9.5316210954346212E-002  0.16753537245271236        0.0000000000000000     
  -9.6764801419854565E-002  0.17522605111342571        0.0000000000000000     
  -9.8129231312359774E-002  0.18300697285963555        0.0000000000000000     
  -9.9409500631861825E-002  0.19087813769134179        0.0000000000000000     
 -0.10060560937836073       0.19883954560854467        0.0000000000000000     
 -0.10282296726379907       0.16799906051790642        0.0000000000000000     
 -0.10436927663163847       0.17566482176242457        0.0000000000000000     
 -0.10582987868868482       0.18341996947287317        0.0000000000000000     
 -0.10720477343493803       0.19126450364925224        0.0000000000000000     
 -0.10849396087039817       0.19919842429156176        0.0000000000000000     
  -7.8021391772565535E-002  0.19794873636268864        0.0000000000000000     
  -7.8861239311426551E-002  0.20606513631332440        0.0000000000000000     
  -7.9627881682477031E-002  0.21425682584035377        0.0000000000000000     
  -8.0321318885716975E-002  0.22252380494377672        0.0000000000000000     
  -8.0941550921146382E-002  0.23086607362359327        0.0000000000000000     
  -8.5369324829444440E-002  0.19821470164410809        0.0000000000000000     
  -8.6302365903889844E-002  0.20630842965975518        0.0000000000000000     
  -8.7163315864528662E-002  0.21447641349963015        0.0000000000000000     
  -8.7952174711360909E-002  0.22271865316373296        0.0000000000000000     
  -8.8668942444386556E-002  0.23103514865206362        0.0000000000000000     
  -9.2897397364709491E-002  0.19851163805939340        0.0000000000000000     
  -9.3922956376228633E-002  0.20658165792281863        0.0000000000000000     
  -9.4876407923267930E-002  0.21472666777435331        0.0000000000000000     
  -9.5757752005827382E-002  0.22294666761399734        0.0000000000000000     
  -9.6566988623907002E-002  0.23124165744175079        0.0000000000000000     
 -0.10060560937836073       0.19883954560854467        0.0000000000000000     
 -0.10172301072844296       0.20688482110251480        0.0000000000000000     
 -0.10276715785869484       0.21500758866452321        0.0000000000000000     
 -0.10373805076911645       0.22320784829456985        0.0000000000000000     
 -0.10463568945970773       0.23148559999265475        0.0000000000000000     
 -0.10849396087039817       0.19919842429156176        0.0000000000000000     
 -0.10970252896053277       0.20721791919884366        0.0000000000000000     
 -0.11083556567080941       0.21531917617013996        0.0000000000000000     
 -0.11189307100122806       0.22350219520545053        0.0000000000000000     
 -0.11287504495178874       0.23176697630477550        0.0000000000000000     
  -8.0941550921146382E-002  0.23086607362359327        0.0000000000000000     
  -8.1477946672002699E-002  0.23930425723012178        0.0000000000000000     
  -8.1919875021523383E-002  0.24785898111368057        0.0000000000000000     
  -8.2267335969708463E-002  0.25653024527426965        0.0000000000000000     
  -8.2520329516557911E-002  0.26531804971188905        0.0000000000000000     
  -8.8668942444386556E-002  0.23103514865206362        0.0000000000000000     
  -8.9299229377313369E-002  0.23945144756399372        0.0000000000000000     
  -8.9828645823849196E-002  0.24799309749889478        0.0000000000000000     
  -9.0257191783993940E-002  0.25666009845676685        0.0000000000000000     
  -9.0584867257747684E-002  0.26545245043760990        0.0000000000000000     
  -9.6566988623907002E-002  0.23124165744175079        0.0000000000000000     
  -9.7294957434039861E-002  0.23963814607430733        0.0000000000000000     
  -9.7932498092759043E-002  0.24816264232836086        0.0000000000000000     
  -9.8479610600064563E-002  0.25681514620391127        0.0000000000000000     
  -9.8936294955956378E-002  0.26559565770095855        0.0000000000000000     
 -0.10463568945970773       0.23148559999265475        0.0000000000000000     
 -0.10546513084218212       0.23986435276106274        0.0000000000000000     
 -0.10623143182825295       0.24836761560207876        0.0000000000000000     
 -0.10693459241792025       0.25699538851570286        0.0000000000000000     
 -0.10757461261118398       0.26574767150193496        0.0000000000000000     
 -0.11287504495178874       0.23176697630477550        0.0000000000000000     
 -0.11380974960174012       0.24013006762425981        0.0000000000000000     
 -0.11472544703033088       0.24860801732004853        0.0000000000000000     
 -0.11562213723756101       0.25720082539214167        0.0000000000000000     
 -0.11649982022343050       0.26590849184053916        0.0000000000000000     
  -8.2520329516557911E-002  0.26531804971188905        0.0000000000000000     
  -8.2717838308103434E-002  0.27424878697373722        0.0000000000000000     
  -8.2898844990376766E-002  0.28334884960701257        0.0000000000000000     
  -8.3063349563377908E-002  0.29261823761171513        0.0000000000000000     
  -8.3211352027106833E-002  0.30205695098784496        0.0000000000000000     
  -9.0584867257747684E-002  0.26545245043760990        0.0000000000000000     
  -9.0842021790156852E-002  0.27443317909108461        0.0000000000000000     
  -9.1059004926267895E-002  0.28366531006685164        0.0000000000000000     
  -9.1235816666080827E-002  0.29314884336491093        0.0000000000000000     
  -9.1372457009595676E-002  0.30288377898526259        0.0000000000000000     
  -9.8936294955956378E-002  0.26559565770095855        0.0000000000000000     
  -9.9313580852025532E-002  0.27460244765298797        0.0000000000000000     
  -9.9622497979863084E-002  0.28393378689348459        0.0000000000000000     
  -9.9863046339468922E-002  0.29358967542244852        0.0000000000000000     
 -0.10003522593084312       0.30357011323987976        0.0000000000000000     
 -0.10757461261118398       0.26574767150193496        0.0000000000000000     
 -0.10813251549370954       0.27475659265944713        0.0000000000000000     
 -0.10858932415116224       0.28415428008691146        0.0000000000000000     
 -0.10894503858354214       0.29394073378432789        0.0000000000000000     
 -0.10919965879084917       0.30411595375169648        0.0000000000000000     
 -0.11649982022343050       0.26590849184053916        0.0000000000000000     
 -0.11729882571520883       0.27489561411046226        0.0000000000000000     
 -0.11795948344016552       0.28432678964713226        0.0000000000000000     
 -0.11848179339830049       0.29420201845054911        0.0000000000000000     
 -0.11886575558961382       0.30452130052071280        0.0000000000000000     
 </DataArray>
 <DataArray  type="Float64" Name="stress" NumberOfComponents="3" format="ascii">
   5828643858.7028112       -30247486.354339361       -167464000.43931958     
   5668711643.3331871       -35169998.197026491       -110157792.45580231     
   5510463720.3481598       -34478202.091037750       -66207143.460485123     
   5353900089.7477427       -28172098.036336422       -35612053.453371890     
   5199020751.5319319       -16251686.032967329       -18372522.434458774     
   5634360433.6295509        16683735.724777222        71274728.232341751     
   5445381960.9447927        3921039.3997573853        105561955.37151454     
   5257558559.1625118       -4991420.5836920738        132670739.98316674     
   5070890228.2827091       -10053644.225533724        152601082.06731242     
   4885376968.3053856       -11265631.525771618        165352981.62395415     
   5360751767.6262989        39817385.524895906        310658205.09378040     
   5160375941.7998171        24509175.969550133        321309026.32611519     
   4960625965.3936825        11287131.148704290        330958521.49163061     
   4761501838.4078970        151251.06234478951        339606690.59032965     
   4563003560.8424587       -8898464.2895097733        347253533.62220424     
   5007817860.6930695        39153463.046018124        550686430.14500749     
   4813693585.8982592        26594411.512376785        537083420.40802014     
   4619665939.0416718        14357453.106130362        528656201.06490934     
   4425734920.1233082        2442587.8272960186        525404772.11566919     
   4231900529.1431613       -9150184.3241562843        527329133.56030196     
   4575558712.8298311        14691968.288141012        791359403.38600886     
   4405334893.2401114        10176746.028225899        752885137.61722028     
   4234678480.1064849        4219545.2886106968        725763778.70300162     
   4063589473.4289436       -3179633.9306981564        709995326.64333963     
   3892067873.2074947       -12020791.629703045        705579781.43824673     
   5199020751.5319319       -16251686.032967329       -18372522.434458774     
   5032176453.1390858       -6540363.7128798962       -18087996.210982047     
   4864558015.1329422        590493.22954654694       -14132741.406674976     
   4696165437.5135021        5140884.7943179607       -6506758.0215177033     
   4526998720.2807636        7110810.9814338684        4789953.9444711944     
   4885376968.3053856       -11265631.525771618        165352981.62395415     
   4728028706.7641640       -3128544.6639933586        161965992.64464322     
   4570118500.4509344        3135392.9577622414        162576203.92227882     
   4411646349.3656960        7526181.3394863605        167183615.45685035     
   4252612253.5084395        10043820.481143713        175788227.24836266     
   4563003560.8424587       -8898464.2895097733        347253533.62220424     
   4416084112.3702965       -2055780.0207848549        340442590.08828551     
   4268814913.9674058        3621071.1455080509        337955318.48740894     
   4121195965.6337872        8132089.2093842030        339791718.81957245     
   3973227267.3694448        11477274.170838594        345951791.08476830     
   4231900529.1431613       -9150184.3241562843        527329133.56030196     
   4096342669.9574800       -3322069.7832839489        517341796.11993593     
   3960647255.6823611        2047527.7928023338        512004602.28871369     
   3824814286.3178015        6958608.4040851593        511317552.06663376     
   3688843761.8638015        11411172.050552607        515280645.45368898     
   3892067873.2074947       -12020791.629703045        705579781.43824673     
   3768804379.5257258       -6927413.9514391422        692663610.73960376     
   3645615525.5957990       -1585237.1003577709        684724055.32620192     
   3522501311.4177208        4005738.9235415459        681761115.19804180     
   3399461736.9914842        9845514.1202576160        683774790.35511839     
   4526998720.2807636        7110810.9814338684        4789953.9444711944     
   4330489906.0620461        466676.07491207123       -645059.45783606300     
   4134483957.6119013       -4501239.6030447483       -1896622.5960029068     
   3938980874.9303198       -7792936.0524473190        1035264.5299642577     
   3743980658.0173106       -9408413.2732861042        8150601.9200590253     
   4252612253.5084395        10043820.481143713        175788227.24836266     
   4067457809.9695668        4440444.7048044205        169178818.33454773     
   3882677458.0509191        84040.995883703232        166879915.26490265     
   3698271197.7525024       -3025390.6455938816        168891518.03941593     
   3514239029.0743189       -4887850.2196400166        175213626.65810803     
   3973227267.3694448        11477274.170838594        345951791.08476830     
   3799790210.4533672        7023562.3075470924        338017750.15304357     
   3626598471.0091839        3387575.3505785465        334521270.64552683     
   3453652049.0368872        569313.29989957809        335462352.56221467     
   3280950944.5364914       -1431223.8444342613        340840995.90309089     
   3688843761.8638015        11411172.050552607        515280645.45368898     
   3527487107.5134759        8216028.8832123280        505871735.99766934     
   3366246996.4867034        5409363.4610536098        501027443.54588217     
   3205123428.7834878        2991175.7840949297        500747768.09833008     
   3044116404.4038377        961465.85233128071        505032709.65501720     
   3399461736.9914842        9845514.1202576160        683774790.35511839     
   3250548501.1498652        8017844.4317418337        672740775.86840487     
   3101623034.4834709        6149405.3273047209        666398433.96595860     
   2952685336.9922934        4240196.8069223166        664747764.64778996     
   2803735408.6763411        2290218.8706309795        667788767.91388535     
   3743980658.0173106       -9408413.2732861042        8150601.9200590253     
   3571441147.9221606       -4864965.4616751671        3657236.1299904198     
   3398016824.5774026       -3270895.1487896442        3357003.5080664731     
   3223707687.9830494       -4626202.3345400095        7249904.0542878257     
   3048513738.1390700       -8930887.0190438032        15335937.768639745     
   3514239029.0743189       -4887850.2196400166        175213626.65810803     
   3352168080.2471757       -443062.56307792664        168481138.06369576     
   3189537686.7944860        2136909.6750135422        165631023.46616945     
   3026347848.7162476        2852066.4945880175        166663282.86550155     
   2862598566.0124788        1702407.8957282305        171577916.26170039     
   3280950944.5364914       -1431223.8444342613        340840995.90309089     
   3128460673.6308494        2648538.6531167030        332248981.23242795     
   2975736326.7237334        5948047.8124269247        327228581.38736308     
   2822777903.8151340        8467303.6334558725        325779796.36789966     
   2669585404.9050627        10206306.116246343        327902626.17401731     
   3044116404.4038377        961465.85233128071        505032709.65501720     
   2900318928.0731997        4409838.1869279146        494960765.63617671     
   2756612744.3651476        8162519.2634831667        488149677.27165604     
   2612997853.2796907        12219509.082021594        484599444.56145889     
   2469474254.8168235        16580807.642520905        484310067.50558835     
   2803735408.6763411        2290218.8706309795        667788767.91388535     
   2667742843.5742130        4840836.0383244753        656616491.27494335     
   2532166939.7187462        8780324.0282280445        648394311.11904848     
   2397007697.1099277        14108682.840282917        643122227.44620502     
   2262265115.7477684        20825912.474550486        640800240.25640225     
   3048513738.1390700       -8930887.0190438032        15335937.768639745     
   2883497572.4823222       -10457983.546717763        10274728.726090442     
   2719184408.8008795       -9641740.1566969156        6055379.4424967635     
   2555574247.0947480       -6482156.8489770889        2677889.9178651148     
   2392667087.3638997       -979233.62364745140        142260.15219165332     
   2862598566.0124788        1702407.8957282305        171577916.26170039     
   2700755969.7107735        854754.09441578388        164965338.27538103     
   2539294795.3161359        1278506.6499913931        159795313.25097960     
   2378215042.8285413        2973665.5623784065        156067841.18849739     
   2217516712.2479901        5940230.8315778971        153782922.08792028     
   2669585404.9050627        10206306.116246343        327902626.17401731     
   2512632644.2525716        10552974.929573536        319363502.49763930     
   2355739725.4388838        11099116.538902283        312867624.98613060     
   2198906648.4640064        11844730.944275856        308414993.63949186     
   2042133413.3279066        12789818.145564318        306005608.45772755     
   2469474254.8168235        16580807.642520905        484310067.50558835     
   2319127596.1077151        18636678.958751559        473469221.39284408     
   2168519199.1691375        19820089.510104060        465272314.64793563     
   2017649064.0011196        20131039.296647787        459719347.27084732     
   1866517190.6036363        19569528.318301320        456810319.26159108     
   2262265115.7477684        20825912.474550486        640800240.25640225     
   2120240825.2761831        25105866.181893587        627282494.96101141     
   1977633216.5068901        27441425.563542128        617009382.23640239     
   1834442289.4398928        27832590.619510770        609980902.08257377     
   1690668044.0751870        26279361.349784791        606197054.49952686     
   2392667087.3638997       -979233.62364745140        142260.15219165332     
   2249950383.2086554        6699250.0989029408       -6553279.5906179193     
   2103971396.0832586        3503457.2542687654       -11149844.058143932     
   1954730125.9877338       -10566612.157457709       -13647433.250355642     
   1802226572.9220381       -35510958.136411309       -14046047.167309411     
   2217516712.2479901        5940230.8315778971        153782922.08792028     
   2078948674.1450830        12873777.300498247        143435251.02851537     
   1938237385.6448693        12663155.778376222        134351794.86953437     
   1795382846.7473102        5308366.2651114464        126532553.61098561     
   1650385057.4524176       -9190591.2392402887        119977527.25283900     
   2042133413.3279066        12789818.145564318        306005608.45772755     
   1905329011.6348703        18262918.468161345        293311344.08334339     
   1767500392.1173196        20321959.375698566        281046534.23452860     
   1628647554.7752624        18966940.868221045        269211178.91125983     
   1488770499.6086915        14197862.945692301        257805278.11353546     
   1866517190.6036363        19569528.318301320        456810319.26159108     
   1729091395.6779783        22866673.601790667        443074999.57386482     
   1591760415.5006266        26479868.046303153        428934374.03682369     
   1454524250.0715814        30409111.651840210        414388442.65046406     
   1317382899.3908429        34654404.418391466        399437205.41479278     
   1690668044.0751870        26279361.349784791        606197054.49952686     
   1550235826.2744131        26685042.701398015        592726217.50006819     
   1411017455.7947791        31136881.790144682        578015314.27644169     
   1273012932.6362612        39634878.615953445        562064344.82861090     
   1136222256.7988739        52179033.178847909        544873309.15660334     
   1802226572.9220381       -35510958.136411309       -14046047.167309411     
   1771380087.1928313       -16686360.541883111       -8360069.6322192131     
   1748590493.2508278        28994543.010011554       -41484591.829617113     
   1733857791.0960023        101531752.51915532       -113419613.75945444     
   1727181980.7283986        200925267.98570442       -224165135.42178500     
   1650385057.4524176       -9190591.2392402887        119977527.25283900     
   1527735458.6396856       -13924050.341890335        135590193.85452983     
   1409247379.1849611       -4785778.2511935830        124832055.51610745     
   1294920819.0882421        18224225.032860160        87703112.237559080     
   1184755778.3495362        55105959.510314047        24203364.018894933     
   1488770499.6086915        14197862.945692301        257805278.11353546     
   1309859772.8334265       -3431057.3178782463        278800032.61445087     
   1131215192.9869852       -20172821.152031600        285863676.96760106     
   952836760.06936479       -36027428.556783378        278996211.17297298     
   774724474.08056664       -50994879.532128453        258197635.23059180     
   1317382899.3908429        34654404.418391466        399437205.41479278     
   1117753029.7740538        14792618.530209720        421269446.64754874     
   914493934.65689266       -17166585.692531109        441610272.52488679     
   707605614.03938198       -61223208.249765247        460459683.04681700     
   497088067.92150980       -117377249.14156044        477817678.21331429     
   1136222256.7988739        52179033.178847909        544873309.15660334     
   951415229.46155512        40746977.202339947        562998435.95382428     
   759083604.19469702        4232928.1273683608        592071842.18797362     
   559227380.99828517       -57363114.046107143        632093527.85904992     
   351846559.87233931       -144041149.31804657        683063492.96706712     
   1727181980.7283986        200925267.98570442       -224165135.42178500     
   1456654853.0022876        184593883.18453801       -96627033.683036253     
   1153959071.9108553        61033653.832266271        60093284.080330580     
   819094637.45414698       -169755420.07091969        245995817.86829373     
   452061549.63212895       -507773338.52511585        461080567.68089294     
   1184755778.3495362        55105959.510314047        24203364.018894933     
   977682569.90245259        11864971.795075655        155580451.11357260     
   732788322.17641664       -157446146.85002580        312795937.68614399     
   450073035.17138445       -452827396.42510939        495849823.73659766     
   129536708.88738769       -874278776.93004155        704742109.26496291     
   774724474.08056664       -50994879.532128453        258197635.23059180     
   621551423.35046291       -124011598.62997970        386819257.44859385     
   424904947.42769575       -341939735.03668422        537935462.59776461     
   184785046.31228814       -704779288.75219965        711546250.67807949     
  -98808279.995775342       -1212530259.7765737        907651621.68957412     
   497088067.92150980       -117377249.14156044        477817678.21331429     
   388261413.34629589       -223035828.09067497        597089385.32202017     
   230308947.66474083       -492447110.72757202        735511858.81515682     
   23230670.876874804       -925611097.05219829        893085098.69272625     
  -232973417.01731715       -1522527787.0645661        1069809104.9547327     
   351846559.87233931       -144041149.31804657        683063492.96706712     
   277812539.88993949       -285207716.58706045        786390834.73385048     
   149000322.88754505       -608968273.92271709        905525126.33833778     
  -34590091.134876072       -1115322821.3250909        1040466367.7805260     
  -272958702.17725986       -1804271358.7940791        1191214559.0604503     
   4575558712.8298311        14691968.288141012        791359403.38600886     
   4405334893.2401114        10176746.028225899        752885137.61722028     
   4234678480.1064849        4219545.2886106968        725763778.70300162     
   4063589473.4289436       -3179633.9306981564        709995326.64333963     
   3892067873.2074947       -12020791.629703045        705579781.43824673     
   4128764118.0128498       -3106727.7766096592        852460406.43076491     
   3985098123.5412569       -5945981.2267239094        827383493.58225060     
   3841322906.0090609       -9149311.5454926491        810996008.09086013     
   3697438465.4162741       -12716718.732910872        803297949.95658612     
   3553444801.7628913       -16648202.788980246        804289319.17942703     
   3724955672.7814693       -8009578.9656820297        910953015.64526379     
   3600237562.0067186       -11455846.032378435        899650721.28089905     
   3475733598.6546950       -14188288.356681108        894374374.77620065     
   3351443782.7253819       -16206905.938593626        895123976.13117433     
   3227368114.2187872       -17511698.778112531        901899525.34582055     
   3364133377.1356902       -16585.279072999954        966837231.02950954     
   3250753208.6365194       -6352848.3887333870        969686820.71315074     
   3137910558.0433750       -10897385.144956231        975898878.75901449     
   3025605425.3562651       -13650195.547738910        985473405.16710734     
   2913837810.5751848       -14611279.597091913        998410399.93741882     
   3046297231.0755110        20872253.283216000        1020113052.5835001     
   2936645063.4306417        9363011.7042132616        1037491791.8790181     
   2827853784.1751094        723398.08968842030        1055569520.0393071     
   2719923393.3089266       -5046587.5603545904        1074346237.0643787     
   2612853890.8320861       -7946945.2459168434        1093821942.9542317     
   3892067873.2074947       -12020791.629703045        705579781.43824673     
   3768804379.5257258       -6927413.9514391422        692663610.73960376     
   3645615525.5957990       -1585237.1003577709        684724055.32620192     
   3522501311.4177208        4005738.9235415459        681761115.19804180     
   3399461736.9914842        9845514.1202576160        683774790.35511839     
   3553444801.7628913       -16648202.788980246        804289319.17942703     
   3442444947.9841475       -10767307.254911900        795487952.08876204     
   3331497769.9875875       -4710825.7802228928        790961803.97923279     
   3220603267.7732229        1521241.6351126432        790710874.85083246     
   3109761441.3410468        7928894.9910765886        794735164.70356679     
   3227368114.2187872       -17511698.778112531        901899525.34582055     
   3126627910.9027648       -11444482.220327020        897187337.23186731     
   3025918419.3992748       -5274892.9541023970        896048971.79493654     
   2925239639.7083173        997069.02055799961        898484429.03503442     
   2824591571.8298898        7371403.7036665678        904493708.95216107     
   2913837810.5751848       -14611279.597091913        998410399.93741882     
   2821353268.2815800       -8958938.8476856947        997761766.16890752     
   2728877473.8308501       -3277438.6220268011        999985558.77331710     
   2636410427.2229958        2433221.0798817873        1005081777.7506468     
   2543952128.4580154        8173040.2580480576        1013050423.1008961     
   2612853890.8320861       -7946945.2459168434        1093821942.9542317     
   2526621020.1205964       -3310677.1369758844        1097211238.8998978     
   2440374933.2823219        1281537.2160245180        1102771564.9143767     
   2354115630.3172655        5829697.8130816221        1110502920.9976690     
   2267843111.2254324        10333804.654213667        1120405307.1497765     
   3399461736.9914842        9845514.1202576160        683774790.35511839     
   3250548501.1498652        8017844.4317418337        672740775.86840487     
   3101623034.4834709        6149405.3273047209        666398433.96595860     
   2952685336.9922934        4240196.8069223166        664747764.64778996     
   2803735408.6763411        2290218.8706309795        667788767.91388535     
   3109761441.3410468        7928894.9910765886        794735164.70356679     
   2972995496.9936361        6744676.2864828110        785226349.02202427     
   2836299094.4337153        5792263.5401872396        780221442.44777596     
   2699672233.6612830        5071656.7521928549        779720444.98081982     
   2563114914.6763496        4582855.9225171804        783723356.62114823     
   2824591571.8298898        7371403.7036665678        904493708.95216107     
   2699436451.8995948        6669695.8598566055        896605493.45677745     
   2574432646.3690658        6472369.3485908508        893033423.59170270     
   2449580155.2382994        6779424.1698611975        893777499.35694063     
   2324878978.5072899        7590860.3236761093        898837720.75249159     
   2543952128.4580154        8173040.2580480576        1013050423.1008961     
   2429871365.8677597        7792903.1519073248        1006878209.1726501     
   2316023690.2895303        8189722.7525308132        1004834377.3977388     
   2202409101.7233391        9363499.0599466562        1006918927.7761581     
   2089027600.1691773        11314232.074129224        1013131860.3079027     
   2267843111.2254324        10333804.654213667        1120405307.1497765     
   2164300238.8981209        10114298.162608504        1116044496.1696582     
   2061072226.1951089        10944323.752009034        1115624303.8658841     
   1958159073.1164017        12823881.422425151        1119144730.2384603     
   1855560779.6619971        15752971.173848629        1126605775.2873917     
   2803735408.6763411        2290218.8706309795        667788767.91388535     
   2667742843.5742130        4840836.0383244753        656616491.27494335     
   2532166939.7187462        8780324.0282280445        648394311.11904848     
   2397007697.1099277        14108682.840282917        643122227.44620502     
   2262265115.7477684        20825912.474550486        640800240.25640225     
   2563114914.6763496        4582855.9225171804        783723356.62114823     
   2435281531.2369170        7325205.1336417198        773990231.02456272     
   2307783420.9839501        11185131.632979274        767539056.67544317     
   2180620583.9174342        16162635.420490623        764369833.57379079     
   2053793020.0373864        22257716.496227741        764482561.71960294     
   2324878978.5072899        7590860.3236761093        898837720.75249159     
   2206152933.2003284        10809388.519174576        890448793.46136189     
   2087680773.0196292        14874200.468886256        885673672.18212330     
   1969462497.9651890        19785296.172796011        884512356.91476655     
   1851498108.0370185        25542675.630929232        886964847.65929389     
   2089027600.1691773        11314232.074129224        1013131860.3079027     
   1980357049.4644482        15293386.194928408        1005992178.5853390     
   1871858995.8257813        19847530.535925269        1002798157.6390840     
   1763533439.2531891        24976665.097169876        1003549797.4691260     
   1655380379.7466488        30680789.878610253        1008247098.0754733     
   1855560779.6619971        15752971.173848629        1126605775.2873917     
   1757893880.0292702        20777198.160869241        1120620386.3964942     
   1660318089.4024081        26105121.834118187        1118912513.0463178     
   1562833407.7814195        31736742.193600953        1121482155.2368634     
   1465439835.1663015        37672059.239317775        1128329312.9681392     
   2262265115.7477684        20825912.474550486        640800240.25640225     
   2120240825.2761831        25105866.181893587        627282494.96101141     
   1977633216.5068901        27441425.563542128        617009382.23640239     
   1834442289.4398928        27832590.619510770        609980902.08257377     
   1690668044.0751870        26279361.349784791        606197054.49952686     
   2053793020.0373864        22257716.496227741        764482561.71960294     
   1920230677.1771219        26251889.178264618        752602971.28075635     
   1786280000.8888621        28951617.100340009        744053888.20875216     
   1651940991.1726341        30356900.262486875        738835312.50358331     
   1517213648.0284100        30467738.664675355        736947244.16526341     
   1851498108.0370185        25542675.630929232        886964847.65929389     
   1726643069.3482242        29324674.255668163        876950894.42501104     
   1601594682.1011772        32462177.686227500        870353323.35361552     
   1476352946.2958755        34955185.922606409        867172134.44512451     
   1350917861.9323041        36803698.964767218        867407327.69953179     
   1655380379.7466488        30680789.878610253        1008247098.0754733     
   1539478001.7895076        34324221.414141059        1000326264.3937538     
   1423577260.1438284        37973107.321229041        995907687.67099214     
   1307678154.8096170        41627447.599865973        994991367.90718842     
   1191780685.7868736        45287242.250078380        997577305.10234225     
   1465439835.1663015        37672059.239317775        1128329312.9681392     
   1358735474.5009584        41250530.653647542        1122729081.1870024     
   1252227735.0168157        45484406.005316496        1120716981.1608827     
   1145916616.7138669        50373685.294290900        1122293012.8897772     
   1039802119.5921071        55918368.520562172        1127457176.3736908     
   1690668044.0751870        26279361.349784791        606197054.49952686     
   1550235826.2744131        26685042.701398015        592726217.50006819     
   1411017455.7947791        31136881.790144682        578015314.27644169     
   1273012932.6362612        39634878.615953445        562064344.82861090     
   1136222256.7988739        52179033.178847909        544873309.15660334     
   1517213648.0284100        30467738.664675355        736947244.16526341     
   1375088242.6516910        28259322.354274094        727768594.49425173     
   1233285344.7406356        27125930.929419458        719130812.37254941     
   1091804954.2952554        27067564.390150428        711033897.80015981     
   950647071.31553924        28084222.736423016        703477850.77707469     
   1350917861.9323041        36803698.964767218        867407327.69953179     
   1212187651.1896191        33507699.655335307        861480968.85893142     
   1072888608.0571331        28315592.379914761        857876411.34113204     
   933020732.53485763        21227377.138523579        856593655.14613283     
   792584024.62278831        12243053.931150049        857632700.27393377     
   1191780685.7868736        45287242.250078380        997577305.10234225     
   1061534051.8881890        42430174.604580700        993863340.59411681     
   929827245.74425769        34705866.141594023        994252111.18217778     
   796660267.35507011        22114316.861089587        998743616.86653638     
   662033116.72062898        4655526.7630662024        1007337857.6471845     
   1039802119.5921071        55918368.520562172        1127457176.3736908     
   923127444.74742222        55026747.202048451        1124915709.6997929     
   804101257.80200934        46296752.214446485        1128257911.8956833     
   682723558.75589252        29728383.557826489        1137483782.9613671     
   558994347.60905766        5321641.2321521342        1152593322.8968306     
   1136222256.7988739        52179033.178847909        544873309.15660334     
   951415229.46155512        40746977.202339947        562998435.95382428     
   759083604.19469702        4232928.1273683608        592071842.18797362     
   559227380.99828517       -57363114.046107143        632093527.85904992     
   351846559.87233931       -144041149.31804657        683063492.96706712     
   950647071.31553924        28084222.736423016        703477850.77707469     
   791527756.90878546        11097359.777083188        721375339.00836515     
   623768292.04022729       -34690004.721612662        749366205.51458609     
   447368676.70984006       -109277870.75973436        787450450.29573250     
   262328910.91764534       -212666238.33721471        835628073.35179925     
   792584024.62278831        12243053.931150049        857632700.27393377     
   656709848.39801073       -11031388.435585111        874001071.98498499     
   511079969.17915261       -66824840.782596767        899607920.80895483     
   355694386.96619815       -155137303.10992768        934453246.74584150     
   190553101.75916320       -275968775.41752261        978537049.79564631     
   662033116.72062898        4655526.7630662024        1007337857.6471845     
   546961503.92923105       -25639267.435656518        1020875634.8836815     
   421018635.61148840       -92171580.055533618        1042796988.0710789     
   284204511.76737130       -194941411.09665293        1073101917.2093973     
   136519132.39689860       -333948760.55896366        1111790422.2986150     
   558994347.60905766        5321641.2321521342        1152593322.8968306     
   462282723.50245351       -32726277.223110646        1161999027.7044489     
   353584291.33721864       -110730222.54047547        1178933407.3009672     
   232899051.11334580       -228690194.71996695        1203396461.6863923     
   100227002.83084619       -386606193.76154763        1235388190.8607199     
   351846559.87233931       -144041149.31804657        683063492.96706712     
   277812539.88993949       -285207716.58706045        786390834.73385048     
   149000322.88754505       -608968273.92271709        905525126.33833778     
  -34590091.134876072       -1115322821.3250909        1040466367.7805260     
  -272958702.17725986       -1804271358.7940791        1191214559.0604503     
   262328910.91764534       -212666238.33721471        835628073.35179925     
   223612274.24759951       -352346000.59766364        885014636.55965388     
   140664359.41107509       -639463356.74635804        945418359.01425421     
   13485166.408048749       -1074018306.7834058        1016839240.7155790     
  -157925304.76146787       -1656010850.7087436        1099277281.6636713     
   190553101.75916320       -275968775.41752261        978537049.79564631     
   173468732.42728895       -418267267.46162808        986287573.10700226     
   122700003.78243026       -672846957.21567202        1000265465.0741297     
   38246915.824583471       -1039707844.6796746        1020470725.6970298     
  -79890531.446228445       -1518849929.8535738        1046903354.9757094     
   136519132.39689860       -333948760.55896366        1111790422.2986150     
   127381914.42899382       -482971517.17902279        1090209644.3759024     
   95107256.001624286       -709119075.33062410        1070066444.5179935     
   39695157.114778399       -1012391435.0138140        1051360822.7248939     
  -38854382.231534839       -1392788596.2285681        1034092778.9965981     
   100227002.83084619       -386606193.76154763        1235388190.8607199     
   85351820.252728790       -546458749.74978197        1196780850.3663516     
   57886116.068646818       -748279711.09122586        1154821297.3458252     
   17829890.278591275       -992069077.78590679        1109509531.7991481     
  -34816857.117396474       -1277826849.8337288        1060845553.7263042     
   3046297231.0755110        20872253.283216000        1020113052.5835001     
   2936645063.4306417        9363011.7042132616        1037491791.8790181     
   2827853784.1751094        723398.08968842030        1055569520.0393071     
   2719923393.3089266       -5046587.5603545904        1074346237.0643787     
   2612853890.8320861       -7946945.2459168434        1093821942.9542317     
   2728441251.9456940        38376697.758899570        1157292784.1123633     
   2622959642.3881440        25572296.418242097        1162362896.4941709     
   2518187865.8921371        15134005.282738328        1170241024.6387510     
   2414125922.4576697        7061824.3523681164        1180927168.5461049     
   2310773812.0847545        1355753.6271601915        1194421328.2162325     
   2369787002.6947637        43641661.198245883        1293581274.6383944     
   2274501742.3616633        31349837.437078714        1286166528.8907270     
   2179775259.7623029        20920606.121721506        1283668825.8038309     
   2085607554.8966873        12353967.252176523        1286088165.3777006     
   1991998627.7648184        5649920.8284476995        1293424547.6123378     
   1970334483.3227201        36667143.601258278        1428978524.1616025     
   1891271363.3511963        26695634.760717988        1408902689.0686948     
   1812615965.7856133        18083200.606650591        1395852923.5345509     
   1734368290.6259756        10829841.139064431        1389829227.5591660     
   1656528337.8722806        4935556.3579555750        1390831601.1425486     
   1530083693.8295693        17453144.967941821        1563484532.6819785     
   1473268505.3567481        11609688.389161170        1530571377.0280662     
   1416709983.9620707        6621788.7375270724        1506793317.8309076     
   1360408129.6455362        2489446.0130348206        1492150355.0905051     
   1304362942.4071448       -787339.78431266546        1486642488.8068626     
   2612853890.8320861       -7946945.2459168434        1093821942.9542317     
   2526621020.1205964       -3310677.1369758844        1097211238.8998978     
   2440374933.2823219        1281537.2160245180        1102771564.9143767     
   2354115630.3172655        5829697.8130816221        1110502920.9976690     
   2267843111.2254324        10333804.654213667        1120405307.1497765     
   2310773812.0847545        1355753.6271601915        1194421328.2162325     
   2230869428.8322163        3822985.1128079891        1192496906.3420591     
   2151006191.0289550        6427368.0960384607        1193770068.5882547     
   2071184098.6749718        9168902.5768632889        1198240814.9548278     
   1991403151.7702637        12047588.555274487        1205909145.4417694     
   1991998627.7648184        5649920.8284476995        1293424547.6123378     
   1921355743.5471191        6828019.1635692120        1286249829.7570527     
   1850808366.3547542        8324474.2498056889        1283299250.0737059     
   1780356496.1877210        10139286.087147951        1284572808.5622880     
   1710000133.0460255        12272454.675609469        1290070505.2228034     
   1656528337.8722806        4935556.3579555750        1390831601.1425486     
   1598079964.2653046        5704425.0153157115        1378470009.1448917     
   1539781459.2597189        6972855.6773142219        1371359109.3707280     
   1481632822.8555272        8740848.3439546227        1369498901.8200526     
   1423634055.0527232        11008403.015226007        1372889386.4928708     
   1304362942.4071448       -787339.78431266546        1486642488.8068626     
   1261042090.9867749        452202.66805428267        1469157444.5055637     
   1217925469.7438555        2372512.3785893321        1457949646.4793203     
   1175013078.6783829        4973589.3472799659        1453019094.7281220     
   1132304917.7903569        8255433.5741267800        1454365789.2519789     
   2267843111.2254324        10333804.654213667        1120405307.1497765     
   2164300238.8981209        10114298.162608504        1116044496.1696582     
   2061072226.1951089        10944323.752009034        1115624303.8658841     
   1958159073.1164017        12823881.422425151        1119144730.2384603     
   1855560779.6619971        15752971.173848629        1126605775.2873917     
   1991403151.7702637        12047588.555274487        1205909145.4417694     
   1898548914.6640778        11480221.961724997        1200364514.6202238     
   1805967335.0680556        11821713.735381007        1199181567.6236379     
   1713658412.9821911        13072063.876232862        1202360304.4520204     
   1621622148.4064949        15231272.384310663        1209900725.1053708     
   1710000133.0460255        12272454.675609469        1290070505.2228034     
   1629037574.4427299        11718140.964647412        1283292818.7599967     
   1548305471.2354548        11932011.907078147        1281297881.2707663     
   1467803823.4242008        12914067.502919793        1284085692.7551229     
   1387532631.0089672        14664307.752158344        1291656253.2130609     
   1423634055.0527232        11008403.015226007        1372889386.4928708     
   1355766218.2340784        10828055.171378255        1364829408.5889723     
   1288086634.6973104        11275218.267124295        1361973244.8072703     
   1220595304.4424224        12349892.302467108        1364320895.1477704     
   1153292227.4694095        14052077.277393699        1371872359.6104650     
   1132304917.7903569        8255433.5741267800        1454365789.2519789     
   1078734846.0381196        8809964.5819202662        1444974284.1071589     
   1025310825.4536159        9851332.8154894710        1441207658.2331498     
   972032856.03685570        11379538.274869025        1443065911.6299570     
   918900937.78782952        13394580.960032284        1450549044.2975781     
   1855560779.6619971        15752971.173848629        1126605775.2873917     
   1757893880.0292702        20777198.160869241        1120620386.3964942     
   1660318089.4024081        26105121.834118187        1118912513.0463178     
   1562833407.7814195        31736742.193600953        1121482155.2368634     
   1465439835.1663015        37672059.239317775        1128329312.9681392     
   1621622148.4064949        15231272.384310663        1209900725.1053708     
   1535039518.0426710        19605623.887518108        1204039985.9397314     
   1448566023.1785283        24343760.389660060        1202578063.4749491     
   1362201663.8140626        29445681.890724242        1205514957.7110150     
   1275946439.9492724        34911388.390709460        1212850668.6479409     
   1387532631.0089672        14664307.752158344        1291656253.2130609     
   1312380844.6572859        18492756.194539487        1285941194.6821249     
   1237356220.2990899        22745077.948535025        1284746254.0121727     
   1162458757.9343789        27421273.014153063        1288071431.2032075     
   1087688457.5631535        32521341.391381025        1295916726.2552257     
   1153292227.4694095        14052077.277393699        1371872359.6104650     
   1089917859.8731031        17438595.081914067        1366324012.6236651     
   1026688680.7640935        21309074.510745585        1365417084.6579921     
   963604690.14237452        25663515.563880563        1369151575.7134330     
   900665888.00795043        30501918.241333872        1377527485.7899897     
   918900937.78782952        13394580.960032284        1450549044.2975781     
   867650563.69013584        16443140.549663246        1445188439.7643704     
   816563404.57354140        20035750.076296896        1444590555.4124093     
   765639460.43804204        24172409.539909840        1448755391.2417033     
   714878731.28364801        28853118.940543681        1457682947.2522418     
   1465439835.1663015        37672059.239317775        1128329312.9681392     
   1358735474.5009584        41250530.653647542        1122729081.1870024     
   1252227735.0168157        45484406.005316496        1120716981.1608827     
   1145916616.7138669        50373685.294290900        1122293012.8897772     
   1039802119.5921071        55918368.520562172        1127457176.3736908     
   1275946439.9492724        34911388.390709460        1212850668.6479409     
   1179016555.3792191        37431265.288173497        1208125972.5550640     
   1082146701.4253695        40151244.239639878        1207576263.5151410     
   985336878.08770108        43071325.245050251        1211201541.5281572     
   888587085.36623442        46191508.304463387        1219001806.5941269     
   1087688457.5631535        32521341.391381025        1295916726.2552257     
   1002209778.5110600        34485642.598781765        1291908210.1914446     
   916654539.51015651        36194743.976814091        1292661536.4785411     
   831022740.56044710        37648645.525489986        1298176705.1165223     
   745314381.66193104        38847347.244818836        1308453716.1053808     
   900665888.00795043        30501918.241333872        1377527485.7899897     
   828315143.89647400        32413662.585454553        1374075794.0961313     
   755751249.27118635        33614905.216860741        1375972800.0510910     
   682974204.13209295        34105646.135589540        1383218503.6548634     
   609984008.47920024        33885885.341647685        1395812904.9074507     
   714878731.28364801        28853118.940543681        1457682947.2522418     
   657332651.53546357        31215325.248199970        1454628724.2691443     
   599436830.70846188        32411727.959796101        1457510054.2327907     
   541191268.80265522        32442327.075379431        1466326937.1431897     
   482595965.81804645        31307122.594956309        1481079373.0003362     
   1039802119.5921071        55918368.520562172        1127457176.3736908     
   923127444.74742222        55026747.202048451        1124915709.6997929     
   804101257.80200934        46296752.214446485        1128257911.8956833     
   682723558.75589252        29728383.557826489        1137483782.9613671     
   558994347.60905766        5321641.2321521342        1152593322.8968306     
   888587085.36623442        46191508.304463387        1219001806.5941269     
   786901678.50318086        44422325.746035874        1216505082.3192554     
   682908758.79841280        34961433.715232402        1219857409.4465976     
   576608326.25194120        17808832.212083787        1229058787.9761529     
   468000380.86376536       -7035478.7634128034        1244109217.9079340     
   745314381.66193104        38847347.244818836        1308453716.1053808     
   658519335.73031068        36170931.331423074        1306053066.6983726     
   569460776.21598554        25949470.142356604        1309466851.2260084     
   478138703.11896271        8182963.6776264310        1318695069.6882949     
   384553116.43924028       -17128588.062770814        1333737722.0852251     
   609984008.47920024        33885885.341647685        1395812904.9074507     
   537980416.42881584        30272563.958235294        1393559662.8371420     
   463757310.05473030        19260861.495822012        1397086237.2339156     
   387314689.35696191        850777.95446559787        1406392628.0977612     
   308652554.33549768       -24957686.665879101        1421478835.4286914     
   482595965.81804645        31307122.594956309        1481079373.0003362     
   425284920.59869444        26727223.626452923        1479024870.7355731     
   365798360.31465816        14895607.775668979        1482715567.4703171     
   304136284.96593392       -4187724.9574083537        1492151463.2045703     
   240298694.55252436       -30522774.572769955        1507332557.9383318     
   558994347.60905766        5321641.2321521342        1152593322.8968306     
   462282723.50245351       -32726277.223110646        1161999027.7044489     
   353584291.33721864       -110730222.54047547        1178933407.3009672     
   232899051.11334580       -228690194.71996695        1203396461.6863923     
   100227002.83084619       -386606193.76154763        1235388190.8607199     
   468000380.86376536       -7035478.7634128034        1244109217.9079340     
   390398895.45563060       -41460705.427680686        1242650752.6104939     
   302654689.69178593       -109694999.94431242        1247527713.4173498     
   204767763.57220241       -211738362.31340826        1258740100.3285186     
   96738117.096911296       -347590792.53485715        1276287913.3439908     
   384553116.43924028       -17128588.062770814        1333737722.0852251     
   322652487.77360320       -48953907.522793755        1323566522.3361068     
   252453226.45515263       -108441335.82553117        1318537500.0067003     
   173955332.48389006       -195590872.97097397        1318650655.0970061     
   87158805.859814957       -310402518.95912504        1323905987.6070287     
   308652554.33549768       -24957686.665879101        1421478835.4286914     
   259043500.45636141       -55205883.508493587        1404746336.8813019     
   202979901.62733614       -106969230.18407409        1391962767.0690198     
   140461757.84839940       -180247726.69269294        1383128125.9918640     
   71489069.119554132       -275041373.03433734        1378242413.6498241     
   240298694.55252436       -30522774.572769955        1507332557.9383318     
   199571933.50392097       -60216633.384723082        1486190196.2460544     
   154234715.20831564       -105278683.02001320        1467803514.6043046     
   104287039.66572213       -165708923.47859997        1452172513.0130734     
   49728906.876134679       -241507354.76049718        1439297191.4723740     
   100227002.83084619       -386606193.76154763        1235388190.8607199     
   85351820.252728790       -546458749.74978197        1196780850.3663516     
   57886116.068646818       -748279711.09122586        1154821297.3458252     
   17829890.278591275       -992069077.78590679        1109509531.7991481     
  -34816857.117396474       -1277826849.8337288        1060845553.7263042     
   96738117.096911296       -347590792.53485715        1276287913.3439908     
   79799771.020532936       -488763608.51517439        1221967536.4719858     
   51478139.226126403       -667880710.22225487        1165101614.0487263     
   11773221.713692248       -884942097.65609848        1105690146.0742073     
  -39314981.516771674       -1139947770.8166966        1043733132.5484463     
   87158805.859814957       -310402518.95912504        1323905987.6070287     
   70462059.070627868       -432204166.09587944        1255281016.2266266     
   43589262.451339483       -587925979.33296478        1184917166.2698793     
   6540416.0019553602       -777567958.67035162        1112814437.7367730     
  -40684480.277519345       -1001130104.1080765        1038972830.6273502     
   71489069.119554132       -275041373.03433734        1378242413.6498241     
   57338684.403007716       -376780422.49188584        1296721289.6302905     
   34219485.744287640       -508415518.42334700        1214267954.0093086     
   2131473.1434130073       -669946660.82866120        1130882406.7868900     
  -38925353.399629384       -861373849.70785844        1046564647.9630448     
   49728906.876134679       -241507354.76049718        1439297191.4723740     
   40429647.017671689       -322492377.70322019        1346288356.6829512     
   23368809.104970723       -429349327.49340868        1253153977.2670007     
  -1453606.8619518578       -562078204.13099432        1159894053.2245157     
  -34037600.883120865       -720679007.61606801        1066508584.5554897     
   1530083693.8295693        17453144.967941821        1563484532.6819785     
   1473268505.3567481        11609688.389161170        1530571377.0280662     
   1416709983.9620707        6621788.7375270724        1506793317.8309076     
   1360408129.6455362        2489446.0130348206        1492150355.0905051     
   1304362942.4071448       -787339.78431266546        1486642488.8068626     
   1088355737.9018967       -4672252.9511607289        1521660841.3150525     
   1053974330.0624806       -6585849.2747429609        1501864509.2465932     
   1019785422.4242126       -7857778.2611642480        1489282944.2266402     
   985789014.98708916       -8488039.9104341269        1483916146.2551935     
   951985107.75111330       -8476634.2225461006        1485764115.3322585     
   686099136.38372850       -14956244.547408611        1478797552.1899085     
   668664853.72557557       -14585977.251437604        1472043182.3504014     
   651358904.39157212       -13787932.208295316        1470583250.1511600     
   634181288.38172162       -12562109.417979389        1474417755.5921724     
   617132005.69602251       -10908508.880492389        1483546698.6734464     
   323313889.27506226       -13398829.820809230        1434894665.3065345     
   317340076.34603029       -12390695.540927216        1441107396.3394966     
   311430429.86415505       -11168673.103853464        1450694235.6044657     
   305584949.82943296       -9732762.5096026063        1463655183.1014452     
   299803636.24186718       -8082963.7581638396        1479990238.8304360     
  -3.4240995570058415       -8.7713552080933113        1389952180.6649370     
  -2.0761515217638182       -4.1432044608345073        1409057151.2138674     
  -1.1580430753526911      -0.94785095523324459        1429615900.5865581     
 -0.66977515566691115       0.81470044767216643        1451628428.7830071     
 -0.61134531503071643        1.1444575598562357        1475094735.8032165     
   1304362942.4071448       -787339.78431266546        1486642488.8068626     
   1261042090.9867749        452202.66805428267        1469157444.5055637     
   1217925469.7438555        2372512.3785893321        1457949646.4793203     
   1175013078.6783829        4973589.3472799659        1453019094.7281220     
   1132304917.7903569        8255433.5741267800        1454365789.2519789     
   951985107.75111330       -8476634.2225461006        1485764115.3322585     
   923943091.52316689       -6212390.7646314502        1474102206.4825549     
   896054247.92985427       -3437571.8579331040        1467679532.0430009     
   868318576.97118413       -152177.50242960453        1466496092.0135963     
   840736078.64715362        3643792.3018752933        1470551886.3943388     
   617132005.69602251       -10908508.880492389        1483546698.6734464     
   601403076.47505689       -8509288.8726810217        1477648358.1420624     
   585776262.34592295       -5769685.2254312038        1475951240.1559255     
   570251563.30861890       -2689697.9387491643        1478455344.7150347     
   554828979.36314619        730672.98737245798        1485160671.8193884     
   299803636.24186718       -8082963.7581638396        1479990238.8304360     
   293422045.84245223       -6438491.6560723782        1479795899.4840930     
   287091512.99205947       -4623827.7239072919        1482764770.8180940     
   280812037.69068462       -2638971.9616827667        1488896852.8324373     
   274583619.93833739       -483924.36936406791        1498192145.5271285     
 -0.61134531503071643        1.1444575598562357        1475094735.8032165     
 -0.37464719971036270       0.88519118774870242        1480544830.5086391     
 -0.13173647154825480       0.64663352511368288        1488120124.0295031     
  0.11738725833867213       0.42878552128336500        1497820616.3658094     
  0.37272501934676638       0.23165164841299546        1509646307.5175557     
   1132304917.7903569        8255433.5741267800        1454365789.2519789     
   1078734846.0381196        8809964.5819202662        1444974284.1071589     
   1025310825.4536159        9851332.8154894710        1441207658.2331498     
   972032856.03685570        11379538.274869025        1443065911.6299570     
   918900937.78782952        13394580.960032284        1450549044.2975781     
   840736078.64715362        3643792.3018752933        1470551886.3943388     
   801539770.70225036        4354064.2622028291        1463176605.4188061     
   762453001.13960242        5429464.1633798778        1461197246.3428955     
   723475769.95920551        6869992.0053951144        1464613809.1666117     
   684608077.16106606        8675647.7882671356        1473426293.8899572     
   554828979.36314619        730672.98737245798        1485160671.8193884     
   529352271.30790037        1400436.7249411047        1479759016.7634096     
   503948588.84942365        2313619.1184069514        1479524326.2358701     
   478617931.98771811        3470220.1677766144        1484456600.2367687     
   453360300.72278082        4870239.8730404675        1494555838.7661047     
   274583619.93833739       -483924.36936406791        1498192145.5271285     
   262172347.85506964       -50918.029859811068        1494721518.1409748     
   249797588.58308575        503797.68059153855        1496188897.9120705     
   237459342.12238863        1180222.7619988471        1502594284.8404169     
   225157608.47297883        1978357.2143645883        1513937678.9260187     
  0.37272501934676638       0.23165164841299546        1509646307.5175557     
  0.34375423752929368       -2.2161302097452457E-003   1508064109.5514970     
  0.34058726535028533      -0.15007121003760462        1511190961.3714988     
  0.36322055711120804      -0.21192610395508410        1519026862.9775648     
  0.41165761275964635      -0.18776706380206423        1531571814.3696921     
   918900937.78782952        13394580.960032284        1450549044.2975781     
   867650563.69013584        16443140.549663246        1445188439.7643704     
   816563404.57354140        20035750.076296896        1444590555.4124093     
   765639460.43804204        24172409.539909840        1448755391.2417033     
   714878731.28364801        28853118.940543681        1457682947.2522418     
   684608077.16106606        8675647.7882671356        1473426293.8899572     
   645627854.53573751        10799334.877501070        1469361369.0204170     
   606770043.14653683        13331059.420491785        1470185734.1407721     
   568034642.99345231        16270821.417201787        1475899389.2510192     
   529421654.07649064        19618620.867659986        1486502334.3511586     
   453360300.72278082        4870239.8730404675        1494555838.7661047     
   427011857.59452367        6177542.8693126142        1491738989.1910932     
   400745021.95740587        7756870.8360482901        1493937999.4146180     
   374559793.81142938        9608223.7732569724        1501152869.4366770     
   348456173.15659565        11731601.680938333        1513383599.2572753     
   225157608.47297883        1978357.2143645883        1513937678.9260187     
   211802572.86648667        2577764.5250746831        1512321300.2763896     
   198488341.00615102        3313184.3229745328        1515847351.2339370     
   185214912.89198053        4184616.6080911011        1524515831.7986698     
   171982288.52396697        5192061.3803982660        1538326741.9705796     
  0.41165761275964635      -0.18776706380206423        1531571814.3696921     
  0.35162193669545050      -0.15522487141804112        1531108302.2763054     
  0.29277093569992124      -0.11873514991724329        1535913789.5987401     
  0.23509934841394475       -7.8314049384603193E-002   1545988276.3369977     
  0.17860905062642235       -3.3953929411668374E-002   1561331762.4910805     
   714878731.28364801        28853118.940543681        1457682947.2522418     
   657332651.53546357        31215325.248199970        1454628724.2691443     
   599436830.70846188        32411727.959796101        1457510054.2327907     
   541191268.80265522        32442327.075379431        1466326937.1431897     
   482595965.81804645        31307122.594956309        1481079373.0003362     
   529421654.07649064        19618620.867659986        1486502334.3511586     
   486978098.87017119        21605076.992974013        1484579608.8451684     
   444272237.85300833        22717180.415476739        1488425368.5436347     
   401304071.02500266        22954931.135170013        1498039613.4465568     
   358073598.38615781        22318329.152063191        1513422343.5539420     
   348456173.15659565        11731601.680938333        1513383599.2572753     
   320637806.08561367        13199106.701985195        1512694379.0410104     
   292644568.47174478        14083709.913406909        1517606576.2869184     
   264476460.31500462        14385411.315256715        1528120190.9949901     
   236133481.61538363        14104210.907507762        1544235223.1652408     
   171982288.52396697        5192061.3803982660        1538326741.9705796     
   158311773.18178329        5997414.3752028495        1538973034.8566754     
   144553822.56467584        6511316.4535992295        1545053677.4626431     
   130708436.67266020        6733767.6156329587        1556568669.7885001     
   116775615.50573188        6664767.8612907380        1573518011.8342419     
  0.17860905062642235       -3.3953929411668374E-002   1561331762.4910805     
  0.15868378040145054        1.2646431521038233E-002   1563415576.2921522     
  0.13179947060477573        3.6049299992011230E-002   1570766672.0708172     
   9.7975428136798756E-002   3.6320420114700602E-002   1583385049.8270819     
   5.7196738188205205E-002   1.3408688079277784E-002   1601270709.5609338     
   482595965.81804645        31307122.594956309        1481079373.0003362     
   425284920.59869444        26727223.626452923        1479024870.7355731     
   365798360.31465816        14895607.775668979        1482715567.4703171     
   304136284.96593392       -4187724.9574083537        1492151463.2045703     
   240298694.55252436       -30522774.572769955        1507332557.9383318     
   358073598.38615781        22318329.152063191        1513422343.5539420     
   315875958.85196644        19119098.235179499        1509959132.2144637     
   272046683.01971257        10481079.658084437        1512057802.8521514     
   226585770.88940215       -3595726.5791989118        1519718355.4670074     
   179493222.46102414       -23111320.476707652        1532940790.0590227     
   236133481.61538363        14104210.907507762        1544235223.1652408     
   208525484.84537494        12128519.165930338        1539997827.9787796     
   179829730.54393286        6526968.9862430170        1541138997.7471375     
   150046218.71105179       -2700439.6315750331        1547658732.4703248     
   119174949.34673722       -15553706.687504657        1559557032.1483307     
   116775615.50573188        6664767.8612907380        1573518011.8342419     
   103233498.57893001        5755486.4187334776        1569140958.0285199     
   89147502.887318000        3033275.7601410486        1569959152.1552801     
   74517628.430901900       -1501864.1144643463        1575972594.2145309     
   59343875.209667251       -7849933.2051315904        1587181284.2062593     
   5.7196738188205205E-002   1.3408688079277784E-002   1601270709.5609338     
   5.2626584408980361E-002  -6.4242567309813967E-003   1597388522.3636851     
   4.9879514438214173E-002  -2.0183031070606639E-002   1598518266.0765817     
   4.8941276855350158E-002  -2.7910629393748693E-002   1604659940.6996191     
   4.9819123185775777E-002  -2.9585308561982295E-002   1615813546.2328002     
   240298694.55252436       -30522774.572769955        1507332557.9383318     
   199571933.50392097       -60216633.384723082        1486190196.2460544     
   154234715.20831564       -105278683.02001320        1467803514.6043046     
   104287039.66572213       -165708923.47859997        1452172513.0130734     
   49728906.876134679       -241507354.76049718        1439297191.4723740     
   179493222.46102414       -23111320.476707652        1532940790.0590227     
   148297149.43227220       -45577015.258413091        1507338389.8303576     
   113643233.46811301       -79568853.158141404        1484643570.1748490     
   75531474.568561256       -125086834.17584571        1464856331.0924835     
   33961872.733607598       -182130958.31155625        1447976672.5832801     
   119174949.34673722       -15553706.687504657        1559557032.1483307     
   97943565.831065997       -30661036.990972012        1530839310.0801330     
   74406953.691585109       -53452462.707139730        1505181069.1077144     
   48565112.928292528       -83927983.836010277        1482582309.2310796     
   20418043.541186355       -122087600.37759694        1463043030.4502168     
   59343875.209667251       -7849933.2051315904        1587181284.2062593     
   48511182.700303011       -15468698.582390472        1556692956.9953790     
   36525875.878714241       -26929511.667061329        1529416011.4029129     
   23387954.744902637       -42232372.459144607        1505350447.4288521     
   9097419.2988783009       -61377280.958603635        1484496265.0731952     
   4.9819123185775777E-002  -2.9585308561982295E-002   1615813546.2328002     
   3.9980747650276753E-002  -3.2680039992808649E-002   1584899330.5760975     
   2.9512976311902667E-002  -3.7872063543828161E-002   1557348397.0604353     
   1.8410730815334828E-002  -4.5180388734274296E-002   1533160745.6858029     
   6.6835731088759863E-003  -5.4569672956185936E-002   1512336376.4522135     
   49728906.876134679       -241507354.76049718        1439297191.4723740     
   40429647.017671689       -322492377.70322019        1346288356.6829512     
   23368809.104970723       -429349327.49340868        1253153977.2670007     
  -1453606.8619518578       -562078204.13099432        1159894053.2245157     
  -34037600.883120865       -720679007.61606801        1066508584.5554897     
   33961872.733607598       -182130958.31155625        1447976672.5832801     
   29808289.702189013       -242023466.96192500        1347493581.3786004     
   19833523.129873633       -321319920.74861771        1246226744.4460871     
   4037573.0166698098       -420020319.67160952        1144176161.7857630     
  -17579560.637433946       -538124663.73092461        1041341833.3976080     
   20418043.541186355       -122087600.37759694        1463043030.4502168     
   19529562.761700414       -161451767.10813817        1357349476.4291632     
   14760292.954654902       -213751897.26387656        1250213975.5790112     
   6110234.1200570315       -278987990.84479165        1141636527.8997400     
  -6420613.7420953810       -357160047.85088563        1031617133.3913621     
   9097419.2988783009       -61377280.958603635        1484496265.0731952     
   9593466.1962133944       -80777278.141834229        1375856041.8346758     
   8149118.5793284401       -106645257.03913441        1265115670.6657448     
   4764376.4482167214       -138981217.65052369        1152275151.5664220     
  -560760.19710743427       -177785159.97595191        1037334484.5366735     
   6.6835731088759863E-003  -5.4569672956185936E-002   1512336376.4522135     
   5.7173130698615661E-003  -6.3052996889623916E-002   1403013277.5951042     
   3.8694779980929343E-003  -7.4476985933747089E-002   1290931829.7063069     
   1.1372084592690332E-003  -8.8848742923359314E-002   1176092032.7858162     
  -2.4659761412347270E-003 -0.10612216233979029        1058493886.8336284     
  -3.4240995570058415       -8.7713552080933113        1389952180.6649370     
  -2.0761515217638182       -4.1432044608345073        1409057151.2138674     
  -1.1580430753526911      -0.94785095523324459        1429615900.5865581     
 -0.66977515566691115       0.81470044767216643        1451628428.7830071     
 -0.61134531503071643        1.1444575598562357        1475094735.8032165     
  -323313895.12303019        13398815.340215415        1434894668.4841228     
  -317340079.99268401        12390688.650378302        1441107398.6688561     
  -311430432.01501191        11168671.451625258        1450694237.0896702     
  -305584951.19001615        9732763.7439514548        1463655183.7465656     
  -299803637.51769906        8082965.5273487419        1479990238.6395452     
  -686099141.05213380        14956233.182729214        1478797557.8713672     
  -668664856.67560673        14585971.814044803        1472043186.5152509     
  -651358906.17459238        13787930.860317141        1470583252.8075478     
  -634181289.54909074        12562110.321548849        1474417756.7482471     
  -617132006.79910254        10908510.197733343        1483546698.3373499     
  -1088355741.2114055        4672244.7561941147        1521660848.8266542     
  -1053974332.1249204        6585845.3477935791        1501864514.7530580     
  -1019785423.6367843        7857777.2782242298        1489282947.7401888     
  -985789015.74699652        8488040.5474970341        1483916147.7880495     
  -951985108.45555913        8476635.1556011438        1485764114.8966391     
  -1530083695.6008477       -17453149.939390361        1563484541.3499935     
  -1473268506.3406229       -11609690.748370945        1530571383.3822706     
  -1416709984.4015870       -6621789.2946467400        1506793321.8875971     
  -1360408129.7837343       -2489445.5782006979        1492150356.8659766     
  -1304362942.4870694        787340.40094953775        1486642488.3174052     
 -0.61134531503071643        1.1444575598562357        1475094735.8032165     
 -0.37464719971036270       0.88519118774870242        1480544830.5086391     
 -0.13173647154825480       0.64663352511368288        1488120124.0295031     
  0.11738725833867213       0.42878552128336500        1497820616.3658094     
  0.37272501934676638       0.23165164841299546        1509646307.5175557     
  -299803637.51769906        8082965.5273487419        1479990238.6395452     
  -293422046.63761693        6438493.0238530189        1479795899.3745685     
  -287091513.29665565        4623828.7232871950        1482764770.7684991     
  -280812037.49481875        2638972.6256408244        1488896852.8213356     
  -274583619.23210245        483924.73092480004        1498192145.5330830     
  -617132006.79910254        10908510.197733343        1483546698.3373499     
  -601403077.15144944        8509289.8872610331        1477648357.9657512     
  -585776262.58825111        5769685.9619379640        1475951240.0965238     
  -570251563.10951293        2689698.4217496812        1478455344.7296705     
  -554828978.71523070       -730672.73329392076        1485160671.8651903     
  -951985108.45555913        8476635.1556011438        1485764114.8966391     
  -923943091.91614425        6212391.4754177928        1474102206.2821918     
  -896054248.00652337        3437572.3625873923        1467679532.0135822     
  -868318576.72669554        152177.81711196899        1466496092.0908115     
  -840736078.07666135       -3643792.1610041857        1470551886.5138764     
  -1304362942.4870694        787340.40094953775        1486642488.3174052     
  -1261042090.9317110       -452202.21170854568        1469157444.3238840     
  -1217925469.5514712       -2372512.0747667551        1457949646.5196681     
  -1175013078.3463669       -4973589.1882717013        1453019094.9047573     
  -1132304917.3163900       -8255433.5522038937        1454365789.4791498     
  0.37272501934676638       0.23165164841299546        1509646307.5175557     
  0.34375423752929368       -2.2161302097452457E-003   1508064109.5514970     
  0.34058726535028533      -0.15007121003760462        1511190961.3714988     
  0.36322055711120804      -0.21192610395508410        1519026862.9775648     
  0.41165761275964635      -0.18776706380206423        1531571814.3696921     
  -274583619.23210245        483924.73092480004        1498192145.5330830     
  -262172347.18770367        50918.006998047233        1494721518.1941223     
  -249797587.90992379       -503797.93899202347        1496188898.0078557     
  -237459341.39876747       -1180223.1070600748        1502594284.9742873     
  -225157607.65423474       -1978357.4972061217        1513937679.0934155     
  -554828978.71523070       -730672.73329392076        1485160671.8651903     
  -529352270.69279671       -1400436.7758750021        1479759016.8955002     
  -503948588.22940737       -2313619.3486049771        1479524326.4451418     
  -478617931.32506675       -3470220.4514974952        1484456600.5141103     
  -453360299.97977167       -4870240.0845419168        1494555839.1024053     
  -840736078.07666135       -3643792.1610041857        1470551886.5138764     
  -801539770.17152643       -4354064.3508406878        1463176605.6556327     
  -762453000.61786485       -5429464.3789165914        1461197246.6833451     
  -723475769.41566920       -6869992.2452141941        1464613809.5970221     
  -684608076.56495082       -8675647.9497686625        1473426294.3966582     
  -1132304917.3163900       -8255433.5522038937        1454365789.4791498     
  -1078734845.6238921       -8809964.7178971767        1444974284.4745164     
  -1025310825.0752888       -9851333.0299031734        1441207658.7224770     
  -972032855.67058444       -11379538.488240957        1443065912.2230322     
  -918900937.40977466       -13394581.092892230        1450549044.9761789     
  0.41165761275964635      -0.18776706380206423        1531571814.3696921     
  0.35162193669545050      -0.15522487141804112        1531108302.2763054     
  0.29277093569992124      -0.11873514991724329        1535913789.5987401     
  0.23509934841394475       -7.8314049384603193E-002   1545988276.3369977     
  0.17860905062642235       -3.3953929411668374E-002   1561331762.4910805     
  -225157607.65423474       -1978357.4972061217        1513937679.0934155     
  -211802572.16316155       -2577764.7408416122        1512321300.4219213     
  -198488340.41807485       -3313184.4711001888        1515847351.3607216     
  -185214912.41898102       -4184616.6880008429        1524515831.9098258     
  -171982288.16587323       -5192061.3915202990        1538326742.0692258     
  -453360299.97977167       -4870240.0845419168        1494555839.1024053     
  -427011856.95337456       -6177543.0090938658        1491738989.4810998     
  -400745021.42013609       -7756870.9108373374        1493937999.6645725     
  -374559793.38005662       -9608223.7897797674        1501152869.6528218     
  -348456172.83313364       -11731601.645910129        1513383599.4458406     
  -684608076.56495082       -8675647.9497686625        1473426294.3966582     
  -645627854.01901865       -10799334.959982127        1469361369.4538510     
  -606770042.71341240       -13331059.437948644        1470185734.5102978     
  -568034642.64812875       -16270821.383657545        1475899389.5659902     
  -529421653.82317805       -19618620.797140181        1486502334.6209402     
  -918900937.40977466       -13394581.092892230        1450549044.9761789     
  -867650563.36008692       -16443140.593487620        1445188440.3401713     
  -816563404.29789507       -20035750.052401006        1444590555.8978901     
  -765639460.22320294       -24172409.469647378        1448755391.6493356     
  -714878731.13600409       -28853118.845204651        1457682947.5945091     
  0.17860905062642235       -3.3953929411668374E-002   1561331762.4910805     
  0.15868378040145054        1.2646431521038233E-002   1563415576.2921522     
  0.13179947060477573        3.6049299992011230E-002   1570766672.0708172     
   9.7975428136798756E-002   3.6320420114700602E-002   1583385049.8270819     
   5.7196738188205205E-002   1.3408688079277784E-002   1601270709.5609338     
  -171982288.16587323       -5192061.3915202990        1538326742.0692258     
  -158311772.86625016       -5997414.3139212057        1538973034.9290693     
  -144553822.30383006       -6511316.3603320792        1545053677.5115101     
  -130708436.47860858       -6733767.5307366252        1556568669.8165479     
  -116775615.39059444       -6664767.8251691051        1573518011.8441763     
  -348456172.83313364       -11731601.645910129        1513383599.4458406     
  -320637805.79966652       -13199106.613006935        1512694379.1791601     
  -292644568.23365688       -14083709.804959327        1517606576.3800807     
  -264476460.13510019       -14385411.221755967        1528120191.0485961     
  -236133481.50400439       -14104210.863422535        1544235223.1847098     
  -529421653.82317805       -19618620.797140181        1486502334.6209402     
  -486978098.64157605       -21605076.884643942        1484579609.0424399     
  -444272237.65768266       -22717180.297842935        1488425368.6765375     
  -401304070.87150282       -22954931.036753610        1498039613.5232351     
  -358073598.28303260       -22318329.101363108        1513422343.5825357     
  -714878731.13600409       -28853118.845204651        1457682947.5945091     
  -657332651.39198136       -31215325.128843009        1454628724.5188906     
  -599436830.57591486       -32411727.839003474        1457510054.4008756     
  -541191268.68781805       -32442326.975727111        1466326937.2404592     
  -482595965.72768480       -31307122.538997546        1481079373.0376449     
   5.7196738188205205E-002   1.3408688079277784E-002   1601270709.5609338     
   5.2626584408980361E-002  -6.4242567309813967E-003   1597388522.3636851     
   4.9879514438214173E-002  -2.0183031070606639E-002   1598518266.0765817     
   4.8941276855350158E-002  -2.7910629393748693E-002   1604659940.6996191     
   4.9819123185775777E-002  -2.9585308561982295E-002   1615813546.2328002     
  -116775615.39059444       -6664767.8251691051        1573518011.8441763     
  -103233498.47332947       -5755486.4234092347        1569140958.0411060     
  -89147502.787594512       -3033275.7934167869        1569959152.1704755     
  -74517628.333400622        1501864.0647728816        1575972594.2322876     
  -59343875.110745236        7849933.1511667669        1587181284.2265391     
  -236133481.50400439       -14104210.863422535        1544235223.1847098     
  -208525484.74405712       -12128519.163824037        1539997828.0035763     
  -179829730.44898996       -6526969.0138261244        1541138997.7771797     
  -150046218.61881375        2700439.5865352303        1547658732.5055172     
  -119174949.25352535        15553706.637270764        1559557032.1885927     
  -358073598.28303260       -22318329.101363108        1513422343.5825357     
  -315875958.75954854       -19119098.227652133        1509959132.2510922     
  -272046682.93431014       -10481079.681426644        1512057802.8966818     
  -226585770.80729821        3595726.5373760760        1519718355.5193098     
  -179493222.37853000        23111320.428702414        1532940790.1189699     
  -482595965.72768480       -31307122.538997546        1481079373.0376449     
  -425284920.51982468       -26727223.614955619        1479024870.7836552     
  -365798360.24354273       -14895607.796172544        1482715567.5289934     
  -304136284.89885432        4187724.9172991663        1492151463.2736626     
  -240298694.48575830        30522774.525460318        1507332558.0176685     
   4.9819123185775777E-002  -2.9585308561982295E-002   1615813546.2328002     
   3.9980747650276753E-002  -3.2680039992808649E-002   1584899330.5760975     
   2.9512976311902667E-002  -3.7872063543828161E-002   1557348397.0604353     
   1.8410730815334828E-002  -4.5180388734274296E-002   1533160745.6858029     
   6.6835731088759863E-003  -5.4569672956185936E-002   1512336376.4522135     
  -59343875.110745236        7849933.1511667669        1587181284.2265391     
  -48511182.620771132        15468698.521698501        1556692957.0126591     
  -36525875.819759592        26929511.595693544        1529416011.4175270     
  -23387954.707701951        42232372.373172812        1505350447.4411559     
  -9097419.2845954038        61377280.854148820        1484496265.0835235     
  -119174949.25352535        15553706.637270764        1559557032.1885927     
  -97943565.755988672        30661036.933732346        1530839310.1144941     
  -74406953.635734037        53452462.639256924        1505181069.1368504     
  -48565112.892763644        83927983.753835082        1482582309.2556770     
  -20418043.527070969        122087600.27748501        1463043030.4709766     
  -179493222.37853000        23111320.428702414        1532940790.1189699     
  -148297149.36567241        45577015.203422174        1507338389.8815956     
  -113643233.41841608        79568853.092807174        1484643570.2184014     
  -75531474.536774233        125086834.09680913        1464856331.1293898     
  -33961872.720730424        182130958.21548438        1447976672.6145608     
  -240298694.48575830        30522774.525460318        1507332558.0176685     
  -199571933.44981426        60216633.330791220        1486190196.3139746     
  -154234715.16780558        105278682.95633689        1467803514.6621799     
  -104287039.63972540        165708923.40212059        1452172513.0622804     
  -49728906.865581036        241507354.66811973        1439297191.5142815     
   6.6835731088759863E-003  -5.4569672956185936E-002   1512336376.4522135     
   5.7173130698615661E-003  -6.3052996889623916E-002   1403013277.5951042     
   3.8694779980929343E-003  -7.4476985933747089E-002   1290931829.7063069     
   1.1372084592690332E-003  -8.8848742923359314E-002   1176092032.7858162     
  -2.4659761412347270E-003 -0.10612216233979029        1058493886.8336284     
  -9097419.2845954038        61377280.854148820        1484496265.0835235     
  -9593466.1837463863        80777278.020887405        1375856041.8426256     
  -8149118.5703020543        106645256.89627877        1265115670.6713057     
  -4764376.4442935288        138981217.48021781        1152275151.5695560     
   560760.19429795444        177785159.77276430        1037334484.5373898     
  -20418043.527070969        122087600.27748501        1463043030.4709766     
  -19529562.749331206        161451766.99202144        1357349476.4453189     
  -14760292.945552915        213751897.12668991        1250213975.5905049     
  -6110234.1157396883        278987990.68147290        1141636527.9065340     
   6420613.7401058674        357160047.65636390        1031617133.3934220     
  -33961872.720730424        182130958.21548438        1447976672.6145608     
  -29808289.691048682        242023466.85031405        1347493581.4031820     
  -19833523.121873721        321319920.61679047        1246226744.4639204     
  -4037573.0132027566        420020319.51491964        1144176161.7967710     
   17579560.634955645        538124663.54466951        1041341833.4017490     
  -49728906.865581036        241507354.66811973        1439297191.5142815     
  -40429647.008907080        322492377.59573102        1346288356.7162170     
  -23368809.099269629        429349327.36655688        1253153977.2915387     
   1453606.8633220494        562078203.98055649        1159894053.2402537     
   34037600.878854513        720679007.43770301        1066508584.5623457     
  -1530083695.6008477       -17453149.939390361        1563484541.3499935     
  -1473268506.3406229       -11609690.748370945        1530571383.3822706     
  -1416709984.4015870       -6621789.2946467400        1506793321.8875971     
  -1360408129.7837343       -2489445.5782006979        1492150356.8659766     
  -1304362942.4870694        787340.40094953775        1486642488.3174052     
  -1970334483.3730559       -36667144.910590410        1428978533.7921093     
  -1891271363.1939390       -26695635.492147446        1408902696.1867824     
  -1812615965.4702051       -18083200.924984455        1395852928.1473749     
  -1734368290.2018564       -10829841.209101439        1389829229.6738927     
  -1656528337.3888924       -4935556.3445063829        1390831600.7663310     
  -2369787001.0910988       -43641658.865544200        1293581284.4029336     
  -2274501741.1563144       -31349836.568643451        1286166536.1700985     
  -2179775258.8111095       -20920606.237015724        1283668830.5960624     
  -2085607554.0554874       -12353967.870658517        1286088167.6808183     
  -1991998626.8894482       -5649921.4695771933        1293424547.4243674     
  -2728441248.7549806       -38376691.804249644        1157292793.1824548     
  -2622959640.2277460       -25572293.977850556        1162362903.3322220     
  -2518187864.4242988       -15134005.230729938        1170241029.2336550     
  -2414125921.3446255       -7061825.5628607273        1180927170.8867531     
  -2310773810.9887347       -1355754.9742679596        1194421328.2915163     
  -3046297226.3646860       -20872243.726698995        1020113060.1306784     
  -2936645060.4082408       -9363007.7197866440        1037491797.6731474     
  -2827853782.3097663       -723397.90612399578        1055569524.0601555     
  -2719923392.0692720        5046585.7142795324        1074346239.2916975     
  -2612853889.6867566        7946943.1414173841        1093821943.3677778     
  -1304362942.4870694        787340.40094953775        1486642488.3174052     
  -1261042090.9317110       -452202.21170854568        1469157444.3238840     
  -1217925469.5514712       -2372512.0747667551        1457949646.5196681     
  -1175013078.3463669       -4973589.1882717013        1453019094.9047573     
  -1132304917.3163900       -8255433.5522038937        1454365789.4791498     
  -1656528337.3888924       -4935556.3445063829        1390831600.7663310     
  -1598079963.8135195       -5704425.0209726691        1378470009.0230820     
  -1539781458.8397765       -6972855.7028686404        1371359109.4283421     
  -1481632822.4676549       -8740848.3901737928        1369498901.9821095     
  -1423634054.6971605       -11008403.082897007        1372889386.6843872     
  -1991998626.8894482       -5649921.4695771933        1293424547.4243674     
  -1921355742.8392015       -6828019.6734162569        1286249829.7671461     
  -1850808365.8170767       -8324474.6376585960        1283299250.2176349     
  -1780356495.8230748       -10139286.362315416        1284572808.7758338     
  -1710000132.8571954       -12272454.847374439        1290070505.4417479     
  -2310773810.9887347       -1355754.9742679596        1194421328.2915163     
  -2230869428.0087457       -3822986.1690131426        1192496906.5560737     
  -2151006190.4833765       -6427368.8791570663        1193770068.8875463     
  -2071184098.4126272       -9168903.1046966314        1198240815.2859335     
  -1991403151.7964959       -12047588.845630646        1205909145.7512362     
  -2612853889.6867566        7946943.1414173841        1093821943.3677778     
  -2526621019.3221560        3310675.4922353029        1097211239.3898668     
  -2440374932.8386745       -1281538.4273489714        1102771565.4380777     
  -2354115630.2363091       -5829698.6173171997        1110502921.5124059     
  -2267843111.5150566       -10333805.077661753        1120405307.6128523     
  -1132304917.3163900       -8255433.5522038937        1454365789.4791498     
  -1078734845.6238921       -8809964.7178971767        1444974284.4745164     
  -1025310825.0752888       -9851333.0299031734        1441207658.7224770     
  -972032855.67058444       -11379538.488240957        1443065912.2230322     
  -918900937.40977466       -13394581.092892230        1450549044.9761789     
  -1423634054.6971605       -11008403.082897007        1372889386.6843872     
  -1355766217.9382329       -10828055.257172048        1364829408.9243488     
  -1288086634.4533269       -11275218.344849050        1361973245.2724900     
  -1220595304.2424502       -12349892.345957458        1364320895.7288094     
  -1153292227.3055992       -14052077.260484815        1371872360.2933092     
  -1710000132.8571954       -12272454.847374439        1290070505.4417479     
  -1629037574.3015928       -11718141.011142612        1283292819.1078198     
  -1548305471.1501429       -11932011.855429232        1281297881.7376575     
  -1467803823.4028528       -12914067.380245149        1284085693.3312578     
  -1387532631.0597160       -14664307.585570097        1291656253.8886223     
  -1991403151.7964959       -12047588.845630646        1205909145.7512362     
  -1898548914.7139716       -11480221.979825616        1200364515.0249348     
  -1805967335.1657355       -11821713.561636925        1199181568.1179817     
  -1713658413.1517885       -13072063.591081142        1202360305.0303776     
  -1621622148.6721234       -15231272.068136692        1209900725.7621236     
  -2267843111.5150566       -10333805.077661753        1120405307.6128523     
  -2164300239.1753750       -10114298.163214207        1116044496.6756880     
  -2061072226.5001078       -10944323.463486075        1115624304.4134600     
  -1958159073.4892614       -12823880.978490829        1119144730.8261659     
  -1855560780.1428268       -15752970.708202124        1126605775.9138048     
  -918900937.40977466       -13394581.092892230        1450549044.9761789     
  -867650563.36008692       -16443140.593487620        1445188440.3401713     
  -816563404.29789507       -20035750.052401006        1444590555.8978901     
  -765639460.22320294       -24172409.469647378        1448755391.6493356     
  -714878731.13600409       -28853118.845204651        1457682947.5945091     
  -1153292227.3055992       -14052077.260484815        1371872360.2933092     
  -1089917859.7285781       -17438594.999200463        1366324013.1966746     
  -1026688680.6464787       -21309074.387660921        1365417085.1361356     
  -963604690.05930793       -25663515.425874233        1369151576.1116960     
  -900665887.96705210       -30501918.113816619        1377527486.1233511     
  -1387532631.0597160       -14664307.585570097        1291656253.8886223     
  -1312380844.6914432       -18492755.983230531        1285941195.2393613     
  -1237356220.3255193       -22745077.722058475        1284746254.4685671     
  -1162458757.9619460       -27421272.802054584        1288071431.5762422     
  -1087688457.6007235       -32521341.223215580        1295916726.5623870     
  -1621622148.6721234       -15231272.068136692        1209900725.7621236     
  -1535039518.2486820       -19605623.545570254        1204039986.4682362     
  -1448566023.3350136       -24343760.055585206        1202578063.8951876     
  -1362201663.9311252       -29445681.598197162        1205514958.0429833     
  -1275946440.0370142       -34911388.173407018        1212850668.9116125     
  -1855560780.1428268       -15752970.708202124        1126605775.9138048     
  -1757893880.4002962       -20777197.686225772        1120620386.8832958     
  -1660318089.6749654       -26105121.388253272        1118912513.4159958     
  -1562833407.9668429       -31736741.814310610        1121482155.5119085     
  -1465439835.2759235       -37672058.964370728        1128329313.1710308     
  -714878731.13600409       -28853118.845204651        1457682947.5945091     
  -657332651.39198136       -31215325.128843009        1454628724.5188906     
  -599436830.57591486       -32411727.839003474        1457510054.4008756     
  -541191268.68781805       -32442326.975727111        1466326937.2404592     
  -482595965.72768480       -31307122.538997546        1481079373.0376449     
  -900665887.96705210       -30501918.113816619        1377527486.1233511     
  -828315143.84434175       -32413662.467314333        1374075794.3405726     
  -755751249.20999813       -33614905.115371227        1375972800.2153068     
  -682974204.06403482       -34105646.058026254        1383218503.7475491     
  -609984008.40644646       -33885885.295272797        1395812904.9373064     
  -1087688457.6007235       -32521341.223215580        1295916726.5623870     
  -1002209778.5281515       -34485642.475217164        1291908210.4186339     
  -916654539.50435913       -36194743.889821440        1292661536.6323028     
  -831022740.52936220       -37648645.467071712        1298176705.2033896     
  -745314381.60315120       -38847347.206944436        1308453716.1318986     
  -1275946440.0370142       -34911388.173407018        1212850668.9116125     
  -1179016555.4434099       -37431265.152556241        1208125972.7530699     
  -1082146701.4590003       -40151244.162359476        1207576263.6518600     
  -985336878.08379173       -43071325.202827871        1211201541.6079795     
  -888587085.31778777       -46191508.273982137        1219001806.6214309     
  -1465439835.2759235       -37672058.964370728        1128329313.1710308     
  -1358735474.5901184       -41250530.499330282        1122729081.3438835     
  -1252227735.0739193       -45484405.932977498        1120716981.2739806     
  -1145916616.7273345       -50373685.265338778        1122293012.9613161     
  -1039802119.5503640       -55918368.496415138        1127457176.4058907     
  -482595965.72768480       -31307122.538997546        1481079373.0376449     
  -425284920.51982468       -26727223.614955619        1479024870.7836552     
  -365798360.24354273       -14895607.796172544        1482715567.5289934     
  -304136284.89885432        4187724.9172991663        1492151463.2736626     
  -240298694.48575830        30522774.525460318        1507332558.0176685     
  -609984008.40644646       -33885885.295272797        1395812904.9373064     
  -537980416.36572862       -30272563.946684092        1393559662.8825221     
  -463757309.99867392       -19260861.510310471        1397086237.2941701     
  -387314689.30528295       -850777.98615095019        1406392628.1722524     
  -308652554.28555948        24957686.625786290        1421478835.5167680     
  -745314381.60315120       -38847347.206944436        1308453716.1318986     
  -658519335.68071055       -36170931.319152594        1306053066.7438991     
  -569460776.17401457       -25949470.150505394        1309466851.2894344     
  -478138703.08306324       -8182963.7010067701        1318695069.7685027     
  -384553116.40785426        17128588.029350877        1333737722.1811132     
  -888587085.31778777       -46191508.273982137        1219001806.6214309     
  -786901678.46476984       -44422325.732349306        1216505082.3677883     
  -682908758.76957190       -34961433.716774881        1219857409.5147862     
  -576608326.23218954       -17808832.227259606        1229058788.0624216     
  -468000380.85263038        7035478.7361843884        1244109218.0106947     
  -1039802119.5503640       -55918368.496415138        1127457176.4058907     
  -923127444.71789837       -55026747.186246753        1124915709.7541902     
  -804101257.78533614       -46296752.209093153        1128257911.9702263     
  -682723558.75267065       -29728383.564925551        1137483783.0540051     
  -558994347.61990225       -5321641.2537507713        1152593323.0055156     
  -240298694.48575830        30522774.525460318        1507332558.0176685     
  -199571933.44981426        60216633.330791220        1486190196.3139746     
  -154234715.16780558        105278682.95633689        1467803514.6621799     
  -104287039.63972540        165708923.40212059        1452172513.0622804     
  -49728906.865581036        241507354.66811973        1439297191.5142815     
  -308652554.28555948        24957686.625786290        1421478835.5167680     
  -259043500.41563496        55205883.460780308        1404746336.9565134     
  -202979901.59645084        106969230.12663887        1391962767.1328852     
  -140461757.82801190        180247726.62334684        1383128126.0458786     
  -71489069.110305890        275041372.95094573        1378242413.6955109     
  -384553116.40785426        17128588.029350877        1333737722.1811132     
  -322652487.74757886        48953907.480917439        1323566522.4180150     
  -252453226.43485615        108441335.77398039        1318537500.0762770     
  -173955332.46967643        195590872.90856653        1318650655.1558924     
  -87158805.852041364        310402518.88466525        1323905987.6568658     
  -468000380.85263038        7035478.7361843884        1244109218.0106947     
  -390398895.44563794        41460705.391227558        1242650752.6984839     
  -302654689.68300986        109694999.89840032        1247527713.4923613     
  -204767763.56471729        211738362.25777662        1258740100.3923261     
  -96738117.090789318        347590792.46928269        1276287913.3983738     
  -558994347.61990225       -5321641.2537507713        1152593323.0055156     
  -462282723.50981885        32726277.191701084        1161999027.7979202     
  -353584291.34090400        110730222.49992475        1178933407.3811378     
  -232899051.11314660        228690194.67095679        1203396461.7551694     
  -100227002.82654887        386606193.70479000        1235388190.9200163     
  -49728906.865581036        241507354.66811973        1439297191.5142815     
  -40429647.008907080        322492377.59573102        1346288356.7162170     
  -23368809.099269629        429349327.36655688        1253153977.2915387     
   1453606.8633220494        562078203.98055649        1159894053.2402537     
   34037600.878854513        720679007.43770301        1066508584.5623457     
  -71489069.110305890        275041372.95094573        1378242413.6955109     
  -57338684.395332187        376780422.39492452        1296721289.6659470     
  -34219485.739141762        508415518.30962497        1214267954.0348315     
  -2131473.1417511106        669946660.69499433        1130882406.8021693     
   38925353.396843642        861373849.55104744        1046564647.9679582     
  -87158805.852041364        310402518.88466525        1323905987.6568658     
  -70462059.064297289        432204166.00937271        1255281016.2654436     
  -43589262.447100967        587925979.23225951        1184917166.2975199     
  -6540416.0004354417        777567958.55336523        1112814437.7531152     
   40684480.275678813        1001130103.9726455        1038972830.6322258     
  -96738117.090789318        347590792.46928269        1276287913.3983738     
  -79799771.015821338        488763608.43903148        1221967536.5147033     
  -51478139.223143607        667880710.13447952        1165101614.0796096     
  -11773221.712749004        884942097.55564594        1105690146.0930882     
   39314981.515345573        1139947770.7024932        1043733132.5551364     
  -100227002.82654887        386606193.70479000        1235388190.9200163     
  -85351820.249888748        546458749.68393397        1196780850.4137368     
  -57886116.067277789        748279711.01625025        1154821297.3810892     
  -17829890.278677225        992069077.70184994        1109509531.8220797     
   34816857.115858555        1277826849.7405949        1060845553.7367060     
  -3046297226.3646860       -20872243.726698995        1020113060.1306784     
  -2936645060.4082408       -9363007.7197866440        1037491797.6731474     
  -2827853782.3097663       -723397.90612399578        1055569524.0601555     
  -2719923392.0692720        5046585.7142795324        1074346239.2916975     
  -2612853889.6867566        7946943.1414173841        1093821943.3677778     
  -3364133372.2569361        16594.347306966782        966837236.51509500     
  -3250753205.4344077        6352852.0866339207        969686824.98518157     
  -3137910556.0021544        10897385.191714048        975898881.80023432     
  -3025605423.9601774        13650193.662546515        985473406.96025419     
  -2913837809.3084726        14611277.499126792        998410400.46524155     
  -3724955667.9428649        8009587.4832046032        910953019.15460789     
  -3600237558.8244591        11455849.383882523        899650724.09795940     
  -3475733596.6286216        14188288.209324598        894374376.88671267     
  -3351443781.3553538        16206903.959530354        895123977.52086365     
  -3227368113.0046616        17511696.634491324        901899526.00041068     
  -4128764113.4224687        3106735.6810035706        852460408.04920805     
  -3985098120.5783749        5945984.1719748974        827383495.01148069     
  -3841322904.1891518        9149311.1467156410        810996009.31958687     
  -3697438464.2547946        12716716.605237484        803297950.97352290     
  -3553444800.7753096        16648200.547521353        804289319.97328627     
  -4575558708.6957521       -14691961.059304476        791359403.19889951     
  -4405334890.6961670       -10176743.549095392        752885137.72575021     
  -4234678478.6837583       -4219545.9961130619        725763779.09886122     
  -4063589472.6585054        3179631.5996589661        709995327.31823409     
  -3892067872.6204247        12020789.238204718        705579782.38386726     
  -2612853889.6867566        7946943.1414173841        1093821943.3677778     
  -2526621019.3221560        3310675.4922353029        1097211239.3898668     
  -2440374932.8386745       -1281538.4273489714        1102771565.4380777     
  -2354115630.2363091       -5829698.6173171997        1110502921.5124059     
  -2267843111.5150566       -10333805.077661753        1120405307.6128523     
  -2913837809.3084726        14611277.499126792        998410400.46524155     
  -2821353267.4452386        8958937.2172859907        997761766.71288741     
  -2728877473.4325237        3277437.4337052107        999985559.31013119     
  -2636410427.2703314       -2433221.8516194820        1005081778.2569761     
  -2543952128.9586687       -8173040.6386998892        1013050423.5534173     
  -3227368113.0046616        17511696.634491324        901899526.00041068     
  -3126627910.1471210        11444480.568714380        897187337.84263456     
  -3025918419.1095171        5274891.7698198557        896048972.35793626     
  -2925239639.8918443       -997069.76217520237        898484429.54631996     
  -2824591572.4941015       -7371404.0272805691        904493709.40778279     
  -3553444800.7753096        16648200.547521353        804289319.97328627     
  -3442444947.4278111        10767305.546493530        795487952.77911019     
  -3331497769.8696547        4710824.5809926987        790961804.58149624     
  -3220603268.1008377       -1521242.3489687443        790710875.38044226     
  -3109761442.1213689       -7928895.2434203625        794735165.17595017     
  -3892067872.6204247        12020789.238204718        705579782.38386726     
  -3768804379.2873082        6927412.1506285667        692663611.52231550     
  -3645615525.7129412        1585235.8672168255        684724055.98080528     
  -3522501311.8973188       -4005739.6120111942        681761115.75933766     
  -3399461737.8404531       -9845514.2870881557        683774790.85791230     
  -2267843111.5150566       -10333805.077661753        1120405307.6128523     
  -2164300239.1753750       -10114298.163214207        1116044496.6756880     
  -2061072226.5001078       -10944323.463486075        1115624304.4134600     
  -1958159073.4892614       -12823880.978490829        1119144730.8261659     
  -1855560780.1428268       -15752970.708202124        1126605775.9138048     
  -2543952128.9586687       -8173040.6386998892        1013050423.5534173     
  -2429871366.3451610       -7792903.0817884207        1006878209.6361500     
  -2316023690.7909517       -8189722.3892078400        1004834377.8755540     
  -2202409102.2960429       -9363498.5609613657        1006918928.2716271     
  -2089027600.8604319       -11314231.597039819        1013131860.8243704     
  -2824591572.4941015       -7371404.0272805691        904493709.40778279     
  -2699436452.5160942       -6669695.7007157803        896605493.88304734     
  -2574432646.9922724       -6472368.8880853653        893033423.99672127     
  -2449580155.9226260       -6779423.5893822908        893777499.74880302     
  -2324878979.3071618       -7590859.8046197891        898837721.13928962     
  -3109761442.1213689       -7928895.2434203625        794735165.17595017     
  -2972995497.6881852       -6744676.0199860334        785226349.41638458     
  -2836299095.1040640       -5792262.9600944519        780221442.77696621     
  -2699672234.3690042       -5071656.0637433529        779720445.25769043     
  -2563114915.4830089       -4582855.3309357166        783723356.85856247     
  -3399461737.8404531       -9845514.2870881557        683774790.85791230     
  -3250548501.8614206       -8017844.0395996571        672740776.23616064     
  -3101623035.1263309       -6149404.6052561998        666398434.21628845     
  -2952685337.6351786       -4240195.9840425253        664747764.79829621     
  -2803735409.3879766       -2290218.1759847403        667788767.98218846     
  -1855560780.1428268       -15752970.708202124        1126605775.9138048     
  -1757893880.4002962       -20777197.686225772        1120620386.8832958     
  -1660318089.6749654       -26105121.388253272        1118912513.4159958     
  -1562833407.9668429       -31736741.814310610        1121482155.5119085     
  -1465439835.2759235       -37672058.964370728        1128329313.1710308     
  -2089027600.8604319       -11314231.597039819        1013131860.8243704     
  -1980357050.0064368       -15293385.742668390        1005992178.9833518     
  -1871858996.2261534       -19847530.134007812        1002798157.9343090     
  -1763533439.5195825       -24976664.771053553        1003549797.6772461     
  -1655380379.8867159       -30680789.653793752        1008247098.2121658     
  -2324878979.3071618       -7590859.8046197891        898837721.13928962     
  -2206152933.8309326       -10809388.064625859        890448793.75516784     
  -2087680773.4849248       -14874200.092033386        885673672.39179611     
  -1969462498.2691352       -19785295.886840343        884512357.04917026     
  -1851498108.1835654       -25542675.449040651        886964847.72729087     
  -2563114915.4830089       -4582855.3309357166        783723356.85856247     
  -2435281531.8737836       -7325204.6520923376        773990231.19875050     
  -2307783421.4512868       -11185131.262344956        767539056.78845048     
  -2180620584.2155161       -16162635.161678910        764369833.62766469     
  -2053793020.1664646       -22257716.350085735        764482561.71640396     
  -2803735409.3879766       -2290218.1759847403        667788767.98218846     
  -2667742844.1349916       -4840835.5050692558        656616491.31409156     
  -2532166940.1252351       -8780323.6449248791        648394311.12427700     
  -2397007697.3587155       -14108682.595561266        643122227.41275012     
  -2262265115.8354254       -20825912.356969476        640800240.17950487     
  -1465439835.2759235       -37672058.964370728        1128329313.1710308     
  -1358735474.5901184       -41250530.499330282        1122729081.3438835     
  -1252227735.0739193       -45484405.932977498        1120716981.2739806     
  -1145916616.7273345       -50373685.265338778        1122293012.9613161     
  -1039802119.5503640       -55918368.496415138        1127457176.4058907     
  -1655380379.8867159       -30680789.653793752        1008247098.2121658     
  -1539478001.9079375       -34324221.312984407        1000326264.5060915     
  -1423577260.2270100       -37973107.298344314        995907687.75834739     
  -1307678154.8439329       -41627447.609871566        994991367.96893370     
  -1191780685.7587099       -45287242.247581124        997577305.13785040     
  -1851498108.1835654       -25542675.449040651        886964847.72729087     
  -1726643069.4801269       -29324674.202949524        876950894.49267447     
  -1601594682.2027841       -32462177.710509479        870353323.41747820     
  -1476352946.3515327       -34955185.971698105        867172134.50170076     
  -1350917861.9263752       -36803698.986543000        867407327.74534833     
  -2053793020.1664646       -22257716.350085735        764482561.71640396     
  -1920230677.3066945       -26251889.169251442        752602971.30362868     
  -1786280001.0012393       -28951617.169472456        744053888.25136983     
  -1651940991.2501273       -30356900.350832999        738835312.55961549     
  -1517213648.0533493       -30467738.713297546        736947244.22837448     
  -2262265115.8354254       -20825912.356969476        640800240.17950487     
  -2120240825.3876193       -25105866.211820483        627282494.93895984     
  -1977633216.6223867       -27441425.675261259        617009382.26001930     
  -1834442289.5397205       -27832590.747250438        609980902.14268208     
  -1690668044.1396379       -26279361.427853107        606197054.58693898     
  -1039802119.5503640       -55918368.496415138        1127457176.4058907     
  -923127444.71789837       -55026747.186246753        1124915709.7541902     
  -804101257.78533614       -46296752.209093153        1128257911.9702263     
  -682723558.75267065       -29728383.564925551        1137483783.0540051     
  -558994347.61990225       -5321641.2537507713        1152593323.0055156     
  -1191780685.7587099       -45287242.247581124        997577305.13785040     
  -1061534051.8715384       -42430174.594711065        993863340.64757502     
  -929827245.74145103       -34705866.132103145        994252111.25254667     
  -796660267.36847019       -22114316.859852374        998743616.95277739     
  -662033116.75256634       -4655526.7778715491        1007337857.7482600     
  -1350917861.9263752       -36803698.986543000        867407327.74534833     
  -1212187651.1915860       -33507699.653061032        861480968.91643286     
  -1072888608.0710815       -28315592.367194474        857876411.41028380     
  -933020732.56486392       -21227377.128944099        856593655.22690594     
  -792584024.67292726       -12243053.938298047        857632700.36630213     
  -1517213648.0533493       -30467738.713297546        736947244.22837448     
  -1375088242.6780405       -28259322.361347914        727768594.56076455     
  -1233285344.7742167       -27125930.914327145        719130812.44343603     
  -1091804954.3418608       -27067564.372210026        711033897.87640333     
  -950647071.38098860       -28084222.735039651        703477850.85965502     
  -1690668044.1396379       -26279361.427853107        606197054.58693898     
  -1550235826.3309128       -26685042.719567001        592726217.58057046     
  -1411017455.8508525       -31136881.773496807        578015314.35200942     
  -1273012932.6994698       -39634878.589688003        562064344.90125084     
  -1136222256.8767524       -52179033.168092012        544873309.22829723     
  -558994347.61990225       -5321641.2537507713        1152593323.0055156     
  -462282723.50981885        32726277.191701084        1161999027.7979202     
  -353584291.34090400        110730222.49992475        1178933407.3811378     
  -232899051.11314660        228690194.67095679        1203396461.7551694     
  -100227002.82654887        386606193.70479000        1235388190.9200163     
  -662033116.75256634       -4655526.7778715491        1007337857.7482600     
  -546961503.95343471        25639267.409961849        1020875634.9708411     
  -421018635.62739480        92171580.020809859        1042796988.1459391     
  -284204511.77445602        194941411.05466962        1073101917.2735550     
  -136519132.39461172        333948760.51152992        1111790422.3536971     
  -792584024.67292726       -12243053.938298047        857632700.36630213     
  -656709848.43701065        11031388.416241229        874001072.06513369     
  -511079969.20612931        66824840.754008472        899607920.87818861     
  -355694386.98027718        155137303.07500896        934453246.80546951     
  -190553101.75945792        275968775.37923813        978537049.84697568     
  -950647071.38098860       -28084222.735039651        703477850.85965502     
  -791527756.96055758       -11097359.789457351        721375339.08080721     
  -623768292.07709968        34690004.699553072        749366205.57789218     
  -447368676.73060220        109277870.73202041        787450450.35090494     
  -262328910.92107713        212666238.30791277        835628073.39985681     
  -1136222256.8767524       -52179033.168092012        544873309.22829723     
  -951415229.52408385       -40746977.207176447        562998436.01785004     
  -759083604.24031448       -4232928.1425973773        592071842.24504590     
  -559227381.02544785        57363114.025645316        632093527.90986884     
  -351846559.87948012        144041149.29755235        683063493.01234114     
  -100227002.82654887        386606193.70479000        1235388190.9200163     
  -85351820.249888748        546458749.68393397        1196780850.4137368     
  -57886116.067277789        748279711.01625025        1154821297.3810892     
  -17829890.278677225        992069077.70184994        1109509531.8220797     
   34816857.115858555        1277826849.7405949        1060845553.7367060     
  -136519132.39461172        333948760.51152992        1111790422.3536971     
  -127381914.42809689        482971517.12411439        1090209644.4190404     
  -95107256.001903683        709119075.26897001        1070066444.5490667     
  -39695157.115983427        1012391434.9462336        1051360822.7437992     
   38854382.229626000        1392788596.1558266        1034092779.0032030     
  -190553101.75945792        275968775.37923813        978537049.84697568     
  -173468732.42866024        418267267.41755825        986287573.14664233     
  -122700003.78442934        672846957.16732717        1000265465.1020484     
  -38246915.826750815        1039707844.6285990        1020470725.7132004     
   79890531.444372594        1518849929.8013384        1046903354.9800905     
  -262328910.92107713        212666238.30791277        835628073.39985681     
  -223612274.25156489        352346000.56430137        885014636.59653819     
  -140664359.41486526        639463356.71131432        945418359.04002142     
  -13485166.410987377        1074018306.7489271        1016839240.7302953     
   157925304.76007503        1656010850.6771441        1099277281.6673620     
  -351846559.87948012        144041149.29755235        683063493.01234114     
  -277812539.89680064        285207716.56437850        786390834.76873541     
  -149000322.89320996        608968273.90090871        905525126.36298347     
   34590091.131312609        1115322821.3072007        1040466367.7950740     
   272958702.17675334        1804271358.7832422        1191214559.0650210     
  -4575558708.6957521       -14691961.059304476        791359403.19889951     
  -4405334890.6961670       -10176743.549095392        752885137.72575021     
  -4234678478.6837583       -4219545.9961130619        725763779.09886122     
  -4063589472.6585054        3179631.5996589661        709995327.31823409     
  -3892067872.6204247        12020789.238204718        705579782.38386726     
  -5007817857.6495514       -39153457.488574505        550686428.56473088     
  -4813693584.0673838       -26594409.481156111        537083419.42388046     
  -4619665938.0807524       -14357453.458867311        528656200.69324809     
  -4425734919.6896677       -2442589.4217238426        525404772.37283057     
  -4231900528.8941197        9150182.6302897930        527329134.46263707     
  -5360751766.2026882       -39817381.797652483        310658202.62100327     
  -5160375941.1409044       -24509174.523904800        321309024.60267746     
  -4960625965.2830400       -11287131.263207674        330958520.55852675     
  -4761501838.6290970       -151252.01558828354        339606690.48855293     
  -4563003561.1790686        8898463.2189943790        347253534.39275742     
  -5634360434.3551693       -16683733.986531973        71274725.367716223     
  -5445381961.9167538       -3921038.6773533821        105561953.26214434     
  -5257558560.2906332        4991420.5908412933        132670738.69470213     
  -5070890229.4767971        10053643.818073273        152601081.66540521     
  -4885376969.4752636        11265631.004320383        165352982.17423248     
  -5828643862.1069984        30247485.944787025       -167464003.19513312     
  -5668711646.3949223        35169998.058502197       -110157794.59772484     
  -5510463723.1035099        34478202.103334904       -66207144.898224153     
  -5353900092.2327747        28172098.079244137       -35612054.096631855     
  -5199020753.7827015        16251685.986280441       -18372522.192940429     
  -3892067872.6204247        12020789.238204718        705579782.38386726     
  -3768804379.2873082        6927412.1506285667        692663611.52231550     
  -3645615525.7129412        1585235.8672168255        684724055.98080528     
  -3522501311.8973188       -4005739.6120111942        681761115.75933766     
  -3399461737.8404531       -9845514.2870881557        683774790.85791230     
  -4231900528.8941197        9150182.6302897930        527329134.46263707     
  -4096342669.9710355        3322068.4831795692        517341796.78848243     
  -3960647255.9605722       -2047528.7060062885        512004602.80030775     
  -3824814286.8627305       -6958608.9372637272        511317552.49811411     
  -3688843762.6775131       -11411172.210599899        515280645.88189626     
  -4563003561.1790686        8898463.2189943790        347253534.39275742     
  -4416084112.7633362        2055779.1831543446        340442590.55981535     
  -4268814914.4140987       -3621071.7410011292        337955318.77879173     
  -4121195966.1313567       -8132089.5534901619        339791719.04968274     
  -3973227267.9151134       -11477274.254274845        345951791.37249458     
  -4885376969.4752636        11265631.004320383        165352982.17423248     
  -4728028707.6642036        3128544.2505581379        161965992.83631584     
  -4570118501.0735149       -3135393.2377700806        162576203.91625714     
  -4411646349.7031918       -7526181.4606480598        167183615.41405597     
  -4252612253.5532427       -10043820.418111563        175788227.32970792     
  -5199020753.7827015        16251685.986280441       -18372522.192940429     
  -5032176454.6736441        6540363.6853926182       -18087996.382013187     
  -4864558015.9388180       -590493.19628953934       -14132741.787292628     
  -4696165437.5782442       -5140884.6588113308       -6506758.4087778796     
  -4526998719.5919056       -7110810.7020945549        4789953.7535239365     
  -3399461737.8404531       -9845514.2870881557        683774790.85791230     
  -3250548501.8614206       -8017844.0395996571        672740776.23616064     
  -3101623035.1263309       -6149404.6052561998        666398434.21628845     
  -2952685337.6351786       -4240195.9840425253        664747764.79829621     
  -2803735409.3879766       -2290218.1759847403        667788767.98218846     
  -3688843762.6775131       -11411172.210599899        515280645.88189626     
  -3527487108.1977792       -8216028.6309328079        505871736.29879272     
  -3366246997.0924592       -5409362.9659719467        501027443.73000216     
  -3205123429.3615694       -2991175.2157747746        500747768.17551339     
  -3044116405.0050864       -961465.38027620316        505032709.63533568     
  -3973227267.9151134       -11477274.254274845        345951791.37249458     
  -3799790210.8991699       -7023562.1317756176        338017750.34248662     
  -3626598471.3881121       -3387575.0255620480        334521270.73921633     
  -3453652049.3819590       -569312.93569660187        335462352.56268209     
  -3280950944.8806911        1431224.1378855705        340840995.81288326     
  -4252612253.5532427       -10043820.418111563        175788227.32970792     
  -4067457809.9655776       -4440444.5421051979        169178818.36723831     
  -3882677458.0132875       -84040.784030437469        166879915.24393770     
  -3698271197.6963620        3025390.8561725616        168891517.95980212     
  -3514239029.0147948        4887850.3785068989        175213626.51483199     
  -4526998719.5919056       -7110810.7020945549        4789953.7535239365     
  -4330489905.3970184       -466675.86197471619       -645059.62695078528     
  -4134483956.9679651        4501239.7587039471       -1896622.7558365916     
  -3938980874.3047733        7792936.1598372459        1035264.3668700402     
  -3743980657.4074101        9408413.3415479660        8150601.7411611034     
  -2803735409.3879766       -2290218.1759847403        667788767.98218846     
  -2667742844.1349916       -4840835.5050692558        656616491.31409156     
  -2532166940.1252351       -8780323.6449248791        648394311.12427700     
  -2397007697.3587155       -14108682.595561266        643122227.41275012     
  -2262265115.8354254       -20825912.356969476        640800240.17950487     
  -3044116405.0050864       -961465.38027620316        505032709.63533568     
  -2900318928.5483541       -4409837.8364602327        494960765.63403100     
  -2756612744.7095642       -8162519.0190993547        488149677.26357138     
  -2612997853.4887228       -12219508.928234339        484599444.52395970     
  -2469474254.8858099       -16580807.563812971        484310067.41519624     
  -3280950944.8806911        1431224.1378855705        340840995.81288326     
  -3128460673.9271784       -2648538.4574780464        332248981.20786715     
  -2975736326.9663105       -5948047.6950060129        327228581.38627017     
  -2822777903.9980979       -8467303.5747109652        325779796.34808046     
  -2669585405.0225291       -10206306.096560121        327902626.09331268     
  -3514239029.0147948        4887850.3785068989        175213626.51483199     
  -3352168080.2714577        443062.63186192513        168481138.03561300     
  -3189537686.8954711       -2136909.6726133823        165631023.49238539     
  -3026347848.8868523       -2852066.5349783897        166663282.88511944     
  -2862598566.2455964       -1702407.9552303553        171577916.21384171     
  -3743980657.4074101        9408413.3415479660        8150601.7411611034     
  -3571441147.5812058        4864965.4315476418        3657236.1172570158     
  -3398016824.4970636        3270895.0480046272        3357003.5818894720     
  -3223707688.1549945        4626202.1908967495        7249904.1350594331     
  -3048513738.5549860        8930886.8602294922        15335937.776787074     
  -2262265115.8354254       -20825912.356969476        640800240.17950487     
  -2120240825.3876193       -25105866.211820483        627282494.93895984     
  -1977633216.6223867       -27441425.675261259        617009382.26001930     
  -1834442289.5397205       -27832590.747250438        609980902.14268208     
  -1690668044.1396379       -26279361.427853107        606197054.58693898     
  -2469474254.8858099       -16580807.563812971        484310067.41519624     
  -2319127596.2034135       -18636678.978448272        473469221.35526007     
  -2168519199.2785892       -19820089.584995151        465272314.65873981     
  -2017649064.1113582       -20131039.383505106        459719347.32564247     
  -1866517190.7017031       -19569528.373947144        456810319.35595858     
  -2669585405.0225291       -10206306.096560121        327902626.09331268     
  -2512632644.3860536       -10552974.955113173        319363502.45979905     
  -2355739725.5821695       -11099116.588969946        312867624.99151957     
  -2198906648.6108723       -11844730.998116493        308414993.68848646     
  -2042133413.4721634       -12789818.182556510        306005608.55069041     
  -2862598566.2455964       -1702407.9552303553        171577916.21384171     
  -2700755969.9355459       -854754.14182531834        164965338.25257203     
  -2539294795.5331039       -1278506.6871038675        159795313.25836673     
  -2378215043.0382652       -2973665.5910611153        156067841.23121133     
  -2217516712.4510255       -5940230.8536877632        153782922.17112410     
  -3048513738.5549860        8930886.8602294922        15335937.776787074     
  -2883497572.8519073        10457983.461361885        10274728.733595977     
  -2719184409.1314225        9641740.1204904318        6055379.4592769304     
  -2555574247.3935590        6482156.8375695944        2677889.9538462684     
  -2392667087.6382856        979233.61266124249        142260.21727292702     
  -1690668044.1396379       -26279361.427853107        606197054.58693898     
  -1550235826.3309128       -26685042.719567001        592726217.58057046     
  -1411017455.8508525       -31136881.773496807        578015314.35200942     
  -1273012932.6994698       -39634878.589688003        562064344.90125084     
  -1136222256.8767524       -52179033.168092012        544873309.22829723     
  -1866517190.7017031       -19569528.373947144        456810319.35595858     
  -1729091395.7654095       -22866673.615143657        443074999.65045232     
  -1591760415.5828009       -26479868.035270691        428934374.09976852     
  -1454524250.1538825       -30409111.634365916        414388442.70390016     
  -1317382899.4786348       -34654404.412391543        399437205.46285176     
  -2042133413.4721634       -12789818.182556510        306005608.55069041     
  -1905329011.7597003       -18262918.478671908        293311344.15019506     
  -1767500392.2259247       -20321959.370403886        281046534.28153843     
  -1628647554.8708549       -18966940.857825041        269211178.94470948     
  -1488770499.6944733       -14197862.940874517        257805278.13972029     
  -2217516712.4510255       -5940230.8536877632        153782922.17112410     
  -2078948674.3137674       -12873777.310106397        143435251.07979760     
  -1938237385.7802246       -12663155.778899789        134351794.89732552     
  -1795382846.8503783       -5308366.2600162029        126532553.62369147     
  -1650385057.5242534        9190591.2464582920        119977527.25891474     
  -2392667087.6382856        979233.61266124249        142260.21727292702     
  -2249950383.4276323       -6699250.1095135212       -6553279.5607379749     
  -2103971396.2456887       -3503457.2607083321       -11149844.052887881     
  -1954730126.0924797        10566612.158968449       -13647433.259172628     
  -1802226572.9679866        35510958.149605155       -14046047.179584209     
  -1136222256.8767524       -52179033.168092012        544873309.22829723     
  -951415229.52408385       -40746977.207176447        562998436.01785004     
  -759083604.24031448       -4232928.1425973773        592071842.24504590     
  -559227381.02544785        57363114.025645316        632093527.90986884     
  -351846559.87948012        144041149.29755235        683063493.01234114     
  -1317382899.4786348       -34654404.412391543        399437205.46285176     
  -1117753029.8447125       -14792618.535260201        421269446.69316769     
  -914493934.70925617        17166585.680297554        441610272.56768978     
  -707605614.07229125        61223208.234226614        460459683.08641225     
  -497088067.93379349        117377249.12660107        477817678.24934220     
  -1488770499.6944733       -14197862.940874517        257805278.13972029     
  -1309859772.9033856        3431057.3152458668        278800032.64296269     
  -1131215193.0403473        20172821.144515276        285863676.99697822     
  -952836760.10535359        36027428.546975791        278996211.20176035     
  -774724474.09843588        50994879.522524416        258197635.25731146     
  -1650385057.5242534        9190591.2464582920        119977527.25891474     
  -1527735458.7001038        13924050.344303489        135590193.86723617     
  -1409247379.2335706        4785778.2501096129        124832055.53290436     
  -1294920819.1246819       -18224225.036251605        87703112.255903497     
  -1184755778.3734109       -55105959.514652014        24203364.036247078     
  -1802226572.9679866        35510958.149605155       -14046047.179584209     
  -1771380087.2348518        16686360.552005410       -8360069.6340100877     
  -1748590493.2889383       -28994543.002976179       -41484591.824528880     
  -1733857791.1301982       -101531752.51522452       -113419613.75115147     
  -1727181980.7586951       -200925267.98490793       -224165135.41385800     
  -351846559.87948012        144041149.29755235        683063493.01234114     
  -277812539.89680064        285207716.56437850        786390834.76873541     
  -149000322.89320996        608968273.90090871        905525126.36298347     
   34590091.131312609        1115322821.3072007        1040466367.7950740     
   272958702.17675334        1804271358.7832422        1191214559.0650210     
  -497088067.93379349        117377249.12660107        477817678.24934220     
  -388261413.35734451        223035828.07351816        597089385.34877920     
  -230308947.67372224        492447110.71103787        735511858.83324277     
  -23230670.882903099        925611097.03918600        893085098.70273244     
   232973417.01508793        1522527787.0579157        1069809104.9572525     
  -774724474.09843588        50994879.522524416        258197635.25731146     
  -621551423.36484611        124011598.61855379        386819257.46708673     
  -424904947.43779790        341939735.02611130        537935462.60906911     
  -184785046.31730780        704779288.74511123        711546250.68326735     
   98808279.996592641        1212530259.7755399        907651621.68966627     
  -1184755778.3734109       -55105959.514652014        24203364.036247078     
  -977682569.91927063       -11864971.800405860        155580451.12365139     
  -732788322.18545699        157446146.84608972        312795937.69044888     
  -450073035.17193139        452827396.42497247        495849823.73664266     
  -129536708.87872112        874278776.93610537        704742109.26222479     
  -1727181980.7586951       -200925267.98490793       -224165135.41385800     
  -1456654853.0206730       -184593883.18353885       -96627033.681514397     
  -1153959071.9166791       -61033653.828964174        60093284.077396385     
  -819094637.44674444        169755420.07875264        245995817.86288315     
  -452061549.61086231        507773338.53964937        461080567.67494893     
 </DataArray>
 <DataArray  type="Float64" Name="VM" NumberOfComponents="1" format="ascii">
   5851020299.2242804     
   5689578316.5385923     
   5528972797.8164082     
   5368395951.4334698     
   5207262850.4650269     
   5627391395.9568224     
   5446492311.3122005     
   5265073045.9375057     
   5082801489.3424187     
   4899397587.3863935     
   5367990255.1737137     
   5178158212.1042185     
   4988040372.8177948     
   4797622089.1925621     
   4606890432.0600090     
   5078726803.1498528     
   4889755786.8420582     
   4702512628.8494787     
   4517131371.4432945     
   4333822392.4871292     
   4769431679.0324316     
   4589417741.3606071     
   4415297317.7626076     
   4247113176.8732920     
   4085174543.3850355     
   5207262850.4650269     
   5035547281.3763418     
   4864324387.3988018     
   4693610637.1751146     
   4523455114.8231535     
   4899397587.3863935     
   4737906292.5599928     
   4577221524.8702765     
   4417389318.2147627     
   4258497843.7809739     
   4606890432.0600090     
   4456297239.0413113     
   4306968492.0182648     
   4158988293.0015931     
   4012494579.7551036     
   4333822392.4871292     
   4194826604.7723198     
   4057717027.9943442     
   3922623392.4975619     
   3789742328.2054839     
   4085174543.3850355     
   3958458177.2659659     
   3834427641.0246272     
   3713262173.4615974     
   3595220643.9466524     
   4523455114.8231535     
   4330256731.0224380     
   4136737718.4646482     
   3942883526.5966492     
   3748720301.6630688     
   4258497843.7809739     
   4075786531.4140935     
   3893379594.2080741     
   3711331399.2148170     
   3529755850.4037027     
   4012494579.7551036     
   3841163223.4053245     
   3670920322.1466088     
   3501906846.2552381     
   3334344714.8645959     
   3789742328.2054839     
   3630698211.1830497     
   3473690306.6657362     
   3318958124.9317622     
   3166842734.8809485     
   3595220643.9466524     
   3449319919.4196219     
   3306552697.9604654     
   3167257091.4646626     
   3031887503.6654301     
   3748720301.6630688     
   3573881727.8866239     
   3399658424.6113381     
   3226047716.1175823     
   3053104530.9813170     
   3529755850.4037027     
   3365066706.0793443     
   3201349774.0370240     
   3038665503.1409717     
   2877136959.1964831     
   3334344714.8645959     
   3179647072.9914155     
   3026314239.6218319     
   2874481326.9633360     
   2724353903.8965173     
   3166842734.8809485     
   3022257082.4810176     
   2879470414.2863669     
   2738701774.8661218     
   2600250154.3600974     
   3031887503.6654301     
   2897826229.6555114     
   2766036660.3761744     
   2636824782.1722226     
   2510585246.7109852     
   3053104530.9813170     
   2888795579.5196919     
   2724038267.8272738     
   2558825687.1392026     
   2393156867.1169324     
   2877136959.1964831     
   2715403422.1100087     
   2553698653.5665684     
   2392052493.0715384     
   2230513540.7962742     
   2724353903.8965173     
   2567663833.3559532     
   2411875756.9460807     
   2257131966.3663135     
   2103633104.7774920     
   2600250154.3600974     
   2451121907.8570852     
   2304196842.4626784     
   2159796579.8609157     
   2018358127.6847298     
   2510585246.7109852     
   2371343704.4649043     
   2235982743.5534530     
   2105023987.4750552     
   1979152336.3018048     
   2393156867.1169324     
   2246636922.8127637     
   2102310560.5420077     
   1960177326.4562795     
   1820404437.2063372     
   2230513540.7962742     
   2087378838.4800472     
   1945901213.0706503     
   1806081021.6543992     
   1667994946.1605268     
   2103633104.7774920     
   1963137779.6980805     
   1823598917.0369473     
   1685047808.5820341     
   1547544023.4694118     
   2018358127.6847298     
   1881405787.3140333     
   1744765568.6921887     
   1608567083.4639895     
   1472988715.0933614     
   1979152336.3018048     
   1848390707.0971582     
   1717646701.9892516     
   1587270021.2576766     
   1457771401.3542569     
   1820404437.2063372     
   1779840837.5514355     
   1735762866.4151919     
   1696797555.0197444     
   1681441072.2193239     
   1667994946.1605268     
   1552609377.2120054     
   1428108732.2484012     
   1294846952.1020133     
   1158944876.0162499     
   1547544023.4694118     
   1397650519.6786447     
   1244198007.8583603     
   1084915103.9570777     
   917770955.20627916     
   1472988715.0933614     
   1328706138.6882424     
   1198895944.2260559     
   1088046520.7196825     
   1002072850.0060196     
   1457771401.3542569     
   1348697770.8134019     
   1274621468.6855488     
   1243676605.2431302     
   1262913870.1952670     
   1681441072.2193239     
   1383849355.1048524     
   1129490998.8081121     
   1010109157.0887443     
   1153049903.4851401     
   1158944876.0162499     
   1008473915.9920998     
   985224140.97416532     
   1161475325.5055292     
   1544143340.4535217     
   917770955.20627916     
   963157332.89189279     
   1144937800.7758789     
   1476477644.0125346     
   1957467516.1354163     
   1002072850.0060196     
   1164746888.2722061     
   1425445343.5553973     
   1808756786.9484708     
   2334766270.4211621     
   1262913870.1952670     
   1446716684.0547502     
   1715723517.2363727     
   2110514899.1622970     
   2663528936.9443016     
   4769431679.0324316     
   4589417741.3606071     
   4415297317.7626076     
   4247113176.8732920     
   4085174543.3850355     
   4386296384.6179743     
   4237738555.4008794     
   4094402815.2544422     
   3956525621.6389513     
   3824532588.2164130     
   4049036976.1569805     
   3928256581.1548581     
   3811818022.1072054     
   3700066948.6711297     
   3593465815.0578756     
   3757894605.8183675     
   3661825489.4548521     
   3569023999.3412499     
   3479834496.1168962     
   3394658915.8396358     
   3512644488.6703458     
   3438843367.6323085     
   3367104530.4327769     
   3297634694.1952367     
   3230661254.9516311     
   4085174543.3850355     
   3958458177.2659659     
   3834427641.0246272     
   3713262173.4615974     
   3595220643.9466524     
   3824532588.2164130     
   3712951960.7753191     
   3604366159.9448605     
   3499008355.1784587     
   3397180310.7225337     
   3593465815.0578756     
   3496648546.9965391     
   3403069611.4934163     
   3312994730.7081928     
   3226744069.3481078     
   3394658915.8396358     
   3312397392.2994466     
   3233518221.7637844     
   3158293689.9229980     
   3087034318.9779096     
   3230661254.9516311     
   3162879554.2429700     
   3098486630.4671040     
   3037732841.4743638     
   2980890449.8189173     
   3595220643.9466524     
   3449319919.4196219     
   3306552697.9604654     
   3167257091.4646626     
   3031887503.6654301     
   3397180310.7225337     
   3266257350.7256937     
   3139177282.2404509     
   3016364698.9305887     
   2898361533.8978157     
   3226744069.3481078     
   3111382563.3069572     
   3000601398.0969210     
   2894891502.2309847     
   2794852375.1734824     
   3087034318.9779096     
   2987776935.4652224     
   2893810911.5196586     
   2805660074.2528505     
   2723937789.6991882     
   2980890449.8189173     
   2898115490.7083883     
   2821246926.4891033     
   2750798972.9284983     
   2687349081.6006799     
   3031887503.6654301     
   2897826229.6555114     
   2766036660.3761744     
   2636824782.1722226     
   2510585246.7109852     
   2898361533.8978157     
   2776687503.3758769     
   2658481742.3786469     
   2544190738.4731879     
   2434368335.6953382     
   2794852375.1734824     
   2687392342.9025540     
   2584730784.8849936     
   2487427168.5050836     
   2396148029.5858183     
   2723937789.6991882     
   2632075674.4417820     
   2546352426.7148690     
   2467379871.2530346     
   2395855539.7290530     
   2687349081.6006799     
   2611794139.5023680     
   2543597936.9645815     
   2483349132.4967985     
   2431688317.5618920     
   2510585246.7109852     
   2371343704.4649043     
   2235982743.5534530     
   2105023987.4750552     
   1979152336.3018048     
   2434368335.6953382     
   2310151300.1241817     
   2191065336.4891233     
   2077815109.3897243     
   1971271972.6067064     
   2396148029.5858183     
   2288810082.4626088     
   2187855751.6393228     
   2094086012.4666741     
   2008432529.1303868     
   2395855539.7290530     
   2306574774.8732896     
   2224736588.3369842     
   2151126022.2782373     
   2086600372.7750094     
   2431688317.5618920     
   2360800056.3017793     
   2298087455.3444362     
   2244228860.4219670     
   2199920527.5200362     
   1979152336.3018048     
   1848390707.0971582     
   1717646701.9892516     
   1587270021.2576766     
   1457771401.3542569     
   1971271972.6067064     
   1855195025.8289797     
   1743479830.8308372     
   1637047898.4521105     
   1537030791.2578602     
   2008432529.1303868     
   1912159100.8619547     
   1824655603.9380186     
   1747120710.2035966     
   1680844200.1672466     
   2086600372.7750094     
   2011692523.0252011     
   1949134301.6626730     
   1900001437.8164313     
   1865319298.9456258     
   2199920527.5200362     
   2144924610.1913044     
   2104849802.8700805     
   2080458371.6457584     
   2072424265.7126403     
   1457771401.3542569     
   1348697770.8134019     
   1274621468.6855488     
   1243676605.2431302     
   1262913870.1952670     
   1537030791.2578602     
   1476144509.2698114     
   1447956468.0888796     
   1456434865.4805000     
   1504876978.3755124     
   1680844200.1672466     
   1652352129.3700130     
   1651576327.4387250     
   1680885528.1435108     
   1742888472.9690175     
   1865319298.9456258     
   1854833991.7062373     
   1867306862.7222388     
   1904946393.2060406     
   1970782451.8679371     
   2072424265.7126403     
   2068968423.9719028     
   2084727185.2886884     
   2122331744.6897283     
   2185591482.3182702     
   1262913870.1952670     
   1446716684.0547502     
   1715723517.2363727     
   2110514899.1622970     
   2663528936.9443016     
   1504876978.3755124     
   1613286014.5124578     
   1788881541.8459229     
   2066413950.0565510     
   2476089244.5968571     
   1742888472.9690175     
   1787703759.4238155     
   1884656373.1401677     
   2060655806.6038194     
   2340932673.5995817     
   1970782451.8679371     
   1968928815.6440387     
   2003612789.3445785     
   2093508514.1800888     
   2257276549.9681411     
   2185591482.3182702     
   2156245941.1656976     
   2146491327.9775453     
   2166850628.5278473     
   2228394853.5721173     
   3512644488.6703458     
   3438843367.6323085     
   3367104530.4327769     
   3297634694.1952367     
   3230661254.9516311     
   3370331680.3315759     
   3296476700.3441358     
   3226729158.8882413     
   3161451033.5994997     
   3101043620.5575719     
   3245678840.1711655     
   3172650114.4243193     
   3106392215.7722955     
   3047329039.2553048     
   2995943424.2294335     
   3152341159.4707189     
   3079310263.5157018     
   3016345785.1932082     
   2963822458.4574866     
   2922186207.8126678     
   3106156403.2865882     
   3030098497.7410579     
   2967997334.9899383     
   2920080112.0076885     
   2886643024.4913015     
   3230661254.9516311     
   3162879554.2429700     
   3098486630.4671040     
   3037732841.4743638     
   2980890449.8189173     
   3101043620.5575719     
   3038817378.1924529     
   2981325974.5137825     
   2928863312.9645791     
   2881751316.9304924     
   2995943424.2294335     
   2939702592.9369740     
   2889762065.4601398     
   2846419227.0783005     
   2810001938.4994297     
   2922186207.8126678     
   2871465598.5510387     
   2828801214.2369590     
   2794448643.7659922     
   2768692646.8737726     
   2886643024.4913015     
   2839881670.6630282     
   2803089376.1027555     
   2776441951.1415706     
   2760140296.7676921     
   2980890449.8189173     
   2898115490.7083883     
   2821246926.4891033     
   2750798972.9284983     
   2687349081.6006799     
   2881751316.9304924     
   2811663016.4017234     
   2748530050.0054002     
   2692843457.7910290     
   2645140886.4265881     
   2810001938.4994297     
   2752332250.6345100     
   2702608108.3823609     
   2661256793.0503511     
   2628733966.7437720     
   2768692646.8737726     
   2722465227.9727964     
   2685085512.5660653     
   2656886469.4078388     
   2638214469.0117402     
   2760140296.7676921     
   2723617982.1955447     
   2696756793.2276330     
   2679782408.6932898     
   2672924923.1878643     
   2687349081.6006799     
   2611794139.5023680     
   2543597936.9645815     
   2483349132.4967985     
   2431688317.5618920     
   2645140886.4265881     
   2583751566.6609125     
   2530267692.2123833     
   2485185788.6305194     
   2449027009.7014141     
   2628733966.7437720     
   2580571679.4931083     
   2540697306.3310509     
   2509496010.5145979     
   2487358280.3589664     
   2638214469.0117402     
   2601872850.8622441     
   2574054658.2183661     
   2555032532.6242547     
   2545074319.9127693     
   2672924923.1878643     
   2646607235.0581079     
   2628943206.5060987     
   2620106350.7271795     
   2620262648.2821279     
   2431688317.5618920     
   2360800056.3017793     
   2298087455.3444362     
   2244228860.4219670     
   2199920527.5200362     
   2449027009.7014141     
   2392917498.0977011     
   2346044621.4689345     
   2308967661.0612106     
   2282229545.7349167     
   2487358280.3589664     
   2445021947.1690001     
   2412738914.9256406     
   2390924007.2359238     
   2379958516.2096901     
   2545074319.9127693     
   2514867940.7285981     
   2495353451.0079412     
   2486805977.2812848     
   2489465784.4952807     
   2620262648.2821279     
   2600072294.2252369     
   2591129661.9818463     
   2593593462.6761847     
   2607596333.4965286     
   2199920527.5200362     
   2144924610.1913044     
   2104849802.8700805     
   2080458371.6457584     
   2072424265.7126403     
   2282229545.7349167     
   2241848665.2512865     
   2215370737.2654409     
   2203243542.6837726     
   2205853508.1553736     
   2379958516.2096901     
   2351267877.8113794     
   2335442580.8867135     
   2332732528.4170480     
   2343358759.0787616     
   2489465784.4952807     
   2469833782.1977444     
   2462124960.4565940     
   2466476139.4991937     
   2483022105.7969651     
   2607596333.4965286     
   2594755986.1684012     
   2593051849.2109146     
   2602563740.5095048     
   2623387887.0494862     
   2072424265.7126403     
   2068968423.9719028     
   2084727185.2886884     
   2122331744.6897283     
   2185591482.3182702     
   2205853508.1553736     
   2191542648.4925170     
   2192215488.4059787     
   2209841641.9535656     
   2247339630.4048901     
   2343358759.0787616     
   2319004361.8163810     
   2306185581.5925269     
   2306308516.4805894     
   2321461153.2758117     
   2483022105.7969651     
   2450385431.5100660     
   2426321680.0766664     
   2411776710.1588149     
   2408127352.9366469     
   2623387887.0494862     
   2584909369.3563080     
   2552342267.1383953     
   2526268305.1668458     
   2507496336.8822861     
   2185591482.3182702     
   2156245941.1656976     
   2146491327.9775453     
   2166850628.5278473     
   2228394853.5721173     
   2247339630.4048901     
   2182630310.6757741     
   2134357329.7995994     
   2112186507.3543544     
   2127051038.0242534     
   2321461153.2758117     
   2224727090.5749283     
   2141324429.7756250     
   2079617331.1015618     
   2049775568.8505290     
   2408127352.9366469     
   2282830176.3771338     
   2168039442.1146960     
   2070494167.7746010     
   1998960604.3358583     
   2507496336.8822861     
   2357148947.5744472     
   2214972912.0131187     
   2085948135.4804442     
   1976949237.7544603     
   3106156403.2865882     
   3030098497.7410579     
   2967997334.9899383     
   2920080112.0076885     
   2886643024.4913015     
   2852363978.0811367     
   2807959684.5970020     
   2775234830.4395103     
   2754313132.6600847     
   2745341899.9240341     
   2653628418.1764364     
   2637766471.8087525     
   2630833462.7446942     
   2632875523.4303031     
   2643943138.4618707     
   2507152075.3626590     
   2516974751.7632036     
   2532613909.0311604     
   2554077242.1817431     
   2581372537.5531101     
   2407467797.0028262     
   2440558576.6706810     
   2476167375.1242557     
   2514294192.3635483     
   2554939028.3885608     
   2886643024.4913015     
   2839881670.6630282     
   2803089376.1027555     
   2776441951.1415706     
   2760140296.7676921     
   2745341899.9240341     
   2716317593.9443154     
   2695970123.9689522     
   2684388510.7221460     
   2681670284.5882998     
   2643943138.4618707     
   2630058857.1089482     
   2623326714.9547482     
   2623779431.1516891     
   2631451499.6543989     
   2581372537.5531101     
   2580196670.5940938     
   2584481471.2142291     
   2594233014.7660189     
   2609457489.7828660     
   2554939028.3885608     
   2564378869.3244147     
   2577499662.5847988     
   2594301408.1697140     
   2614784106.0791559     
   2760140296.7676921     
   2723617982.1955447     
   2696756793.2276330     
   2679782408.6932898     
   2672924923.1878643     
   2681670284.5882998     
   2657376966.5136652     
   2642445179.1744175     
   2637001126.9920039     
   2641170043.4101458     
   2631451499.6543989     
   2616970520.8653998     
   2611470904.2449641     
   2615006778.5012503     
   2627630638.7435813     
   2609457489.7828660     
   2602176962.1324573     
   2603462482.2213764     
   2613326774.7588696     
   2631781964.2567563     
   2614784106.0791559     
   2612043658.8143101     
   2617459525.0342927     
   2631031704.7391095     
   2652760197.9287558     
   2672924923.1878643     
   2646607235.0581079     
   2628943206.5060987     
   2620106350.7271795     
   2620262648.2821279     
   2641170043.4101458     
   2624318597.1004939     
   2616218070.7117448     
   2616968231.8686929     
   2626661993.0005670     
   2627630638.7435813     
   2618319124.9587636     
   2617842709.6714864     
   2626246049.9813490     
   2643569772.4033914     
   2631781964.2567563     
   2627863798.4859800     
   2632893949.0558376     
   2646883561.0558233     
   2669842582.9352593     
   2652760197.9287558     
   2651957371.4330873     
   2660280719.6306725     
   2677730242.5215135     
   2704305940.1056147     
   2620262648.2821279     
   2600072294.2252369     
   2591129661.9818463     
   2593593462.6761847     
   2607596333.4965286     
   2626661993.0005670     
   2615152594.7461872     
   2614198062.9257646     
   2623876527.0750351     
   2644251269.2920890     
   2643569772.4033914     
   2638841325.2108803     
   2644070126.5849123     
   2659286387.3291879     
   2684513875.3358498     
   2669842582.9352593     
   2670105453.2079444     
   2679845064.1593504     
   2699067978.0448613     
   2727779221.6084018     
   2704305940.1056147     
   2707915211.4825840     
   2720647682.8625369     
   2742503354.2454844     
   2773482225.6314049     
   2607596333.4965286     
   2594755986.1684012     
   2593051849.2109146     
   2602563740.5095048     
   2623387887.0494862     
   2644251269.2920890     
   2633255331.4641032     
   2632531919.1446867     
   2642120440.3145723     
   2662071124.6906338     
   2684513875.3358498     
   2675047813.4055290     
   2675170241.5675793     
   2684896461.2167487     
   2704247142.5740814     
   2727779221.6084018     
   2719688614.5920672     
   2720661920.8166375     
   2730702455.6038060     
   2749814984.5465322     
   2773482225.6314049     
   2766758080.1612763     
   2768714853.6715450     
   2779352546.1622019     
   2798671157.6332531     
   2623387887.0494862     
   2584909369.3563080     
   2552342267.1383953     
   2526268305.1668458     
   2507496336.8822861     
   2662071124.6906338     
   2616684030.3447380     
   2576972650.2325935     
   2543267961.6969671     
   2516032578.5327439     
   2704247142.5740814     
   2654042778.9378028     
   2609421573.4229679     
   2570530948.9699278     
   2537577544.7176428     
   2749814984.5465322     
   2696891156.0207491     
   2649600530.2714491     
   2607979717.5686121     
   2572080051.5467777     
   2798671157.6332531     
   2745126165.4397030     
   2697406548.7946239     
   2655512307.6979971     
   2619443442.1498461     
   2507496336.8822861     
   2357148947.5744472     
   2214972912.0131187     
   2085948135.4804442     
   1976949237.7544603     
   2516032578.5327439     
   2348168446.6585331     
   2183862647.2166185     
   2026214821.0983126     
   1879788722.5597575     
   2537577544.7176428     
   2357285295.1711845     
   2176733271.3620362     
   1997392851.0541642     
   1821541398.6704082     
   2572080051.5467777     
   2384603002.7876506     
   2194051426.9998798     
   2000803516.5240347     
   1805463010.1847064     
   2619443442.1498461     
   2430090280.4884577     
   2235959518.1591773     
   2037051155.1619954     
   1833365191.4969058     
   2407467797.0028262     
   2440558576.6706810     
   2476167375.1242557     
   2514294192.3635483     
   2554939028.3885608     
   2507152080.5771451     
   2516974755.7647099     
   2532613911.7437158     
   2554077243.5347600     
   2581372537.4832287     
   2653628427.3617692     
   2637766478.8182449     
   2630833467.4714861     
   2632875525.7696204     
   2643943138.3150229     
   2852363989.7914853     
   2807959693.4629154     
   2775234836.3598790     
   2754313135.5267286     
   2745341899.6267891     
   3106156416.0467539     
   3030098507.2820034     
   2967997341.2460222     
   2920080114.8947110     
   2886643023.9106903     
   2554939028.3885608     
   2564378869.3244147     
   2577499662.5847988     
   2594301408.1697140     
   2614784106.0791559     
   2581372537.4832287     
   2580196670.5782547     
   2584481471.2202711     
   2594233014.7622132     
   2609457489.7378316     
   2643943138.3150229     
   2630058857.0868201     
   2623326714.9927111     
   2623779431.1860371     
   2631451499.6221437     
   2745341899.6267891     
   2716317593.8747435     
   2695970124.0309463     
   2684388510.8205166     
   2681670284.6283755     
   2886643023.9106903     
   2839881670.4578633     
   2803089376.1479521     
   2776441951.3120379     
   2760140296.9374952     
   2614784106.0791559     
   2612043658.8143101     
   2617459525.0342927     
   2631031704.7391095     
   2652760197.9287558     
   2609457489.7378316     
   2602176962.1556463     
   2603462482.3096471     
   2613326774.9086761     
   2631781964.4640174     
   2631451499.6221437     
   2616970520.9600897     
   2611470904.4592714     
   2615006778.8271327     
   2627630639.1720686     
   2681670284.6283755     
   2657376966.7319927     
   2642445179.5585351     
   2637001127.5284777     
   2641170044.0842247     
   2760140296.9374952     
   2723617982.5903525     
   2696756793.8290291     
   2679782409.4815340     
   2672924924.1414657     
   2652760197.9287558     
   2651957371.4330873     
   2660280719.6306725     
   2677730242.5215135     
   2704305940.1056147     
   2631781964.4640174     
   2627863798.6724124     
   2632893949.2254596     
   2646883561.2124963     
   2669842583.0827193     
   2627630639.1720686     
   2618319125.3395667     
   2617842710.0124612     
   2626246050.2901402     
   2643569772.6874738     
   2641170044.0842247     
   2624318597.6926703     
   2616218071.2334256     
   2616968232.3311486     
   2626661993.4150677     
   2672924924.1414657     
   2646607235.8872738     
   2628943207.2253680     
   2620106351.3511949     
   2620262648.8258371     
   2704305940.1056147     
   2707915211.4825840     
   2720647682.8625369     
   2742503354.2454844     
   2773482225.6314049     
   2669842583.0827193     
   2670105453.3164468     
   2679845064.2324085     
   2699067978.0860763     
   2727779221.6214905     
   2643569772.6874738     
   2638841325.4193912     
   2644070126.7250347     
   2659286387.4083381     
   2684513875.3616505     
   2626661993.4150677     
   2615152595.0497189     
   2614198063.1294012     
   2623876527.1902275     
   2644251269.3306608     
   2620262648.8258371     
   2600072294.6226459     
   2591129662.2481160     
   2593593462.8270693     
   2607596333.5484262     
   2773482225.6314049     
   2766758080.1612763     
   2768714853.6715450     
   2779352546.1622019     
   2798671157.6332531     
   2727779221.6214905     
   2719688614.6098766     
   2720661920.8392224     
   2730702455.6311569     
   2749814984.5786366     
   2684513875.3616505     
   2675047813.4407587     
   2675170241.6123743     
   2684896461.2711020     
   2704247142.6379676     
   2644251269.3306608     
   2633255331.5167594     
   2632531919.2116489     
   2642120440.3958759     
   2662071124.7862391     
   2607596333.5484262     
   2594755986.2389255     
   2593051849.3004117     
   2602563740.6180434     
   2623387887.1770196     
   2798671157.6332531     
   2745126165.4397030     
   2697406548.7946239     
   2655512307.6979971     
   2619443442.1498461     
   2749814984.5786366     
   2696891156.0481195     
   2649600530.2944260     
   2607979717.5875053     
   2572080051.5617628     
   2704247142.6379676     
   2654042778.9923387     
   2609421573.4688640     
   2570530949.0077777     
   2537577544.7478776     
   2662071124.7862391     
   2616684030.4264145     
   2576972650.3014507     
   2543267961.7539515     
   2516032578.5785079     
   2623387887.1770196     
   2584909369.4653144     
   2552342267.2304101     
   2526268305.2431817     
   2507496336.9439201     
   2619443442.1498461     
   2430090280.4884577     
   2235959518.1591773     
   2037051155.1619954     
   1833365191.4969058     
   2572080051.5617628     
   2384603002.7968097     
   2194051427.0020375     
   2000803516.5172713     
   1805463010.1661019     
   2537577544.7478776     
   2357285295.1901326     
   2176733271.3673949     
   1997392851.0424376     
   1821541398.6362982     
   2516032578.5785079     
   2348168446.6879244     
   2183862647.2264924     
   2026214821.0839577     
   1879788722.5145226     
   2507496336.9439201     
   2357148947.6150689     
   2214972912.0288963     
   2085948135.4660294     
   1976949237.7027748     
   3106156416.0467539     
   3030098507.2820034     
   2967997341.2460222     
   2920080114.8947110     
   2886643023.9106903     
   3152341172.2046566     
   3079310272.9719167     
   3016345791.3148065     
   2963822461.1648245     
   2922186207.0056534     
   3245678851.5063982     
   3172650122.7218561     
   3106392221.0093136     
   3047329041.3881583     
   2995943423.1928372     
   3370331689.4525599     
   3296476706.8189263     
   3226729162.7655253     
   3161451034.9143119     
   3101043619.3267751     
   3512644495.2614045     
   3438843371.9900627     
   3367104532.7249618     
   3297634694.5845861     
   3230661253.5877643     
   2886643023.9106903     
   2839881670.4578633     
   2803089376.1479521     
   2776441951.3120379     
   2760140296.9374952     
   2922186207.0056534     
   2871465598.1230621     
   2828801214.0857911     
   2794448643.7871008     
   2768692646.9594212     
   2995943423.1928372     
   2939702592.3229275     
   2889762065.1852102     
   2846419227.0549150     
   2810001938.6349707     
   3101043619.3267751     
   3038817377.4540286     
   2981325974.1994433     
   2928863313.0008702     
   2881751317.2379575     
   3230661253.5877643     
   3162879553.4559841     
   3098486630.2004242     
   3037732841.6661391     
   2980890450.4013081     
   2760140296.9374952     
   2723617982.5903525     
   2696756793.8290291     
   2679782409.4815340     
   2672924924.1414657     
   2768692646.9594212     
   2722465228.3094292     
   2685085513.1391463     
   2656886470.2017441     
   2638214470.0094109     
   2810001938.6349707     
   2752332251.0242372     
   2702608109.0122962     
   2661256793.9058380     
   2628733967.8092861     
   2881751317.2379575     
   2811663016.9476166     
   2748530050.7727513     
   2692843458.7626052     
   2645140887.5849705     
   2980890450.4013081     
   2898115491.4993386     
   2821246927.4651961     
   2750798974.0662999     
   2687349082.8771296     
   2672924924.1414657     
   2646607235.8872738     
   2628943207.2253680     
   2620106351.3511949     
   2620262648.8258371     
   2638214470.0094109     
   2601872851.7216725     
   2574054658.9563680     
   2555032533.2582269     
   2545074320.4608741     
   2628733967.8092861     
   2580571680.3956146     
   2540697307.0892758     
   2509496011.1484365     
   2487358280.8898134     
   2645140887.5849705     
   2583751567.6203642     
   2530267692.9928207     
   2485185789.2537904     
   2449027010.1917524     
   2687349082.8771296     
   2611794140.5331745     
   2543597937.7698922     
   2483349133.0994382     
   2431688317.9881253     
   2620262648.8258371     
   2600072294.6226459     
   2591129662.2481160     
   2593593462.8270693     
   2607596333.5484262     
   2545074320.4608741     
   2514867941.1303706     
   2495353451.2754755     
   2486805977.4273086     
   2489465784.5332189     
   2487358280.8898134     
   2445021947.5595956     
   2412738915.1858425     
   2390924007.3760934     
   2379958516.2408109     
   2449027010.1917524     
   2392917498.4600205     
   2346044621.7117796     
   2308967661.1934161     
   2282229545.7656126     
   2431688317.9881253     
   2360800056.6178517     
   2298087455.5587282     
   2244228860.5427599     
   2199920527.5554371     
   2607596333.5484262     
   2594755986.2389255     
   2593051849.3004117     
   2602563740.6180434     
   2623387887.1770196     
   2489465784.5332189     
   2469833782.2623205     
   2462124960.5475745     
   2466476139.6160355     
   2483022105.9388776     
   2379958516.2408109     
   2351267877.8752642     
   2335442580.9824972     
   2332732528.5434632     
   2343358759.2342362     
   2282229545.7656126     
   2241848665.3193221     
   2215370737.3692055     
   2203243542.8211927     
   2205853508.3238902     
   2199920527.5554371     
   2144924610.2675586     
   2104849802.9846704     
   2080458371.7956092     
   2072424265.8940318     
   2623387887.1770196     
   2584909369.4653144     
   2552342267.2304101     
   2526268305.2431817     
   2507496336.9439201     
   2483022105.9388776     
   2450385431.6310558     
   2426321680.1783848     
   2411776710.2425942     
   2408127353.0035253     
   2343358759.2342362     
   2319004361.9489350     
   2306185581.7039218     
   2306308516.5722752     
   2321461153.3489113     
   2205853508.3238902     
   2191542648.6363826     
   2192215488.5271416     
   2209841642.0536408     
   2247339630.4852529     
   2072424265.8940318     
   2068968424.1270905     
   2084727185.4198306     
   2122331744.7987187     
   2185591482.4069023     
   2507496336.9439201     
   2357148947.6150689     
   2214972912.0288963     
   2085948135.4660294     
   1976949237.7027748     
   2408127353.0035253     
   2282830176.4198489     
   2168039442.1293302     
   2070494167.7560472     
   1998960604.2780769     
   2321461153.3489113     
   2224727090.6216426     
   2141324429.7921674     
   2079617331.0835819     
   2049775568.7935541     
   2247339630.4852529     
   2182630310.7283788     
   2134357329.8211112     
   2112186507.3414364     
   2127051037.9743083     
   2185591482.4069023     
   2156245941.2261348     
   2146491328.0070386     
   2166850628.5242629     
   2228394853.5347114     
   3512644495.2614045     
   3438843371.9900627     
   3367104532.7249618     
   3297634694.5845861     
   3230661253.5877643     
   3757894609.7438927     
   3661825491.6510582     
   3569024000.0589108     
   3479834495.5967851     
   3394658914.3058987     
   4049036978.0042090     
   3928256581.7147746     
   3811818021.6738482     
   3700066947.5308056     
   3593465813.4842958     
   4386296384.9648485     
   4237738554.8386574     
   4094402814.0871725     
   3956525620.1700611     
   3824532586.7464747     
   4769431678.4248562     
   4589417740.1592836     
   4415297316.2553644     
   4247113175.3574247     
   4085174542.1685643     
   3230661253.5877643     
   3162879553.4559841     
   3098486630.2004242     
   3037732841.6661391     
   2980890450.4013081     
   3394658914.3058987     
   3312397391.3787704     
   3233518221.4228230     
   3158293690.1243773     
   3087034319.6794901     
   3593465813.4842958     
   3496648546.0459394     
   3403069611.1519184     
   3312994730.9590082     
   3226744070.1710262     
   3824532586.7464747     
   3712951959.9054918     
   3604366159.6764817     
   3499008355.5107632     
   3397180311.6525455     
   4085174542.1685643     
   3958458176.5892291     
   3834427640.8999891     
   3713262173.8996553     
   3595220644.9566956     
   2980890450.4013081     
   2898115491.4993386     
   2821246927.4651961     
   2750798974.0662999     
   2687349082.8771296     
   3087034319.6794901     
   2987776936.3497834     
   2893810912.5623608     
   2805660075.4290981     
   2723937790.9851270     
   3226744070.1710262     
   3111382564.2783794     
   3000601399.1891227     
   2894891503.4164305     
   2794852376.4254293     
   3397180311.6525455     
   3266257351.7623191     
   3139177283.3519487     
   3016364700.0850468     
   2898361535.0637665     
   3595220644.9566956     
   3449319920.4883833     
   3306552699.0515451     
   3167257092.5407934     
   3031887504.6890397     
   2687349082.8771296     
   2611794140.5331745     
   2543597937.7698922     
   2483349133.0994382     
   2431688317.9881253     
   2723937790.9851270     
   2632075675.4718747     
   2546352427.5010166     
   2467379871.8092756     
   2395855540.0722942     
   2794852376.4254293     
   2687392343.8957648     
   2584730785.6250324     
   2487427168.9988389     
   2396148029.8421173     
   2898361535.0637665     
   2776687504.2891603     
   2658481743.0405426     
   2544190738.8855534     
   2434368335.8609443     
   3031887504.6890397     
   2897826230.4424748     
   2766036660.9255571     
   2636824782.4831619     
   2510585246.7827272     
   2431688317.9881253     
   2360800056.6178517     
   2298087455.5587282     
   2244228860.5427599     
   2199920527.5554371     
   2395855540.0722942     
   2306574775.1298618     
   2224736588.5137463     
   2151126022.3815985     
   2086600372.8108160     
   2396148029.8421173     
   2288810082.6582537     
   2187855751.7806382     
   2094086012.5592484     
   2008432529.1788909     
   2434368335.8609443     
   2310151300.2571459     
   2191065336.5961471     
   2077815109.4767122     
   1971271972.6785297     
   2510585246.7827272     
   2371343704.5333886     
   2235982743.6264124     
   2105023987.5596735     
   1979152336.4044461     
   2199920527.5554371     
   2144924610.2675586     
   2104849802.9846704     
   2080458371.7956092     
   2072424265.8940318     
   2086600372.8108160     
   2011692523.0982187     
   1949134301.7711391     
   1900001437.9582160     
   1865319299.1180835     
   2008432529.1788909     
   1912159100.9415834     
   1824655604.0471911     
   1747120710.3406868     
   1680844200.3304629     
   1971271972.6785297     
   1855195025.9240718     
   1743479830.9471488     
   1637047898.5878408     
   1537030791.4115326     
   1979152336.4044461     
   1848390707.2142239     
   1717646702.1176322     
   1587270021.3946254     
   1457771401.4977615     
   2072424265.8940318     
   2068968424.1270905     
   2084727185.4198306     
   2122331744.7987187     
   2185591482.4069023     
   1865319299.1180835     
   1854833991.8533125     
   1867306862.8460064     
   1904946393.3084567     
   1970782451.9511256     
   1680844200.3304629     
   1652352129.5088527     
   1651576327.5551729     
   1680885528.2396696     
   1742888473.0473742     
   1537030791.4115326     
   1476144509.4003580     
   1447956468.1982145     
   1456434865.5708106     
   1504876978.4497147     
   1457771401.4977615     
   1348697770.9351878     
   1274621468.7876873     
   1243676605.3279119     
   1262913870.2659326     
   2185591482.4069023     
   2156245941.2261348     
   2146491328.0070386     
   2166850628.5242629     
   2228394853.5347114     
   1970782451.9511256     
   1968928815.7002831     
   2003612789.3711429     
   2093508514.1755643     
   2257276549.9335175     
   1742888473.0473742     
   1787703759.4772689     
   1884656373.1662741     
   2060655806.6021862     
   2340932673.5729980     
   1504876978.4497147     
   1613286014.5645440     
   1788881541.8738472     
   2066413950.0610256     
   2476089244.5820236     
   1262913870.2659326     
   1446716684.1069818     
   1715723517.2682049     
   2110514899.1753883     
   2663528936.9437685     
   4769431678.4248562     
   4589417740.1592836     
   4415297316.2553644     
   4247113175.3574247     
   4085174542.1685643     
   5078726802.3435936     
   4889755785.7091169     
   4702512627.6094246     
   4517131370.3280582     
   4333822391.7424717     
   5367990255.1614475     
   5178158211.8418036     
   4988040372.4654722     
   4797622088.9174757     
   4606890432.0357561     
   5627391397.4384623     
   5446492312.5215721     
   5265073046.9707270     
   5082801490.2946310     
   4899397588.3488054     
   5851020302.6547632     
   5689578319.6531086     
   5528972800.6289787     
   5368395953.9527359     
   5207262852.6897383     
   4085174542.1685643     
   3958458176.5892291     
   3834427640.8999891     
   3713262173.8996553     
   3595220644.9566956     
   4333822391.7424717     
   4194826604.3970947     
   4057717028.0142713     
   3922623392.9381557     
   3789742329.0935616     
   4606890432.0357561     
   4456297239.1235418     
   4306968492.2347965     
   4158988293.3807387     
   4012494580.3280025     
   4899397588.3488054     
   4737906293.2715511     
   4577221525.3514414     
   4417389318.4863787     
   4258497843.8670597     
   5207262852.6897383     
   5035547282.8989420     
   4864324388.2246113     
   4693610637.3091087     
   4523455114.2730303     
   3595220644.9566956     
   3449319920.4883833     
   3306552699.0515451     
   3167257092.5407934     
   3031887504.6890397     
   3789742329.0935616     
   3630698212.0949769     
   3473690307.5710669     
   3318958125.7985926     
   3166842735.6761265     
   4012494580.3280025     
   3841163223.9825478     
   3670920322.7066460     
   3501906846.7751942     
   3334344715.3201962     
   4258497843.8670597     
   4075786531.4951921     
   3893379594.2734814     
   3711331399.2530727     
   3529755850.4023676     
   4523455114.2730303     
   4330256730.4639378     
   4136737717.8988891     
   3942883526.0248299     
   3748720301.0862660     
   3031887504.6890397     
   2897826230.4424748     
   2766036660.9255571     
   2636824782.4831619     
   2510585246.7827272     
   3166842735.6761265     
   3022257083.1032529     
   2879470414.7277737     
   2738701775.1178656     
   2600250154.4117594     
   3334344715.3201962     
   3179647073.3712335     
   3026314239.9172606     
   2874481327.1646724     
   2724353903.9918327     
   3529755850.4023676     
   3365066706.1335855     
   3201349774.1428652     
   3038665503.2939577     
   2877136959.3902264     
   3748720301.0862660     
   3573881727.5305362     
   3399658424.4807525     
   3226047716.2180948     
   3053104531.3175864     
   2510585246.7827272     
   2371343704.5333886     
   2235982743.6264124     
   2105023987.5596735     
   1979152336.4044461     
   2600250154.4117594     
   2451121907.9163189     
   2304196842.5371633     
   2159796579.9586139     
   2018358127.8138273     
   2724353903.9918327     
   2567663833.4597893     
   2411875757.0635781     
   2257131966.5031457     
   2103633104.9399312     
   2877136959.3902264     
   2715403422.3058143     
   2553698653.7652125     
   2392052493.2740564     
   2230513541.0041337     
   3053104531.3175864     
   2888795579.8464398     
   2724038268.1397257     
   2558825687.4324002     
   2393156867.3858337     
   1979152336.4044461     
   1848390707.2142239     
   1717646702.1176322     
   1587270021.3946254     
   1457771401.4977615     
   2018358127.8138273     
   1881405787.4419909     
   1744765568.8178215     
   1608567083.5864987     
   1472988715.2124853     
   2103633104.9399312     
   1963137779.8436158     
   1823598917.1658480     
   1685047808.6948283     
   1547544023.5669019     
   2230513541.0041337     
   2087378838.6533766     
   1945901213.2105310     
   1806081021.7618933     
   1667994946.2367239     
   2393156867.3858337     
   2246636923.0261941     
   2102310560.7011354     
   1960177326.5619621     
   1820404437.2593477     
   1457771401.4977615     
   1348697770.9351878     
   1274621468.7876873     
   1243676605.3279119     
   1262913870.2659326     
   1472988715.2124853     
   1328706138.7886124     
   1198895944.3088307     
   1088046520.7863536     
   1002072850.0589073     
   1547544023.5669019     
   1397650519.7601178     
   1244198007.9240193     
   1084915104.0068591     
   917770955.23982382     
   1667994946.2367239     
   1552609377.2762644     
   1428108732.3003163     
   1294846952.1402786     
   1158944876.0391650     
   1820404437.2593477     
   1779840837.5986102     
   1735762866.4563274     
   1696797555.0537722     
   1681441072.2457781     
   1262913870.2659326     
   1446716684.1069818     
   1715723517.2682049     
   2110514899.1753883     
   2663528936.9437685     
   1002072850.0589073     
   1164746888.3119547     
   1425445343.5793486     
   1808756786.9581702     
   2334766270.4211249     
   917770955.23982382     
   963157332.91922379     
   1144937800.7919509     
   1476477644.0180342     
   1957467516.1347184     
   1158944876.0391650     
   1008473916.0104489     
   985224140.98361921     
   1161475325.5058255     
   1544143340.4502797     
   1681441072.2457781     
   1383849355.1230528     
   1129490998.8149450     
   1010109157.0826588     
   1153049903.4742382     
 </DataArray>
 <DataArray  type="Float64" Name="strain" NumberOfComponents="3" format="ascii">
   9.7295301743485219E-002  -2.9647344066086379E-002  -7.2567733523705158E-003
   9.4654377379871590E-002  -2.8929724853283045E-002  -4.7735043397514332E-003
   9.2013453016257851E-002  -2.8126955303258094E-002  -2.8689762166210220E-003
   8.9372528652644057E-002  -2.7239035416010984E-002  -1.5431889829794487E-003
   8.6731604289030373E-002  -2.6265965191542451E-002  -7.9614263882654690E-004
   9.3822588548535313E-002  -2.7893739906068138E-002   3.0885715567348093E-003
   9.0736760818747764E-002  -2.7161559148061343E-002   4.5743513994322971E-003
   8.7650933088960326E-002  -2.6370983138874093E-002   5.7490653992705587E-003
   8.4565105359172832E-002  -2.5522011878505779E-002   6.6127135562502048E-003
   8.1479277629385283E-002  -2.4614645366956456E-002   7.1652958703713465E-003
   8.9146775866147165E-002  -2.6140135746049897E-002   1.3461855554063817E-002
   8.5883719816815862E-002  -2.5393393442839918E-002   1.3923391140798325E-002
   8.2620663767484531E-002  -2.4615010974490009E-002   1.4341535931303995E-002
   7.9357607718153214E-002  -2.3804988341000401E-002   1.4716289925580953E-002
   7.6094551668821869E-002  -2.2963325542370794E-002   1.5047653123628851E-002
   8.3267863696321068E-002  -2.4386531586031712E-002   2.3863078639616994E-002
   8.0095254374075775E-002  -2.3625227737618354E-002   2.3273614884347538E-002
   7.6922645051830552E-002  -2.2859038810106189E-002   2.2908435379479404E-002
   7.3750035729585328E-002  -2.2087964803494942E-002   2.2767540125012333E-002
   7.0577426407340133E-002  -2.1312005717785076E-002   2.2850929120946419E-002
   7.6185852039056479E-002  -2.2632927426013472E-002   3.4292240813393715E-002
   7.3371364490527391E-002  -2.1857062032396790E-002   3.2625022630079548E-002
   7.0556876941998359E-002  -2.1103066645722243E-002   3.1449763743796738E-002
   6.7742389393469216E-002  -2.0370941265989689E-002   3.0766464154544718E-002
   6.4927901844940100E-002  -1.9660685893199192E-002   3.0575123862324027E-002
   8.6731604289030373E-002  -2.6265965191542451E-002  -7.9614263882654690E-004
   8.3902309370882500E-002  -2.5269888327576762E-002  -7.8381316914255539E-004
   8.1073014452734626E-002  -2.4312948521838934E-002  -6.1241879428924895E-004
   7.8243719534586781E-002  -2.3395145774328878E-002  -2.8195951426576715E-004
   7.5414424616438880E-002  -2.2516480085046586E-002   2.0756467092708508E-004
   8.1479277629385283E-002  -2.4614645366956456E-002   7.1652958703713465E-003
   7.8816121169389353E-002  -2.3692285944887370E-002   7.0185263479345394E-003
   7.6152964709393423E-002  -2.2798335952958632E-002   7.0449688366320817E-003
   7.3489808249397492E-002  -2.1932795391170372E-002   7.2446233364635154E-003
   7.0826651789401618E-002  -2.1095664259523139E-002   7.6174898474290487E-003
   7.6094551668821869E-002  -2.2963325542370794E-002   1.5047653123628851E-002
   7.3611680772942195E-002  -2.2114683562197895E-002   1.4752512237159038E-002
   7.1128809877062563E-002  -2.1283723384078565E-002   1.4644730467787720E-002
   6.8645938981182875E-002  -2.0470445008012535E-002   1.4724307815514807E-002
   6.6163068085303228E-002  -1.9674848433999914E-002   1.4991244280339960E-002
   7.0577426407340133E-002  -2.1312005717785076E-002   2.2850929120946419E-002
   6.8288988181541083E-002  -2.0537081179508795E-002   2.2418144498530558E-002
   6.6000549955742005E-002  -1.9769110815198436E-002   2.2186866099177593E-002
   6.3712111729942927E-002  -1.9008094624854255E-002   2.2157093922887464E-002
   6.1423673504143933E-002  -1.8254032608476467E-002   2.2328827969659855E-002
   6.4927901844940100E-002  -1.9660685893199192E-002   3.0575123862324027E-002
   6.2848043395185960E-002  -1.8959478796819279E-002   3.0015423132049496E-002
   6.0768184945431777E-002  -1.8254498246318293E-002   2.9671375730802085E-002
   5.8688326495677644E-002  -1.7545744241696245E-002   2.9542981658581810E-002
   5.6608468045923455E-002  -1.6833216782953131E-002   2.9630240915388462E-002
   7.5414424616438880E-002  -2.2516480085046586E-002   2.0756467092708508E-004
   7.2172498387326200E-002  -2.1644671595728360E-002  -2.7952576506229398E-005
   6.8930572158213577E-002  -2.0747440448110249E-002  -8.2186979160125961E-005
   6.5688645929100897E-002  -1.9824786642192387E-002   4.4861462965117838E-005
   6.2446719699988273E-002  -1.8876710177974654E-002   3.5319274986922444E-004
   7.0826651789401618E-002  -2.1095664259523139E-002   7.6174898474290487E-003
   6.7768761275968759E-002  -2.0263281638101094E-002   7.3310821278304017E-003
   6.4710870762535899E-002  -1.9411986606989867E-002   7.2314629948124487E-003
   6.1652980249103012E-002  -1.8541779166189078E-002   7.3186324483746901E-003
   5.8595089735670181E-002  -1.7652659315698926E-002   7.5925904885180140E-003
   6.6163068085303228E-002  -1.9674848433999914E-002   1.4991244280339960E-002
   6.3294719029351715E-002  -1.8881891680474383E-002   1.4647435839965223E-002
   6.0426369973400174E-002  -1.8076532765869610E-002   1.4495921727972830E-002
   5.7558020917448618E-002  -1.7258771690186105E-002   1.4536701944362636E-002
   5.4689671861497036E-002  -1.6428608453423033E-002   1.4769776489133940E-002
   6.1423673504143933E-002  -1.8254032608476467E-002   2.2328827969659855E-002
   5.8750371647475201E-002  -1.7500501722847173E-002   2.1921108559899004E-002
   5.6077069790806455E-002  -1.6741078924749291E-002   2.1711189220321562E-002
   5.3403767934137654E-002  -1.5975764214182522E-002   2.1699069950927637E-002
   5.0730466077468971E-002  -1.5204557591147000E-002   2.1884750751717412E-002
   5.6608468045923455E-002  -1.6833216782953131E-002   2.9630240915388462E-002
   5.4135719130339044E-002  -1.6119111765220295E-002   2.9152100287630878E-002
   5.1662970214754661E-002  -1.5405625083628943E-002   2.8877265471858204E-002
   4.9190221299170278E-002  -1.4692756738179429E-002   2.8805736468070900E-002
   4.6717472383585867E-002  -1.3980506728871189E-002   2.8937513276268367E-002
   6.2446719699988273E-002  -1.8876710177974654E-002   3.5319274986922444E-004
   5.9548343959344385E-002  -1.7938288497305388E-002   1.5848023229958486E-004
   5.6649968218700664E-002  -1.7044599042033509E-002   1.4547015201621383E-004
   5.3751592478056859E-002  -1.6195641812157581E-002   3.1416250901913911E-004
   5.0853216737413054E-002  -1.5391416807679414E-002   6.6455730330772234E-004
   5.8595089735670181E-002  -1.7652659315698926E-002   7.5925904885180140E-003
   5.5871683316934984E-002  -1.6768224777287177E-002   7.3008493160934829E-003
   5.3148276898199703E-002  -1.5912073272722205E-002   7.1773443502006762E-003
   5.0424870479464520E-002  -1.5084204802004772E-002   7.2220755908384004E-003
   4.7701464060729337E-002  -1.4284619365133588E-002   7.4350430380070165E-003
   5.4689671861497036E-002  -1.6428608453423033E-002   1.4769776489133940E-002
   5.2127768533915236E-002  -1.5598161057268967E-002   1.4397455853405211E-002
   4.9565865206333423E-002  -1.4779547503411553E-002   1.4179905193452400E-002
   4.7003961878751617E-002  -1.3972767791851404E-002   1.4117124509275651E-002
   4.4442058551169811E-002  -1.3177821922587873E-002   1.4209113800874085E-002
   5.0730466077468971E-002  -1.5204557591147000E-002   2.1884750751717412E-002
   4.8316599610285359E-002  -1.4428097337250534E-002   2.1448299844234325E-002
   4.5902733143101712E-002  -1.3647021734101018E-002   2.1153152681771762E-002
   4.3488866675918073E-002  -1.2861330781698094E-002   2.0999309264329885E-002
   4.1075000208734454E-002  -1.2071024480042103E-002   2.0986769591908830E-002
   4.6717472383585867E-002  -1.3980506728871189E-002   2.8937513276268367E-002
   4.4438176546045260E-002  -1.3258033617232323E-002   2.8453381288580881E-002
   4.2158880708504626E-002  -1.2514495964789929E-002   2.8097086815158767E-002
   3.9879584870964047E-002  -1.1749893771544923E-002   2.7868629856002219E-002
   3.7600289033423384E-002  -1.0964227037496332E-002   2.7768010411110766E-002
   5.0853216737413054E-002  -1.5391416807679414E-002   6.6455730330772234E-004
   4.8110582792438961E-002  -1.4591787588190241E-002   4.4523824479725249E-004
   4.5367948847464812E-002  -1.3756617713282682E-002   2.6239977584152641E-004
   4.2625314902490691E-002  -1.2885907182956693E-002   1.1604189644082163E-004
   3.9882680957516570E-002  -1.1979655997213623E-002   6.1646065949716444E-006
   4.7701464060729337E-002  -1.4284619365133588E-002   7.4350430380070165E-003
   4.5008325724707476E-002  -1.3489533946980270E-002   7.1484979919331781E-003
   4.2315187388685643E-002  -1.2675165532414157E-002   6.9244635742091165E-003
   3.9622049052663796E-002  -1.1841514121436400E-002   6.7629397848348871E-003
   3.6928910716641949E-002  -1.0988579714046987E-002   6.6639266238098793E-003
   4.4442058551169811E-002  -1.3177821922587873E-002   1.4209113800874085E-002
   4.1824445862894993E-002  -1.2387280305769965E-002   1.3839085108231036E-002
   3.9206833174620218E-002  -1.1593713351546048E-002   1.3557597082732326E-002
   3.6589220486345393E-002  -1.0797121059915434E-002   1.3364649724377980E-002
   3.3971607798070624E-002  -9.9975034308801281E-003   1.3260243033168195E-002
   4.1075000208734454E-002  -1.2071024480042103E-002   2.0986769591908830E-002
   3.8558943207001498E-002  -1.1285026664559383E-002   2.0516999593689911E-002
   3.6042886205268437E-002  -1.0512261170677287E-002   2.0161800301410543E-002
   3.3526829203535426E-002  -9.7527279983948036E-003   1.9921171715070050E-002
   3.1010772201802428E-002  -9.0064271477131586E-003   1.9795113834668948E-002
   3.7600289033423384E-002  -1.0964227037496332E-002   2.7768010411110766E-002
   3.5211817757026920E-002  -1.0182773023349356E-002   2.7182241448310496E-002
   3.2823346480630455E-002  -9.4308089898087477E-003   2.6737073230244102E-002
   3.0434875204233991E-002  -8.7083349368742846E-003   2.6432505756911528E-002
   2.8046403927837527E-002  -8.0153508645461891E-003   2.6268539028312832E-002
   3.9882680957516570E-002  -1.1979655997213623E-002   6.1646065949716444E-006
   3.7465676802983072E-002  -1.1138097747728226E-002  -2.8397544892677651E-004
   3.5048672648449630E-002  -1.0461466026178479E-002  -4.8315990918623708E-004
   3.2631668493916188E-002  -9.9497608325629650E-003  -5.9138877418207780E-004
   3.0214664339382691E-002  -9.6029821668837112E-003  -6.0866204391674117E-004
   3.6928910716641949E-002  -1.0988579714046987E-002   6.6639266238098793E-003
   3.4584775682582225E-002  -1.0180180415717111E-002   6.2155275445689995E-003
   3.2240640648522612E-002  -9.4801343319180775E-003   5.8219111110131561E-003
   2.9896505614462943E-002  -8.8884414626513586E-003   5.4830773231427099E-003
   2.7552370580403163E-002  -8.4051018079160933E-003   5.1990261809563565E-003
   3.3971607798070624E-002  -9.9975034308801281E-003   1.3260243033168195E-002
   3.1664168934907033E-002  -9.2222630837049957E-003   1.2710158243611547E-002
   2.9356730071743498E-002  -8.4988026376582870E-003   1.2178683150162906E-002
   2.7049291208579934E-002  -7.8271220927392943E-003   1.1665817752821259E-002
   2.4741852345416399E-002  -7.2072214489485864E-003   1.1171562051586537E-002
   3.1010772201802428E-002  -9.0064271477131586E-003   1.9795113834668948E-002
   2.8703856559957351E-002  -8.2643457516933805E-003   1.9199916648200810E-002
   2.6396940918112261E-002  -7.5174709433980802E-003   1.8587156208262359E-002
   2.4090025276267156E-002  -6.7658027228272369E-003   1.7956832514853444E-002
   2.1783109634422093E-002  -6.0093410899810240E-003   1.7308945567974354E-002
   2.8046403927837527E-002  -8.0153508645461891E-003   2.6268539028312832E-002
   2.5703838557733227E-002  -7.3064284196820983E-003   2.5684802758336289E-002
   2.3361273187628928E-002  -6.5361392491381509E-003   2.5047330285312475E-002
   2.1018707817524587E-002  -5.7044833529154154E-003   2.4356121609239806E-002
   1.8676142447420330E-002  -4.8114607310135726E-003   2.3611176730119476E-002
   3.0214664339382691E-002  -9.6029821668837112E-003  -6.0866204391674117E-004
   2.9606433255923270E-002  -9.1350064449955415E-003  -3.6226968406283255E-004
   2.8998202172463738E-002  -8.2597100827539460E-003  -1.7976656459500751E-003
   2.8389971089004262E-002  -6.9770930801607567E-003  -4.9148499295763592E-003
   2.7781740005544786E-002  -5.2871554372135865E-003  -9.7138225349440166E-003
   2.7552370580403163E-002  -8.4051018079160933E-003   5.1990261809563565E-003
   2.5531877895704214E-002  -7.8707447988966006E-003   5.8755750670296258E-003
   2.3511385211005320E-002  -7.1259998667780322E-003   5.4093890723646565E-003
   2.1490892526306399E-002  -6.1708670115602077E-003   3.8004681969608933E-003
   1.9470399841607366E-002  -5.0053462332424470E-003   1.0488124408187804E-003
   2.4741852345416399E-002  -7.2072214489485864E-003   1.1171562051586537E-002
   2.1848151500479834E-002  -6.6064831527984369E-003   1.2081334746626204E-002
   1.8954450655543242E-002  -5.9922896508021184E-003   1.2387426001929380E-002
   1.6060749810606664E-002  -5.3646409429598807E-003   1.2089835817495495E-002
   1.3167048965670086E-002  -4.7235370292716405E-003   1.1188564193325645E-002
   2.1783109634422093E-002  -6.0093410899810240E-003   1.7308945567974354E-002
   1.8555254070249848E-002  -5.3422215067001066E-003   1.8255009354727111E-002
   1.5327398506077533E-002  -4.8585794348266487E-003   1.9136445142745095E-002
   1.2099542941905194E-002  -4.5584148743596647E-003   1.9953252932028737E-002
   8.8716873777329661E-003  -4.4417278253002235E-003   2.0705432722576952E-002
   1.8676142447420330E-002  -4.8114607310135726E-003   2.3611176730119476E-002
   1.5653185605014219E-002  -4.0779598606021095E-003   2.4396598891332388E-002
   1.2630228762608109E-002  -3.7248692188506793E-003   2.5656446494812191E-002
   9.6072719202019569E-003  -3.7521888057598790E-003   2.7390719540558828E-002
   6.5843150777958881E-003  -4.1599186213291395E-003   2.9599418028572910E-002
   2.7781740005544786E-002  -5.2871554372135865E-003  -9.7138225349440166E-003
   2.3354611467448771E-002  -4.2067095452691383E-003  -4.1871714595982379E-003
   1.8927482929352923E-002  -4.7525677956831713E-003   2.6040423101476584E-003
   1.4500354391257048E-002  -6.9247301884527296E-003   1.0659818774292729E-002
   1.0073225853161061E-002  -1.0723196723579242E-002   1.9980157932838694E-002
   1.9470399841607366E-002  -5.0053462332424470E-003   1.0488124408187804E-003
   1.6235384639398831E-002  -4.6906633195943348E-003   6.7418195482548127E-003
   1.3000369437190407E-002  -6.2880440583825137E-003   1.3554490633066241E-002
   9.7653542349819544E-003  -9.7974884496087461E-003   2.1486825695252565E-002
   6.5303390327733357E-003  -1.5218996493270964E-002   3.0538824734815062E-002
   1.3167048965670086E-002  -4.7235370292716405E-003   1.1188564193325645E-002
   1.0979248382324280E-002  -5.1746170939186431E-003   1.6762167822772400E-002
   8.7914477989783496E-003  -7.8235203210832160E-003   2.3310536712569802E-002
   6.6036472156324674E-003  -1.2670246710764770E-002   3.0833670862716780E-002
   4.4158466322866130E-003  -1.9714796262964018E-002   3.9331570273214878E-002
   8.8716873777329661E-003  -4.4417278253002235E-003   2.0705432722576952E-002
   7.5862026962249737E-003  -5.6585708682427294E-003   2.5873873363954206E-002
   6.3007180147168738E-003  -9.3589965837832384E-003   3.1872180548656794E-002
   5.0152333332089041E-003  -1.5543004971921012E-002   3.8700354276684806E-002
   3.7297486517008788E-003  -2.4210596032656184E-002   4.6358394548038417E-002
   6.5843150777958881E-003  -4.1599186213291395E-003   2.9599418028572910E-002
   6.0562475811009597E-003  -6.1425246425673707E-003   3.4076936171800187E-002
   5.5281800844060036E-003  -1.0894472846483011E-002   3.9239422141327973E-002
   5.0001125877108532E-003  -1.8415763233077136E-002   4.5086875937156129E-002
   4.4720450910160636E-003  -2.8706395802348350E-002   5.1619297559286181E-002
   7.6185852039056479E-002  -2.2632927426013472E-002   3.4292240813393715E-002
   7.3371364490527391E-002  -2.1857062032396790E-002   3.2625022630079548E-002
   7.0556876941998359E-002  -2.1103066645722243E-002   3.1449763743796738E-002
   6.7742389393469216E-002  -2.0370941265989689E-002   3.0766464154544718E-002
   6.4927901844940100E-002  -1.9660685893199192E-002   3.0575123862324027E-002
   6.8828268939097215E-002  -2.0695599386341079E-002   3.6939950945333144E-002
   6.6448031965154558E-002  -2.0024590304818346E-002   3.5853284721897527E-002
   6.4067794991211818E-002  -1.9359103055803517E-002   3.5143160350603941E-002
   6.1687558017269120E-002  -1.8699137639296551E-002   3.4809577831452068E-002
   5.9307321043326422E-002  -1.8044694055297461E-002   3.4852537164441838E-002
   6.2122642441186232E-002  -1.8758271346668715E-002   3.9474630677961434E-002
   6.0061238596940542E-002  -1.8192118577239902E-002   3.8984864588838958E-002
   5.7999834752694990E-002  -1.7615139465884826E-002   3.8756222906968694E-002
   5.5938430908449334E-002  -1.7027334012603472E-002   3.8788705632350887E-002
   5.3877027064203685E-002  -1.6428702217395813E-002   3.9082312764985555E-002
   5.6068972545323538E-002  -1.6820943306996336E-002   4.1896280011278750E-002
   5.4210984385885654E-002  -1.6359646849661486E-002   4.2019762230903202E-002
   5.2352996226447693E-002  -1.5871175875966145E-002   4.2288951412890630E-002
   5.0495008067009774E-002  -1.5355530385910306E-002   4.2703847557241319E-002
   4.8637019907571875E-002  -1.4812710379494123E-002   4.3264450663954818E-002
   5.0667259251509111E-002  -1.4883615267323957E-002   4.4204898945285009E-002
   4.8897269331989623E-002  -1.4527175122082986E-002   4.4957977648090786E-002
   4.7127279412470052E-002  -1.4127212286047408E-002   4.5741345868369976E-002
   4.5357289492950550E-002  -1.3683726759217210E-002   4.6555003606123080E-002
   4.3587299573431021E-002  -1.3196718541592378E-002   4.7398950861350042E-002
   6.4927901844940100E-002  -1.9660685893199192E-002   3.0575123862324027E-002
   6.2848043395185960E-002  -1.8959478796819279E-002   3.0015423132049496E-002
   6.0768184945431777E-002  -1.8254498246318293E-002   2.9671375730802085E-002
   5.8688326495677644E-002  -1.7545744241696245E-002   2.9542981658581810E-002
   5.6608468045923455E-002  -1.6833216782953131E-002   2.9630240915388462E-002
   5.9307321043326422E-002  -1.8044694055297461E-002   3.4852537164441838E-002
   5.7427919002677019E-002  -1.7391679860835937E-002   3.4471144590513023E-002
   5.5548516962027575E-002  -1.6736002612941656E-002   3.4275011505766756E-002
   5.3669114921378151E-002  -1.6077662311614237E-002   3.4264137910202740E-002
   5.1789712880728728E-002  -1.5416658956853957E-002   3.4438523803821230E-002
   5.3877027064203685E-002  -1.6428702217395813E-002   3.9082312764985555E-002
   5.2167687592814385E-002  -1.5823880924852610E-002   3.8878117946714252E-002
   5.0458348121425092E-002  -1.5217506979564747E-002   3.8828788777780586E-002
   4.8749008650035834E-002  -1.4609580381532287E-002   3.8934325258184826E-002
   4.7039669178646493E-002  -1.4000101130755005E-002   3.9194727387926981E-002
   4.8637019907571875E-002  -1.4812710379494123E-002   4.3264450663954818E-002
   4.7067349165598099E-002  -1.4256081988869330E-002   4.3236343200652658E-002
   4.5497678423624302E-002  -1.3699011346188030E-002   4.3332707546843742E-002
   4.3928007681650519E-002  -1.3141498451450281E-002   4.3553543702528029E-002
   4.2358336939676680E-002  -1.2583543304655942E-002   4.3898851667705498E-002
   4.3587299573431021E-002  -1.3196718541592378E-002   4.7398950861350042E-002
   4.2126903721028147E-002  -1.2688283052885913E-002   4.7545820352328905E-002
   4.0666507868625246E-002  -1.2180515712811202E-002   4.7786767812956321E-002
   3.9206112016222351E-002  -1.1673416521368302E-002   4.8121793243232319E-002
   3.7745716163819470E-002  -1.1166985478556934E-002   4.8550896643156982E-002
   5.6608468045923455E-002  -1.6833216782953131E-002   2.9630240915388462E-002
   5.4135719130339044E-002  -1.6119111765220295E-002   2.9152100287630878E-002
   5.1662970214754661E-002  -1.5405625083628943E-002   2.8877265471858204E-002
   4.9190221299170278E-002  -1.4692756738179429E-002   2.8805736468070900E-002
   4.6717472383585867E-002  -1.3980506728871189E-002   2.8937513276268367E-002
   5.1789712880728728E-002  -1.5416658956853957E-002   3.4438523803821230E-002
   4.9516201568461524E-002  -1.4752566213526802E-002   3.4026475124287719E-002
   4.7242690256194320E-002  -1.4084957746498789E-002   3.3809595839403628E-002
   4.4969178943927088E-002  -1.3413833555769868E-002   3.3787885949168858E-002
   4.2695667631659912E-002  -1.2739193641339797E-002   3.3961345453583092E-002
   4.7039669178646493E-002  -1.4000101130755005E-002   3.9194727387926981E-002
   4.4957259052360629E-002  -1.3386020661833697E-002   3.8852904716460357E-002
   4.2874848926074807E-002  -1.2764290409368814E-002   3.8698115022307120E-002
   4.0792438799789013E-002  -1.2134910373360477E-002   3.8730358305467429E-002
   3.8710028673503122E-002  -1.1497880553808515E-002   3.8949634565941305E-002
   4.2358336939676680E-002  -1.2583543304655942E-002   4.3898851667705498E-002
   4.0458891582036458E-002  -1.2019475110140343E-002   4.3631389064148172E-002
   3.8559446224396186E-002  -1.1443623072238805E-002   4.3542823020568680E-002
   3.6660000866755915E-002  -1.0855987190950918E-002   4.3633153536966854E-002
   3.4760555509115644E-002  -1.0256567466277067E-002   4.3902380613342451E-002
   3.7745716163819470E-002  -1.1166985478556934E-002   4.8550896643156982E-002
   3.6021099157488967E-002  -1.0652929558447127E-002   4.8361928167351853E-002
   3.4296482151158436E-002  -1.0122955735108727E-002   4.8343719834188309E-002
   3.2571865144827905E-002  -9.5770640085415908E-003   4.8496271643666614E-002
   3.0847248138497374E-002  -9.0152543787458406E-003   4.8819583595786975E-002
   4.6717472383585867E-002  -1.3980506728871189E-002   2.8937513276268367E-002
   4.4438176546045260E-002  -1.3258033617232323E-002   2.8453381288580881E-002
   4.2158880708504626E-002  -1.2514495964789929E-002   2.8097086815158767E-002
   3.9879584870964047E-002  -1.1749893771544923E-002   2.7868629856002219E-002
   3.7600289033423384E-002  -1.0964227037496332E-002   2.7768010411110766E-002
   4.2695667631659912E-002  -1.2739193641339797E-002   3.3961345453583092E-002
   4.0551399494947071E-002  -1.2054320903957222E-002   3.3539576677731053E-002
   3.8407131358234273E-002  -1.1352498244370096E-002   3.3260025789269204E-002
   3.6262863221521453E-002  -1.0633725662578995E-002   3.3122692788197600E-002
   3.4118595084808634E-002  -9.8980031585831352E-003   3.3127577674516129E-002
   3.8710028673503122E-002  -1.1497880553808515E-002   3.8949634565941305E-002
   3.6715168610742935E-002  -1.0850608190682065E-002   3.8586114383325681E-002
   3.4720308547982720E-002  -1.0190500523950041E-002   3.8379192461225342E-002
   3.2725448485222505E-002  -9.5175575536126794E-003   3.8328868799639884E-002
   3.0730588422462332E-002  -8.8317792796696049E-003   3.8435143398569405E-002
   3.4760555509115644E-002  -1.0256567466277067E-002   4.3902380613342451E-002
   3.2929483893432830E-002  -9.6468954774067694E-003   4.3592994405364689E-002
   3.1098412277750065E-002  -9.0285028035301529E-003   4.3454586831026973E-002
   2.9267340662067300E-002  -8.4013894446464468E-003   4.3487157890328795E-002
   2.7436269046384430E-002  -7.7655554007564076E-003   4.3690707583270511E-002
   3.0847248138497374E-002  -9.0152543787458406E-003   4.8819583595786975E-002
   2.9194345343016820E-002  -8.4431827641318624E-003   4.8560216743848084E-002
   2.7541442547536210E-002  -7.8665050831100702E-003   4.8486208898673777E-002
   2.5888539752055656E-002  -7.2852213356804155E-003   4.8597560060264083E-002
   2.4235636956575102E-002  -6.6993315218428773E-003   4.8894270228619363E-002
   3.7600289033423384E-002  -1.0964227037496332E-002   2.7768010411110766E-002
   3.5211817757026920E-002  -1.0182773023349356E-002   2.7182241448310496E-002
   3.2823346480630455E-002  -9.4308089898087477E-003   2.6737073230244102E-002
   3.0434875204233991E-002  -8.7083349368742846E-003   2.6432505756911528E-002
   2.8046403927837527E-002  -8.0153508645461891E-003   2.6268539028312832E-002
   3.4118595084808634E-002  -9.8980031585831352E-003   3.3127577674516129E-002
   3.1872585173727375E-002  -9.1636218995811980E-003   3.2612795422166108E-002
   2.9626575262646004E-002  -8.4488730527719769E-003   3.2242335155712593E-002
   2.7380565351564801E-002  -7.7537566181550555E-003   3.2016196875155278E-002
   2.5134555440483458E-002  -7.0782725957307946E-003   3.1934380580494748E-002
   3.0730588422462332E-002  -8.8317792796696049E-003   3.8435143398569405E-002
   2.8630761117858727E-002  -8.1444707758133172E-003   3.8001205425083812E-002
   2.6530933813255150E-002  -7.4669371157354281E-003   3.7715310678656674E-002
   2.4431106508651559E-002  -6.7991782994359373E-003   3.7577459159288729E-002
   2.2331279204047899E-002  -6.1411943269154001E-003   3.7587650866979710E-002
   2.7436269046384430E-002  -7.7655554007564076E-003   4.3690707583270511E-002
   2.5486345589421089E-002  -7.1253196520451867E-003   4.3347471457062664E-002
   2.3536422132457661E-002  -6.4850011786986572E-003   4.3155999799076326E-002
   2.1586498675494288E-002  -5.8445999807169857E-003   4.3116292609311498E-002
   1.9636575218530832E-002  -5.2041160580997281E-003   4.3228349887768164E-002
   2.4235636956575102E-002  -6.6993315218428773E-003   4.8894270228619363E-002
   2.2439338588414404E-002  -6.1061685282773337E-003   4.8651593518103442E-002
   2.0643040220253678E-002  -5.5030652416621362E-003   4.8564402516971583E-002
   1.8846741852092994E-002  -4.8900216619978190E-003   4.8632697225223676E-002
   1.7050443483932309E-002  -4.2670377892845002E-003   4.8856477642859941E-002
   2.8046403927837527E-002  -8.0153508645461891E-003   2.6268539028312832E-002
   2.5703838557733227E-002  -7.3064284196820983E-003   2.5684802758336289E-002
   2.3361273187628928E-002  -6.5361392491381509E-003   2.5047330285312475E-002
   2.1018707817524587E-002  -5.7044833529154154E-003   2.4356121609239806E-002
   1.8676142447420330E-002  -4.8114607310135726E-003   2.3611176730119476E-002
   2.5134555440483458E-002  -7.0782725957307946E-003   3.1934380580494748E-002
   2.2776840765756812E-002  -6.4044525073538860E-003   3.1536639094750907E-002
   2.0419126091030165E-002  -5.7143278748795212E-003   3.1162335202810476E-002
   1.8061411416303505E-002  -5.0078986983071033E-003   3.0811468904673595E-002
   1.5703696741576872E-002  -4.2851649776373124E-003   3.0484040200339901E-002
   2.2331279204047899E-002  -6.1411943269154001E-003   3.7587650866979710E-002
   2.0035589021550310E-002  -5.5024765950258403E-003   3.7330841983887031E-002
   1.7739898839052644E-002  -4.8925165006204197E-003   3.7174644491449055E-002
   1.5444208656555009E-002  -4.3113140436988953E-003   3.7119058389665754E-002
   1.3148518474057388E-002  -3.7588692242614408E-003   3.7164083678537130E-002
   1.9636575218530832E-002  -5.2041160580997281E-003   4.3228349887768164E-002
   1.7480083325113579E-002  -4.6005006826979333E-003   4.3067411425745064E-002
   1.5323591431696324E-002  -4.0707051263613875E-003   4.3084258151227704E-002
   1.3167099538279055E-002  -3.6147293890905242E-003   4.3278890064216577E-002
   1.1010607644861819E-002  -3.2325734708853748E-003   4.3651307164711328E-002
   1.7050443483932309E-002  -4.2670377892845002E-003   4.8856477642859941E-002
   1.5110323676446796E-002  -3.6985247703696378E-003   4.8746347420324354E-002
   1.3170203868961256E-002  -3.2488937521026051E-003   4.8891176182146279E-002
   1.1230084061475742E-002  -2.9181447344823544E-003   4.9290963928325909E-002
   9.2899642539902016E-003  -2.7062777175094199E-003   4.9945710658862663E-002
   1.8676142447420330E-002  -4.8114607310135726E-003   2.3611176730119476E-002
   1.5653185605014219E-002  -4.0779598606021095E-003   2.4396598891332388E-002
   1.2630228762608109E-002  -3.7248692188506793E-003   2.5656446494812191E-002
   9.6072719202019569E-003  -3.7521888057598790E-003   2.7390719540558828E-002
   6.5843150777958881E-003  -4.1599186213291395E-003   2.9599418028572910E-002
   1.5703696741576872E-002  -4.2851649776373124E-003   3.0484040200339901E-002
   1.3136642482927674E-002  -3.7726827882592073E-003   3.1259598023695823E-002
   1.0569588224278517E-002  -3.6970082055613473E-003   3.2472535572298733E-002
   8.0025339656293396E-003  -4.0581412295447733E-003   3.4122852846148410E-002
   5.4354797069801619E-003  -4.8560818602084721E-003   3.6210549845244633E-002
   1.3148518474057388E-002  -3.7588692242614408E-003   3.7164083678537130E-002
   1.1000321082144771E-002  -3.4674057159164717E-003   3.7873379786016015E-002
   8.8521236902321943E-003  -3.6691471922723762E-003   3.8983009901721377E-002
   6.7039262983196075E-003  -4.3640936533297855E-003   4.0492974025653133E-002
   4.5557289064070000E-003  -5.5522450990878602E-003   4.2403272157811339E-002
   1.1010607644861819E-002  -3.2325734708853748E-003   4.3651307164711328E-002
   9.2442214026654673E-003  -3.1621286435737639E-003   4.4237944178292868E-002
   7.4778351604691418E-003  -3.6412861789830026E-003   4.5187869483080088E-002
   5.7114489182727860E-003  -4.6700460771144058E-003   4.6501083079073885E-002
   3.9450626760764614E-003  -6.2484083379672206E-003   4.8177584966273314E-002
   9.2899642539902016E-003  -2.7062777175094199E-003   4.9945710658862663E-002
   7.8683434444897782E-003  -2.8568515712307785E-003   5.0353291200526118E-002
   6.4467226349893547E-003  -3.6134251656940175E-003   5.1087114316375248E-002
   5.0251018254889313E-003  -4.9759985008995117E-003   5.2147180006410332E-002
   3.6034810159885078E-003  -6.9445715768466920E-003   5.3533488270631202E-002
   6.5843150777958881E-003  -4.1599186213291395E-003   2.9599418028572910E-002
   6.0562475811009597E-003  -6.1425246425673707E-003   3.4076936171800187E-002
   5.5281800844060036E-003  -1.0894472846483011E-002   3.9239422141327973E-002
   5.0001125877108532E-003  -1.8415763233077136E-002   4.5086875937156129E-002
   4.4720450910160636E-003  -2.8706395802348350E-002   5.1619297559286181E-002
   5.4354797069801619E-003  -4.8560818602084721E-003   3.6210549845244633E-002
   5.4886012404483098E-003  -6.9904947145323915E-003   3.8350634250918336E-002
   5.5417227739163744E-003  -1.1361044409494675E-002   4.0968128890617683E-002
   5.5948443073845083E-003  -1.7967730945097009E-002   4.4063033764341758E-002
   5.6479658408525868E-003  -2.6810554321338387E-002   4.7635348872092420E-002
   4.5557289064070000E-003  -5.5522450990878602E-003   4.2403272157811339E-002
   4.9824818777629565E-003  -7.8384647864969126E-003   4.2739128167970097E-002
   5.4092348491188644E-003  -1.1827615972506686E-002   4.3344836819878954E-002
   5.8359878204747653E-003  -1.7519698657117496E-002   4.4220398113537958E-002
   6.2627407918307287E-003  -2.4914712840328423E-002   4.5365812048947407E-002
   3.9450626760764614E-003  -6.2484083379672206E-003   4.8177584966273314E-002
   4.5378894930450109E-003  -8.6864348584620166E-003   4.7242417922955769E-002
   5.1307163100135257E-003  -1.2294187535518523E-002   4.6369545929113049E-002
   5.7235431269820423E-003  -1.7071666369137456E-002   4.5558968984745402E-002
   6.3163699439505935E-003  -2.3018871359318460E-002   4.4810687089852586E-002
   3.6034810159885078E-003  -6.9445715768466920E-003   5.3533488270631202E-002
   4.1548240862943897E-003  -9.5344049304266765E-003   5.1860503515875234E-002
   4.7061671566002439E-003  -1.2760759098530333E-002   5.0042256218319092E-002
   5.2575102269060564E-003  -1.6623634081158072E-002   4.8078746377963083E-002
   5.8088532972120355E-003  -2.1123029878308497E-002   4.5969973994806512E-002
   5.0667259251509111E-002  -1.4883615267323957E-002   4.4204898945285009E-002
   4.8897269331989623E-002  -1.4527175122082986E-002   4.4957977648090786E-002
   4.7127279412470052E-002  -1.4127212286047408E-002   4.5741345868369976E-002
   4.5357289492950550E-002  -1.3683726759217210E-002   4.6555003606123080E-002
   4.3587299573431021E-002  -1.3196718541592378E-002   4.7398950861350042E-002
   4.5282137376967069E-002  -1.3002594630413478E-002   5.0149353978202416E-002
   4.3588132557711184E-002  -1.2688593271636683E-002   5.0369058848080739E-002
   4.1894127738455259E-002  -1.2338705908081712E-002   5.0710444401012550E-002
   4.0200122919199326E-002  -1.1952932539748880E-002   5.1173510636997876E-002
   3.8506118099943434E-002  -1.1531273166637768E-002   5.1758257556036746E-002
   3.9278241738921499E-002  -1.1121573993503053E-002   5.6055188567663755E-002
   3.7751613185509000E-002  -1.0850011421190339E-002   5.5733882918598168E-002
   3.6224984632096439E-002  -1.0550199530116156E-002   5.5625649118166004E-002
   3.4698356078683906E-002  -1.0222138320280495E-002   5.5730487166367026E-002
   3.3171727525271401E-002  -9.8658277916832959E-003   5.6048397063201305E-002
   3.2655572337372374E-002  -9.2405533565926290E-003   6.1922402713669444E-002
   3.1387711215383016E-002  -9.0114295707440159E-003   6.1052449859643448E-002
   3.0119850093393637E-002  -8.7616931521505570E-003   6.0486960019830539E-002
   2.8851988971404272E-002  -8.4913441008121378E-003   6.0225933194230530E-002
   2.7584127849414899E-002  -8.2003824167288103E-003   6.0269369382843774E-002
   2.5414129172319777E-002  -7.3595327196821492E-003   6.7750996416219067E-002
   2.4496426647333328E-002  -7.1728477202977203E-003   6.6324759671216205E-002
   2.3578724122346878E-002  -6.9731867741849030E-003   6.5294377106005996E-002
   2.2661021597360428E-002  -6.7605498813437664E-003   6.4659848720588553E-002
   2.1743319072373979E-002  -6.5349370417742692E-003   6.4421174514964041E-002
   4.3587299573431021E-002  -1.3196718541592378E-002   4.7398950861350042E-002
   4.2126903721028147E-002  -1.2688283052885913E-002   4.7545820352328905E-002
   4.0666507868625246E-002  -1.2180515712811202E-002   4.7786767812956321E-002
   3.9206112016222351E-002  -1.1673416521368302E-002   4.8121793243232319E-002
   3.7745716163819470E-002  -1.1166985478556934E-002   4.8550896643156982E-002
   3.8506118099943434E-002  -1.1531273166637768E-002   5.1758257556036746E-002
   3.7162042221639560E-002  -1.1090630725614281E-002   5.1674865941489234E-002
   3.5817966343335721E-002  -1.0647908153544133E-002   5.1730036305491042E-002
   3.4473890465031881E-002  -1.0203105450427137E-002   5.1923768648042538E-002
   3.3129814586728021E-002  -9.7562226162634103E-003   5.2256062969143341E-002
   3.3171727525271401E-002  -9.8658277916832959E-003   5.6048397063201305E-002
   3.1988455629967473E-002  -9.4929783983427746E-003   5.5737492622805612E-002
   3.0805183734663542E-002  -9.1153005942770093E-003   5.5609634169860589E-002
   2.9621911839359610E-002  -8.7327943794861390E-003   5.5664821704365819E-002
   2.8438639944055710E-002  -8.3454597539699693E-003   5.5903055226321482E-002
   2.7584127849414899E-002  -8.2003824167288103E-003   6.0269369382843774E-002
   2.6606143946011830E-002  -7.8953260710712611E-003   5.9733700396278643E-002
   2.5628160042608743E-002  -7.5826930350100241E-003   5.9425561406064878E-002
   2.4650176139205678E-002  -7.2624833085450577E-003   5.9344952412202286E-002
   2.3672192235802587E-002  -6.9346968916765145E-003   5.9491873414691074E-002
   2.1743319072373979E-002  -6.5349370417742692E-003   6.4421174514964041E-002
   2.1015107169772645E-002  -6.2976737437996366E-003   6.3663489261907763E-002
   2.0286895267171312E-002  -6.0500854757427891E-003   6.3177818014103881E-002
   1.9558683364569979E-002  -5.7921722376039139E-003   6.2964160771551952E-002
   1.8830471461968645E-002  -5.5239340293830042E-003   6.3022517534252420E-002
   3.7745716163819470E-002  -1.1166985478556934E-002   4.8550896643156982E-002
   3.6021099157488967E-002  -1.0652929558447127E-002   4.8361928167351853E-002
   3.4296482151158436E-002  -1.0122955735108727E-002   4.8343719834188309E-002
   3.2571865144827905E-002  -9.5770640085415908E-003   4.8496271643666614E-002
   3.0847248138497374E-002  -9.0152543787458406E-003   4.8819583595786975E-002
   3.3129814586728021E-002  -9.7562226162634103E-003   5.2256062969143341E-002
   3.1585080801259338E-002  -9.3014075406249730E-003   5.2015795633543027E-002
   3.0040347015790690E-002  -8.8328081130839287E-003   5.1964534597024312E-002
   2.8495613230322025E-002  -8.3504243336404091E-003   5.2102279859587548E-002
   2.6950879444853360E-002  -7.8542562022939633E-003   5.2429031421232730E-002
   2.8438639944055710E-002  -8.3454597539699693E-003   5.5903055226321482E-002
   2.7092035535888931E-002  -7.9498855228028603E-003   5.5609355479599859E-002
   2.5745431127722186E-002  -7.5426604910593040E-003   5.5522908188399868E-002
   2.4398826719555414E-002  -7.1237846587390071E-003   5.5643713352721988E-002
   2.3052222311388662E-002  -6.6932580258421970E-003   5.5971770972565976E-002
   2.3672192235802587E-002  -6.9346968916765145E-003   5.9491873414691074E-002
   2.2541963361377749E-002  -6.5983635049807546E-003   5.9142607705522134E-002
   2.1411734486952889E-002  -6.2525128690344815E-003   5.9018840608315047E-002
   2.0281505612528037E-002  -5.8971449838376598E-003   5.9120572123070050E-002
   1.9151276738103191E-002  -5.5322598493904862E-003   5.9447802249786817E-002
   1.8830471461968645E-002  -5.5239340293830042E-003   6.3022517534252420E-002
   1.7934864277725726E-002  -5.2468414871585933E-003   6.2615552311310219E-002
   1.7039257093482821E-002  -4.9623652470099228E-003   6.2452331856769822E-002
   1.6143649909239915E-002  -4.6705053089364616E-003   6.2532856170631465E-002
   1.5248042724996996E-002  -4.3712616729386089E-003   6.2857125252895052E-002
   3.0847248138497374E-002  -9.0152543787458406E-003   4.8819583595786975E-002
   2.9194345343016820E-002  -8.4431827641318624E-003   4.8560216743848084E-002
   2.7541442547536210E-002  -7.8665050831100702E-003   4.8486208898673777E-002
   2.5888539752055656E-002  -7.2852213356804155E-003   4.8597560060264083E-002
   2.4235636956575102E-002  -6.6993315218428773E-003   4.8894270228619363E-002
   2.6950879444853360E-002  -7.8542562022939633E-003   5.2429031421232730E-002
   2.5485963847940260E-002  -7.3484371920880531E-003   5.2175066057388364E-002
   2.4021048251027174E-002  -6.8371007760649749E-003   5.2111716083914461E-002
   2.2556132654114089E-002  -6.3202469542249090E-003   5.2238981500810647E-002
   2.1091217057200989E-002  -5.7978757265678693E-003   5.2556862308077434E-002
   2.3052222311388662E-002  -6.6932580258421970E-003   5.5971770972565976E-002
   2.1780550296648736E-002  -6.2536916200441051E-003   5.5724118436225406E-002
   2.0508878281908824E-002  -5.8076964690198657E-003   5.5672337673860817E-002
   1.9237206267168884E-002  -5.3552725727693436E-003   5.5816428685472326E-002
   1.7965534252428986E-002  -4.8964199312927503E-003   5.6156391471059774E-002
   1.9151276738103191E-002  -5.5322598493904862E-003   5.9447802249786817E-002
   1.8078104689142151E-002  -5.1589460480002819E-003   5.9207373880358821E-002
   1.7004932640181165E-002  -4.7782921619747079E-003   5.9168073668512997E-002
   1.5931760591220173E-002  -4.3902981913138631E-003   5.9329901614248760E-002
   1.4858588542259171E-002  -3.9949641360175203E-003   5.9692857717566224E-002
   1.5248042724996996E-002  -4.3712616729386089E-003   6.2857125252895052E-002
   1.4378627025420615E-002  -4.0642004759562922E-003   6.2624832389789387E-002
   1.3509211325844206E-002  -3.7488878549294252E-003   6.2598924067871070E-002
   1.2639795626267818E-002  -3.4253238098583792E-003   6.2779400287140477E-002
   1.1770379926691416E-002  -3.0935083407425124E-003   6.3166261047597150E-002
   2.4235636956575102E-002  -6.6993315218428773E-003   4.8894270228619363E-002
   2.2439338588414404E-002  -6.1061685282773337E-003   4.8651593518103442E-002
   2.0643040220253678E-002  -5.5030652416621362E-003   4.8564402516971583E-002
   1.8846741852092994E-002  -4.8900216619978190E-003   4.8632697225223676E-002
   1.7050443483932309E-002  -4.2670377892845002E-003   4.8856477642859941E-002
   2.1091217057200989E-002  -5.7978757265678693E-003   5.2556862308077434E-002
   1.9463119596546119E-002  -5.2712283554265382E-003   5.2352125477386102E-002
   1.7835022135891290E-002  -4.7415461031328487E-003   5.2328304752322780E-002
   1.6206924675236434E-002  -4.2088289696876682E-003   5.2485400132886814E-002
   1.4578827214581591E-002  -3.6730769550901154E-003   5.2823411619078831E-002
   1.7965534252428986E-002  -4.8964199312927503E-003   5.6156391471059774E-002
   1.6531068095523758E-002  -4.4362881825756040E-003   5.5982689108295930E-002
   1.5096601938618538E-002  -3.9800269646038805E-003   5.6015333247403445E-002
   1.3662135781713335E-002  -3.5276362773774030E-003   5.6254323888382633E-002
   1.2227669624808091E-002  -3.0791161208960083E-003   5.6699661031233167E-002
   1.4858588542259171E-002  -3.9949641360175203E-003   5.9692857717566224E-002
   1.3643184085347294E-002  -3.6013480097247946E-003   5.9543284410832363E-002
   1.2427779628435469E-002  -3.2185078260749192E-003   5.9625488002213942E-002
   1.1212375171523601E-002  -2.8464435850673060E-003   5.9939468491710751E-002
   9.9969707146117665E-003  -2.4851552867018734E-003   6.0485225879322861E-002
   1.1770379926691416E-002  -3.0935083407425124E-003   6.3166261047597150E-002
   1.0799467566016727E-002  -2.7664078368739853E-003   6.3033911384996255E-002
   9.8285552053420516E-003  -2.4569886875457081E-003   6.3158769016754268E-002
   8.8576428446673558E-003  -2.1652508927569522E-003   6.3540833942871550E-002
   7.8867304839926600E-003  -1.8911944525076274E-003   6.4180106163347905E-002
   1.7050443483932309E-002  -4.2670377892845002E-003   4.8856477642859941E-002
   1.5110323676446796E-002  -3.6985247703696378E-003   4.8746347420324354E-002
   1.3170203868961256E-002  -3.2488937521026051E-003   4.8891176182146279E-002
   1.1230084061475742E-002  -2.9181447344823544E-003   4.9290963928325909E-002
   9.2899642539902016E-003  -2.7062777175094199E-003   4.9945710658862663E-002
   1.4578827214581591E-002  -3.6730769550901154E-003   5.2823411619078831E-002
   1.2892916346322836E-002  -3.1941362967486397E-003   5.2715220233834403E-002
   1.1207005478064053E-002  -2.8318532320715240E-003   5.2860487742685897E-002
   9.5210946098052696E-003  -2.5862277610583101E-003   5.3259214145633296E-002
   7.8351837415464864E-003  -2.4572598837090398E-003   5.3911399442677144E-002
   1.2227669624808091E-002  -3.0791161208960083E-003   5.6699661031233167E-002
   1.0794467605514731E-002  -2.6897478231278360E-003   5.6595632890262815E-002
   9.3612655862213082E-003  -2.4148127120406510E-003   5.6743563553127027E-002
   7.9280635669279134E-003  -2.2543107876343733E-003   5.7143453019826117E-002
   6.4948615476345256E-003  -2.2082420499090483E-003   5.7795301290359757E-002
   9.9969707146117665E-003  -2.4851552867018734E-003   6.0485225879322861E-002
   8.8149774540224202E-003  -2.1853593495068241E-003   6.0387585389609491E-002
   7.6329841934330619E-003  -1.9977721920099514E-003   6.0540403613469670E-002
   6.4509909328437035E-003  -1.9223938142103828E-003   6.0943680550902983E-002
   5.2689976722543573E-003  -1.9592242161088069E-003   6.1597416201909963E-002
   7.8867304839926600E-003  -1.8911944525076274E-003   6.4180106163347905E-002
   6.9544458918459756E-003  -1.6809708758859232E-003   6.4091077731874835E-002
   6.0221612996992913E-003  -1.5807316719788078E-003   6.4251007923713743E-002
   5.0898767075526069E-003  -1.5904768407864756E-003   6.4659896738864714E-002
   4.1575921154059226E-003  -1.7102063823087876E-003   6.5317744177327719E-002
   9.2899642539902016E-003  -2.7062777175094199E-003   4.9945710658862663E-002
   7.8683434444897782E-003  -2.8568515712307785E-003   5.0353291200526118E-002
   6.4467226349893547E-003  -3.6134251656940175E-003   5.1087114316375248E-002
   5.0251018254889313E-003  -4.9759985008995117E-003   5.2147180006410332E-002
   3.6034810159885078E-003  -6.9445715768466920E-003   5.3533488270631202E-002
   7.8351837415464864E-003  -2.4572598837090398E-003   5.3911399442677144E-002
   6.7139517847322472E-003  -2.6430062344061644E-003   5.3848199279788067E-002
   5.5927198279179940E-003  -3.3415234475308031E-003   5.4059534248085156E-002
   4.4714878711037478E-003  -4.5528115230844823E-003   5.4545404347569146E-002
   3.3502559142894739E-003  -6.2768704610655091E-003   5.5305809578239606E-002
   6.4948615476345256E-003  -2.2082420499090483E-003   5.7795301290359757E-002
   5.6223110005073559E-003  -2.4291608975812451E-003   5.7354549301231295E-002
   4.7497604533802001E-003  -3.0696217293679495E-003   5.7136625000290348E-002
   3.8772099062530374E-003  -4.1296245452690158E-003   5.7141528387536930E-002
   3.0046593591258747E-003  -5.6091693452844926E-003   5.7369259462971250E-002
   5.2689976722543573E-003  -1.9592242161088069E-003   6.1597416201909963E-002
   4.5934210918151582E-003  -2.2153155607567004E-003   6.0872341264856411E-002
   3.9178445113759730E-003  -2.7977200112045825E-003   6.0318386572990858E-002
   3.2422679309367878E-003  -3.7064375674535459E-003   5.9935552126314101E-002
   2.5666913504975887E-003  -4.9414682295033929E-003   5.9723837924825711E-002
   4.1575921154059226E-003  -1.7102063823087876E-003   6.5317744177327719E-002
   3.6272820586556315E-003  -2.0014702239316562E-003   6.4401575170662362E-002
   3.0969720019053265E-003  -2.5258182930417983E-003   6.3604818966186527E-002
   2.5666619451550354E-003  -3.2832505896386102E-003   6.2927475563899854E-002
   2.0363518884047305E-003  -4.2737671137222932E-003   6.2369544963802870E-002
   3.6034810159885078E-003  -6.9445715768466920E-003   5.3533488270631202E-002
   4.1548240862943897E-003  -9.5344049304266765E-003   5.1860503515875234E-002
   4.7061671566002439E-003  -1.2760759098530333E-002   5.0042256218319092E-002
   5.2575102269060564E-003  -1.6623634081158072E-002   4.8078746377963083E-002
   5.8088532972120355E-003  -2.1123029878308497E-002   4.5969973994806512E-002
   3.3502559142894739E-003  -6.2768704610655091E-003   5.5305809578239606E-002
   3.7738142262514207E-003  -8.5450589970222368E-003   5.2951926580452724E-002
   4.1973725382133814E-003  -1.1388735866501548E-002   5.0487736608778144E-002
   4.6209308501753629E-003  -1.4807901069503436E-002   4.7913239663215645E-002
   5.0444891621372889E-003  -1.8802554606027755E-002   4.5228435743766005E-002
   3.0046593591258747E-003  -5.6091693452844926E-003   5.7369259462971250E-002
   3.3353884816565288E-003  -7.5557130636177972E-003   5.4395510703153821E-002
   3.6661176041871482E-003  -1.0016712634472777E-002   5.1346410538361434E-002
   3.9968467267176809E-003  -1.2992168057848971E-002   4.8221958968593499E-002
   4.3275758492483940E-003  -1.6482079333747013E-002   4.5022155993851842E-002
   2.5666913504975887E-003  -4.9414682295033929E-003   5.9723837924825711E-002
   2.8395468525095578E-003  -6.5663671302131355E-003   5.6191255883979253E-002
   3.1124023545215287E-003  -8.6446894024438878E-003   5.2618278007070043E-002
   3.3852578565335230E-003  -1.1176435046194753E-002   4.9004904294098567E-002
   3.6581133585454687E-003  -1.4161604061466160E-002   4.5351134745065275E-002
   2.0363518884047305E-003  -4.2737671137222932E-003   6.2369544963802870E-002
   2.2862893388106292E-003  -5.5770211968086958E-003   5.8339162122927890E-002
   2.5362267892165558E-003  -7.2726661704149986E-003   5.4303339014903362E-002
   2.7861642396224406E-003  -9.3607020345401470E-003   5.0262075639729009E-002
   3.0361016900283255E-003  -1.1841128789185529E-002   4.6215371997404553E-002
   2.5414129172319777E-002  -7.3595327196821492E-003   6.7750996416219067E-002
   2.4496426647333328E-002  -7.1728477202977203E-003   6.6324759671216205E-002
   2.3578724122346878E-002  -6.9731867741849030E-003   6.5294377106005996E-002
   2.2661021597360428E-002  -6.7605498813437664E-003   6.4659848720588553E-002
   2.1743319072373979E-002  -6.5349370417742692E-003   6.4421174514964041E-002
   1.8162623563120747E-002  -5.5196495720288286E-003   6.5938636456985611E-002
   1.7599168080748392E-002  -5.3796358048914528E-003   6.5080795400685704E-002
   1.7035712598376031E-002  -5.2298900831404677E-003   6.4535594249821082E-002
   1.6472257116003659E-002  -5.0704124067760155E-003   6.4303033004391719E-002
   1.5908801633631287E-002  -4.9012027757980026E-003   6.4383111664397863E-002
   1.1509766829132517E-002  -3.6797664243754524E-003   6.4081227261562707E-002
   1.1217344115016781E-002  -3.5864238894851713E-003   6.3788537901850725E-002
   1.0924921400901011E-002  -3.4865933920961156E-003   6.3725274173216939E-002
   1.0632498686785258E-002  -3.3802749322082645E-003   6.3891436075660807E-002
   1.0340075972669505E-002  -3.2674685098216527E-003   6.4287023609182675E-002
   5.4555589703550837E-003  -1.8398832767221318E-003   6.2178768829949826E-002
   5.3509547501384746E-003  -1.7932119740789385E-003   6.2447987174711519E-002
   5.2463505299218515E-003  -1.7432967010516665E-003   6.2863416876193512E-002
   5.1417463097052285E-003  -1.6901374576405413E-003   6.3425057934395956E-002
   5.0371420894886054E-003  -1.6337342438454000E-003   6.4132910349318895E-002
  -1.3211549909630804E-011  -1.2906875568319265E-010   6.0231261162147276E-002
  -1.3886503058557764E-011  -5.8672650071756038E-011   6.1059143219267586E-002
  -1.4561463146378628E-011  -1.0007300543790620E-011   6.1950022358750856E-002
  -1.5236421499476016E-011   1.6927216572870663E-011   6.2903898580596973E-002
  -1.5911376383126452E-011   2.2131019239424177E-011   6.3920771884806049E-002
   2.1743319072373979E-002  -6.5349370417742692E-003   6.4421174514964041E-002
   2.1015107169772645E-002  -6.2976737437996366E-003   6.3663489261907763E-002
   2.0286895267171312E-002  -6.0500854757427891E-003   6.3177818014103881E-002
   1.9558683364569979E-002  -5.7921722376039139E-003   6.2964160771551952E-002
   1.8830471461968645E-002  -5.5239340293830042E-003   6.3022517534252420E-002
   1.5908801633631287E-002  -4.9012027757980026E-003   6.4383111664397863E-002
   1.5430113479209272E-002  -4.7232553036930247E-003   6.3877762280910716E-002
   1.4951425324787236E-002  -4.5375641039481565E-003   6.3599446388530045E-002
   1.4472737170365218E-002  -4.3441291765630805E-003   6.3548163987255837E-002
   1.3994049015943186E-002  -4.1429505215378470E-003   6.3723915077088022E-002
   1.0340075972669505E-002  -3.2674685098216527E-003   6.4287023609182675E-002
   1.0065931052281020E-002  -3.1488368635866348E-003   6.4031428852822703E-002
   9.7917861318925388E-003  -3.0250427321534684E-003   6.3957887073423439E-002
   9.5176412115040611E-003  -2.8960861155222471E-003   6.4066398270984842E-002
   9.2434962911155730E-003  -2.7619670136928565E-003   6.4356962445506830E-002
   5.0371420894886054E-003  -1.6337342438454000E-003   6.4132910349318895E-002
   4.9225598889878989E-003  -1.5744184234801339E-003   6.4124488977644029E-002
   4.8079776884871949E-003  -1.5125213603587526E-003   6.4253140068784076E-002
   4.6933954879864910E-003  -1.4480430544814692E-003   6.4518863622738953E-002
   4.5788132874857775E-003  -1.3809835058477549E-003   6.4921659639508897E-002
  -1.5911376383126452E-011   2.2131019239424177E-011   6.3920771884806049E-002
  -1.0670075933916223E-011   1.6626422461030188E-011   6.4156942655374360E-002
  -5.4287754847059944E-012   1.1435907776302656E-011   6.4485205374611804E-002
  -1.8747330077228952E-013   6.5594890630293889E-012   6.4905560042518406E-002
   5.0538254137144634E-012   1.9972357101494254E-012   6.5418006659094086E-002
   1.8830471461968645E-002  -5.5239340293830042E-003   6.3022517534252420E-002
   1.7934864277725726E-002  -5.2468414871585933E-003   6.2615552311310219E-002
   1.7039257093482821E-002  -4.9623652470099228E-003   6.2452331856769822E-002
   1.6143649909239915E-002  -4.6705053089364616E-003   6.2532856170631465E-002
   1.5248042724996996E-002  -4.3712616729386089E-003   6.2857125252895052E-002
   1.3994049015943186E-002  -4.1429505215378470E-003   6.3723915077088022E-002
   1.3337225857059827E-002  -3.9351311158078717E-003   6.3404319568148265E-002
   1.2680402698176475E-002  -3.7217739363083480E-003   6.3318547341525477E-002
   1.2023579539293117E-002  -3.5028789830394425E-003   6.3466598397219839E-002
   1.1366756380409765E-002  -3.2784462560008776E-003   6.3848472735231476E-002
   9.2434962911155730E-003  -2.7619670136928565E-003   6.4356962445506830E-002
   8.8155356715069674E-003  -2.6234207444571500E-003   6.4122890726414417E-002
   8.3875750518983584E-003  -2.4811826256070021E-003   6.4112720803554374E-002
   7.9596144322897529E-003  -2.3352526571423140E-003   6.4326452676926646E-002
   7.5316538126811439E-003  -2.1856308390632295E-003   6.4764086346531205E-002
   4.5788132874857775E-003  -1.3809835058477549E-003   6.4921659639508897E-002
   4.3697937210671264E-003  -1.3117103731063451E-003   6.4771265786108909E-002
   4.1607741546484710E-003  -1.2405913149055696E-003   6.4834852242856386E-002
   3.9517545882298164E-003  -1.1676263312452957E-003   6.5112419009751399E-002
   3.7427350218111576E-003  -1.0928154221254843E-003   6.5603966086794141E-002
   5.0538254137144634E-012   1.9972357101494254E-012   6.5418006659094086E-002
   5.7403179432036211E-012  -1.7557066911422226E-012   6.5349444747231533E-002
   6.4268104726927788E-012  -4.2041231607115037E-012   6.5484941659431611E-002
   7.1133064716288885E-012  -5.3482045181407756E-012   6.5824497395694473E-002
   7.7997955316710943E-012  -5.1877391271659690E-012   6.6368111956019993E-002
   1.5248042724996996E-002  -4.3712616729386089E-003   6.2857125252895052E-002
   1.4378627025420615E-002  -4.0642004759562922E-003   6.2624832389789387E-002
   1.3509211325844206E-002  -3.7488878549294252E-003   6.2598924067871070E-002
   1.2639795626267818E-002  -3.4253238098583792E-003   6.2779400287140477E-002
   1.1770379926691416E-002  -3.0935083407425124E-003   6.3166261047597150E-002
   1.1366756380409765E-002  -3.2784462560008776E-003   6.3848472735231476E-002
   1.0706467567874786E-002  -3.0481503580536695E-003   6.3672325990884737E-002
   1.0046178755339821E-002  -2.8116658920578214E-003   6.3708048479433455E-002
   9.3858899428048634E-003  -2.5689928580138986E-003   6.3955640200877503E-002
   8.7256011302698777E-003  -2.3201312559214538E-003   6.4415101155216870E-002
   7.5316538126811439E-003  -2.1856308390632295E-003   6.4764086346531205E-002
   7.0859765788954983E-003  -2.0321002401507415E-003   6.4642022864947371E-002
   6.6402993451098562E-003  -1.8744439291862244E-003   6.4737313307966782E-002
   6.1946221113242054E-003  -1.7126619061695308E-003   6.5049957675589340E-002
   5.7489448775385685E-003  -1.5467541711006727E-003   6.5579955967815268E-002
   3.7427350218111576E-003  -1.0928154221254843E-003   6.5603966086794141E-002
   3.5171540584827375E-003  -1.0160501222478552E-003   6.5533923011976886E-002
   3.2915730951543114E-003  -9.3722196631451302E-004   6.5686718553470608E-002
   3.0659921318258866E-003  -8.5633095432505104E-004   6.6062352711275696E-002
   2.8404111684974583E-003  -7.7337708627986390E-004   6.6660825485391789E-002
   7.7997955316710943E-012  -5.1877391271659690E-012   6.6368111956019993E-002
   6.6364899686810475E-012  -4.3451908737779377E-012   6.6348026431973239E-002
   5.4731913445849045E-012  -3.4427738437869948E-012   6.6556264215945404E-002
   4.3098927204887616E-012  -2.4807308984797771E-012   6.6992825307936571E-002
   3.1465871574987148E-012  -1.4589440766599182E-012   6.7657709707946823E-002
   1.1770379926691416E-002  -3.0935083407425124E-003   6.3166261047597150E-002
   1.0799467566016727E-002  -2.7664078368739853E-003   6.3033911384996255E-002
   9.8285552053420516E-003  -2.4569886875457081E-003   6.3158769016754268E-002
   8.8576428446673558E-003  -2.1652508927569522E-003   6.3540833942871550E-002
   7.8867304839926600E-003  -1.8911944525076274E-003   6.4180106163347905E-002
   8.7256011302698777E-003  -2.3201312559214538E-003   6.4415101155216870E-002
   8.0082762628713167E-003  -2.0748058778012890E-003   6.4331783049957292E-002
   7.2909513954727556E-003  -1.8427415156737625E-003   6.4498432636890840E-002
   6.5736265280741946E-003  -1.6239381695388466E-003   6.4915049916017459E-002
   5.8563016606756474E-003  -1.4183958393964025E-003   6.5581634887337481E-002
   5.7489448775385685E-003  -1.5467541711006727E-003   6.5579955967815268E-002
   5.2779679012503015E-003  -1.3832039187283152E-003   6.5550089758443786E-002
   4.8069909249620450E-003  -1.2284943438019419E-003   6.5762951639099801E-002
   4.3360139486737937E-003  -1.0826254463207445E-003   6.6218541609782910E-002
   3.8650369723855216E-003  -9.4559722628512199E-004   6.6916859670493767E-002
   2.8404111684974583E-003  -7.7337708627986390E-004   6.6660825485391789E-002
   2.6085424811537073E-003  -6.9160195965553561E-004   6.6688831510455931E-002
   2.3766737938099346E-003  -6.1424717193005879E-004   6.6952326023381206E-002
   2.1448051064661719E-003  -5.4131272310275168E-004   6.7451309024168335E-002
   1.9129364191224109E-003  -4.7279861317381378E-004   6.8185780512817151E-002
   3.1465871574987148E-012  -1.4589440766599182E-012   6.7657709707946823E-002
   2.5814975157523179E-012  -5.8264504332328215E-013   6.7748008305993257E-002
   2.0164113434528730E-012  -5.8175686490358203E-014   6.8066555789735417E-002
   1.4513217017064761E-012   1.1546319456101628E-013   6.8613352159173552E-002
   8.8623552940703121E-013  -6.2505556286396313E-014   6.9388397414307135E-002
   7.8867304839926600E-003  -1.8911944525076274E-003   6.4180106163347905E-002
   6.9544458918459756E-003  -1.6809708758859232E-003   6.4091077731874835E-002
   6.0221612996992913E-003  -1.5807316719788078E-003   6.4251007923713743E-002
   5.0898767075526069E-003  -1.5904768407864756E-003   6.4659896738864714E-002
   4.1575921154059226E-003  -1.7102063823087876E-003   6.5317744177327719E-002
   5.8563016606756474E-003  -1.4183958393964025E-003   6.5581634887337481E-002
   5.1690038230235436E-003  -1.2607281570068407E-003   6.5431562395960097E-002
   4.4817059853714536E-003  -1.1855487541304888E-003   6.5522504790259894E-002
   3.7944081477193636E-003  -1.1928576307669927E-003   6.5854462070236985E-002
   3.1071103100672737E-003  -1.2826547869169147E-003   6.6427434235890981E-002
   3.8650369723855216E-003  -9.4559722628512199E-004   6.6916859670493767E-002
   3.4147821515932639E-003  -8.4048543812803578E-004   6.6733239212413781E-002
   2.9645273308009992E-003  -7.9036583628228074E-004   6.6782689902375958E-002
   2.5142725100087381E-003  -7.9523842074817608E-004   6.7065211740380742E-002
   2.0640176892164769E-003  -8.5510319152543035E-004   6.7580804726427662E-002
   1.9129364191224109E-003  -4.7279861317381378E-004   6.8185780512817151E-002
   1.6917808775551661E-003  -4.2024271924909207E-004   6.7996108181235859E-002
   1.4706253359879282E-003  -3.9518291843423925E-004   6.8031563260062142E-002
   1.2494697944206868E-003  -3.9761921072891532E-004   6.8292145749296346E-002
   1.0283142528534454E-003  -4.2755159613386273E-004   6.8777855648937902E-002
   8.8623552940703121E-013  -6.2505556286396313E-014   6.9388397414307135E-002
   9.0923102380457976E-013  -3.7020386756125845E-013   6.9220169302426360E-002
   9.3224039598993613E-013  -5.8578142336784822E-013   6.9269124863318543E-002
   9.5524109455791262E-013  -7.0988354083922900E-013   6.9535264096983490E-002
   9.7824526257284106E-013  -7.4218409196191715E-013   7.0018587003421340E-002
   4.1575921154059226E-003  -1.7102063823087876E-003   6.5317744177327719E-002
   3.6272820586556315E-003  -2.0014702239316562E-003   6.4401575170662362E-002
   3.0969720019053265E-003  -2.5258182930417983E-003   6.3604818966186527E-002
   2.5666619451550354E-003  -3.2832505896386102E-003   6.2927475563899854E-002
   2.0363518884047305E-003  -4.2737671137222932E-003   6.2369544963802870E-002
   3.1071103100672737E-003  -1.2826547869169147E-003   6.6427434235890981E-002
   2.6995042334966024E-003  -1.5011026681349127E-003   6.5317996892648833E-002
   2.2918981569259242E-003  -1.8943637199762553E-003   6.4334554707576791E-002
   1.8842920803552494E-003  -2.4624379424402348E-003   6.3477107680674286E-002
   1.4766860037845747E-003  -3.2053253355273092E-003   6.2745655811942136E-002
   2.0640176892164769E-003  -8.5510319152543035E-004   6.7580804726427662E-002
   1.7856979488059602E-003  -1.0007351123381969E-003   6.6336370103472431E-002
   1.5073782083954504E-003  -1.2629091469102544E-003   6.5224512994667624E-002
   1.2290584679849267E-003  -1.6416252952416339E-003   6.4245233400013452E-002
   9.5073872757442390E-004  -2.1368835573325473E-003   6.3398531319509399E-002
   1.0283142528534454E-003  -4.2755159613386273E-004   6.8777855648937902E-002
   8.8586320458366920E-004  -5.0036755654135623E-004   6.7456694803133085E-002
   7.4341215631387736E-004  -6.3145457384459341E-004   6.6274693827459555E-002
   6.0096110804410026E-004  -8.2081264804358990E-004   6.5231852721916922E-002
   4.5851005977432316E-004  -1.0684417791377854E-003   6.4328171486505131E-002
   9.7824526257284106E-013  -7.4218409196191715E-013   7.0018587003421340E-002
   8.2974599413532246E-013  -7.4457107146486123E-013   6.8678970991630894E-002
   6.8124325625085191E-013  -7.7876594062331606E-013   6.7485097205952194E-002
   5.3274745726028527E-013  -8.4506013298124572E-013   6.6436965646384794E-002
   3.8424124992886277E-013  -9.4291241481414545E-013   6.5534576312929249E-002
   2.0363518884047305E-003  -4.2737671137222932E-003   6.2369544963802870E-002
   2.2862893388106292E-003  -5.5770211968086958E-003   5.8339162122927890E-002
   2.5362267892165558E-003  -7.2726661704149986E-003   5.4303339014903362E-002
   2.7861642396224406E-003  -9.3607020345401470E-003   5.0262075639729009E-002
   3.0361016900283255E-003  -1.1841128789185529E-002   4.6215371997404553E-002
   1.4766860037845747E-003  -3.2053253355273092E-003   6.2745655811942136E-002
   1.7069221631794418E-003  -4.1827658978763615E-003   5.8391388526406018E-002
   1.9371583225743158E-003  -5.4544996281263303E-003   5.4003158925997108E-002
   2.1673944819692106E-003  -7.0205265262768407E-003   4.9580967010716404E-002
   2.3976306413640569E-003  -8.8808465923282398E-003   4.5124812780563017E-002
   9.5073872757442390E-004  -2.1368835573325473E-003   6.3398531319509399E-002
   1.1327515482356977E-003  -2.7885105989441383E-003   5.8818477311930406E-002
   1.3147643688969646E-003  -3.6363330858378839E-003   5.4175938941757151E-002
   1.4967771895582418E-003  -4.6803510180134789E-003   4.9470916208988733E-002
   1.6787900102195052E-003  -5.9205643954709508E-003   4.4703409113625692E-002
   4.5851005977432316E-004  -1.0684417791377854E-003   6.4328171486505131E-002
   5.6377749397939440E-004  -1.3942553000116376E-003   5.9620428479502621E-002
   6.6904492818447951E-004  -1.8181665435488825E-003   5.4821679062182271E-002
   7.7431236238956376E-004  -2.3401755097498117E-003   4.9931923234544956E-002
   8.7957979659463587E-004  -2.9602821986136618E-003   4.4951160996589190E-002
   3.8424124992886277E-013  -9.4291241481414545E-013   6.5534576312929249E-002
   4.1055353561247898E-013  -1.0794698468430397E-012   6.0797242029121179E-002
   4.3687622963695105E-013  -1.2606304888862496E-012   5.5940379287273301E-002
   4.6319718893794715E-013  -1.4864984243523338E-012   5.0963988087385365E-002
   4.8951120934503933E-013  -1.7563728249569976E-012   4.5868068429457232E-002
  -1.3211549909630804E-011  -1.2906875568319265E-010   6.0231261162147276E-002
  -1.3886503058557764E-011  -5.8672650071756038E-011   6.1059143219267586E-002
  -1.4561463146378628E-011  -1.0007300543790620E-011   6.1950022358750856E-002
  -1.5236421499476016E-011   1.6927216572870663E-011   6.2903898580596973E-002
  -1.5911376383126452E-011   2.2131019239424177E-011   6.3920771884806049E-002
  -5.4555589954182471E-003   1.8398830646187414E-003   6.2178768967645320E-002
  -5.3509547764632910E-003   1.7932118774697248E-003   6.2447987275650430E-002
  -5.2463505575083245E-003   1.7432966842688136E-003   6.2863416940552377E-002
  -5.1417463385533598E-003   1.6901374850159384E-003   6.3425057962351178E-002
  -5.0371421195983951E-003   1.6337342797109744E-003   6.4132910341046956E-002
  -1.1509766850115875E-002   3.6797662583061552E-003   6.4081227507759242E-002
  -1.1217344136997003E-002   3.5864238136121135E-003   6.3788538082327539E-002
  -1.0924921423878124E-002   3.4865933785449138E-003   6.3725274288327069E-002
  -1.0632498710759258E-002   3.3802749531046013E-003   6.3891436125757373E-002
  -1.0340075997640375E-002   3.2674685372910683E-003   6.4287023594618492E-002
  -1.8162623577304398E-002   5.5196494519935968E-003   6.5938636782488347E-002
  -1.7599168095487640E-002   5.3796357497544953E-003   6.5080795639299180E-002
  -1.7035712613670862E-002   5.2298900728209932E-003   6.4535594402074847E-002
  -1.6472257131854094E-002   5.0704124211932659E-003   6.4303033070815474E-002
  -1.5908801650037326E-002   4.9012027948711484E-003   6.4383111645521032E-002
  -2.5414129176983845E-002   7.3595326456810661E-003   6.7750996791833051E-002
  -2.4496426651935195E-002   7.1728476858969326E-003   6.6324759946565059E-002
  -2.3578724126886549E-002   6.9731867670971559E-003   6.5294377281795879E-002
  -2.2661021601837902E-002   6.7605498892819929E-003   6.4659848797525649E-002
  -2.1743319076789239E-002   6.5349370524511730E-003   6.4421174493754230E-002
  -1.5911376383126452E-011   2.2131019239424177E-011   6.3920771884806049E-002
  -1.0670075933916223E-011   1.6626422461030188E-011   6.4156942655374360E-002
  -5.4287754847059944E-012   1.1435907776302656E-011   6.4485205374611804E-002
  -1.8747330077228952E-013   6.5594890630293889E-012   6.4905560042518406E-002
   5.0538254137144634E-012   1.9972357101494254E-012   6.5418006659094086E-002
  -5.0371421195983951E-003   1.6337342797109744E-003   6.4132910341046956E-002
  -4.9225599090795477E-003   1.5744184502523018E-003   6.4124488972897964E-002
  -4.8079776985606969E-003   1.5125213785380648E-003   6.4253140066634962E-002
  -4.6933954880418495E-003   1.4480430645681074E-003   6.4518863622257880E-002
  -4.5788132775229987E-003   1.3809835083425925E-003   6.4921659639766927E-002
  -1.0340075997640375E-002   3.2674685372910683E-003   6.4287023594618492E-002
  -1.0065931068627128E-002   3.1488368838782643E-003   6.4031428845182550E-002
  -9.7917861396138763E-003   3.0250427456402218E-003   6.3957887070849359E-002
  -9.5176412106006292E-003   2.8960861225767257E-003   6.4066398271619057E-002
  -9.2434962815873753E-003   2.7619670146879216E-003   6.4356962447491575E-002
  -1.5908801650037326E-002   4.9012027948711484E-003   6.4383111645521032E-002
  -1.5430113489312827E-002   4.7232553175043518E-003   6.3877762272228314E-002
  -1.4951425328588326E-002   4.5375641127424066E-003   6.3599446387255232E-002
  -1.4472737167863819E-002   4.3441291805853439E-003   6.3548163990601828E-002
  -1.3994049007139334E-002   4.1429505210332368E-003   6.3723915082267976E-002
  -2.1743319076789239E-002   6.5349370524511730E-003   6.4421174493754230E-002
  -2.1015107171136638E-002   6.2976737511300784E-003   6.3663489254034977E-002
  -2.0286895265484023E-002   6.0500854798445775E-003   6.3177818015852288E-002
  -1.9558683359831422E-002   5.7921722385939726E-003   6.2964160779206149E-002
  -1.8830471454178814E-002   5.5239340273785520E-003   6.3022517544096490E-002
   5.0538254137144634E-012   1.9972357101494254E-012   6.5418006659094086E-002
   5.7403179432036211E-012  -1.7557066911422226E-012   6.5349444747231533E-002
   6.4268104726927788E-012  -4.2041231607115037E-012   6.5484941659431611E-002
   7.1133064716288885E-012  -5.3482045181407756E-012   6.5824497395694473E-002
   7.7997955316710943E-012  -5.1877391271659690E-012   6.6368111956019993E-002
  -4.5788132775229987E-003   1.3809835083425925E-003   6.4921659639766927E-002
  -4.3697937098300509E-003   1.3117103693884857E-003   6.4771265788411969E-002
  -4.1607741421371032E-003   1.2405913072330854E-003   6.4834852247007080E-002
  -3.9517545744441572E-003   1.1676263218761695E-003   6.5112419015552453E-002
  -3.7427350067512147E-003   1.0928154133177381E-003   6.5603966094048005E-002
  -9.2434962815873753E-003   2.7619670146879216E-003   6.4356962447491575E-002
  -8.8155356610005696E-003   2.6234207405327337E-003   6.4122890732138338E-002
  -8.3875750404137639E-003   2.4811826186702871E-003   6.4112720812622814E-002
  -7.9596144198269582E-003   2.3352526491003753E-003   6.4326452688944782E-002
  -7.5316537992401525E-003   2.1856308318231599E-003   6.4764086361104228E-002
  -1.3994049007139334E-002   4.1429505210332368E-003   6.3723915082267976E-002
  -1.3337225847771236E-002   3.9351311116769538E-003   6.3404319578410751E-002
  -1.2680402688403165E-002   3.7217739301073811E-003   6.3318547356278287E-002
  -1.2023579529035083E-002   3.5028789763247763E-003   6.3466598415870962E-002
  -1.1366756369667002E-002   3.2784462503286094E-003   6.3848472757188524E-002
  -1.8830471454178814E-002   5.5239340273785520E-003   6.3022517544096490E-002
  -1.7934864270142049E-002   5.2468414828211740E-003   6.2615552327229040E-002
  -1.7039257086105299E-002   4.9623652415447250E-003   6.2452331877973999E-002
  -1.6143649902068537E-002   4.6705053035489066E-003   6.2532856196331393E-002
  -1.5248042718031783E-002   4.3712616688340034E-003   6.2857125282301085E-002
   7.7997955316710943E-012  -5.1877391271659690E-012   6.6368111956019993E-002
   6.6364899686810475E-012  -4.3451908737779377E-012   6.6348026431973239E-002
   5.4731913445849045E-012  -3.4427738437869948E-012   6.6556264215945404E-002
   4.3098927204887616E-012  -2.4807308984797771E-012   6.6992825307936571E-002
   3.1465871574987148E-012  -1.4589440766599182E-012   6.7657709707946823E-002
  -3.7427350067512147E-003   1.0928154133177381E-003   6.5603966094048005E-002
  -3.5171540456818175E-003   1.0160501151351142E-003   6.5533923018283258E-002
  -3.2915730846124133E-003   9.3722196090537113E-004   6.5686718558964602E-002
  -3.0659921235430126E-003   8.5633095062822434E-004   6.6062352716092454E-002
  -2.8404111624736189E-003   7.7337708430402774E-004   6.6660825489666453E-002
  -7.5316537992401525E-003   2.1856308318231599E-003   6.4764086361104228E-002
  -7.0859765675107735E-003   2.0321002346153083E-003   6.4642022877514332E-002
  -6.6402993357814145E-003   1.8744439252533912E-003   6.4737313318798145E-002
  -6.1946221040520451E-003   1.7126619037372871E-003   6.5049957684955612E-002
  -5.7489448723226765E-003   1.5467541700671661E-003   6.5579955975986426E-002
  -1.1366756369667002E-002   3.2784462503286094E-003   6.3848472757188524E-002
  -1.0706467558850401E-002   3.0481503540953914E-003   6.3672326009666880E-002
  -1.0046178748033797E-002   2.8116658896012517E-003   6.3708048495446243E-002
  -9.3858899372171924E-003   2.5689928568463517E-003   6.3955640214526238E-002
  -8.7256011264006013E-003   2.3201312558302212E-003   6.4415101166907407E-002
  -1.5248042718031783E-002   4.3712616688340034E-003   6.2857125282301085E-002
  -1.4378627019700677E-002   4.0642004735756410E-003   6.2624832414740761E-002
  -1.3509211321369580E-002   3.7488878539494591E-003   6.2598924088908575E-002
  -1.2639795623038479E-002   3.4253238099552254E-003   6.2779400304804542E-002
  -1.1770379924707378E-002   3.0935083415932763E-003   6.3166261062428730E-002
   3.1465871574987148E-012  -1.4589440766599182E-012   6.7657709707946823E-002
   2.5814975157523179E-012  -5.8264504332328215E-013   6.7748008305993257E-002
   2.0164113434528730E-012  -5.8175686490358203E-014   6.8066555789735417E-002
   1.4513217017064761E-012   1.1546319456101628E-013   6.8613352159173552E-002
   8.8623552940703121E-013  -6.2505556286396313E-014   6.9388397414307135E-002
  -2.8404111624736189E-003   7.7337708430402774E-004   6.6660825489666453E-002
  -2.6085424762012296E-003   6.9160195909923061E-004   6.6688831513593005E-002
  -2.3766737899288404E-003   6.1424717218028224E-004   6.6952326025498776E-002
  -2.1448051036564598E-003   5.4131272354743243E-004   6.7451309025383738E-002
  -1.9129364173840618E-003   4.7279861320015382E-004   6.8185780513247640E-002
  -5.7489448723226765E-003   1.5467541700671661E-003   6.5579955975986426E-002
  -5.2779678969294072E-003   1.3832039187815504E-003   6.5550089764430275E-002
  -4.8069909215361518E-003   1.2284943444189622E-003   6.5762951643136836E-002
  -4.3360139461428903E-003   1.0826254469795682E-003   6.6218541612105830E-002
  -3.8650369707496270E-003   9.4559722646297972E-004   6.6916859671337425E-002
  -8.7256011264006013E-003   2.3201312558302212E-003   6.4415101166907407E-002
  -8.0082762596030473E-003   2.0748058784638146E-003   6.4331783058505732E-002
  -7.2909513928054968E-003   1.8427415166576977E-003   6.4498432642649955E-002
  -6.5736265260079455E-003   1.6239381704116207E-003   6.4915049919340190E-002
  -5.8563016592103941E-003   1.4183958397257779E-003   6.5581634888576545E-002
  -1.1770379924707378E-002   3.0935083415932763E-003   6.3166261062428730E-002
  -1.0799467564222141E-002   2.7664078381458568E-003   6.3033911395818598E-002
  -9.8285552037368981E-003   2.4569886888961834E-003   6.3158769024037942E-002
  -8.8576428432516653E-003   2.1652508938436385E-003   6.3540833947086567E-002
  -7.8867304827664256E-003   1.8911944529884650E-003   6.4180106164964612E-002
   8.8623552940703121E-013  -6.2505556286396313E-014   6.9388397414307135E-002
   9.0923102380457976E-013  -3.7020386756125845E-013   6.9220169302426360E-002
   9.3224039598993613E-013  -5.8578142336784822E-013   6.9269124863318543E-002
   9.5524109455791262E-013  -7.0988354083922900E-013   6.9535264096983490E-002
   9.7824526257284106E-013  -7.4218409196191715E-013   7.0018587003421340E-002
  -1.9129364173840618E-003   4.7279861320015382E-004   6.8185780513247640E-002
  -1.6917808757717784E-003   4.2024271864316010E-004   6.7996108181781256E-002
  -1.4706253341594915E-003   3.9518291738102618E-004   6.8031563260720601E-002
  -1.2494697925472080E-003   3.9761920941321777E-004   6.8292145750065800E-002
  -1.0283142509349211E-003   4.2755159473983895E-004   6.8777855649816699E-002
  -3.8650369707496270E-003   9.4559722646297972E-004   6.6916859671337425E-002
  -3.4147821499151652E-003   8.4048543765655181E-004   6.6733239213488310E-002
  -2.9645273290807017E-003   7.9036583534784766E-004   6.6782689903677792E-002
  -2.5142725082462386E-003   7.9523841953632254E-004   6.7065211741905745E-002
  -2.0640176874117764E-003   8.5510319022213954E-004   6.7580804728172350E-002
  -5.8563016592103941E-003   1.4183958397257779E-003   6.5581634888576545E-002
  -5.1690038215208818E-003   1.2607281566702072E-003   6.5431562397547327E-002
  -4.4817059838313696E-003   1.1855487533144402E-003   6.5522504792189545E-002
  -3.7944081461418503E-003   1.1928576296594256E-003   6.5854462072503422E-002
  -3.1071103084523454E-003   1.2826547857043569E-003   6.6427434238488695E-002
  -7.8867304827664256E-003   1.8911944529884650E-003   6.4180106164964612E-002
  -6.9544458905889672E-003   1.6809708756831965E-003   6.4091077733958390E-002
  -6.0221612984115158E-003   1.5807316712815045E-003   6.4251007926256376E-002
  -5.0898767062340679E-003   1.5904768397825911E-003   6.4659896741858708E-002
  -4.1575921140566061E-003   1.7102063811864632E-003   6.5317744180765636E-002
   9.7824526257284106E-013  -7.4218409196191715E-013   7.0018587003421340E-002
   8.2974599413532246E-013  -7.4457107146486123E-013   6.8678970991630894E-002
   6.8124325625085191E-013  -7.7876594062331606E-013   6.7485097205952194E-002
   5.3274745726028527E-013  -8.4506013298124572E-013   6.6436965646384794E-002
   3.8424124992886277E-013  -9.4291241481414545E-013   6.5534576312929249E-002
  -1.0283142509349211E-003   4.2755159473983895E-004   6.8777855649816699E-002
  -8.8586320295467799E-004   5.0036755513216402E-004   6.7456694803881889E-002
  -7.4341215497446093E-004   6.3145457236035707E-004   6.6274693828092840E-002
  -6.0096110699423000E-004   8.2081264642472340E-004   6.5231852722450093E-002
  -4.5851005901400080E-004   1.0684417773254573E-003   6.4328171486952690E-002
  -2.0640176874117764E-003   8.5510319022213954E-004   6.7580804728172350E-002
  -1.7856979472684730E-003   1.0007351110088158E-003   6.6336370104961406E-002
  -1.5073782071251852E-003   1.2629091454996189E-003   6.5224512995930184E-002
  -1.2290584669819027E-003   1.6416252936944029E-003   6.4245233401079335E-002
  -9.5073872683860798E-004   2.1368835555934385E-003   6.3398531320408985E-002
  -3.1071103084523454E-003   1.2826547857043569E-003   6.6427434238488695E-002
  -2.6995042321116512E-003   1.5011026668853983E-003   6.5317996894869140E-002
  -2.2918981557709705E-003   1.8943637186388668E-003   6.4334554709464059E-002
  -1.8842920794302827E-003   2.4624379409640233E-003   6.3477107682273562E-002
  -1.4766860030895955E-003   3.2053253338617249E-003   6.2745655813297635E-002
  -4.1575921140566061E-003   1.7102063811864632E-003   6.5317744180765636E-002
  -3.6272820574841935E-003   2.0014702227622583E-003   6.4401575173605563E-002
  -3.0969720009117775E-003   2.5258182917779759E-003   6.3604818968694465E-002
  -2.5666619443393598E-003   3.2832505882339699E-003   6.2927475566032148E-002
  -2.0363518877669490E-003   4.2737671121299003E-003   6.2369544965618862E-002
   3.8424124992886277E-013  -9.4291241481414545E-013   6.5534576312929249E-002
   4.1055353561247898E-013  -1.0794698468430397E-012   6.0797242029121179E-002
   4.3687622963695105E-013  -1.2606304888862496E-012   5.5940379287273301E-002
   4.6319718893794715E-013  -1.4864984243523338E-012   5.0963988087385365E-002
   4.8951120934503933E-013  -1.7563728249569976E-012   4.5868068429457232E-002
  -4.5851005901400080E-004   1.0684417773254573E-003   6.4328171486952690E-002
  -5.6377749316687681E-004   1.3942552979335221E-003   5.9620428479847110E-002
  -6.6904492731976149E-004   1.8181665411228232E-003   5.4821679062423245E-002
  -7.7431236147264791E-004   2.3401755068917646E-003   4.9931923234680764E-002
  -8.7957979562552219E-004   2.9602821952412484E-003   4.4951160996620221E-002
  -9.5073872683860798E-004   2.1368835555934385E-003   6.3398531320408985E-002
  -1.1327515474489607E-003   2.7885105969470136E-003   5.8818477312630485E-002
  -1.3147643680593317E-003   3.6363330835059299E-003   5.4175938942255211E-002
  -1.4967771886696926E-003   4.6803510152699131E-003   4.9470916209283143E-002
  -1.6787900092800553E-003   5.9205643922388695E-003   4.4703409113714954E-002
  -1.4766860030895955E-003   3.2053253338617249E-003   6.2745655813297635E-002
  -1.7069221624357149E-003   4.1827658959604774E-003   5.8391388527471222E-002
  -1.9371583217818479E-003   5.4544996258892101E-003   5.4003158926769879E-002
  -2.1673944811279773E-003   7.0205265236480078E-003   4.9580967011193418E-002
  -2.3976306404740865E-003   8.8808465892363797E-003   4.5124812780742457E-002
  -2.0363518877669490E-003   4.2737671121299003E-003   6.2369544965618862E-002
  -2.2862893381271066E-003   5.5770211949733861E-003   5.8339162124369404E-002
  -2.5362267884872780E-003   7.2726661682722960E-003   5.4303339015966678E-002
  -2.7861642388474148E-003   9.3607020320259984E-003   5.0262075640410991E-002
  -3.0361016892076070E-003   1.1841128786234112E-002   4.6215371997701649E-002
  -2.5414129176983845E-002   7.3595326456810661E-003   6.7750996791833051E-002
  -2.4496426651935195E-002   7.1728476858969326E-003   6.6324759946565059E-002
  -2.3578724126886549E-002   6.9731867670971559E-003   6.5294377281795879E-002
  -2.2661021601837902E-002   6.7605498892819929E-003   6.4659848797525649E-002
  -2.1743319076789239E-002   6.5349370524511730E-003   6.4421174493754230E-002
  -3.2655572331664648E-002   9.2405533350221059E-003   6.1922403130991399E-002
  -3.1387711209104913E-002   9.0114295577672365E-003   6.1052450168093908E-002
  -3.0119850086545163E-002   8.7616931452679514E-003   6.0486960219719582E-002
  -2.8851988963985432E-002   8.4913440975242574E-003   6.0225933285868685E-002
  -2.7584127841425676E-002   8.2003824145360227E-003   6.0269369366541009E-002
  -3.9278241723857257E-002   1.1121574024363090E-002   5.6055188990793786E-002
  -3.7751613169762020E-002   1.0850011429637513E-002   5.5733883234037607E-002
  -3.6224984615666755E-002   1.0550199523438622E-002   5.5625649325829377E-002
  -3.4698356061571498E-002   1.0222138305766463E-002   5.5730487266168797E-002
  -3.3171727507476254E-002   9.8658277766209557E-003   5.6048397055055918E-002
  -4.5282137353561756E-002   1.3002594713704074E-002   5.0149354371239706E-002
  -4.3588132533906511E-002   1.2688593301507886E-002   5.0369059144396287E-002
  -4.1894127714251328E-002   1.2338705901609327E-002   5.0710444600125054E-002
  -4.0200122894596117E-002   1.1952932514008781E-002   5.1173510738425965E-002
  -3.8506118074940907E-002   1.1531273138705875E-002   5.1758257559299040E-002
  -5.0667259220777944E-002   1.4883615403045114E-002   4.4204899272329401E-002
  -4.8897269301538412E-002   1.4527175173378093E-002   4.4957977899169721E-002
  -4.7127279382298826E-002   1.4127212279780102E-002   4.5741346042606740E-002
  -4.5357289463059267E-002   1.3683726722251020E-002   4.6555003702640221E-002
  -4.3587299543819694E-002   1.3196718500790738E-002   4.7398950879270374E-002
  -2.1743319076789239E-002   6.5349370524511730E-003   6.4421174493754230E-002
  -2.1015107171136638E-002   6.2976737511300784E-003   6.3663489254034977E-002
  -2.0286895265484023E-002   6.0500854798445775E-003   6.3177818015852288E-002
  -1.9558683359831422E-002   5.7921722385939726E-003   6.2964160779206149E-002
  -1.8830471454178814E-002   5.5239340273785520E-003   6.3022517544096490E-002
  -2.7584127841425676E-002   8.2003824145360227E-003   6.0269369366541009E-002
  -2.6606143938453796E-002   7.8953260687180532E-003   5.9733700391000219E-002
  -2.5628160035481934E-002   7.5826930324844055E-003   5.9425561408561492E-002
  -2.4650176132510047E-002   7.2624833058353780E-003   5.9344952419224752E-002
  -2.3672192229538189E-002   6.9346968887708527E-003   5.9491873422990116E-002
  -3.3171727507476254E-002   9.8658277766209557E-003   5.6048397055055918E-002
  -3.1988455615619610E-002   9.4929783863057365E-003   5.5737492623242998E-002
  -3.0805183723762987E-002   9.1153005851244071E-003   5.5609634176097510E-002
  -2.9621911831906340E-002   8.7327943730767851E-003   5.5664821713619472E-002
  -2.8438639940049720E-002   8.3454597501630701E-003   5.5903055235809074E-002
  -3.8506118074940907E-002   1.1531273138705875E-002   5.1758257559299040E-002
  -3.7162042202634034E-002   1.1090630703893510E-002   5.1674865950763198E-002
  -3.5817966330327161E-002   1.0647908137764266E-002   5.1730036318460342E-002
  -3.4473890458020302E-002   1.0203105440318192E-002   5.1923768662390450E-002
  -3.3129814585713444E-002   9.7562226115553013E-003   5.2256062982553565E-002
  -4.3587299543819694E-002   1.3196718500790738E-002   4.7398950879270374E-002
  -4.2126903699497106E-002   1.2688283021481367E-002   4.7545820373560893E-002
  -4.0666507855174498E-002   1.2180515690404223E-002   4.7786767835650029E-002
  -3.9206112010851904E-002   1.1673416507559594E-002   4.8121793265537588E-002
  -3.7745716166529303E-002   1.1166985472947588E-002   4.8550896663223597E-002
  -1.8830471454178814E-002   5.5239340273785520E-003   6.3022517544096490E-002
  -1.7934864270142049E-002   5.2468414828211740E-003   6.2615552327229040E-002
  -1.7039257086105299E-002   4.9623652415447250E-003   6.2452331877973999E-002
  -1.6143649902068537E-002   4.6705053035489066E-003   6.2532856196331393E-002
  -1.5248042718031783E-002   4.3712616688340034E-003   6.2857125282301085E-002
  -2.3672192229538189E-002   6.9346968887708527E-003   5.9491873422990116E-002
  -2.2541963356018022E-002   6.5983635020716302E-003   5.9142607720055113E-002
  -2.1411734482497870E-002   6.2525128665191498E-003   5.9018840628474567E-002
  -2.0281505608977717E-002   5.8971449821129604E-003   5.9120572148248410E-002
  -1.9151276735457561E-002   5.5322598488532493E-003   5.9447802279376738E-002
  -2.8438639940049720E-002   8.3454597501630701E-003   5.5903055235809074E-002
  -2.7092035533304165E-002   7.9498855213222530E-003   5.5609355494672191E-002
  -2.5745431126558568E-002   7.5426604914935608E-003   5.5522908208631830E-002
  -2.4398826719812985E-002   7.1237846606768442E-003   5.5643713377687844E-002
  -2.3052222313067416E-002   6.6932580288724119E-003   5.5971771001840295E-002
  -3.3129814585713444E-002   9.7562226115553013E-003   5.2256062982553565E-002
  -3.1585080802000398E-002   9.3014075405727648E-003   5.2015795651080506E-002
  -3.0040347018287408E-002   8.8328081164680619E-003   5.1964534618445871E-002
  -2.8495613234574405E-002   8.3504243392409239E-003   5.2102279884649702E-002
  -2.6950879450861373E-002   7.8542562088916718E-003   5.2429031449692021E-002
  -3.7745716166529303E-002   1.1166985472947588E-002   4.8550896663223597E-002
  -3.6021099162106843E-002   1.0652929559823304E-002   4.8361928189279813E-002
  -3.4296482157684369E-002   1.0122955741442438E-002   4.8343719857916606E-002
  -3.2571865153261902E-002   9.5770640178047921E-003   4.8496271669133853E-002
  -3.0847248148839435E-002   9.0152543889107650E-003   4.8819583622931539E-002
  -1.5248042718031783E-002   4.3712616688340034E-003   6.2857125282301085E-002
  -1.4378627019700677E-002   4.0642004735756410E-003   6.2624832414740761E-002
  -1.3509211321369580E-002   3.7488878539494591E-003   6.2598924088908575E-002
  -1.2639795623038479E-002   3.4253238099552254E-003   6.2779400304804542E-002
  -1.1770379924707378E-002   3.0935083415932763E-003   6.3166261062428730E-002
  -1.9151276735457561E-002   5.5322598488532493E-003   5.9447802279376738E-002
  -1.8078104687146965E-002   5.1589460486562155E-003   5.9207373905189237E-002
  -1.7004932638836338E-002   4.7782921634380443E-003   5.9168073689232548E-002
  -1.5931760590525760E-002   4.3902981931986350E-003   5.9329901631506823E-002
  -1.4858588542215119E-002   3.9949641379383172E-003   5.9692857732011884E-002
  -2.3052222313067416E-002   6.6932580288724119E-003   5.5971771001840295E-002
  -2.1780550298274567E-002   6.2536916237367068E-003   5.5724118460372327E-002
  -2.0508878283481698E-002   5.8076964729266226E-003   5.5672337693637906E-002
  -1.9237206268688828E-002   5.3552725764421539E-003   5.5816428701637166E-002
  -1.7965534253895982E-002   4.8964199342833581E-003   5.6156391484370100E-002
  -2.6950879450861373E-002   7.8542562088916718E-003   5.2429031449692021E-002
  -2.5485963853083517E-002   7.3484371988172398E-003   5.2175066080290239E-002
  -2.4021048255305634E-002   6.8371007824153153E-003   5.2111716102124797E-002
  -2.2556132657527768E-002   6.3202469596856737E-003   5.2238981515195945E-002
  -2.1091217059749871E-002   5.7978757306282880E-003   5.2556862319503204E-002
  -3.0847248148839435E-002   9.0152543889107650E-003   4.8819583622931539E-002
  -2.9194345351573808E-002   8.4431827738977172E-003   4.8560216764942821E-002
  -2.7541442554308154E-002   7.8665050919039387E-003   4.8486208914693157E-002
  -2.5888539757042493E-002   7.2852213429290373E-003   4.8597560072182702E-002
  -2.4235636959776874E-002   6.6993315269734399E-003   4.8894270237411330E-002
  -1.1770379924707378E-002   3.0935083415932763E-003   6.3166261062428730E-002
  -1.0799467564222141E-002   2.7664078381458568E-003   6.3033911395818598E-002
  -9.8285552037368981E-003   2.4569886888961834E-003   6.3158769024037942E-002
  -8.8576428432516653E-003   2.1652508938436385E-003   6.3540833947086567E-002
  -7.8867304827664256E-003   1.8911944529884650E-003   6.4180106164964612E-002
  -1.4858588542215119E-002   3.9949641379383172E-003   5.9692857732011884E-002
  -1.3643184085069125E-002   3.6013480114331364E-003   5.9543284421424814E-002
  -1.2427779627923113E-002   3.2185078274604706E-003   5.9625488009329958E-002
  -1.1212375170777117E-002   2.8464435860197368E-003   5.9939468495727122E-002
  -9.9969707136310752E-003   2.4851552871110183E-003   6.0485225880616611E-002
  -1.7965534253895982E-002   4.8964199342833581E-003   5.6156391484370100E-002
  -1.6531068096426439E-002   4.4362881847204716E-003   5.5982689118140805E-002
  -1.5096601938956877E-002   3.9800269660247717E-003   5.6015333254066449E-002
  -1.3662135781487346E-002   3.5276362781956165E-003   5.6254323892146886E-002
  -1.2227669624017799E-002   3.0791161212333495E-003   5.6699661032382276E-002
  -2.1091217059749871E-002   5.7978757306282880E-003   5.2556862319503204E-002
  -1.9463119598294051E-002   5.2712283580077790E-003   5.2352125485966364E-002
  -1.7835022136838210E-002   4.7415461045890103E-003   5.2328304758247263E-002
  -1.6206924675382390E-002   4.2088289703718276E-003   5.2485400136345776E-002
  -1.4578827213926553E-002   3.6730769553559028E-003   5.2823411620262002E-002
  -2.4235636959776874E-002   6.6993315269734399E-003   4.8894270237411330E-002
  -2.2439338590671987E-002   6.1061685312950864E-003   4.8651593524901615E-002
  -2.0643040221567099E-002   5.5030652431533045E-003   4.8564402521872496E-002
  -1.8846741852462212E-002   4.8900216625476917E-003   4.8632697228323696E-002
  -1.7050443483357325E-002   4.2670377894782341E-003   4.8856477644255270E-002
  -7.8867304827664256E-003   1.8911944529884650E-003   6.4180106164964612E-002
  -6.9544458905889672E-003   1.6809708756831965E-003   6.4091077733958390E-002
  -6.0221612984115158E-003   1.5807316712815045E-003   6.4251007926256376E-002
  -5.0898767062340679E-003   1.5904768397825911E-003   6.4659896741858708E-002
  -4.1575921140566061E-003   1.7102063811864632E-003   6.5317744180765636E-002
  -9.9969707136310752E-003   2.4851552871110183E-003   6.0485225880616611E-002
  -8.8149774530287238E-003   2.1853593493839085E-003   6.0387585391575960E-002
  -7.6329841924263463E-003   1.9977721914881952E-003   6.0540403616080707E-002
  -6.4509909318239611E-003   1.9223938134238991E-003   6.0943680554130936E-002
  -5.2689976712215897E-003   1.9592242151909023E-003   6.1597416205726618E-002
  -1.2227669624017799E-002   3.0791161212333495E-003   5.6699661032382276E-002
  -1.0794467604749412E-002   2.6897478230843430E-003   5.6595632892235626E-002
  -9.3612655854810496E-003   2.4148127116949830E-003   5.6743563555875495E-002
  -7.9280635662126869E-003   2.2543107870652036E-003   5.7143453023301781E-002
  -6.4948615469443260E-003   2.2082420491951193E-003   5.7795301294514906E-002
  -1.4578827213926553E-002   3.6730769553559028E-003   5.2823411620262002E-002
  -1.2892916345751085E-002   3.1941362967846942E-003   5.2715220235937492E-002
  -1.1207005477575657E-002   2.8318532319016113E-003   5.2860487745640741E-002
  -9.5210946094001943E-003   2.5862277607066209E-003   5.3259214149371598E-002
  -7.8351837412247612E-003   2.4572598831995585E-003   5.3911399447130103E-002
  -1.7050443483357325E-002   4.2670377894782341E-003   4.8856477644255270E-002
  -1.5110323676033738E-002   3.6985247704853785E-003   4.8746347422681580E-002
  -1.3170203868710137E-002   3.2488937521084615E-003   4.8891176185376473E-002
  -1.1230084061386550E-002   2.9181447343479272E-003   4.9290963932340226E-002
  -9.2899642540629490E-003   2.7062777172036645E-003   4.9945710663572340E-002
  -4.1575921140566061E-003   1.7102063811864632E-003   6.5317744180765636E-002
  -3.6272820574841935E-003   2.0014702227622583E-003   6.4401575173605563E-002
  -3.0969720009117775E-003   2.5258182917779759E-003   6.3604818968694465E-002
  -2.5666619443393598E-003   3.2832505882339699E-003   6.2927475566032148E-002
  -2.0363518877669490E-003   4.2737671121299003E-003   6.2369544965618862E-002
  -5.2689976712215897E-003   1.9592242151909023E-003   6.1597416205726618E-002
  -4.5934210908978174E-003   2.2153155597578467E-003   6.0872341268115582E-002
  -3.9178445105740416E-003   2.7977200100929023E-003   6.0318386575758359E-002
  -3.2422679302502658E-003   3.7064375661958401E-003   5.9935552128654743E-002
  -2.5666913499264934E-003   4.9414682280672917E-003   5.9723837926805468E-002
  -6.4948615469443260E-003   2.2082420491951193E-003   5.7795301294514906E-002
  -5.6223109998642350E-003   2.4291608967531853E-003   5.7354549304780650E-002
  -4.7497604527841708E-003   3.0696217284072874E-003   5.7136625003305339E-002
  -3.8772099057041063E-003   4.1296245441578248E-003   5.7141528390088674E-002
  -3.0046593586240157E-003   5.6091693440046275E-003   5.7369259465130856E-002
  -7.8351837412247612E-003   2.4572598831995585E-003   5.3911399447130103E-002
  -6.7139517843834359E-003   2.6430062337486487E-003   5.3848199283600968E-002
  -5.5927198275421653E-003   3.3415234467217211E-003   5.4059534251335653E-002
  -4.4714878707008384E-003   4.5528115221198633E-003   5.4545404350334128E-002
  -3.3502559138595686E-003   6.2768704599419911E-003   5.5305809580596201E-002
  -9.2899642540629490E-003   2.7062777172036645E-003   4.9945710663572340E-002
  -7.8683434444554862E-003   2.8568515707441122E-003   5.0353291204576545E-002
  -6.4467226348480233E-003   3.6134251650365989E-003   5.1087114319849303E-002
  -5.0251018252405605E-003   4.9759985000816798E-003   5.2147180009390670E-002
  -3.6034810156330976E-003   6.9445715758792437E-003   5.3533488273200702E-002
  -2.0363518877669490E-003   4.2737671121299003E-003   6.2369544965618862E-002
  -2.2862893381271066E-003   5.5770211949733861E-003   5.8339162124369404E-002
  -2.5362267884872780E-003   7.2726661682722960E-003   5.4303339015966678E-002
  -2.7861642388474148E-003   9.3607020320259984E-003   5.0262075640410991E-002
  -3.0361016892076070E-003   1.1841128786234112E-002   4.6215371997701649E-002
  -2.5666913499264934E-003   4.9414682280672917E-003   5.9723837926805468E-002
  -2.8395468518968257E-003   6.5663671285587366E-003   5.6191255885524372E-002
  -3.1124023538671546E-003   8.6446894005227926E-003   5.2618278008176034E-002
  -3.3852578558374903E-003   1.1176435043958662E-002   4.9004904294760676E-002
  -3.6581133578078434E-003   1.4161604058866573E-002   4.5351134745278188E-002
  -3.0046593586240157E-003   5.6091693440046275E-003   5.7369259465130856E-002
  -3.3353884811184852E-003   7.5557130621443647E-003   5.4395510704835892E-002
  -3.6661176036129808E-003   1.0016712632773164E-002   5.1346410539559198E-002
  -3.9968467261074173E-003   1.2992168055891599E-002   4.8221958969301655E-002
  -4.3275758486019146E-003   1.6482079331499033E-002   4.5022155994063118E-002
  -3.3502559138595686E-003   6.2768704599419911E-003   5.5305809580596201E-002
  -3.7738142257921800E-003   8.5450589957296319E-003   5.2951926582303806E-002
  -4.1973725377247905E-003   1.1388735865023709E-002   5.0487736610116421E-002
  -4.6209308496573797E-003   1.4807901067824510E-002   4.7913239664033824E-002
  -5.0444891615900409E-003   1.8802554604131494E-002   4.5228435744055911E-002
  -3.6034810156330976E-003   6.9445715758792437E-003   5.3533488273200702E-002
  -4.1548240859178159E-003   9.5344049293150102E-003   5.1860503517928591E-002
  -4.7061671562025481E-003   1.2760759097273894E-002   5.0042256219847203E-002
  -5.2575102264872040E-003   1.6623634079757553E-002   4.8078746378956788E-002
  -5.8088532967719986E-003   2.1123029876763955E-002   4.5969973995257263E-002
  -5.0667259220777944E-002   1.4883615403045114E-002   4.4204899272329401E-002
  -4.8897269301538412E-002   1.4527175173378093E-002   4.4957977899169721E-002
  -4.7127279382298826E-002   1.4127212279780102E-002   4.5741346042606740E-002
  -4.5357289463059267E-002   1.3683726722251020E-002   4.6555003702640221E-002
  -4.3587299543819694E-002   1.3196718500790738E-002   4.7398950879270374E-002
  -5.6068972509352139E-002   1.6820943433739799E-002   4.1896280248987450E-002
  -5.4210984351006630E-002   1.6359646895282604E-002   4.2019762416024536E-002
  -5.2352996192661150E-002   1.5871175866539342E-002   4.2288951544676823E-002
  -5.0495008034315690E-002   1.5355530347509996E-002   4.2703847634944350E-002
  -4.8637019875970182E-002   1.4812710338194479E-002   4.3264450686827133E-002
  -6.2122642403130438E-002   1.8758271464434401E-002   3.9474630830033011E-002
  -6.0061238560660396E-002   1.8192118617187003E-002   3.8984864710911574E-002
  -5.7999834718190320E-002   1.7615139453298519E-002   3.8756222998424218E-002
  -5.5938430875720216E-002   1.7027333972768940E-002   3.8788705692570757E-002
  -5.3877027033250147E-002   1.6428702175598164E-002   3.9082312793351129E-002
  -6.8828268902112827E-002   2.0695599495129072E-002   3.6939951015465683E-002
  -6.6448031930499460E-002   2.0024590339091458E-002   3.5853284783830833E-002
  -6.4067794958886107E-002   1.9359103040057685E-002   3.5143160403848767E-002
  -6.1687557987272768E-002   1.8699137598027930E-002   3.4809577875519325E-002
  -5.9307321015659428E-002   1.8044694013001905E-002   3.4852537198842404E-002
  -7.6185852006299348E-002   2.2632927525823687E-002   3.4292240805285645E-002
  -7.3371364460523975E-002   2.1857062060995913E-002   3.2625022634782508E-002
  -7.0556876914748740E-002   2.1103066626816908E-002   3.1449763760950655E-002
  -6.7742389368973394E-002   2.0370941223286844E-002   3.0766464183790143E-002
  -6.4927901823198103E-002   1.9660685850405535E-002   3.0575123903300916E-002
  -4.3587299543819694E-002   1.3196718500790738E-002   4.7398950879270374E-002
  -4.2126903699497106E-002   1.2688283021481367E-002   4.7545820373560893E-002
  -4.0666507855174498E-002   1.2180515690404223E-002   4.7786767835650029E-002
  -3.9206112010851904E-002   1.1673416507559594E-002   4.8121793265537588E-002
  -3.7745716166529303E-002   1.1166985472947588E-002   4.8550896663223597E-002
  -4.8637019875970182E-002   1.4812710338194479E-002   4.3264450686827133E-002
  -4.7067349143507076E-002   1.4256081957514294E-002   4.3236343224225121E-002
  -4.5497678411043921E-002   1.3699011324391039E-002   4.3332707570105683E-002
  -4.3928007678580766E-002   1.3141498438824669E-002   4.3553543724468964E-002
  -4.2358336946117653E-002   1.2583543300815014E-002   4.3898851687314749E-002
  -5.3877027033250147E-002   1.6428702175598164E-002   3.9082312793351129E-002
  -5.2167687571962260E-002   1.5823880893547512E-002   3.8878117973180831E-002
  -5.0458348110674386E-002   1.5217506958377917E-002   3.8828788802177237E-002
  -4.8749008649386527E-002   1.4609580370089635E-002   3.8934325280340534E-002
  -4.7039669188098619E-002   1.4000101128682496E-002   3.9194727407670590E-002
  -5.9307321015659428E-002   1.8044694013001905E-002   3.4852537198842404E-002
  -5.7427918984862651E-002   1.7391679829580613E-002   3.4471144620428107E-002
  -5.5548516954065881E-002   1.6736002592364820E-002   3.4275011531864838E-002
  -5.3669114923269125E-002   1.6077662301354712E-002   3.4264137933152500E-002
  -5.1789712892472382E-002   1.5416658956549839E-002   3.4438523824291176E-002
  -6.4927901823198103E-002   1.9660685850405535E-002   3.0575123903300916E-002
  -6.2848043382208285E-002   1.8959478765613685E-002   3.0015423165967003E-002
  -6.0768184941218439E-002   1.8254498226351654E-002   2.9671375759168228E-002
  -5.8688326500228594E-002   1.7545744232619741E-002   2.9542981682904632E-002
  -5.6608468059238776E-002   1.6833216784417460E-002   2.9630240937176200E-002
  -3.7745716166529303E-002   1.1166985472947588E-002   4.8550896663223597E-002
  -3.6021099162106843E-002   1.0652929559823304E-002   4.8361928189279813E-002
  -3.4296482157684369E-002   1.0122955741442438E-002   4.8343719857916606E-002
  -3.2571865153261902E-002   9.5770640178047921E-003   4.8496271669133853E-002
  -3.0847248148839435E-002   9.0152543889107650E-003   4.8819583622931539E-002
  -4.2358336946117653E-002   1.2583543300815014E-002   4.3898851687314749E-002
  -4.0458891590343743E-002   1.2019475113695999E-002   4.3631389084233169E-002
  -3.8559446234569826E-002   1.1443623080801296E-002   4.3542823041274006E-002
  -3.6660000878795909E-002   1.0855987202130858E-002   4.3633153558437172E-002
  -3.4760555523021999E-002   1.0256567477684830E-002   4.3902380635722715E-002
  -4.7039669188098619E-002   1.4000101128682496E-002   3.9194727407670590E-002
  -4.4957259063431322E-002   1.3386020667568541E-002   3.8852904734932053E-002
  -4.2874848938764115E-002   1.2764290420159939E-002   3.8698115039857921E-002
  -4.0792438814096860E-002   1.2134910386456759E-002   3.8730358322448130E-002
  -3.8710028689429597E-002   1.1497880566458812E-002   3.8949634582702550E-002
  -5.1789712892472382E-002   1.5416658956549839E-002   3.4438523824291176E-002
  -4.9516201581369823E-002   1.4752566221441159E-002   3.4026475141376668E-002
  -4.7242690270267257E-002   1.4084957759518745E-002   3.3809595853668536E-002
  -4.4969178959164691E-002   1.3413833570782633E-002   3.3787885961166587E-002
  -4.2695667648062131E-002   1.2739193655232781E-002   3.3961345463871043E-002
  -5.6608468059238776E-002   1.6833216784417460E-002   2.9630240937176200E-002
  -5.4135719144159017E-002   1.6119111775313777E-002   2.9152100303566963E-002
  -5.1662970229079230E-002   1.5405625098877385E-002   2.8877265482705833E-002
  -4.9190221313999430E-002   1.4692756755108519E-002   2.8805736474592836E-002
  -4.6717472398919685E-002   1.3980506744006804E-002   2.8937513279228166E-002
  -3.0847248148839435E-002   9.0152543889107650E-003   4.8819583622931539E-002
  -2.9194345351573808E-002   8.4431827738977172E-003   4.8560216764942821E-002
  -2.7541442554308154E-002   7.8665050919039387E-003   4.8486208914693157E-002
  -2.5888539757042493E-002   7.2852213429290373E-003   4.8597560072182702E-002
  -2.4235636959776874E-002   6.6993315269734399E-003   4.8894270237411330E-002
  -3.4760555523021999E-002   1.0256567477684830E-002   4.3902380635722715E-002
  -3.2929483904727275E-002   9.6468954876543778E-003   4.3592994422611914E-002
  -3.1098412286432515E-002   9.0285028122306377E-003   4.3454586843820059E-002
  -2.9267340668137774E-002   8.4013894514136864E-003   4.3487157899347331E-002
  -2.7436269049842962E-002   7.7655554052036835E-003   4.3690707589193856E-002
  -3.8710028689429597E-002   1.1497880566458812E-002   3.8949634582702550E-002
  -3.6715168623525751E-002   1.0850608201410900E-002   3.8586114396057275E-002
  -3.4720308557621912E-002   1.0190500532557399E-002   3.8379192470311164E-002
  -3.2725448491718052E-002   9.5175575598983372E-003   3.8328868805464045E-002
  -3.0730588425814220E-002   8.8317792834338160E-003   3.8435143401515937E-002
  -4.2695667648062131E-002   1.2739193655232781E-002   3.3961345463871043E-002
  -4.0551399507969266E-002   1.2054320915167380E-002   3.3539576685279189E-002
  -3.8407131367876386E-002   1.1352498252884018E-002   3.3260025794166190E-002
  -3.6262863227783541E-002   1.0633725668382932E-002   3.3122692790532135E-002
  -3.4118595087690648E-002   9.8980031616642261E-003   3.3127577674377504E-002
  -4.6717472398919685E-002   1.3980506744006804E-002   2.8937513279228166E-002
  -4.4438176558057846E-002   1.3258033628923804E-002   2.8453381290277302E-002
  -4.2158880717195965E-002   1.2514495973210762E-002   2.8097086815385336E-002
  -3.9879584876334119E-002   1.1749893776867557E-002   2.7868629854552504E-002
  -3.7600289035472245E-002   1.0964227039894303E-002   2.7768010407778543E-002
  -2.4235636959776874E-002   6.6993315269734399E-003   4.8894270237411330E-002
  -2.2439338590671987E-002   6.1061685312950864E-003   4.8651593524901615E-002
  -2.0643040221567099E-002   5.5030652431533045E-003   4.8564402521872496E-002
  -1.8846741852462212E-002   4.8900216625476917E-003   4.8632697228323696E-002
  -1.7050443483357325E-002   4.2670377894782341E-003   4.8856477644255270E-002
  -2.7436269049842962E-002   7.7655554052036835E-003   4.3690707589193856E-002
  -2.5486345591900703E-002   7.1253196543232811E-003   4.3347471461930631E-002
  -2.3536422133958443E-002   6.4850011794959778E-003   4.3155999802861722E-002
  -2.1586498676016190E-002   5.8445999807218048E-003   4.3116292611987128E-002
  -1.9636575218073923E-002   5.2041160580005297E-003   4.3228349889306850E-002
  -3.0730588425814220E-002   8.8317792834338160E-003   3.8435143401515937E-002
  -2.8630761120320702E-002   8.1444707773514757E-003   3.8001205428015897E-002
  -2.6530933814827184E-002   7.4669371158387621E-003   3.7715310681424058E-002
  -2.4431106509333722E-002   6.7991782988960289E-003   3.7577459161740365E-002
  -2.2331279203840204E-002   6.1411943265228253E-003   3.7587650868965095E-002
  -3.4118595087690648E-002   9.8980031616642261E-003   3.3127577674377504E-002
  -3.1872585175931986E-002   9.1636219003792818E-003   3.2612795423157245E-002
  -2.9626575264173297E-002   8.4488730521816574E-003   3.2242335157559358E-002
  -2.7380565352414621E-002   7.7537566170700865E-003   3.2016196877583336E-002
  -2.5134555440656001E-002   7.0782725950451209E-003   3.1934380583229560E-002
  -3.7600289035472245E-002   1.0964227039894303E-002   2.7768010407778543E-002
  -3.5211817758734554E-002   1.0182773023407754E-002   2.7182241447354927E-002
  -3.2823346481996807E-002   9.4308089885242474E-003   2.6737073231267505E-002
  -3.0434875205259088E-002   8.7083349352444286E-003   2.6432505759516223E-002
  -2.8046403928521368E-002   8.0153508635673054E-003   2.6268539032100691E-002
  -1.7050443483357325E-002   4.2670377894782341E-003   4.8856477644255270E-002
  -1.5110323676033738E-002   3.6985247704853785E-003   4.8746347422681580E-002
  -1.3170203868710137E-002   3.2488937521084615E-003   4.8891176185376473E-002
  -1.1230084061386550E-002   2.9181447343479272E-003   4.9290963932340226E-002
  -9.2899642540629490E-003   2.7062777172036645E-003   4.9945710663572340E-002
  -1.9636575218073923E-002   5.2041160580005297E-003   4.3228349889306850E-002
  -1.7480083324885418E-002   4.6005006827791739E-003   4.3067411428061586E-002
  -1.5323591431697002E-002   4.0707051265055361E-003   4.3084258154277022E-002
  -1.3167099538508576E-002   3.6147293891781451E-003   4.3278890067953685E-002
  -1.1010607645320081E-002   3.2325734707983056E-003   4.3651307169091269E-002
  -2.2331279203840204E-002   6.1411943265228253E-003   3.7587650868965095E-002
  -2.0035589021594462E-002   5.5024765950735799E-003   3.7330841986378760E-002
  -1.7739898839348719E-002   4.8925165009021665E-003   3.7174644494445630E-002
  -1.5444208657103012E-002   4.3113140440085851E-003   3.7119058393165927E-002
  -1.3148518474857297E-002   3.7588692243930022E-003   3.7164083682539761E-002
  -2.5134555440656001E-002   7.0782725950451209E-003   3.1934380583229560E-002
  -2.2776840766160600E-002   6.4044525073677361E-003   3.1536639097633129E-002
  -2.0419126091665307E-002   5.7143278752989635E-003   3.1162335205882227E-002
  -1.8061411417169961E-002   5.0078986988391361E-003   3.0811468907977480E-002
  -1.5703696742674612E-002   4.2851649779876155E-003   3.0484040203918386E-002
  -2.8046403928521368E-002   8.0153508635673054E-003   2.6268539032100691E-002
  -2.5703838558584047E-002   7.3064284196617812E-003   2.5684802761824721E-002
  -2.3361273188646725E-002   6.5361392496959825E-003   2.5047330288587077E-002
  -2.1018707818709390E-002   5.7044833536692152E-003   2.4356121612387538E-002
  -1.8676142448772082E-002   4.8114607315822289E-003   2.3611176733226213E-002
  -9.2899642540629490E-003   2.7062777172036645E-003   4.9945710663572340E-002
  -7.8683434444554862E-003   2.8568515707441122E-003   5.0353291204576545E-002
  -6.4467226348480233E-003   3.6134251650365989E-003   5.1087114319849303E-002
  -5.0251018252405605E-003   4.9759985000816798E-003   5.2147180009390670E-002
  -3.6034810156330976E-003   6.9445715758792437E-003   5.3533488273200702E-002
  -1.1010607645320081E-002   3.2325734707983056E-003   4.3651307169091269E-002
  -9.2442214029403863E-003   3.1621286432665374E-003   4.4237944182069777E-002
  -7.4778351605606294E-003   3.6412861784838046E-003   4.5187869486324028E-002
  -5.7114489181809489E-003   4.6700460764501073E-003   4.6501083081854050E-002
  -3.9450626758011781E-003   6.2484083371652233E-003   4.8177584968660203E-002
  -1.3148518474857297E-002   3.7588692243930022E-003   3.7164083682539761E-002
  -1.1000321082698050E-002   3.4674057157890736E-003   3.7873379789489126E-002
  -8.8521236905388656E-003   3.6691471919307883E-003   3.8983009904721505E-002
  -6.7039262983796637E-003   4.3640936528182017E-003   4.0492974028237011E-002
  -4.5557289062204895E-003   5.5522450984512584E-003   4.2403272160035616E-002
  -1.5703696742674612E-002   4.2851649779876155E-003   3.0484040203918386E-002
  -1.3136642483728672E-002   3.7726827883118319E-003   3.1259598026834978E-002
  -1.0569588224782760E-002   3.6970082053780495E-003   3.2472535575041997E-002
  -8.0025339658368055E-003   4.0581412291866847E-003   3.4122852848539213E-002
  -5.4354797068908497E-003   4.8560818597372657E-003   3.6210549847327127E-002
  -1.8676142448772082E-002   4.8114607315822289E-003   2.3611176733226213E-002
  -1.5653185606032183E-002   4.0779598608341461E-003   2.4396598894106836E-002
  -1.2630228763292256E-002   3.7248692188249499E-003   2.5656446497285323E-002
  -9.6072719205523571E-003   3.7521888055546612E-003   2.7390719542760983E-002
  -6.5843150778124304E-003   4.1599186210232730E-003   2.9599418030534785E-002
  -3.6034810156330976E-003   6.9445715758792437E-003   5.3533488273200702E-002
  -4.1548240859178159E-003   9.5344049293150102E-003   5.1860503517928591E-002
  -4.7061671562025481E-003   1.2760759097273894E-002   5.0042256219847203E-002
  -5.2575102264872040E-003   1.6623634079757553E-002   4.8078746378956788E-002
  -5.8088532967719986E-003   2.1123029876763955E-002   4.5969973995257263E-002
  -3.9450626758011781E-003   6.2484083371652233E-003   4.8177584968660203E-002
  -4.5378894927555202E-003   8.6864348575423911E-003   4.7242417924825086E-002
  -5.1307163097099109E-003   1.2294187534492351E-002   4.6369545930459555E-002
  -5.7235431266642253E-003   1.7071666368017144E-002   4.5558968985564635E-002
  -6.3163699436186993E-003   2.3018871358115645E-002   4.4810687090138801E-002
  -4.5557289062204895E-003   5.5522450984512584E-003   4.2403272160035616E-002
  -4.9824818775654617E-003   7.8384647857692724E-003   4.2739128169687834E-002
  -5.4092348489104582E-003   1.1827615971710934E-002   4.3344836821088764E-002
  -5.8359878202555084E-003   1.7519698656277071E-002   4.4220398114238689E-002
  -6.2627407916004824E-003   2.4914712839467112E-002   4.5365812049137255E-002
  -5.4354797068908497E-003   4.8560818597372657E-003   3.6210549847327127E-002
  -5.4886012403475883E-003   6.9904947139961815E-003   3.8350634252516655E-002
  -5.5417227738043260E-003   1.1361044408929565E-002   4.0968128891734262E-002
  -5.5948443072610914E-003   1.7967730944537054E-002   4.4063033764979463E-002
  -5.6479658407178022E-003   2.6810554320818691E-002   4.7635348872252348E-002
  -6.5843150778124304E-003   4.1599186210232730E-003   2.9599418030534785E-002
  -6.0562475811019034E-003   6.1425246422236457E-003   3.4076936173311867E-002
  -5.5281800843913764E-003   1.0894472846147862E-002   3.9239422142395952E-002
  -5.0001125876807939E-003   1.8415763232796784E-002   4.5086875937786541E-002
  -4.4720450909703224E-003   2.8706395802170270E-002   5.1619297559484245E-002
  -7.6185852006299348E-002   2.2632927525823687E-002   3.4292240805285645E-002
  -7.3371364460523975E-002   2.1857062060995913E-002   3.2625022634782508E-002
  -7.0556876914748740E-002   2.1103066626816908E-002   3.1449763760950655E-002
  -6.7742389368973394E-002   2.0370941223286844E-002   3.0766464183790143E-002
  -6.4927901823198103E-002   1.9660685850405535E-002   3.0575123903300916E-002
  -8.3267863673382986E-002   2.4386531663438182E-002   2.3863078571138341E-002
  -8.0095254353717282E-002   2.3625227762317652E-002   2.3273614841701484E-002
  -7.6922645034051537E-002   2.2859038799422637E-002   2.2908435363374086E-002
  -7.3750035714385848E-002   2.2087964774752944E-002   2.2767540136155992E-002
  -7.0577426394720116E-002   2.1312005688308766E-002   2.2850929160047606E-002
  -8.9146775861056543E-002   2.6140135801052566E-002   1.3461855446910143E-002
  -8.5883719813062226E-002   2.5393393463639446E-002   1.3923391066116023E-002
  -8.2620663765067964E-002   2.4615010972028409E-002   1.4341535890869492E-002
  -7.9357607717073675E-002   2.3804988326219013E-002   1.4716289921170626E-002
  -7.6094551669079441E-002   2.2963325526211914E-002   1.5047653157019489E-002
  -9.3822588569320159E-002   2.7893739938666978E-002   3.0885714326010366E-003
  -9.0736760838559125E-002   2.7161559164961213E-002   4.5743513080262546E-003
  -8.7650933107798090E-002   2.6370983144633854E-002   5.7490653434370924E-003
  -8.4565105377036986E-002   2.5522011877685206E-002   6.6127135388342265E-003
  -8.1479277646275994E-002   2.4614645364114993E-002   7.1652958942167409E-003
  -9.7295301798173917E-002   2.9647344076281446E-002  -7.2567734717891019E-003
  -9.4654377430207881E-002   2.8929724866282980E-002  -4.7735044325680764E-003
  -9.2013453062241846E-002   2.8126955317239799E-002  -2.8689762789230466E-003
  -8.9372528694275810E-002   2.7239035429151279E-002  -1.5431890108540472E-003
  -8.6731604326309775E-002   2.6265965202018182E-002  -7.9614262836075200E-004
  -6.4927901823198103E-002   1.9660685850405535E-002   3.0575123903300916E-002
  -6.2848043382208285E-002   1.8959478765613685E-002   3.0015423165967003E-002
  -6.0768184941218439E-002   1.8254498226351654E-002   2.9671375759168228E-002
  -5.8688326500228594E-002   1.7545744232619741E-002   2.9542981682904632E-002
  -5.6608468059238776E-002   1.6833216784417460E-002   2.9630240937176200E-002
  -7.0577426394720116E-002   2.1312005688308766E-002   2.2850929160047606E-002
  -6.8288988175266491E-002   2.0537081157908171E-002   2.2418144527500905E-002
  -6.6000549955812837E-002   1.9769110801369422E-002   2.2186866121346668E-002
  -6.3712111736359198E-002   1.9008094618692593E-002   2.2157093941584945E-002
  -6.1423673516905558E-002   1.8254032609877568E-002   2.2328827988215505E-002
  -7.6094551669079441E-002   2.2963325526211914E-002   1.5047653157019489E-002
  -7.3611680775304708E-002   2.2114683550202588E-002   1.4752512257591999E-002
  -7.1128809881529975E-002   2.1283723376387141E-002   1.4644730480414307E-002
  -6.8645938987755159E-002   2.0470445004765282E-002   1.4724307825486251E-002
  -6.6163068093980509E-002   1.9674848435337650E-002   1.4991244292808098E-002
  -8.1479277646275994E-002   2.4614645364114993E-002   7.1652958942167409E-003
  -7.8816121182322840E-002   2.3692285942496984E-002   7.0185263562403538E-003
  -7.6152964718369742E-002   2.2798335951404746E-002   7.0449688363711429E-003
  -7.3489808254416630E-002   2.1932795390838495E-002   7.2446233346090917E-003
  -7.0826651790463491E-002   2.1095664260797689E-002   7.6174898509540102E-003
  -8.6731604326309775E-002   2.6265965202018182E-002  -7.9614262836075200E-004
  -8.3902309396321040E-002   2.5269888334791435E-002  -7.8381317655390470E-004
  -8.1073014466332194E-002   2.4312948526422601E-002  -6.1241881078268057E-004
  -7.8243719536343348E-002   2.3395145776911035E-002  -2.8195953104704144E-004
  -7.5414424606354613E-002   2.2516480086257951E-002   2.0756466265270390E-004
  -5.6608468059238776E-002   1.6833216784417460E-002   2.9630240937176200E-002
  -5.4135719144159017E-002   1.6119111775313777E-002   2.9152100303566963E-002
  -5.1662970229079230E-002   1.5405625098877385E-002   2.8877265482705833E-002
  -4.9190221313999430E-002   1.4692756755108519E-002   2.8805736474592836E-002
  -4.6717472398919685E-002   1.3980506744006804E-002   2.8937513279228166E-002
  -6.1423673516905558E-002   1.8254032609877568E-002   2.2328827988215505E-002
  -5.8750371660141659E-002   1.7500501730473350E-002   2.1921108572947684E-002
  -5.6077069803377788E-002   1.6741078936029427E-002   2.1711189228300093E-002
  -5.3403767946613952E-002   1.5975764226544936E-002   2.1699069954272246E-002
  -5.0730466089850060E-002   1.5204557602020830E-002   2.1884750750864546E-002
  -6.6163068093980509E-002   1.9674848435337650E-002   1.4991244292808098E-002
  -6.3294719037660624E-002   1.8881891685632923E-002   1.4647435848174420E-002
  -6.0426369981340725E-002   1.8076532773181192E-002   1.4495921732032707E-002
  -5.7558020925020832E-002   1.7258771697981519E-002   1.4536701944382890E-002
  -5.4689671868700947E-002   1.6428608460034883E-002   1.4769776485224942E-002
  -7.0826651790463491E-002   2.1095664260797689E-002   7.6174898509540102E-003
  -6.7768761276715772E-002   2.0263281640792802E-002   7.3310821292469942E-003
  -6.4710870762967970E-002   1.9411986610332596E-002   7.2314629939039671E-003
  -6.1652980249220231E-002   1.8541779169418019E-002   7.3186324449247588E-003
  -5.8595089735472450E-002   1.7652659318049088E-002   7.5925904823093866E-003
  -7.5414424606354613E-002   2.2516480086257951E-002   2.0756466265270390E-004
  -7.2172498377307104E-002   2.1644671595952181E-002  -2.7952583834534028E-005
  -6.8930572148259595E-002   2.0747440447484888E-002  -8.2186986086252301E-005
  -6.5688645919212085E-002   1.9824786640854491E-002   4.4861455897701741E-005
  -6.2446719690164576E-002   1.8876710176062850E-002   3.5319274211698115E-004
  -4.6717472398919685E-002   1.3980506744006804E-002   2.8937513279228166E-002
  -4.4438176558057846E-002   1.3258033628923804E-002   2.8453381290277302E-002
  -4.2158880717195965E-002   1.2514495973210762E-002   2.8097086815385336E-002
  -3.9879584876334119E-002   1.1749893776867557E-002   2.7868629854552504E-002
  -3.7600289035472245E-002   1.0964227039894303E-002   2.7768010407778543E-002
  -5.0730466089850060E-002   1.5204557602020830E-002   2.1884750750864546E-002
  -4.8316599619956935E-002   1.4428097345467433E-002   2.1448299844141344E-002
  -4.5902733150063914E-002   1.3647021739896167E-002   2.1153152681421428E-002
  -4.3488866680170879E-002   1.2861330785306376E-002   2.0999309262704921E-002
  -4.1075000210277768E-002   1.2071024481698833E-002   2.0986769587991838E-002
  -5.4689671868700947E-002   1.6428608460034883E-002   1.4769776485224942E-002
  -5.2127768539832246E-002   1.5598161062011257E-002   1.4397455852340910E-002
  -4.9565865210963483E-002   1.4779547506581454E-002   1.4179905193405042E-002
  -4.7003961882094741E-002   1.3972767793745304E-002   1.4117124508416821E-002
  -4.4442058553226013E-002   1.3177821923503308E-002   1.4209113797376882E-002
  -5.8595089735472450E-002   1.7652659318049088E-002   7.5925904823093866E-003
  -5.5871683317683600E-002   1.6768224778554983E-002   7.3008493148765639E-003
  -5.3148276899894785E-002   1.5912073273267133E-002   7.1773443513366997E-003
  -5.0424870482105977E-002   1.5084204802184621E-002   7.2220755916885095E-003
  -4.7701464064317120E-002   1.4284619365307477E-002   7.4350430359331407E-003
  -6.2446719690164576E-002   1.8876710176062850E-002   3.5319274211698115E-004
  -5.9548343953511162E-002   1.7938288495098487E-002   1.5848023174780401E-004
  -5.6649968216857749E-002   1.7044599039952063E-002   1.4547015521521045E-004
  -5.3751592480204391E-002   1.6195641810623253E-002   3.1416251251924210E-004
  -5.0853216743550922E-002   1.5391416807112090E-002   6.6455730366077326E-004
  -3.7600289035472245E-002   1.0964227039894303E-002   2.7768010407778543E-002
  -3.5211817758734554E-002   1.0182773023407754E-002   2.7182241447354927E-002
  -3.2823346481996807E-002   9.4308089885242474E-003   2.6737073231267505E-002
  -3.0434875205259088E-002   8.7083349352444286E-003   2.6432505759516223E-002
  -2.8046403928521368E-002   8.0153508635673054E-003   2.6268539032100691E-002
  -4.1075000210277768E-002   1.2071024481698833E-002   2.0986769587991838E-002
  -3.8558943208497981E-002   1.1285026664709596E-002   2.0516999592061269E-002
  -3.6042886206718180E-002   1.0512261169976361E-002   2.0161800301878724E-002
  -3.3526829204938442E-002   9.7527279974983713E-003   1.9921171717444508E-002
  -3.1010772203158649E-002   9.0064271472760637E-003   1.9795113838758205E-002
  -4.4442058553226013E-002   1.3177821923503308E-002   1.4209113797376882E-002
  -4.1824445864991996E-002   1.2387280306011716E-002   1.3839085106591292E-002
  -3.9206833176757980E-002   1.1593713351428017E-002   1.3557597082965847E-002
  -3.6589220488523956E-002   1.0797121059752422E-002   1.3364649726501081E-002
  -3.3971607800289946E-002   9.9975034309848776E-003   1.3260243037196584E-002
  -4.7701464064317120E-002   1.4284619365307477E-002   7.4350430359331407E-003
  -4.5008325728216642E-002   1.3489533947313975E-002   7.1484979909447882E-003
  -4.2315187392116219E-002   1.2675165532880457E-002   6.9244635745292250E-003
  -3.9622049056015775E-002   1.1841514122006973E-002   6.7629397866858249E-003
  -3.6928910719915317E-002   1.0988579714693664E-002   6.6639266274153772E-003
  -5.0853216743550922E-002   1.5391416807112090E-002   6.6455730366077326E-004
  -4.8110582798171930E-002   1.4591787588615568E-002   4.4523824512249233E-004
  -4.5367948852792828E-002   1.3756617714331953E-002   2.6239977656866698E-004
  -4.2625314907413836E-002   1.2885907184260623E-002   1.1604189800000497E-004
  -3.9882680962034733E-002   1.1979655998402450E-002   6.1646094151601716E-006
  -2.8046403928521368E-002   8.0153508635673054E-003   2.6268539032100691E-002
  -2.5703838558584047E-002   7.3064284196617812E-003   2.5684802761824721E-002
  -2.3361273188646725E-002   6.5361392496959825E-003   2.5047330288587077E-002
  -2.1018707818709390E-002   5.7044833536692152E-003   2.4356121612387538E-002
  -1.8676142448772082E-002   4.8114607315822289E-003   2.3611176733226213E-002
  -3.1010772203158649E-002   9.0064271472760637E-003   1.9795113838758205E-002
  -2.8703856561347774E-002   8.2643457519079866E-003   1.9199916651519600E-002
  -2.6396940919536996E-002   7.5174709439928267E-003   1.8587156210989969E-002
  -2.4090025277726211E-002   6.7658027235299803E-003   1.7956832517169008E-002
  -2.1783109635915288E-002   6.0093410905199818E-003   1.7308945570056911E-002
  -3.3971607800289946E-002   9.9975034309848776E-003   1.3260243037196584E-002
  -3.1664168936934980E-002   9.2222630841539699E-003   1.2710158246508452E-002
  -2.9356730073580063E-002   8.4988026382895598E-003   1.2178683152199998E-002
  -2.7049291210225122E-002   7.8271220933905233E-003   1.1665817754270745E-002
  -2.4741852346870180E-002   7.2072214494577902E-003   1.1171562052721212E-002
  -3.6928910719915317E-002   1.0988579714693664E-002   6.6639266274153772E-003
  -3.4584775685345591E-002   1.0180180416400397E-002   6.2155275467912288E-003
  -3.2240640650775913E-002   9.4801343325861265E-003   5.8219111122174393E-003
  -2.9896505616206225E-002   8.8884414632516215E-003   5.4830773236932973E-003
  -2.7552370581636516E-002   8.4051018083955709E-003   5.1990261812196389E-003
  -3.9882680962034733E-002   1.1979655998402450E-002   6.1646094151601716E-006
  -3.7465676806579640E-002   1.1138097748646270E-002  -2.8397544763197891E-004
  -3.5048672651124602E-002   1.0461466026883304E-002  -4.8315990895847483E-004
  -3.2631668495669508E-002   9.9497608331118731E-003  -5.9138877456414718E-004
  -3.0214664340214470E-002   9.6029821673333515E-003  -6.0866204444864902E-004
  -1.8676142448772082E-002   4.8114607315822289E-003   2.3611176733226213E-002
  -1.5653185606032183E-002   4.0779598608341461E-003   2.4396598894106836E-002
  -1.2630228763292256E-002   3.7248692188249499E-003   2.5656446497285323E-002
  -9.6072719205523571E-003   3.7521888055546612E-003   2.7390719542760983E-002
  -6.5843150778124304E-003   4.1599186210232730E-003   2.9599418030534785E-002
  -2.1783109635915288E-002   6.0093410905199818E-003   1.7308945570056911E-002
  -1.8555254071402238E-002   5.3422215069692247E-003   1.8255009356703933E-002
  -1.5327398506889092E-002   4.8585794348845746E-003   1.9136445144599890E-002
  -1.2099542942375988E-002   4.5584148742652333E-003   1.9953252933744531E-002
  -8.8716873778628969E-003   4.4417278251123182E-003   2.0705432724138162E-002
  -2.4741852346870180E-002   7.2072214494577902E-003   1.1171562052721212E-002
  -2.1848151501632655E-002   6.6064831531043589E-003   1.2081334747861716E-002
  -1.8954450656395033E-002   5.9922896509436580E-003   1.2387426003202390E-002
  -1.6060749811157439E-002   5.3646409429763640E-003   1.2089835818742949E-002
  -1.3167048965919886E-002   4.7235370292009193E-003   1.1188564194483497E-002
  -2.7552370581636516E-002   8.4051018083955709E-003   5.1990261812196389E-003
  -2.5531877896723246E-002   7.8707447992389101E-003   5.8755750675802340E-003
  -2.3511385211810055E-002   7.1259998670030120E-003   5.4093890730925222E-003
  -2.1490892526896774E-002   6.1708670116858832E-003   3.8004681977558182E-003
  -1.9470399841983586E-002   5.0053462332895204E-003   1.0488124415707067E-003
  -3.0214664340214470E-002   9.6029821673333515E-003  -6.0866204444864902E-004
  -2.9606433256674225E-002   9.1350064453743496E-003  -3.6226968414043714E-004
  -2.8998202173134091E-002   8.2597100830617554E-003  -1.7976656457295848E-003
  -2.8389971089593846E-002   6.9770930803972481E-003  -4.9148499292165637E-003
  -2.7781740006053712E-002   5.2871554373783436E-003  -9.7138225346005136E-003
  -6.5843150778124304E-003   4.1599186210232730E-003   2.9599418030534785E-002
  -6.0562475811019034E-003   6.1425246422236457E-003   3.4076936173311867E-002
  -5.5281800843913764E-003   1.0894472846147862E-002   3.9239422142395952E-002
  -5.0001125876807939E-003   1.8415763232796784E-002   4.5086875937786541E-002
  -4.4720450909703224E-003   2.8706395802170270E-002   5.1619297559484245E-002
  -8.8716873778628969E-003   4.4417278251123182E-003   2.0705432724138162E-002
  -7.5862026963233326E-003   5.6585708680120250E-003   2.5873873365113764E-002
  -6.3007180147838932E-003   9.3589965835525757E-003   3.1872180549440521E-002
  -5.0152333332443150E-003   1.5543004971734282E-002   3.8700354277118404E-002
  -3.7297486517047784E-003   2.4210596032556486E-002   4.6358394548147608E-002
  -1.3167048965919886E-002   4.7235370292009193E-003   1.1188564194483497E-002
  -1.0979248382506870E-002   5.1746170938001268E-003   1.6762167823573759E-002
  -8.7914477990938544E-003   7.8235203209575110E-003   2.3310536713059660E-002
  -6.6036472156806858E-003   1.2670246710671726E-002   3.0833670862941587E-002
  -4.4158466322678225E-003   1.9714796262942702E-002   3.9331570273218874E-002
  -1.9470399841983586E-002   5.0053462332895204E-003   1.0488124415707067E-003
  -1.6235384639652482E-002   4.6906633195895886E-003   6.7418195486915605E-003
  -1.3000369437321399E-002   6.2880440583621133E-003   1.3554490633252786E-002
  -9.7653542349903852E-003   9.7974884496091971E-003   2.1486825695254515E-002
  -6.5303390326592117E-003   1.5218996493328696E-002   3.0538824734696407E-002
  -2.7781740006053712E-002   5.2871554373783436E-003  -9.7138225346005136E-003
  -2.3354611467760189E-002   4.2067095453777181E-003  -4.1871714595322906E-003
  -1.8927482929466499E-002   4.7525677957673262E-003   2.6040423100205101E-003
  -1.4500354391172837E-002   6.9247301885462659E-003   1.0659818774058270E-002
  -1.0073225852879286E-002   1.0723196723715134E-002   1.9980157932581122E-002
 </DataArray>
 </PointData>
 </Piece>
 </UnstructuredGrid>
 </VTKFile>
