 <VTKFile type="UnstructuredGrid"  version="0.1"   >
 <UnstructuredGrid>
 <Piece  NumberOfPoints="          1600 "  NumberOfCells="         1024 ">
 <Points>
 <DataArray  type="Float64" NumberOfComponents="3"  format="ascii" >
   0.0000000000000000        0.0000000000000000        0.0000000000000000     
   3.1250000000000000E-002   0.0000000000000000        0.0000000000000000     
   6.2500000000000000E-002   0.0000000000000000        0.0000000000000000     
   9.3750000000000000E-002   0.0000000000000000        0.0000000000000000     
  0.12500000000000000        0.0000000000000000        0.0000000000000000     
   0.0000000000000000        3.1250000000000000E-002   0.0000000000000000     
   3.1250000000000000E-002   3.1250000000000000E-002   0.0000000000000000     
   6.2500000000000000E-002   3.1250000000000000E-002   0.0000000000000000     
   9.3750000000000000E-002   3.1250000000000000E-002   0.0000000000000000     
  0.12500000000000000        3.1250000000000000E-002   0.0000000000000000     
   0.0000000000000000        6.2500000000000000E-002   0.0000000000000000     
   3.1250000000000000E-002   6.2500000000000000E-002   0.0000000000000000     
   6.2500000000000000E-002   6.2500000000000000E-002   0.0000000000000000     
   9.3750000000000000E-002   6.2500000000000000E-002   0.0000000000000000     
  0.12500000000000000        6.2500000000000000E-002   0.0000000000000000     
   0.0000000000000000        9.3750000000000000E-002   0.0000000000000000     
   3.1250000000000000E-002   9.3750000000000000E-002   0.0000000000000000     
   6.2500000000000000E-002   9.3750000000000000E-002   0.0000000000000000     
   9.3750000000000000E-002   9.3750000000000000E-002   0.0000000000000000     
  0.12500000000000000        9.3750000000000000E-002   0.0000000000000000     
   0.0000000000000000       0.12500000000000000        0.0000000000000000     
   3.1250000000000000E-002  0.12500000000000000        0.0000000000000000     
   6.2500000000000000E-002  0.12500000000000000        0.0000000000000000     
   9.3750000000000000E-002  0.12500000000000000        0.0000000000000000     
  0.12500000000000000       0.12500000000000000        0.0000000000000000     
  0.12500000000000000        0.0000000000000000        0.0000000000000000     
  0.15625000000000000        0.0000000000000000        0.0000000000000000     
  0.18750000000000000        0.0000000000000000        0.0000000000000000     
  0.21875000000000000        0.0000000000000000        0.0000000000000000     
  0.25000000000000000        0.0000000000000000        0.0000000000000000     
  0.12500000000000000        3.1250000000000000E-002   0.0000000000000000     
  0.15625000000000000        3.1250000000000000E-002   0.0000000000000000     
  0.18750000000000000        3.1250000000000000E-002   0.0000000000000000     
  0.21875000000000000        3.1250000000000000E-002   0.0000000000000000     
  0.25000000000000000        3.1250000000000000E-002   0.0000000000000000     
  0.12500000000000000        6.2500000000000000E-002   0.0000000000000000     
  0.15625000000000000        6.2500000000000000E-002   0.0000000000000000     
  0.18750000000000000        6.2500000000000000E-002   0.0000000000000000     
  0.21875000000000000        6.2500000000000000E-002   0.0000000000000000     
  0.25000000000000000        6.2500000000000000E-002   0.0000000000000000     
  0.12500000000000000        9.3750000000000000E-002   0.0000000000000000     
  0.15625000000000000        9.3750000000000000E-002   0.0000000000000000     
  0.18750000000000000        9.3750000000000000E-002   0.0000000000000000     
  0.21875000000000000        9.3750000000000000E-002   0.0000000000000000     
  0.25000000000000000        9.3750000000000000E-002   0.0000000000000000     
  0.12500000000000000       0.12500000000000000        0.0000000000000000     
  0.15625000000000000       0.12500000000000000        0.0000000000000000     
  0.18750000000000000       0.12500000000000000        0.0000000000000000     
  0.21875000000000000       0.12500000000000000        0.0000000000000000     
  0.25000000000000000       0.12500000000000000        0.0000000000000000     
  0.25000000000000000        0.0000000000000000        0.0000000000000000     
  0.28125000000000000        0.0000000000000000        0.0000000000000000     
  0.31250000000000000        0.0000000000000000        0.0000000000000000     
  0.34375000000000000        0.0000000000000000        0.0000000000000000     
  0.37500000000000000        0.0000000000000000        0.0000000000000000     
  0.25000000000000000        3.1250000000000000E-002   0.0000000000000000     
  0.28125000000000000        3.1250000000000000E-002   0.0000000000000000     
  0.31250000000000000        3.1250000000000000E-002   0.0000000000000000     
  0.34375000000000000        3.1250000000000000E-002   0.0000000000000000     
  0.37500000000000000        3.1250000000000000E-002   0.0000000000000000     
  0.25000000000000000        6.2500000000000000E-002   0.0000000000000000     
  0.28125000000000000        6.2500000000000000E-002   0.0000000000000000     
  0.31250000000000000        6.2500000000000000E-002   0.0000000000000000     
  0.34375000000000000        6.2500000000000000E-002   0.0000000000000000     
  0.37500000000000000        6.2500000000000000E-002   0.0000000000000000     
  0.25000000000000000        9.3750000000000000E-002   0.0000000000000000     
  0.28125000000000000        9.3750000000000000E-002   0.0000000000000000     
  0.31250000000000000        9.3750000000000000E-002   0.0000000000000000     
  0.34375000000000000        9.3750000000000000E-002   0.0000000000000000     
  0.37500000000000000        9.3750000000000000E-002   0.0000000000000000     
  0.25000000000000000       0.12500000000000000        0.0000000000000000     
  0.28125000000000000       0.12500000000000000        0.0000000000000000     
  0.31250000000000000       0.12500000000000000        0.0000000000000000     
  0.34375000000000000       0.12500000000000000        0.0000000000000000     
  0.37500000000000000       0.12500000000000000        0.0000000000000000     
  0.37500000000000000        0.0000000000000000        0.0000000000000000     
  0.40625000000000000        0.0000000000000000        0.0000000000000000     
  0.43750000000000000        0.0000000000000000        0.0000000000000000     
  0.46875000000000000        0.0000000000000000        0.0000000000000000     
  0.50000000000000000        0.0000000000000000        0.0000000000000000     
  0.37500000000000000        3.1250000000000000E-002   0.0000000000000000     
  0.40625000000000000        3.1250000000000000E-002   0.0000000000000000     
  0.43750000000000000        3.1250000000000000E-002   0.0000000000000000     
  0.46875000000000000        3.1250000000000000E-002   0.0000000000000000     
  0.50000000000000000        3.1250000000000000E-002   0.0000000000000000     
  0.37500000000000000        6.2500000000000000E-002   0.0000000000000000     
  0.40625000000000000        6.2500000000000000E-002   0.0000000000000000     
  0.43750000000000000        6.2500000000000000E-002   0.0000000000000000     
  0.46875000000000000        6.2500000000000000E-002   0.0000000000000000     
  0.50000000000000000        6.2500000000000000E-002   0.0000000000000000     
  0.37500000000000000        9.3750000000000000E-002   0.0000000000000000     
  0.40625000000000000        9.3750000000000000E-002   0.0000000000000000     
  0.43750000000000000        9.3750000000000000E-002   0.0000000000000000     
  0.46875000000000000        9.3750000000000000E-002   0.0000000000000000     
  0.50000000000000000        9.3750000000000000E-002   0.0000000000000000     
  0.37500000000000000       0.12500000000000000        0.0000000000000000     
  0.40625000000000000       0.12500000000000000        0.0000000000000000     
  0.43750000000000000       0.12500000000000000        0.0000000000000000     
  0.46875000000000000       0.12500000000000000        0.0000000000000000     
  0.50000000000000000       0.12500000000000000        0.0000000000000000     
  0.50000000000000000        0.0000000000000000        0.0000000000000000     
  0.53125000000000000        0.0000000000000000        0.0000000000000000     
  0.56250000000000000        0.0000000000000000        0.0000000000000000     
  0.59375000000000000        0.0000000000000000        0.0000000000000000     
  0.62500000000000000        0.0000000000000000        0.0000000000000000     
  0.50000000000000000        3.1250000000000000E-002   0.0000000000000000     
  0.53125000000000000        3.1250000000000000E-002   0.0000000000000000     
  0.56250000000000000        3.1250000000000000E-002   0.0000000000000000     
  0.59375000000000000        3.1250000000000000E-002   0.0000000000000000     
  0.62500000000000000        3.1250000000000000E-002   0.0000000000000000     
  0.50000000000000000        6.2500000000000000E-002   0.0000000000000000     
  0.53125000000000000        6.2500000000000000E-002   0.0000000000000000     
  0.56250000000000000        6.2500000000000000E-002   0.0000000000000000     
  0.59375000000000000        6.2500000000000000E-002   0.0000000000000000     
  0.62500000000000000        6.2500000000000000E-002   0.0000000000000000     
  0.50000000000000000        9.3750000000000000E-002   0.0000000000000000     
  0.53125000000000000        9.3750000000000000E-002   0.0000000000000000     
  0.56250000000000000        9.3750000000000000E-002   0.0000000000000000     
  0.59375000000000000        9.3750000000000000E-002   0.0000000000000000     
  0.62500000000000000        9.3750000000000000E-002   0.0000000000000000     
  0.50000000000000000       0.12500000000000000        0.0000000000000000     
  0.53125000000000000       0.12500000000000000        0.0000000000000000     
  0.56250000000000000       0.12500000000000000        0.0000000000000000     
  0.59375000000000000       0.12500000000000000        0.0000000000000000     
  0.62500000000000000       0.12500000000000000        0.0000000000000000     
  0.62500000000000000        0.0000000000000000        0.0000000000000000     
  0.65625000000000000        0.0000000000000000        0.0000000000000000     
  0.68750000000000000        0.0000000000000000        0.0000000000000000     
  0.71875000000000000        0.0000000000000000        0.0000000000000000     
  0.75000000000000000        0.0000000000000000        0.0000000000000000     
  0.62500000000000000        3.1250000000000000E-002   0.0000000000000000     
  0.65625000000000000        3.1250000000000000E-002   0.0000000000000000     
  0.68750000000000000        3.1250000000000000E-002   0.0000000000000000     
  0.71875000000000000        3.1250000000000000E-002   0.0000000000000000     
  0.75000000000000000        3.1250000000000000E-002   0.0000000000000000     
  0.62500000000000000        6.2500000000000000E-002   0.0000000000000000     
  0.65625000000000000        6.2500000000000000E-002   0.0000000000000000     
  0.68750000000000000        6.2500000000000000E-002   0.0000000000000000     
  0.71875000000000000        6.2500000000000000E-002   0.0000000000000000     
  0.75000000000000000        6.2500000000000000E-002   0.0000000000000000     
  0.62500000000000000        9.3750000000000000E-002   0.0000000000000000     
  0.65625000000000000        9.3750000000000000E-002   0.0000000000000000     
  0.68750000000000000        9.3750000000000000E-002   0.0000000000000000     
  0.71875000000000000        9.3750000000000000E-002   0.0000000000000000     
  0.75000000000000000        9.3750000000000000E-002   0.0000000000000000     
  0.62500000000000000       0.12500000000000000        0.0000000000000000     
  0.65625000000000000       0.12500000000000000        0.0000000000000000     
  0.68750000000000000       0.12500000000000000        0.0000000000000000     
  0.71875000000000000       0.12500000000000000        0.0000000000000000     
  0.75000000000000000       0.12500000000000000        0.0000000000000000     
  0.75000000000000000        0.0000000000000000        0.0000000000000000     
  0.78125000000000000        0.0000000000000000        0.0000000000000000     
  0.81250000000000000        0.0000000000000000        0.0000000000000000     
  0.84375000000000000        0.0000000000000000        0.0000000000000000     
  0.87500000000000000        0.0000000000000000        0.0000000000000000     
  0.75000000000000000        3.1250000000000000E-002   0.0000000000000000     
  0.78125000000000000        3.1250000000000000E-002   0.0000000000000000     
  0.81250000000000000        3.1250000000000000E-002   0.0000000000000000     
  0.84375000000000000        3.1250000000000000E-002   0.0000000000000000     
  0.87500000000000000        3.1250000000000000E-002   0.0000000000000000     
  0.75000000000000000        6.2500000000000000E-002   0.0000000000000000     
  0.78125000000000000        6.2500000000000000E-002   0.0000000000000000     
  0.81250000000000000        6.2500000000000000E-002   0.0000000000000000     
  0.84375000000000000        6.2500000000000000E-002   0.0000000000000000     
  0.87500000000000000        6.2500000000000000E-002   0.0000000000000000     
  0.75000000000000000        9.3750000000000000E-002   0.0000000000000000     
  0.78125000000000000        9.3750000000000000E-002   0.0000000000000000     
  0.81250000000000000        9.3750000000000000E-002   0.0000000000000000     
  0.84375000000000000        9.3750000000000000E-002   0.0000000000000000     
  0.87500000000000000        9.3750000000000000E-002   0.0000000000000000     
  0.75000000000000000       0.12500000000000000        0.0000000000000000     
  0.78125000000000000       0.12500000000000000        0.0000000000000000     
  0.81250000000000000       0.12500000000000000        0.0000000000000000     
  0.84375000000000000       0.12500000000000000        0.0000000000000000     
  0.87500000000000000       0.12500000000000000        0.0000000000000000     
  0.87500000000000000        0.0000000000000000        0.0000000000000000     
  0.90625000000000000        0.0000000000000000        0.0000000000000000     
  0.93750000000000000        0.0000000000000000        0.0000000000000000     
  0.96875000000000000        0.0000000000000000        0.0000000000000000     
   1.0000000000000000        0.0000000000000000        0.0000000000000000     
  0.87500000000000000        3.1250000000000000E-002   0.0000000000000000     
  0.90625000000000000        3.1250000000000000E-002   0.0000000000000000     
  0.93750000000000000        3.1250000000000000E-002   0.0000000000000000     
  0.96875000000000000        3.1250000000000000E-002   0.0000000000000000     
   1.0000000000000000        3.1250000000000000E-002   0.0000000000000000     
  0.87500000000000000        6.2500000000000000E-002   0.0000000000000000     
  0.90625000000000000        6.2500000000000000E-002   0.0000000000000000     
  0.93750000000000000        6.2500000000000000E-002   0.0000000000000000     
  0.96875000000000000        6.2500000000000000E-002   0.0000000000000000     
   1.0000000000000000        6.2500000000000000E-002   0.0000000000000000     
  0.87500000000000000        9.3750000000000000E-002   0.0000000000000000     
  0.90625000000000000        9.3750000000000000E-002   0.0000000000000000     
  0.93750000000000000        9.3750000000000000E-002   0.0000000000000000     
  0.96875000000000000        9.3750000000000000E-002   0.0000000000000000     
   1.0000000000000000        9.3750000000000000E-002   0.0000000000000000     
  0.87500000000000000       0.12500000000000000        0.0000000000000000     
  0.90625000000000000       0.12500000000000000        0.0000000000000000     
  0.93750000000000000       0.12500000000000000        0.0000000000000000     
  0.96875000000000000       0.12500000000000000        0.0000000000000000     
   1.0000000000000000       0.12500000000000000        0.0000000000000000     
   0.0000000000000000       0.12500000000000000        0.0000000000000000     
   3.1250000000000000E-002  0.12500000000000000        0.0000000000000000     
   6.2500000000000000E-002  0.12500000000000000        0.0000000000000000     
   9.3750000000000000E-002  0.12500000000000000        0.0000000000000000     
  0.12500000000000000       0.12500000000000000        0.0000000000000000     
   0.0000000000000000       0.15625000000000000        0.0000000000000000     
   3.1250000000000000E-002  0.15625000000000000        0.0000000000000000     
   6.2500000000000000E-002  0.15625000000000000        0.0000000000000000     
   9.3750000000000000E-002  0.15625000000000000        0.0000000000000000     
  0.12500000000000000       0.15625000000000000        0.0000000000000000     
   0.0000000000000000       0.18750000000000000        0.0000000000000000     
   3.1250000000000000E-002  0.18750000000000000        0.0000000000000000     
   6.2500000000000000E-002  0.18750000000000000        0.0000000000000000     
   9.3750000000000000E-002  0.18750000000000000        0.0000000000000000     
  0.12500000000000000       0.18750000000000000        0.0000000000000000     
   0.0000000000000000       0.21875000000000000        0.0000000000000000     
   3.1250000000000000E-002  0.21875000000000000        0.0000000000000000     
   6.2500000000000000E-002  0.21875000000000000        0.0000000000000000     
   9.3750000000000000E-002  0.21875000000000000        0.0000000000000000     
  0.12500000000000000       0.21875000000000000        0.0000000000000000     
   0.0000000000000000       0.25000000000000000        0.0000000000000000     
   3.1250000000000000E-002  0.25000000000000000        0.0000000000000000     
   6.2500000000000000E-002  0.25000000000000000        0.0000000000000000     
   9.3750000000000000E-002  0.25000000000000000        0.0000000000000000     
  0.12500000000000000       0.25000000000000000        0.0000000000000000     
  0.12500000000000000       0.12500000000000000        0.0000000000000000     
  0.15625000000000000       0.12500000000000000        0.0000000000000000     
  0.18750000000000000       0.12500000000000000        0.0000000000000000     
  0.21875000000000000       0.12500000000000000        0.0000000000000000     
  0.25000000000000000       0.12500000000000000        0.0000000000000000     
  0.12500000000000000       0.15625000000000000        0.0000000000000000     
  0.15625000000000000       0.15625000000000000        0.0000000000000000     
  0.18750000000000000       0.15625000000000000        0.0000000000000000     
  0.21875000000000000       0.15625000000000000        0.0000000000000000     
  0.25000000000000000       0.15625000000000000        0.0000000000000000     
  0.12500000000000000       0.18750000000000000        0.0000000000000000     
  0.15625000000000000       0.18750000000000000        0.0000000000000000     
  0.18750000000000000       0.18750000000000000        0.0000000000000000     
  0.21875000000000000       0.18750000000000000        0.0000000000000000     
  0.25000000000000000       0.18750000000000000        0.0000000000000000     
  0.12500000000000000       0.21875000000000000        0.0000000000000000     
  0.15625000000000000       0.21875000000000000        0.0000000000000000     
  0.18750000000000000       0.21875000000000000        0.0000000000000000     
  0.21875000000000000       0.21875000000000000        0.0000000000000000     
  0.25000000000000000       0.21875000000000000        0.0000000000000000     
  0.12500000000000000       0.25000000000000000        0.0000000000000000     
  0.15625000000000000       0.25000000000000000        0.0000000000000000     
  0.18750000000000000       0.25000000000000000        0.0000000000000000     
  0.21875000000000000       0.25000000000000000        0.0000000000000000     
  0.25000000000000000       0.25000000000000000        0.0000000000000000     
  0.25000000000000000       0.12500000000000000        0.0000000000000000     
  0.28125000000000000       0.12500000000000000        0.0000000000000000     
  0.31250000000000000       0.12500000000000000        0.0000000000000000     
  0.34375000000000000       0.12500000000000000        0.0000000000000000     
  0.37500000000000000       0.12500000000000000        0.0000000000000000     
  0.25000000000000000       0.15625000000000000        0.0000000000000000     
  0.28125000000000000       0.15625000000000000        0.0000000000000000     
  0.31250000000000000       0.15625000000000000        0.0000000000000000     
  0.34375000000000000       0.15625000000000000        0.0000000000000000     
  0.37500000000000000       0.15625000000000000        0.0000000000000000     
  0.25000000000000000       0.18750000000000000        0.0000000000000000     
  0.28125000000000000       0.18750000000000000        0.0000000000000000     
  0.31250000000000000       0.18750000000000000        0.0000000000000000     
  0.34375000000000000       0.18750000000000000        0.0000000000000000     
  0.37500000000000000       0.18750000000000000        0.0000000000000000     
  0.25000000000000000       0.21875000000000000        0.0000000000000000     
  0.28125000000000000       0.21875000000000000        0.0000000000000000     
  0.31250000000000000       0.21875000000000000        0.0000000000000000     
  0.34375000000000000       0.21875000000000000        0.0000000000000000     
  0.37500000000000000       0.21875000000000000        0.0000000000000000     
  0.25000000000000000       0.25000000000000000        0.0000000000000000     
  0.28125000000000000       0.25000000000000000        0.0000000000000000     
  0.31250000000000000       0.25000000000000000        0.0000000000000000     
  0.34375000000000000       0.25000000000000000        0.0000000000000000     
  0.37500000000000000       0.25000000000000000        0.0000000000000000     
  0.37500000000000000       0.12500000000000000        0.0000000000000000     
  0.40625000000000000       0.12500000000000000        0.0000000000000000     
  0.43750000000000000       0.12500000000000000        0.0000000000000000     
  0.46875000000000000       0.12500000000000000        0.0000000000000000     
  0.50000000000000000       0.12500000000000000        0.0000000000000000     
  0.37500000000000000       0.15625000000000000        0.0000000000000000     
  0.40625000000000000       0.15625000000000000        0.0000000000000000     
  0.43750000000000000       0.15625000000000000        0.0000000000000000     
  0.46875000000000000       0.15625000000000000        0.0000000000000000     
  0.50000000000000000       0.15625000000000000        0.0000000000000000     
  0.37500000000000000       0.18750000000000000        0.0000000000000000     
  0.40625000000000000       0.18750000000000000        0.0000000000000000     
  0.43750000000000000       0.18750000000000000        0.0000000000000000     
  0.46875000000000000       0.18750000000000000        0.0000000000000000     
  0.50000000000000000       0.18750000000000000        0.0000000000000000     
  0.37500000000000000       0.21875000000000000        0.0000000000000000     
  0.40625000000000000       0.21875000000000000        0.0000000000000000     
  0.43750000000000000       0.21875000000000000        0.0000000000000000     
  0.46875000000000000       0.21875000000000000        0.0000000000000000     
  0.50000000000000000       0.21875000000000000        0.0000000000000000     
  0.37500000000000000       0.25000000000000000        0.0000000000000000     
  0.40625000000000000       0.25000000000000000        0.0000000000000000     
  0.43750000000000000       0.25000000000000000        0.0000000000000000     
  0.46875000000000000       0.25000000000000000        0.0000000000000000     
  0.50000000000000000       0.25000000000000000        0.0000000000000000     
  0.50000000000000000       0.12500000000000000        0.0000000000000000     
  0.53125000000000000       0.12500000000000000        0.0000000000000000     
  0.56250000000000000       0.12500000000000000        0.0000000000000000     
  0.59375000000000000       0.12500000000000000        0.0000000000000000     
  0.62500000000000000       0.12500000000000000        0.0000000000000000     
  0.50000000000000000       0.15625000000000000        0.0000000000000000     
  0.53125000000000000       0.15625000000000000        0.0000000000000000     
  0.56250000000000000       0.15625000000000000        0.0000000000000000     
  0.59375000000000000       0.15625000000000000        0.0000000000000000     
  0.62500000000000000       0.15625000000000000        0.0000000000000000     
  0.50000000000000000       0.18750000000000000        0.0000000000000000     
  0.53125000000000000       0.18750000000000000        0.0000000000000000     
  0.56250000000000000       0.18750000000000000        0.0000000000000000     
  0.59375000000000000       0.18750000000000000        0.0000000000000000     
  0.62500000000000000       0.18750000000000000        0.0000000000000000     
  0.50000000000000000       0.21875000000000000        0.0000000000000000     
  0.53125000000000000       0.21875000000000000        0.0000000000000000     
  0.56250000000000000       0.21875000000000000        0.0000000000000000     
  0.59375000000000000       0.21875000000000000        0.0000000000000000     
  0.62500000000000000       0.21875000000000000        0.0000000000000000     
  0.50000000000000000       0.25000000000000000        0.0000000000000000     
  0.53125000000000000       0.25000000000000000        0.0000000000000000     
  0.56250000000000000       0.25000000000000000        0.0000000000000000     
  0.59375000000000000       0.25000000000000000        0.0000000000000000     
  0.62500000000000000       0.25000000000000000        0.0000000000000000     
  0.62500000000000000       0.12500000000000000        0.0000000000000000     
  0.65625000000000000       0.12500000000000000        0.0000000000000000     
  0.68750000000000000       0.12500000000000000        0.0000000000000000     
  0.71875000000000000       0.12500000000000000        0.0000000000000000     
  0.75000000000000000       0.12500000000000000        0.0000000000000000     
  0.62500000000000000       0.15625000000000000        0.0000000000000000     
  0.65625000000000000       0.15625000000000000        0.0000000000000000     
  0.68750000000000000       0.15625000000000000        0.0000000000000000     
  0.71875000000000000       0.15625000000000000        0.0000000000000000     
  0.75000000000000000       0.15625000000000000        0.0000000000000000     
  0.62500000000000000       0.18750000000000000        0.0000000000000000     
  0.65625000000000000       0.18750000000000000        0.0000000000000000     
  0.68750000000000000       0.18750000000000000        0.0000000000000000     
  0.71875000000000000       0.18750000000000000        0.0000000000000000     
  0.75000000000000000       0.18750000000000000        0.0000000000000000     
  0.62500000000000000       0.21875000000000000        0.0000000000000000     
  0.65625000000000000       0.21875000000000000        0.0000000000000000     
  0.68750000000000000       0.21875000000000000        0.0000000000000000     
  0.71875000000000000       0.21875000000000000        0.0000000000000000     
  0.75000000000000000       0.21875000000000000        0.0000000000000000     
  0.62500000000000000       0.25000000000000000        0.0000000000000000     
  0.65625000000000000       0.25000000000000000        0.0000000000000000     
  0.68750000000000000       0.25000000000000000        0.0000000000000000     
  0.71875000000000000       0.25000000000000000        0.0000000000000000     
  0.75000000000000000       0.25000000000000000        0.0000000000000000     
  0.75000000000000000       0.12500000000000000        0.0000000000000000     
  0.78125000000000000       0.12500000000000000        0.0000000000000000     
  0.81250000000000000       0.12500000000000000        0.0000000000000000     
  0.84375000000000000       0.12500000000000000        0.0000000000000000     
  0.87500000000000000       0.12500000000000000        0.0000000000000000     
  0.75000000000000000       0.15625000000000000        0.0000000000000000     
  0.78125000000000000       0.15625000000000000        0.0000000000000000     
  0.81250000000000000       0.15625000000000000        0.0000000000000000     
  0.84375000000000000       0.15625000000000000        0.0000000000000000     
  0.87500000000000000       0.15625000000000000        0.0000000000000000     
  0.75000000000000000       0.18750000000000000        0.0000000000000000     
  0.78125000000000000       0.18750000000000000        0.0000000000000000     
  0.81250000000000000       0.18750000000000000        0.0000000000000000     
  0.84375000000000000       0.18750000000000000        0.0000000000000000     
  0.87500000000000000       0.18750000000000000        0.0000000000000000     
  0.75000000000000000       0.21875000000000000        0.0000000000000000     
  0.78125000000000000       0.21875000000000000        0.0000000000000000     
  0.81250000000000000       0.21875000000000000        0.0000000000000000     
  0.84375000000000000       0.21875000000000000        0.0000000000000000     
  0.87500000000000000       0.21875000000000000        0.0000000000000000     
  0.75000000000000000       0.25000000000000000        0.0000000000000000     
  0.78125000000000000       0.25000000000000000        0.0000000000000000     
  0.81250000000000000       0.25000000000000000        0.0000000000000000     
  0.84375000000000000       0.25000000000000000        0.0000000000000000     
  0.87500000000000000       0.25000000000000000        0.0000000000000000     
  0.87500000000000000       0.12500000000000000        0.0000000000000000     
  0.90625000000000000       0.12500000000000000        0.0000000000000000     
  0.93750000000000000       0.12500000000000000        0.0000000000000000     
  0.96875000000000000       0.12500000000000000        0.0000000000000000     
   1.0000000000000000       0.12500000000000000        0.0000000000000000     
  0.87500000000000000       0.15625000000000000        0.0000000000000000     
  0.90625000000000000       0.15625000000000000        0.0000000000000000     
  0.93750000000000000       0.15625000000000000        0.0000000000000000     
  0.96875000000000000       0.15625000000000000        0.0000000000000000     
   1.0000000000000000       0.15625000000000000        0.0000000000000000     
  0.87500000000000000       0.18750000000000000        0.0000000000000000     
  0.90625000000000000       0.18750000000000000        0.0000000000000000     
  0.93750000000000000       0.18750000000000000        0.0000000000000000     
  0.96875000000000000       0.18750000000000000        0.0000000000000000     
   1.0000000000000000       0.18750000000000000        0.0000000000000000     
  0.87500000000000000       0.21875000000000000        0.0000000000000000     
  0.90625000000000000       0.21875000000000000        0.0000000000000000     
  0.93750000000000000       0.21875000000000000        0.0000000000000000     
  0.96875000000000000       0.21875000000000000        0.0000000000000000     
   1.0000000000000000       0.21875000000000000        0.0000000000000000     
  0.87500000000000000       0.25000000000000000        0.0000000000000000     
  0.90625000000000000       0.25000000000000000        0.0000000000000000     
  0.93750000000000000       0.25000000000000000        0.0000000000000000     
  0.96875000000000000       0.25000000000000000        0.0000000000000000     
   1.0000000000000000       0.25000000000000000        0.0000000000000000     
   0.0000000000000000       0.25000000000000000        0.0000000000000000     
   3.1250000000000000E-002  0.25000000000000000        0.0000000000000000     
   6.2500000000000000E-002  0.25000000000000000        0.0000000000000000     
   9.3750000000000000E-002  0.25000000000000000        0.0000000000000000     
  0.12500000000000000       0.25000000000000000        0.0000000000000000     
   0.0000000000000000       0.28125000000000000        0.0000000000000000     
   3.1250000000000000E-002  0.28125000000000000        0.0000000000000000     
   6.2500000000000000E-002  0.28125000000000000        0.0000000000000000     
   9.3750000000000000E-002  0.28125000000000000        0.0000000000000000     
  0.12500000000000000       0.28125000000000000        0.0000000000000000     
   0.0000000000000000       0.31250000000000000        0.0000000000000000     
   3.1250000000000000E-002  0.31250000000000000        0.0000000000000000     
   6.2500000000000000E-002  0.31250000000000000        0.0000000000000000     
   9.3750000000000000E-002  0.31250000000000000        0.0000000000000000     
  0.12500000000000000       0.31250000000000000        0.0000000000000000     
   0.0000000000000000       0.34375000000000000        0.0000000000000000     
   3.1250000000000000E-002  0.34375000000000000        0.0000000000000000     
   6.2500000000000000E-002  0.34375000000000000        0.0000000000000000     
   9.3750000000000000E-002  0.34375000000000000        0.0000000000000000     
  0.12500000000000000       0.34375000000000000        0.0000000000000000     
   0.0000000000000000       0.37500000000000000        0.0000000000000000     
   3.1250000000000000E-002  0.37500000000000000        0.0000000000000000     
   6.2500000000000000E-002  0.37500000000000000        0.0000000000000000     
   9.3750000000000000E-002  0.37500000000000000        0.0000000000000000     
  0.12500000000000000       0.37500000000000000        0.0000000000000000     
  0.12500000000000000       0.25000000000000000        0.0000000000000000     
  0.15625000000000000       0.25000000000000000        0.0000000000000000     
  0.18750000000000000       0.25000000000000000        0.0000000000000000     
  0.21875000000000000       0.25000000000000000        0.0000000000000000     
  0.25000000000000000       0.25000000000000000        0.0000000000000000     
  0.12500000000000000       0.28125000000000000        0.0000000000000000     
  0.15625000000000000       0.28125000000000000        0.0000000000000000     
  0.18750000000000000       0.28125000000000000        0.0000000000000000     
  0.21875000000000000       0.28125000000000000        0.0000000000000000     
  0.25000000000000000       0.28125000000000000        0.0000000000000000     
  0.12500000000000000       0.31250000000000000        0.0000000000000000     
  0.15625000000000000       0.31250000000000000        0.0000000000000000     
  0.18750000000000000       0.31250000000000000        0.0000000000000000     
  0.21875000000000000       0.31250000000000000        0.0000000000000000     
  0.25000000000000000       0.31250000000000000        0.0000000000000000     
  0.12500000000000000       0.34375000000000000        0.0000000000000000     
  0.15625000000000000       0.34375000000000000        0.0000000000000000     
  0.18750000000000000       0.34375000000000000        0.0000000000000000     
  0.21875000000000000       0.34375000000000000        0.0000000000000000     
  0.25000000000000000       0.34375000000000000        0.0000000000000000     
  0.12500000000000000       0.37500000000000000        0.0000000000000000     
  0.15625000000000000       0.37500000000000000        0.0000000000000000     
  0.18750000000000000       0.37500000000000000        0.0000000000000000     
  0.21875000000000000       0.37500000000000000        0.0000000000000000     
  0.25000000000000000       0.37500000000000000        0.0000000000000000     
  0.25000000000000000       0.25000000000000000        0.0000000000000000     
  0.28125000000000000       0.25000000000000000        0.0000000000000000     
  0.31250000000000000       0.25000000000000000        0.0000000000000000     
  0.34375000000000000       0.25000000000000000        0.0000000000000000     
  0.37500000000000000       0.25000000000000000        0.0000000000000000     
  0.25000000000000000       0.28125000000000000        0.0000000000000000     
  0.28125000000000000       0.28125000000000000        0.0000000000000000     
  0.31250000000000000       0.28125000000000000        0.0000000000000000     
  0.34375000000000000       0.28125000000000000        0.0000000000000000     
  0.37500000000000000       0.28125000000000000        0.0000000000000000     
  0.25000000000000000       0.31250000000000000        0.0000000000000000     
  0.28125000000000000       0.31250000000000000        0.0000000000000000     
  0.31250000000000000       0.31250000000000000        0.0000000000000000     
  0.34375000000000000       0.31250000000000000        0.0000000000000000     
  0.37500000000000000       0.31250000000000000        0.0000000000000000     
  0.25000000000000000       0.34375000000000000        0.0000000000000000     
  0.28125000000000000       0.34375000000000000        0.0000000000000000     
  0.31250000000000000       0.34375000000000000        0.0000000000000000     
  0.34375000000000000       0.34375000000000000        0.0000000000000000     
  0.37500000000000000       0.34375000000000000        0.0000000000000000     
  0.25000000000000000       0.37500000000000000        0.0000000000000000     
  0.28125000000000000       0.37500000000000000        0.0000000000000000     
  0.31250000000000000       0.37500000000000000        0.0000000000000000     
  0.34375000000000000       0.37500000000000000        0.0000000000000000     
  0.37500000000000000       0.37500000000000000        0.0000000000000000     
  0.37500000000000000       0.25000000000000000        0.0000000000000000     
  0.40625000000000000       0.25000000000000000        0.0000000000000000     
  0.43750000000000000       0.25000000000000000        0.0000000000000000     
  0.46875000000000000       0.25000000000000000        0.0000000000000000     
  0.50000000000000000       0.25000000000000000        0.0000000000000000     
  0.37500000000000000       0.28125000000000000        0.0000000000000000     
  0.40625000000000000       0.28125000000000000        0.0000000000000000     
  0.43750000000000000       0.28125000000000000        0.0000000000000000     
  0.46875000000000000       0.28125000000000000        0.0000000000000000     
  0.50000000000000000       0.28125000000000000        0.0000000000000000     
  0.37500000000000000       0.31250000000000000        0.0000000000000000     
  0.40625000000000000       0.31250000000000000        0.0000000000000000     
  0.43750000000000000       0.31250000000000000        0.0000000000000000     
  0.46875000000000000       0.31250000000000000        0.0000000000000000     
  0.50000000000000000       0.31250000000000000        0.0000000000000000     
  0.37500000000000000       0.34375000000000000        0.0000000000000000     
  0.40625000000000000       0.34375000000000000        0.0000000000000000     
  0.43750000000000000       0.34375000000000000        0.0000000000000000     
  0.46875000000000000       0.34375000000000000        0.0000000000000000     
  0.50000000000000000       0.34375000000000000        0.0000000000000000     
  0.37500000000000000       0.37500000000000000        0.0000000000000000     
  0.40625000000000000       0.37500000000000000        0.0000000000000000     
  0.43750000000000000       0.37500000000000000        0.0000000000000000     
  0.46875000000000000       0.37500000000000000        0.0000000000000000     
  0.50000000000000000       0.37500000000000000        0.0000000000000000     
  0.50000000000000000       0.25000000000000000        0.0000000000000000     
  0.53125000000000000       0.25000000000000000        0.0000000000000000     
  0.56250000000000000       0.25000000000000000        0.0000000000000000     
  0.59375000000000000       0.25000000000000000        0.0000000000000000     
  0.62500000000000000       0.25000000000000000        0.0000000000000000     
  0.50000000000000000       0.28125000000000000        0.0000000000000000     
  0.53125000000000000       0.28125000000000000        0.0000000000000000     
  0.56250000000000000       0.28125000000000000        0.0000000000000000     
  0.59375000000000000       0.28125000000000000        0.0000000000000000     
  0.62500000000000000       0.28125000000000000        0.0000000000000000     
  0.50000000000000000       0.31250000000000000        0.0000000000000000     
  0.53125000000000000       0.31250000000000000        0.0000000000000000     
  0.56250000000000000       0.31250000000000000        0.0000000000000000     
  0.59375000000000000       0.31250000000000000        0.0000000000000000     
  0.62500000000000000       0.31250000000000000        0.0000000000000000     
  0.50000000000000000       0.34375000000000000        0.0000000000000000     
  0.53125000000000000       0.34375000000000000        0.0000000000000000     
  0.56250000000000000       0.34375000000000000        0.0000000000000000     
  0.59375000000000000       0.34375000000000000        0.0000000000000000     
  0.62500000000000000       0.34375000000000000        0.0000000000000000     
  0.50000000000000000       0.37500000000000000        0.0000000000000000     
  0.53125000000000000       0.37500000000000000        0.0000000000000000     
  0.56250000000000000       0.37500000000000000        0.0000000000000000     
  0.59375000000000000       0.37500000000000000        0.0000000000000000     
  0.62500000000000000       0.37500000000000000        0.0000000000000000     
  0.62500000000000000       0.25000000000000000        0.0000000000000000     
  0.65625000000000000       0.25000000000000000        0.0000000000000000     
  0.68750000000000000       0.25000000000000000        0.0000000000000000     
  0.71875000000000000       0.25000000000000000        0.0000000000000000     
  0.75000000000000000       0.25000000000000000        0.0000000000000000     
  0.62500000000000000       0.28125000000000000        0.0000000000000000     
  0.65625000000000000       0.28125000000000000        0.0000000000000000     
  0.68750000000000000       0.28125000000000000        0.0000000000000000     
  0.71875000000000000       0.28125000000000000        0.0000000000000000     
  0.75000000000000000       0.28125000000000000        0.0000000000000000     
  0.62500000000000000       0.31250000000000000        0.0000000000000000     
  0.65625000000000000       0.31250000000000000        0.0000000000000000     
  0.68750000000000000       0.31250000000000000        0.0000000000000000     
  0.71875000000000000       0.31250000000000000        0.0000000000000000     
  0.75000000000000000       0.31250000000000000        0.0000000000000000     
  0.62500000000000000       0.34375000000000000        0.0000000000000000     
  0.65625000000000000       0.34375000000000000        0.0000000000000000     
  0.68750000000000000       0.34375000000000000        0.0000000000000000     
  0.71875000000000000       0.34375000000000000        0.0000000000000000     
  0.75000000000000000       0.34375000000000000        0.0000000000000000     
  0.62500000000000000       0.37500000000000000        0.0000000000000000     
  0.65625000000000000       0.37500000000000000        0.0000000000000000     
  0.68750000000000000       0.37500000000000000        0.0000000000000000     
  0.71875000000000000       0.37500000000000000        0.0000000000000000     
  0.75000000000000000       0.37500000000000000        0.0000000000000000     
  0.75000000000000000       0.25000000000000000        0.0000000000000000     
  0.78125000000000000       0.25000000000000000        0.0000000000000000     
  0.81250000000000000       0.25000000000000000        0.0000000000000000     
  0.84375000000000000       0.25000000000000000        0.0000000000000000     
  0.87500000000000000       0.25000000000000000        0.0000000000000000     
  0.75000000000000000       0.28125000000000000        0.0000000000000000     
  0.78125000000000000       0.28125000000000000        0.0000000000000000     
  0.81250000000000000       0.28125000000000000        0.0000000000000000     
  0.84375000000000000       0.28125000000000000        0.0000000000000000     
  0.87500000000000000       0.28125000000000000        0.0000000000000000     
  0.75000000000000000       0.31250000000000000        0.0000000000000000     
  0.78125000000000000       0.31250000000000000        0.0000000000000000     
  0.81250000000000000       0.31250000000000000        0.0000000000000000     
  0.84375000000000000       0.31250000000000000        0.0000000000000000     
  0.87500000000000000       0.31250000000000000        0.0000000000000000     
  0.75000000000000000       0.34375000000000000        0.0000000000000000     
  0.78125000000000000       0.34375000000000000        0.0000000000000000     
  0.81250000000000000       0.34375000000000000        0.0000000000000000     
  0.84375000000000000       0.34375000000000000        0.0000000000000000     
  0.87500000000000000       0.34375000000000000        0.0000000000000000     
  0.75000000000000000       0.37500000000000000        0.0000000000000000     
  0.78125000000000000       0.37500000000000000        0.0000000000000000     
  0.81250000000000000       0.37500000000000000        0.0000000000000000     
  0.84375000000000000       0.37500000000000000        0.0000000000000000     
  0.87500000000000000       0.37500000000000000        0.0000000000000000     
  0.87500000000000000       0.25000000000000000        0.0000000000000000     
  0.90625000000000000       0.25000000000000000        0.0000000000000000     
  0.93750000000000000       0.25000000000000000        0.0000000000000000     
  0.96875000000000000       0.25000000000000000        0.0000000000000000     
   1.0000000000000000       0.25000000000000000        0.0000000000000000     
  0.87500000000000000       0.28125000000000000        0.0000000000000000     
  0.90625000000000000       0.28125000000000000        0.0000000000000000     
  0.93750000000000000       0.28125000000000000        0.0000000000000000     
  0.96875000000000000       0.28125000000000000        0.0000000000000000     
   1.0000000000000000       0.28125000000000000        0.0000000000000000     
  0.87500000000000000       0.31250000000000000        0.0000000000000000     
  0.90625000000000000       0.31250000000000000        0.0000000000000000     
  0.93750000000000000       0.31250000000000000        0.0000000000000000     
  0.96875000000000000       0.31250000000000000        0.0000000000000000     
   1.0000000000000000       0.31250000000000000        0.0000000000000000     
  0.87500000000000000       0.34375000000000000        0.0000000000000000     
  0.90625000000000000       0.34375000000000000        0.0000000000000000     
  0.93750000000000000       0.34375000000000000        0.0000000000000000     
  0.96875000000000000       0.34375000000000000        0.0000000000000000     
   1.0000000000000000       0.34375000000000000        0.0000000000000000     
  0.87500000000000000       0.37500000000000000        0.0000000000000000     
  0.90625000000000000       0.37500000000000000        0.0000000000000000     
  0.93750000000000000       0.37500000000000000        0.0000000000000000     
  0.96875000000000000       0.37500000000000000        0.0000000000000000     
   1.0000000000000000       0.37500000000000000        0.0000000000000000     
   0.0000000000000000       0.37500000000000000        0.0000000000000000     
   3.1250000000000000E-002  0.37500000000000000        0.0000000000000000     
   6.2500000000000000E-002  0.37500000000000000        0.0000000000000000     
   9.3750000000000000E-002  0.37500000000000000        0.0000000000000000     
  0.12500000000000000       0.37500000000000000        0.0000000000000000     
   0.0000000000000000       0.40625000000000000        0.0000000000000000     
   3.1250000000000000E-002  0.40625000000000000        0.0000000000000000     
   6.2500000000000000E-002  0.40625000000000000        0.0000000000000000     
   9.3750000000000000E-002  0.40625000000000000        0.0000000000000000     
  0.12500000000000000       0.40625000000000000        0.0000000000000000     
   0.0000000000000000       0.43750000000000000        0.0000000000000000     
   3.1250000000000000E-002  0.43750000000000000        0.0000000000000000     
   6.2500000000000000E-002  0.43750000000000000        0.0000000000000000     
   9.3750000000000000E-002  0.43750000000000000        0.0000000000000000     
  0.12500000000000000       0.43750000000000000        0.0000000000000000     
   0.0000000000000000       0.46875000000000000        0.0000000000000000     
   3.1250000000000000E-002  0.46875000000000000        0.0000000000000000     
   6.2500000000000000E-002  0.46875000000000000        0.0000000000000000     
   9.3750000000000000E-002  0.46875000000000000        0.0000000000000000     
  0.12500000000000000       0.46875000000000000        0.0000000000000000     
   0.0000000000000000       0.50000000000000000        0.0000000000000000     
   3.1250000000000000E-002  0.50000000000000000        0.0000000000000000     
   6.2500000000000000E-002  0.50000000000000000        0.0000000000000000     
   9.3750000000000000E-002  0.50000000000000000        0.0000000000000000     
  0.12500000000000000       0.50000000000000000        0.0000000000000000     
  0.12500000000000000       0.37500000000000000        0.0000000000000000     
  0.15625000000000000       0.37500000000000000        0.0000000000000000     
  0.18750000000000000       0.37500000000000000        0.0000000000000000     
  0.21875000000000000       0.37500000000000000        0.0000000000000000     
  0.25000000000000000       0.37500000000000000        0.0000000000000000     
  0.12500000000000000       0.40625000000000000        0.0000000000000000     
  0.15625000000000000       0.40625000000000000        0.0000000000000000     
  0.18750000000000000       0.40625000000000000        0.0000000000000000     
  0.21875000000000000       0.40625000000000000        0.0000000000000000     
  0.25000000000000000       0.40625000000000000        0.0000000000000000     
  0.12500000000000000       0.43750000000000000        0.0000000000000000     
  0.15625000000000000       0.43750000000000000        0.0000000000000000     
  0.18750000000000000       0.43750000000000000        0.0000000000000000     
  0.21875000000000000       0.43750000000000000        0.0000000000000000     
  0.25000000000000000       0.43750000000000000        0.0000000000000000     
  0.12500000000000000       0.46875000000000000        0.0000000000000000     
  0.15625000000000000       0.46875000000000000        0.0000000000000000     
  0.18750000000000000       0.46875000000000000        0.0000000000000000     
  0.21875000000000000       0.46875000000000000        0.0000000000000000     
  0.25000000000000000       0.46875000000000000        0.0000000000000000     
  0.12500000000000000       0.50000000000000000        0.0000000000000000     
  0.15625000000000000       0.50000000000000000        0.0000000000000000     
  0.18750000000000000       0.50000000000000000        0.0000000000000000     
  0.21875000000000000       0.50000000000000000        0.0000000000000000     
  0.25000000000000000       0.50000000000000000        0.0000000000000000     
  0.25000000000000000       0.37500000000000000        0.0000000000000000     
  0.28125000000000000       0.37500000000000000        0.0000000000000000     
  0.31250000000000000       0.37500000000000000        0.0000000000000000     
  0.34375000000000000       0.37500000000000000        0.0000000000000000     
  0.37500000000000000       0.37500000000000000        0.0000000000000000     
  0.25000000000000000       0.40625000000000000        0.0000000000000000     
  0.28125000000000000       0.40625000000000000        0.0000000000000000     
  0.31250000000000000       0.40625000000000000        0.0000000000000000     
  0.34375000000000000       0.40625000000000000        0.0000000000000000     
  0.37500000000000000       0.40625000000000000        0.0000000000000000     
  0.25000000000000000       0.43750000000000000        0.0000000000000000     
  0.28125000000000000       0.43750000000000000        0.0000000000000000     
  0.31250000000000000       0.43750000000000000        0.0000000000000000     
  0.34375000000000000       0.43750000000000000        0.0000000000000000     
  0.37500000000000000       0.43750000000000000        0.0000000000000000     
  0.25000000000000000       0.46875000000000000        0.0000000000000000     
  0.28125000000000000       0.46875000000000000        0.0000000000000000     
  0.31250000000000000       0.46875000000000000        0.0000000000000000     
  0.34375000000000000       0.46875000000000000        0.0000000000000000     
  0.37500000000000000       0.46875000000000000        0.0000000000000000     
  0.25000000000000000       0.50000000000000000        0.0000000000000000     
  0.28125000000000000       0.50000000000000000        0.0000000000000000     
  0.31250000000000000       0.50000000000000000        0.0000000000000000     
  0.34375000000000000       0.50000000000000000        0.0000000000000000     
  0.37500000000000000       0.50000000000000000        0.0000000000000000     
  0.37500000000000000       0.37500000000000000        0.0000000000000000     
  0.40625000000000000       0.37500000000000000        0.0000000000000000     
  0.43750000000000000       0.37500000000000000        0.0000000000000000     
  0.46875000000000000       0.37500000000000000        0.0000000000000000     
  0.50000000000000000       0.37500000000000000        0.0000000000000000     
  0.37500000000000000       0.40625000000000000        0.0000000000000000     
  0.40625000000000000       0.40625000000000000        0.0000000000000000     
  0.43750000000000000       0.40625000000000000        0.0000000000000000     
  0.46875000000000000       0.40625000000000000        0.0000000000000000     
  0.50000000000000000       0.40625000000000000        0.0000000000000000     
  0.37500000000000000       0.43750000000000000        0.0000000000000000     
  0.40625000000000000       0.43750000000000000        0.0000000000000000     
  0.43750000000000000       0.43750000000000000        0.0000000000000000     
  0.46875000000000000       0.43750000000000000        0.0000000000000000     
  0.50000000000000000       0.43750000000000000        0.0000000000000000     
  0.37500000000000000       0.46875000000000000        0.0000000000000000     
  0.40625000000000000       0.46875000000000000        0.0000000000000000     
  0.43750000000000000       0.46875000000000000        0.0000000000000000     
  0.46875000000000000       0.46875000000000000        0.0000000000000000     
  0.50000000000000000       0.46875000000000000        0.0000000000000000     
  0.37500000000000000       0.50000000000000000        0.0000000000000000     
  0.40625000000000000       0.50000000000000000        0.0000000000000000     
  0.43750000000000000       0.50000000000000000        0.0000000000000000     
  0.46875000000000000       0.50000000000000000        0.0000000000000000     
  0.50000000000000000       0.50000000000000000        0.0000000000000000     
  0.50000000000000000       0.37500000000000000        0.0000000000000000     
  0.53125000000000000       0.37500000000000000        0.0000000000000000     
  0.56250000000000000       0.37500000000000000        0.0000000000000000     
  0.59375000000000000       0.37500000000000000        0.0000000000000000     
  0.62500000000000000       0.37500000000000000        0.0000000000000000     
  0.50000000000000000       0.40625000000000000        0.0000000000000000     
  0.53125000000000000       0.40625000000000000        0.0000000000000000     
  0.56250000000000000       0.40625000000000000        0.0000000000000000     
  0.59375000000000000       0.40625000000000000        0.0000000000000000     
  0.62500000000000000       0.40625000000000000        0.0000000000000000     
  0.50000000000000000       0.43750000000000000        0.0000000000000000     
  0.53125000000000000       0.43750000000000000        0.0000000000000000     
  0.56250000000000000       0.43750000000000000        0.0000000000000000     
  0.59375000000000000       0.43750000000000000        0.0000000000000000     
  0.62500000000000000       0.43750000000000000        0.0000000000000000     
  0.50000000000000000       0.46875000000000000        0.0000000000000000     
  0.53125000000000000       0.46875000000000000        0.0000000000000000     
  0.56250000000000000       0.46875000000000000        0.0000000000000000     
  0.59375000000000000       0.46875000000000000        0.0000000000000000     
  0.62500000000000000       0.46875000000000000        0.0000000000000000     
  0.50000000000000000       0.50000000000000000        0.0000000000000000     
  0.53125000000000000       0.50000000000000000        0.0000000000000000     
  0.56250000000000000       0.50000000000000000        0.0000000000000000     
  0.59375000000000000       0.50000000000000000        0.0000000000000000     
  0.62500000000000000       0.50000000000000000        0.0000000000000000     
  0.62500000000000000       0.37500000000000000        0.0000000000000000     
  0.65625000000000000       0.37500000000000000        0.0000000000000000     
  0.68750000000000000       0.37500000000000000        0.0000000000000000     
  0.71875000000000000       0.37500000000000000        0.0000000000000000     
  0.75000000000000000       0.37500000000000000        0.0000000000000000     
  0.62500000000000000       0.40625000000000000        0.0000000000000000     
  0.65625000000000000       0.40625000000000000        0.0000000000000000     
  0.68750000000000000       0.40625000000000000        0.0000000000000000     
  0.71875000000000000       0.40625000000000000        0.0000000000000000     
  0.75000000000000000       0.40625000000000000        0.0000000000000000     
  0.62500000000000000       0.43750000000000000        0.0000000000000000     
  0.65625000000000000       0.43750000000000000        0.0000000000000000     
  0.68750000000000000       0.43750000000000000        0.0000000000000000     
  0.71875000000000000       0.43750000000000000        0.0000000000000000     
  0.75000000000000000       0.43750000000000000        0.0000000000000000     
  0.62500000000000000       0.46875000000000000        0.0000000000000000     
  0.65625000000000000       0.46875000000000000        0.0000000000000000     
  0.68750000000000000       0.46875000000000000        0.0000000000000000     
  0.71875000000000000       0.46875000000000000        0.0000000000000000     
  0.75000000000000000       0.46875000000000000        0.0000000000000000     
  0.62500000000000000       0.50000000000000000        0.0000000000000000     
  0.65625000000000000       0.50000000000000000        0.0000000000000000     
  0.68750000000000000       0.50000000000000000        0.0000000000000000     
  0.71875000000000000       0.50000000000000000        0.0000000000000000     
  0.75000000000000000       0.50000000000000000        0.0000000000000000     
  0.75000000000000000       0.37500000000000000        0.0000000000000000     
  0.78125000000000000       0.37500000000000000        0.0000000000000000     
  0.81250000000000000       0.37500000000000000        0.0000000000000000     
  0.84375000000000000       0.37500000000000000        0.0000000000000000     
  0.87500000000000000       0.37500000000000000        0.0000000000000000     
  0.75000000000000000       0.40625000000000000        0.0000000000000000     
  0.78125000000000000       0.40625000000000000        0.0000000000000000     
  0.81250000000000000       0.40625000000000000        0.0000000000000000     
  0.84375000000000000       0.40625000000000000        0.0000000000000000     
  0.87500000000000000       0.40625000000000000        0.0000000000000000     
  0.75000000000000000       0.43750000000000000        0.0000000000000000     
  0.78125000000000000       0.43750000000000000        0.0000000000000000     
  0.81250000000000000       0.43750000000000000        0.0000000000000000     
  0.84375000000000000       0.43750000000000000        0.0000000000000000     
  0.87500000000000000       0.43750000000000000        0.0000000000000000     
  0.75000000000000000       0.46875000000000000        0.0000000000000000     
  0.78125000000000000       0.46875000000000000        0.0000000000000000     
  0.81250000000000000       0.46875000000000000        0.0000000000000000     
  0.84375000000000000       0.46875000000000000        0.0000000000000000     
  0.87500000000000000       0.46875000000000000        0.0000000000000000     
  0.75000000000000000       0.50000000000000000        0.0000000000000000     
  0.78125000000000000       0.50000000000000000        0.0000000000000000     
  0.81250000000000000       0.50000000000000000        0.0000000000000000     
  0.84375000000000000       0.50000000000000000        0.0000000000000000     
  0.87500000000000000       0.50000000000000000        0.0000000000000000     
  0.87500000000000000       0.37500000000000000        0.0000000000000000     
  0.90625000000000000       0.37500000000000000        0.0000000000000000     
  0.93750000000000000       0.37500000000000000        0.0000000000000000     
  0.96875000000000000       0.37500000000000000        0.0000000000000000     
   1.0000000000000000       0.37500000000000000        0.0000000000000000     
  0.87500000000000000       0.40625000000000000        0.0000000000000000     
  0.90625000000000000       0.40625000000000000        0.0000000000000000     
  0.93750000000000000       0.40625000000000000        0.0000000000000000     
  0.96875000000000000       0.40625000000000000        0.0000000000000000     
   1.0000000000000000       0.40625000000000000        0.0000000000000000     
  0.87500000000000000       0.43750000000000000        0.0000000000000000     
  0.90625000000000000       0.43750000000000000        0.0000000000000000     
  0.93750000000000000       0.43750000000000000        0.0000000000000000     
  0.96875000000000000       0.43750000000000000        0.0000000000000000     
   1.0000000000000000       0.43750000000000000        0.0000000000000000     
  0.87500000000000000       0.46875000000000000        0.0000000000000000     
  0.90625000000000000       0.46875000000000000        0.0000000000000000     
  0.93750000000000000       0.46875000000000000        0.0000000000000000     
  0.96875000000000000       0.46875000000000000        0.0000000000000000     
   1.0000000000000000       0.46875000000000000        0.0000000000000000     
  0.87500000000000000       0.50000000000000000        0.0000000000000000     
  0.90625000000000000       0.50000000000000000        0.0000000000000000     
  0.93750000000000000       0.50000000000000000        0.0000000000000000     
  0.96875000000000000       0.50000000000000000        0.0000000000000000     
   1.0000000000000000       0.50000000000000000        0.0000000000000000     
   0.0000000000000000       0.50000000000000000        0.0000000000000000     
   3.1250000000000000E-002  0.50000000000000000        0.0000000000000000     
   6.2500000000000000E-002  0.50000000000000000        0.0000000000000000     
   9.3750000000000000E-002  0.50000000000000000        0.0000000000000000     
  0.12500000000000000       0.50000000000000000        0.0000000000000000     
   0.0000000000000000       0.53125000000000000        0.0000000000000000     
   3.1250000000000000E-002  0.53125000000000000        0.0000000000000000     
   6.2500000000000000E-002  0.53125000000000000        0.0000000000000000     
   9.3750000000000000E-002  0.53125000000000000        0.0000000000000000     
  0.12500000000000000       0.53125000000000000        0.0000000000000000     
   0.0000000000000000       0.56250000000000000        0.0000000000000000     
   3.1250000000000000E-002  0.56250000000000000        0.0000000000000000     
   6.2500000000000000E-002  0.56250000000000000        0.0000000000000000     
   9.3750000000000000E-002  0.56250000000000000        0.0000000000000000     
  0.12500000000000000       0.56250000000000000        0.0000000000000000     
   0.0000000000000000       0.59375000000000000        0.0000000000000000     
   3.1250000000000000E-002  0.59375000000000000        0.0000000000000000     
   6.2500000000000000E-002  0.59375000000000000        0.0000000000000000     
   9.3750000000000000E-002  0.59375000000000000        0.0000000000000000     
  0.12500000000000000       0.59375000000000000        0.0000000000000000     
   0.0000000000000000       0.62500000000000000        0.0000000000000000     
   3.1250000000000000E-002  0.62500000000000000        0.0000000000000000     
   6.2500000000000000E-002  0.62500000000000000        0.0000000000000000     
   9.3750000000000000E-002  0.62500000000000000        0.0000000000000000     
  0.12500000000000000       0.62500000000000000        0.0000000000000000     
  0.12500000000000000       0.50000000000000000        0.0000000000000000     
  0.15625000000000000       0.50000000000000000        0.0000000000000000     
  0.18750000000000000       0.50000000000000000        0.0000000000000000     
  0.21875000000000000       0.50000000000000000        0.0000000000000000     
  0.25000000000000000       0.50000000000000000        0.0000000000000000     
  0.12500000000000000       0.53125000000000000        0.0000000000000000     
  0.15625000000000000       0.53125000000000000        0.0000000000000000     
  0.18750000000000000       0.53125000000000000        0.0000000000000000     
  0.21875000000000000       0.53125000000000000        0.0000000000000000     
  0.25000000000000000       0.53125000000000000        0.0000000000000000     
  0.12500000000000000       0.56250000000000000        0.0000000000000000     
  0.15625000000000000       0.56250000000000000        0.0000000000000000     
  0.18750000000000000       0.56250000000000000        0.0000000000000000     
  0.21875000000000000       0.56250000000000000        0.0000000000000000     
  0.25000000000000000       0.56250000000000000        0.0000000000000000     
  0.12500000000000000       0.59375000000000000        0.0000000000000000     
  0.15625000000000000       0.59375000000000000        0.0000000000000000     
  0.18750000000000000       0.59375000000000000        0.0000000000000000     
  0.21875000000000000       0.59375000000000000        0.0000000000000000     
  0.25000000000000000       0.59375000000000000        0.0000000000000000     
  0.12500000000000000       0.62500000000000000        0.0000000000000000     
  0.15625000000000000       0.62500000000000000        0.0000000000000000     
  0.18750000000000000       0.62500000000000000        0.0000000000000000     
  0.21875000000000000       0.62500000000000000        0.0000000000000000     
  0.25000000000000000       0.62500000000000000        0.0000000000000000     
  0.25000000000000000       0.50000000000000000        0.0000000000000000     
  0.28125000000000000       0.50000000000000000        0.0000000000000000     
  0.31250000000000000       0.50000000000000000        0.0000000000000000     
  0.34375000000000000       0.50000000000000000        0.0000000000000000     
  0.37500000000000000       0.50000000000000000        0.0000000000000000     
  0.25000000000000000       0.53125000000000000        0.0000000000000000     
  0.28125000000000000       0.53125000000000000        0.0000000000000000     
  0.31250000000000000       0.53125000000000000        0.0000000000000000     
  0.34375000000000000       0.53125000000000000        0.0000000000000000     
  0.37500000000000000       0.53125000000000000        0.0000000000000000     
  0.25000000000000000       0.56250000000000000        0.0000000000000000     
  0.28125000000000000       0.56250000000000000        0.0000000000000000     
  0.31250000000000000       0.56250000000000000        0.0000000000000000     
  0.34375000000000000       0.56250000000000000        0.0000000000000000     
  0.37500000000000000       0.56250000000000000        0.0000000000000000     
  0.25000000000000000       0.59375000000000000        0.0000000000000000     
  0.28125000000000000       0.59375000000000000        0.0000000000000000     
  0.31250000000000000       0.59375000000000000        0.0000000000000000     
  0.34375000000000000       0.59375000000000000        0.0000000000000000     
  0.37500000000000000       0.59375000000000000        0.0000000000000000     
  0.25000000000000000       0.62500000000000000        0.0000000000000000     
  0.28125000000000000       0.62500000000000000        0.0000000000000000     
  0.31250000000000000       0.62500000000000000        0.0000000000000000     
  0.34375000000000000       0.62500000000000000        0.0000000000000000     
  0.37500000000000000       0.62500000000000000        0.0000000000000000     
  0.37500000000000000       0.50000000000000000        0.0000000000000000     
  0.40625000000000000       0.50000000000000000        0.0000000000000000     
  0.43750000000000000       0.50000000000000000        0.0000000000000000     
  0.46875000000000000       0.50000000000000000        0.0000000000000000     
  0.50000000000000000       0.50000000000000000        0.0000000000000000     
  0.37500000000000000       0.53125000000000000        0.0000000000000000     
  0.40625000000000000       0.53125000000000000        0.0000000000000000     
  0.43750000000000000       0.53125000000000000        0.0000000000000000     
  0.46875000000000000       0.53125000000000000        0.0000000000000000     
  0.50000000000000000       0.53125000000000000        0.0000000000000000     
  0.37500000000000000       0.56250000000000000        0.0000000000000000     
  0.40625000000000000       0.56250000000000000        0.0000000000000000     
  0.43750000000000000       0.56250000000000000        0.0000000000000000     
  0.46875000000000000       0.56250000000000000        0.0000000000000000     
  0.50000000000000000       0.56250000000000000        0.0000000000000000     
  0.37500000000000000       0.59375000000000000        0.0000000000000000     
  0.40625000000000000       0.59375000000000000        0.0000000000000000     
  0.43750000000000000       0.59375000000000000        0.0000000000000000     
  0.46875000000000000       0.59375000000000000        0.0000000000000000     
  0.50000000000000000       0.59375000000000000        0.0000000000000000     
  0.37500000000000000       0.62500000000000000        0.0000000000000000     
  0.40625000000000000       0.62500000000000000        0.0000000000000000     
  0.43750000000000000       0.62500000000000000        0.0000000000000000     
  0.46875000000000000       0.62500000000000000        0.0000000000000000     
  0.50000000000000000       0.62500000000000000        0.0000000000000000     
  0.50000000000000000       0.50000000000000000        0.0000000000000000     
  0.53125000000000000       0.50000000000000000        0.0000000000000000     
  0.56250000000000000       0.50000000000000000        0.0000000000000000     
  0.59375000000000000       0.50000000000000000        0.0000000000000000     
  0.62500000000000000       0.50000000000000000        0.0000000000000000     
  0.50000000000000000       0.53125000000000000        0.0000000000000000     
  0.53125000000000000       0.53125000000000000        0.0000000000000000     
  0.56250000000000000       0.53125000000000000        0.0000000000000000     
  0.59375000000000000       0.53125000000000000        0.0000000000000000     
  0.62500000000000000       0.53125000000000000        0.0000000000000000     
  0.50000000000000000       0.56250000000000000        0.0000000000000000     
  0.53125000000000000       0.56250000000000000        0.0000000000000000     
  0.56250000000000000       0.56250000000000000        0.0000000000000000     
  0.59375000000000000       0.56250000000000000        0.0000000000000000     
  0.62500000000000000       0.56250000000000000        0.0000000000000000     
  0.50000000000000000       0.59375000000000000        0.0000000000000000     
  0.53125000000000000       0.59375000000000000        0.0000000000000000     
  0.56250000000000000       0.59375000000000000        0.0000000000000000     
  0.59375000000000000       0.59375000000000000        0.0000000000000000     
  0.62500000000000000       0.59375000000000000        0.0000000000000000     
  0.50000000000000000       0.62500000000000000        0.0000000000000000     
  0.53125000000000000       0.62500000000000000        0.0000000000000000     
  0.56250000000000000       0.62500000000000000        0.0000000000000000     
  0.59375000000000000       0.62500000000000000        0.0000000000000000     
  0.62500000000000000       0.62500000000000000        0.0000000000000000     
  0.62500000000000000       0.50000000000000000        0.0000000000000000     
  0.65625000000000000       0.50000000000000000        0.0000000000000000     
  0.68750000000000000       0.50000000000000000        0.0000000000000000     
  0.71875000000000000       0.50000000000000000        0.0000000000000000     
  0.75000000000000000       0.50000000000000000        0.0000000000000000     
  0.62500000000000000       0.53125000000000000        0.0000000000000000     
  0.65625000000000000       0.53125000000000000        0.0000000000000000     
  0.68750000000000000       0.53125000000000000        0.0000000000000000     
  0.71875000000000000       0.53125000000000000        0.0000000000000000     
  0.75000000000000000       0.53125000000000000        0.0000000000000000     
  0.62500000000000000       0.56250000000000000        0.0000000000000000     
  0.65625000000000000       0.56250000000000000        0.0000000000000000     
  0.68750000000000000       0.56250000000000000        0.0000000000000000     
  0.71875000000000000       0.56250000000000000        0.0000000000000000     
  0.75000000000000000       0.56250000000000000        0.0000000000000000     
  0.62500000000000000       0.59375000000000000        0.0000000000000000     
  0.65625000000000000       0.59375000000000000        0.0000000000000000     
  0.68750000000000000       0.59375000000000000        0.0000000000000000     
  0.71875000000000000       0.59375000000000000        0.0000000000000000     
  0.75000000000000000       0.59375000000000000        0.0000000000000000     
  0.62500000000000000       0.62500000000000000        0.0000000000000000     
  0.65625000000000000       0.62500000000000000        0.0000000000000000     
  0.68750000000000000       0.62500000000000000        0.0000000000000000     
  0.71875000000000000       0.62500000000000000        0.0000000000000000     
  0.75000000000000000       0.62500000000000000        0.0000000000000000     
  0.75000000000000000       0.50000000000000000        0.0000000000000000     
  0.78125000000000000       0.50000000000000000        0.0000000000000000     
  0.81250000000000000       0.50000000000000000        0.0000000000000000     
  0.84375000000000000       0.50000000000000000        0.0000000000000000     
  0.87500000000000000       0.50000000000000000        0.0000000000000000     
  0.75000000000000000       0.53125000000000000        0.0000000000000000     
  0.78125000000000000       0.53125000000000000        0.0000000000000000     
  0.81250000000000000       0.53125000000000000        0.0000000000000000     
  0.84375000000000000       0.53125000000000000        0.0000000000000000     
  0.87500000000000000       0.53125000000000000        0.0000000000000000     
  0.75000000000000000       0.56250000000000000        0.0000000000000000     
  0.78125000000000000       0.56250000000000000        0.0000000000000000     
  0.81250000000000000       0.56250000000000000        0.0000000000000000     
  0.84375000000000000       0.56250000000000000        0.0000000000000000     
  0.87500000000000000       0.56250000000000000        0.0000000000000000     
  0.75000000000000000       0.59375000000000000        0.0000000000000000     
  0.78125000000000000       0.59375000000000000        0.0000000000000000     
  0.81250000000000000       0.59375000000000000        0.0000000000000000     
  0.84375000000000000       0.59375000000000000        0.0000000000000000     
  0.87500000000000000       0.59375000000000000        0.0000000000000000     
  0.75000000000000000       0.62500000000000000        0.0000000000000000     
  0.78125000000000000       0.62500000000000000        0.0000000000000000     
  0.81250000000000000       0.62500000000000000        0.0000000000000000     
  0.84375000000000000       0.62500000000000000        0.0000000000000000     
  0.87500000000000000       0.62500000000000000        0.0000000000000000     
  0.87500000000000000       0.50000000000000000        0.0000000000000000     
  0.90625000000000000       0.50000000000000000        0.0000000000000000     
  0.93750000000000000       0.50000000000000000        0.0000000000000000     
  0.96875000000000000       0.50000000000000000        0.0000000000000000     
   1.0000000000000000       0.50000000000000000        0.0000000000000000     
  0.87500000000000000       0.53125000000000000        0.0000000000000000     
  0.90625000000000000       0.53125000000000000        0.0000000000000000     
  0.93750000000000000       0.53125000000000000        0.0000000000000000     
  0.96875000000000000       0.53125000000000000        0.0000000000000000     
   1.0000000000000000       0.53125000000000000        0.0000000000000000     
  0.87500000000000000       0.56250000000000000        0.0000000000000000     
  0.90625000000000000       0.56250000000000000        0.0000000000000000     
  0.93750000000000000       0.56250000000000000        0.0000000000000000     
  0.96875000000000000       0.56250000000000000        0.0000000000000000     
   1.0000000000000000       0.56250000000000000        0.0000000000000000     
  0.87500000000000000       0.59375000000000000        0.0000000000000000     
  0.90625000000000000       0.59375000000000000        0.0000000000000000     
  0.93750000000000000       0.59375000000000000        0.0000000000000000     
  0.96875000000000000       0.59375000000000000        0.0000000000000000     
   1.0000000000000000       0.59375000000000000        0.0000000000000000     
  0.87500000000000000       0.62500000000000000        0.0000000000000000     
  0.90625000000000000       0.62500000000000000        0.0000000000000000     
  0.93750000000000000       0.62500000000000000        0.0000000000000000     
  0.96875000000000000       0.62500000000000000        0.0000000000000000     
   1.0000000000000000       0.62500000000000000        0.0000000000000000     
   0.0000000000000000       0.62500000000000000        0.0000000000000000     
   3.1250000000000000E-002  0.62500000000000000        0.0000000000000000     
   6.2500000000000000E-002  0.62500000000000000        0.0000000000000000     
   9.3750000000000000E-002  0.62500000000000000        0.0000000000000000     
  0.12500000000000000       0.62500000000000000        0.0000000000000000     
   0.0000000000000000       0.65625000000000000        0.0000000000000000     
   3.1250000000000000E-002  0.65625000000000000        0.0000000000000000     
   6.2500000000000000E-002  0.65625000000000000        0.0000000000000000     
   9.3750000000000000E-002  0.65625000000000000        0.0000000000000000     
  0.12500000000000000       0.65625000000000000        0.0000000000000000     
   0.0000000000000000       0.68750000000000000        0.0000000000000000     
   3.1250000000000000E-002  0.68750000000000000        0.0000000000000000     
   6.2500000000000000E-002  0.68750000000000000        0.0000000000000000     
   9.3750000000000000E-002  0.68750000000000000        0.0000000000000000     
  0.12500000000000000       0.68750000000000000        0.0000000000000000     
   0.0000000000000000       0.71875000000000000        0.0000000000000000     
   3.1250000000000000E-002  0.71875000000000000        0.0000000000000000     
   6.2500000000000000E-002  0.71875000000000000        0.0000000000000000     
   9.3750000000000000E-002  0.71875000000000000        0.0000000000000000     
  0.12500000000000000       0.71875000000000000        0.0000000000000000     
   0.0000000000000000       0.75000000000000000        0.0000000000000000     
   3.1250000000000000E-002  0.75000000000000000        0.0000000000000000     
   6.2500000000000000E-002  0.75000000000000000        0.0000000000000000     
   9.3750000000000000E-002  0.75000000000000000        0.0000000000000000     
  0.12500000000000000       0.75000000000000000        0.0000000000000000     
  0.12500000000000000       0.62500000000000000        0.0000000000000000     
  0.15625000000000000       0.62500000000000000        0.0000000000000000     
  0.18750000000000000       0.62500000000000000        0.0000000000000000     
  0.21875000000000000       0.62500000000000000        0.0000000000000000     
  0.25000000000000000       0.62500000000000000        0.0000000000000000     
  0.12500000000000000       0.65625000000000000        0.0000000000000000     
  0.15625000000000000       0.65625000000000000        0.0000000000000000     
  0.18750000000000000       0.65625000000000000        0.0000000000000000     
  0.21875000000000000       0.65625000000000000        0.0000000000000000     
  0.25000000000000000       0.65625000000000000        0.0000000000000000     
  0.12500000000000000       0.68750000000000000        0.0000000000000000     
  0.15625000000000000       0.68750000000000000        0.0000000000000000     
  0.18750000000000000       0.68750000000000000        0.0000000000000000     
  0.21875000000000000       0.68750000000000000        0.0000000000000000     
  0.25000000000000000       0.68750000000000000        0.0000000000000000     
  0.12500000000000000       0.71875000000000000        0.0000000000000000     
  0.15625000000000000       0.71875000000000000        0.0000000000000000     
  0.18750000000000000       0.71875000000000000        0.0000000000000000     
  0.21875000000000000       0.71875000000000000        0.0000000000000000     
  0.25000000000000000       0.71875000000000000        0.0000000000000000     
  0.12500000000000000       0.75000000000000000        0.0000000000000000     
  0.15625000000000000       0.75000000000000000        0.0000000000000000     
  0.18750000000000000       0.75000000000000000        0.0000000000000000     
  0.21875000000000000       0.75000000000000000        0.0000000000000000     
  0.25000000000000000       0.75000000000000000        0.0000000000000000     
  0.25000000000000000       0.62500000000000000        0.0000000000000000     
  0.28125000000000000       0.62500000000000000        0.0000000000000000     
  0.31250000000000000       0.62500000000000000        0.0000000000000000     
  0.34375000000000000       0.62500000000000000        0.0000000000000000     
  0.37500000000000000       0.62500000000000000        0.0000000000000000     
  0.25000000000000000       0.65625000000000000        0.0000000000000000     
  0.28125000000000000       0.65625000000000000        0.0000000000000000     
  0.31250000000000000       0.65625000000000000        0.0000000000000000     
  0.34375000000000000       0.65625000000000000        0.0000000000000000     
  0.37500000000000000       0.65625000000000000        0.0000000000000000     
  0.25000000000000000       0.68750000000000000        0.0000000000000000     
  0.28125000000000000       0.68750000000000000        0.0000000000000000     
  0.31250000000000000       0.68750000000000000        0.0000000000000000     
  0.34375000000000000       0.68750000000000000        0.0000000000000000     
  0.37500000000000000       0.68750000000000000        0.0000000000000000     
  0.25000000000000000       0.71875000000000000        0.0000000000000000     
  0.28125000000000000       0.71875000000000000        0.0000000000000000     
  0.31250000000000000       0.71875000000000000        0.0000000000000000     
  0.34375000000000000       0.71875000000000000        0.0000000000000000     
  0.37500000000000000       0.71875000000000000        0.0000000000000000     
  0.25000000000000000       0.75000000000000000        0.0000000000000000     
  0.28125000000000000       0.75000000000000000        0.0000000000000000     
  0.31250000000000000       0.75000000000000000        0.0000000000000000     
  0.34375000000000000       0.75000000000000000        0.0000000000000000     
  0.37500000000000000       0.75000000000000000        0.0000000000000000     
  0.37500000000000000       0.62500000000000000        0.0000000000000000     
  0.40625000000000000       0.62500000000000000        0.0000000000000000     
  0.43750000000000000       0.62500000000000000        0.0000000000000000     
  0.46875000000000000       0.62500000000000000        0.0000000000000000     
  0.50000000000000000       0.62500000000000000        0.0000000000000000     
  0.37500000000000000       0.65625000000000000        0.0000000000000000     
  0.40625000000000000       0.65625000000000000        0.0000000000000000     
  0.43750000000000000       0.65625000000000000        0.0000000000000000     
  0.46875000000000000       0.65625000000000000        0.0000000000000000     
  0.50000000000000000       0.65625000000000000        0.0000000000000000     
  0.37500000000000000       0.68750000000000000        0.0000000000000000     
  0.40625000000000000       0.68750000000000000        0.0000000000000000     
  0.43750000000000000       0.68750000000000000        0.0000000000000000     
  0.46875000000000000       0.68750000000000000        0.0000000000000000     
  0.50000000000000000       0.68750000000000000        0.0000000000000000     
  0.37500000000000000       0.71875000000000000        0.0000000000000000     
  0.40625000000000000       0.71875000000000000        0.0000000000000000     
  0.43750000000000000       0.71875000000000000        0.0000000000000000     
  0.46875000000000000       0.71875000000000000        0.0000000000000000     
  0.50000000000000000       0.71875000000000000        0.0000000000000000     
  0.37500000000000000       0.75000000000000000        0.0000000000000000     
  0.40625000000000000       0.75000000000000000        0.0000000000000000     
  0.43750000000000000       0.75000000000000000        0.0000000000000000     
  0.46875000000000000       0.75000000000000000        0.0000000000000000     
  0.50000000000000000       0.75000000000000000        0.0000000000000000     
  0.50000000000000000       0.62500000000000000        0.0000000000000000     
  0.53125000000000000       0.62500000000000000        0.0000000000000000     
  0.56250000000000000       0.62500000000000000        0.0000000000000000     
  0.59375000000000000       0.62500000000000000        0.0000000000000000     
  0.62500000000000000       0.62500000000000000        0.0000000000000000     
  0.50000000000000000       0.65625000000000000        0.0000000000000000     
  0.53125000000000000       0.65625000000000000        0.0000000000000000     
  0.56250000000000000       0.65625000000000000        0.0000000000000000     
  0.59375000000000000       0.65625000000000000        0.0000000000000000     
  0.62500000000000000       0.65625000000000000        0.0000000000000000     
  0.50000000000000000       0.68750000000000000        0.0000000000000000     
  0.53125000000000000       0.68750000000000000        0.0000000000000000     
  0.56250000000000000       0.68750000000000000        0.0000000000000000     
  0.59375000000000000       0.68750000000000000        0.0000000000000000     
  0.62500000000000000       0.68750000000000000        0.0000000000000000     
  0.50000000000000000       0.71875000000000000        0.0000000000000000     
  0.53125000000000000       0.71875000000000000        0.0000000000000000     
  0.56250000000000000       0.71875000000000000        0.0000000000000000     
  0.59375000000000000       0.71875000000000000        0.0000000000000000     
  0.62500000000000000       0.71875000000000000        0.0000000000000000     
  0.50000000000000000       0.75000000000000000        0.0000000000000000     
  0.53125000000000000       0.75000000000000000        0.0000000000000000     
  0.56250000000000000       0.75000000000000000        0.0000000000000000     
  0.59375000000000000       0.75000000000000000        0.0000000000000000     
  0.62500000000000000       0.75000000000000000        0.0000000000000000     
  0.62500000000000000       0.62500000000000000        0.0000000000000000     
  0.65625000000000000       0.62500000000000000        0.0000000000000000     
  0.68750000000000000       0.62500000000000000        0.0000000000000000     
  0.71875000000000000       0.62500000000000000        0.0000000000000000     
  0.75000000000000000       0.62500000000000000        0.0000000000000000     
  0.62500000000000000       0.65625000000000000        0.0000000000000000     
  0.65625000000000000       0.65625000000000000        0.0000000000000000     
  0.68750000000000000       0.65625000000000000        0.0000000000000000     
  0.71875000000000000       0.65625000000000000        0.0000000000000000     
  0.75000000000000000       0.65625000000000000        0.0000000000000000     
  0.62500000000000000       0.68750000000000000        0.0000000000000000     
  0.65625000000000000       0.68750000000000000        0.0000000000000000     
  0.68750000000000000       0.68750000000000000        0.0000000000000000     
  0.71875000000000000       0.68750000000000000        0.0000000000000000     
  0.75000000000000000       0.68750000000000000        0.0000000000000000     
  0.62500000000000000       0.71875000000000000        0.0000000000000000     
  0.65625000000000000       0.71875000000000000        0.0000000000000000     
  0.68750000000000000       0.71875000000000000        0.0000000000000000     
  0.71875000000000000       0.71875000000000000        0.0000000000000000     
  0.75000000000000000       0.71875000000000000        0.0000000000000000     
  0.62500000000000000       0.75000000000000000        0.0000000000000000     
  0.65625000000000000       0.75000000000000000        0.0000000000000000     
  0.68750000000000000       0.75000000000000000        0.0000000000000000     
  0.71875000000000000       0.75000000000000000        0.0000000000000000     
  0.75000000000000000       0.75000000000000000        0.0000000000000000     
  0.75000000000000000       0.62500000000000000        0.0000000000000000     
  0.78125000000000000       0.62500000000000000        0.0000000000000000     
  0.81250000000000000       0.62500000000000000        0.0000000000000000     
  0.84375000000000000       0.62500000000000000        0.0000000000000000     
  0.87500000000000000       0.62500000000000000        0.0000000000000000     
  0.75000000000000000       0.65625000000000000        0.0000000000000000     
  0.78125000000000000       0.65625000000000000        0.0000000000000000     
  0.81250000000000000       0.65625000000000000        0.0000000000000000     
  0.84375000000000000       0.65625000000000000        0.0000000000000000     
  0.87500000000000000       0.65625000000000000        0.0000000000000000     
  0.75000000000000000       0.68750000000000000        0.0000000000000000     
  0.78125000000000000       0.68750000000000000        0.0000000000000000     
  0.81250000000000000       0.68750000000000000        0.0000000000000000     
  0.84375000000000000       0.68750000000000000        0.0000000000000000     
  0.87500000000000000       0.68750000000000000        0.0000000000000000     
  0.75000000000000000       0.71875000000000000        0.0000000000000000     
  0.78125000000000000       0.71875000000000000        0.0000000000000000     
  0.81250000000000000       0.71875000000000000        0.0000000000000000     
  0.84375000000000000       0.71875000000000000        0.0000000000000000     
  0.87500000000000000       0.71875000000000000        0.0000000000000000     
  0.75000000000000000       0.75000000000000000        0.0000000000000000     
  0.78125000000000000       0.75000000000000000        0.0000000000000000     
  0.81250000000000000       0.75000000000000000        0.0000000000000000     
  0.84375000000000000       0.75000000000000000        0.0000000000000000     
  0.87500000000000000       0.75000000000000000        0.0000000000000000     
  0.87500000000000000       0.62500000000000000        0.0000000000000000     
  0.90625000000000000       0.62500000000000000        0.0000000000000000     
  0.93750000000000000       0.62500000000000000        0.0000000000000000     
  0.96875000000000000       0.62500000000000000        0.0000000000000000     
   1.0000000000000000       0.62500000000000000        0.0000000000000000     
  0.87500000000000000       0.65625000000000000        0.0000000000000000     
  0.90625000000000000       0.65625000000000000        0.0000000000000000     
  0.93750000000000000       0.65625000000000000        0.0000000000000000     
  0.96875000000000000       0.65625000000000000        0.0000000000000000     
   1.0000000000000000       0.65625000000000000        0.0000000000000000     
  0.87500000000000000       0.68750000000000000        0.0000000000000000     
  0.90625000000000000       0.68750000000000000        0.0000000000000000     
  0.93750000000000000       0.68750000000000000        0.0000000000000000     
  0.96875000000000000       0.68750000000000000        0.0000000000000000     
   1.0000000000000000       0.68750000000000000        0.0000000000000000     
  0.87500000000000000       0.71875000000000000        0.0000000000000000     
  0.90625000000000000       0.71875000000000000        0.0000000000000000     
  0.93750000000000000       0.71875000000000000        0.0000000000000000     
  0.96875000000000000       0.71875000000000000        0.0000000000000000     
   1.0000000000000000       0.71875000000000000        0.0000000000000000     
  0.87500000000000000       0.75000000000000000        0.0000000000000000     
  0.90625000000000000       0.75000000000000000        0.0000000000000000     
  0.93750000000000000       0.75000000000000000        0.0000000000000000     
  0.96875000000000000       0.75000000000000000        0.0000000000000000     
   1.0000000000000000       0.75000000000000000        0.0000000000000000     
   0.0000000000000000       0.75000000000000000        0.0000000000000000     
   3.1250000000000000E-002  0.75000000000000000        0.0000000000000000     
   6.2500000000000000E-002  0.75000000000000000        0.0000000000000000     
   9.3750000000000000E-002  0.75000000000000000        0.0000000000000000     
  0.12500000000000000       0.75000000000000000        0.0000000000000000     
   0.0000000000000000       0.78125000000000000        0.0000000000000000     
   3.1250000000000000E-002  0.78125000000000000        0.0000000000000000     
   6.2500000000000000E-002  0.78125000000000000        0.0000000000000000     
   9.3750000000000000E-002  0.78125000000000000        0.0000000000000000     
  0.12500000000000000       0.78125000000000000        0.0000000000000000     
   0.0000000000000000       0.81250000000000000        0.0000000000000000     
   3.1250000000000000E-002  0.81250000000000000        0.0000000000000000     
   6.2500000000000000E-002  0.81250000000000000        0.0000000000000000     
   9.3750000000000000E-002  0.81250000000000000        0.0000000000000000     
  0.12500000000000000       0.81250000000000000        0.0000000000000000     
   0.0000000000000000       0.84375000000000000        0.0000000000000000     
   3.1250000000000000E-002  0.84375000000000000        0.0000000000000000     
   6.2500000000000000E-002  0.84375000000000000        0.0000000000000000     
   9.3750000000000000E-002  0.84375000000000000        0.0000000000000000     
  0.12500000000000000       0.84375000000000000        0.0000000000000000     
   0.0000000000000000       0.87500000000000000        0.0000000000000000     
   3.1250000000000000E-002  0.87500000000000000        0.0000000000000000     
   6.2500000000000000E-002  0.87500000000000000        0.0000000000000000     
   9.3750000000000000E-002  0.87500000000000000        0.0000000000000000     
  0.12500000000000000       0.87500000000000000        0.0000000000000000     
  0.12500000000000000       0.75000000000000000        0.0000000000000000     
  0.15625000000000000       0.75000000000000000        0.0000000000000000     
  0.18750000000000000       0.75000000000000000        0.0000000000000000     
  0.21875000000000000       0.75000000000000000        0.0000000000000000     
  0.25000000000000000       0.75000000000000000        0.0000000000000000     
  0.12500000000000000       0.78125000000000000        0.0000000000000000     
  0.15625000000000000       0.78125000000000000        0.0000000000000000     
  0.18750000000000000       0.78125000000000000        0.0000000000000000     
  0.21875000000000000       0.78125000000000000        0.0000000000000000     
  0.25000000000000000       0.78125000000000000        0.0000000000000000     
  0.12500000000000000       0.81250000000000000        0.0000000000000000     
  0.15625000000000000       0.81250000000000000        0.0000000000000000     
  0.18750000000000000       0.81250000000000000        0.0000000000000000     
  0.21875000000000000       0.81250000000000000        0.0000000000000000     
  0.25000000000000000       0.81250000000000000        0.0000000000000000     
  0.12500000000000000       0.84375000000000000        0.0000000000000000     
  0.15625000000000000       0.84375000000000000        0.0000000000000000     
  0.18750000000000000       0.84375000000000000        0.0000000000000000     
  0.21875000000000000       0.84375000000000000        0.0000000000000000     
  0.25000000000000000       0.84375000000000000        0.0000000000000000     
  0.12500000000000000       0.87500000000000000        0.0000000000000000     
  0.15625000000000000       0.87500000000000000        0.0000000000000000     
  0.18750000000000000       0.87500000000000000        0.0000000000000000     
  0.21875000000000000       0.87500000000000000        0.0000000000000000     
  0.25000000000000000       0.87500000000000000        0.0000000000000000     
  0.25000000000000000       0.75000000000000000        0.0000000000000000     
  0.28125000000000000       0.75000000000000000        0.0000000000000000     
  0.31250000000000000       0.75000000000000000        0.0000000000000000     
  0.34375000000000000       0.75000000000000000        0.0000000000000000     
  0.37500000000000000       0.75000000000000000        0.0000000000000000     
  0.25000000000000000       0.78125000000000000        0.0000000000000000     
  0.28125000000000000       0.78125000000000000        0.0000000000000000     
  0.31250000000000000       0.78125000000000000        0.0000000000000000     
  0.34375000000000000       0.78125000000000000        0.0000000000000000     
  0.37500000000000000       0.78125000000000000        0.0000000000000000     
  0.25000000000000000       0.81250000000000000        0.0000000000000000     
  0.28125000000000000       0.81250000000000000        0.0000000000000000     
  0.31250000000000000       0.81250000000000000        0.0000000000000000     
  0.34375000000000000       0.81250000000000000        0.0000000000000000     
  0.37500000000000000       0.81250000000000000        0.0000000000000000     
  0.25000000000000000       0.84375000000000000        0.0000000000000000     
  0.28125000000000000       0.84375000000000000        0.0000000000000000     
  0.31250000000000000       0.84375000000000000        0.0000000000000000     
  0.34375000000000000       0.84375000000000000        0.0000000000000000     
  0.37500000000000000       0.84375000000000000        0.0000000000000000     
  0.25000000000000000       0.87500000000000000        0.0000000000000000     
  0.28125000000000000       0.87500000000000000        0.0000000000000000     
  0.31250000000000000       0.87500000000000000        0.0000000000000000     
  0.34375000000000000       0.87500000000000000        0.0000000000000000     
  0.37500000000000000       0.87500000000000000        0.0000000000000000     
  0.37500000000000000       0.75000000000000000        0.0000000000000000     
  0.40625000000000000       0.75000000000000000        0.0000000000000000     
  0.43750000000000000       0.75000000000000000        0.0000000000000000     
  0.46875000000000000       0.75000000000000000        0.0000000000000000     
  0.50000000000000000       0.75000000000000000        0.0000000000000000     
  0.37500000000000000       0.78125000000000000        0.0000000000000000     
  0.40625000000000000       0.78125000000000000        0.0000000000000000     
  0.43750000000000000       0.78125000000000000        0.0000000000000000     
  0.46875000000000000       0.78125000000000000        0.0000000000000000     
  0.50000000000000000       0.78125000000000000        0.0000000000000000     
  0.37500000000000000       0.81250000000000000        0.0000000000000000     
  0.40625000000000000       0.81250000000000000        0.0000000000000000     
  0.43750000000000000       0.81250000000000000        0.0000000000000000     
  0.46875000000000000       0.81250000000000000        0.0000000000000000     
  0.50000000000000000       0.81250000000000000        0.0000000000000000     
  0.37500000000000000       0.84375000000000000        0.0000000000000000     
  0.40625000000000000       0.84375000000000000        0.0000000000000000     
  0.43750000000000000       0.84375000000000000        0.0000000000000000     
  0.46875000000000000       0.84375000000000000        0.0000000000000000     
  0.50000000000000000       0.84375000000000000        0.0000000000000000     
  0.37500000000000000       0.87500000000000000        0.0000000000000000     
  0.40625000000000000       0.87500000000000000        0.0000000000000000     
  0.43750000000000000       0.87500000000000000        0.0000000000000000     
  0.46875000000000000       0.87500000000000000        0.0000000000000000     
  0.50000000000000000       0.87500000000000000        0.0000000000000000     
  0.50000000000000000       0.75000000000000000        0.0000000000000000     
  0.53125000000000000       0.75000000000000000        0.0000000000000000     
  0.56250000000000000       0.75000000000000000        0.0000000000000000     
  0.59375000000000000       0.75000000000000000        0.0000000000000000     
  0.62500000000000000       0.75000000000000000        0.0000000000000000     
  0.50000000000000000       0.78125000000000000        0.0000000000000000     
  0.53125000000000000       0.78125000000000000        0.0000000000000000     
  0.56250000000000000       0.78125000000000000        0.0000000000000000     
  0.59375000000000000       0.78125000000000000        0.0000000000000000     
  0.62500000000000000       0.78125000000000000        0.0000000000000000     
  0.50000000000000000       0.81250000000000000        0.0000000000000000     
  0.53125000000000000       0.81250000000000000        0.0000000000000000     
  0.56250000000000000       0.81250000000000000        0.0000000000000000     
  0.59375000000000000       0.81250000000000000        0.0000000000000000     
  0.62500000000000000       0.81250000000000000        0.0000000000000000     
  0.50000000000000000       0.84375000000000000        0.0000000000000000     
  0.53125000000000000       0.84375000000000000        0.0000000000000000     
  0.56250000000000000       0.84375000000000000        0.0000000000000000     
  0.59375000000000000       0.84375000000000000        0.0000000000000000     
  0.62500000000000000       0.84375000000000000        0.0000000000000000     
  0.50000000000000000       0.87500000000000000        0.0000000000000000     
  0.53125000000000000       0.87500000000000000        0.0000000000000000     
  0.56250000000000000       0.87500000000000000        0.0000000000000000     
  0.59375000000000000       0.87500000000000000        0.0000000000000000     
  0.62500000000000000       0.87500000000000000        0.0000000000000000     
  0.62500000000000000       0.75000000000000000        0.0000000000000000     
  0.65625000000000000       0.75000000000000000        0.0000000000000000     
  0.68750000000000000       0.75000000000000000        0.0000000000000000     
  0.71875000000000000       0.75000000000000000        0.0000000000000000     
  0.75000000000000000       0.75000000000000000        0.0000000000000000     
  0.62500000000000000       0.78125000000000000        0.0000000000000000     
  0.65625000000000000       0.78125000000000000        0.0000000000000000     
  0.68750000000000000       0.78125000000000000        0.0000000000000000     
  0.71875000000000000       0.78125000000000000        0.0000000000000000     
  0.75000000000000000       0.78125000000000000        0.0000000000000000     
  0.62500000000000000       0.81250000000000000        0.0000000000000000     
  0.65625000000000000       0.81250000000000000        0.0000000000000000     
  0.68750000000000000       0.81250000000000000        0.0000000000000000     
  0.71875000000000000       0.81250000000000000        0.0000000000000000     
  0.75000000000000000       0.81250000000000000        0.0000000000000000     
  0.62500000000000000       0.84375000000000000        0.0000000000000000     
  0.65625000000000000       0.84375000000000000        0.0000000000000000     
  0.68750000000000000       0.84375000000000000        0.0000000000000000     
  0.71875000000000000       0.84375000000000000        0.0000000000000000     
  0.75000000000000000       0.84375000000000000        0.0000000000000000     
  0.62500000000000000       0.87500000000000000        0.0000000000000000     
  0.65625000000000000       0.87500000000000000        0.0000000000000000     
  0.68750000000000000       0.87500000000000000        0.0000000000000000     
  0.71875000000000000       0.87500000000000000        0.0000000000000000     
  0.75000000000000000       0.87500000000000000        0.0000000000000000     
  0.75000000000000000       0.75000000000000000        0.0000000000000000     
  0.78125000000000000       0.75000000000000000        0.0000000000000000     
  0.81250000000000000       0.75000000000000000        0.0000000000000000     
  0.84375000000000000       0.75000000000000000        0.0000000000000000     
  0.87500000000000000       0.75000000000000000        0.0000000000000000     
  0.75000000000000000       0.78125000000000000        0.0000000000000000     
  0.78125000000000000       0.78125000000000000        0.0000000000000000     
  0.81250000000000000       0.78125000000000000        0.0000000000000000     
  0.84375000000000000       0.78125000000000000        0.0000000000000000     
  0.87500000000000000       0.78125000000000000        0.0000000000000000     
  0.75000000000000000       0.81250000000000000        0.0000000000000000     
  0.78125000000000000       0.81250000000000000        0.0000000000000000     
  0.81250000000000000       0.81250000000000000        0.0000000000000000     
  0.84375000000000000       0.81250000000000000        0.0000000000000000     
  0.87500000000000000       0.81250000000000000        0.0000000000000000     
  0.75000000000000000       0.84375000000000000        0.0000000000000000     
  0.78125000000000000       0.84375000000000000        0.0000000000000000     
  0.81250000000000000       0.84375000000000000        0.0000000000000000     
  0.84375000000000000       0.84375000000000000        0.0000000000000000     
  0.87500000000000000       0.84375000000000000        0.0000000000000000     
  0.75000000000000000       0.87500000000000000        0.0000000000000000     
  0.78125000000000000       0.87500000000000000        0.0000000000000000     
  0.81250000000000000       0.87500000000000000        0.0000000000000000     
  0.84375000000000000       0.87500000000000000        0.0000000000000000     
  0.87500000000000000       0.87500000000000000        0.0000000000000000     
  0.87500000000000000       0.75000000000000000        0.0000000000000000     
  0.90625000000000000       0.75000000000000000        0.0000000000000000     
  0.93750000000000000       0.75000000000000000        0.0000000000000000     
  0.96875000000000000       0.75000000000000000        0.0000000000000000     
   1.0000000000000000       0.75000000000000000        0.0000000000000000     
  0.87500000000000000       0.78125000000000000        0.0000000000000000     
  0.90625000000000000       0.78125000000000000        0.0000000000000000     
  0.93750000000000000       0.78125000000000000        0.0000000000000000     
  0.96875000000000000       0.78125000000000000        0.0000000000000000     
   1.0000000000000000       0.78125000000000000        0.0000000000000000     
  0.87500000000000000       0.81250000000000000        0.0000000000000000     
  0.90625000000000000       0.81250000000000000        0.0000000000000000     
  0.93750000000000000       0.81250000000000000        0.0000000000000000     
  0.96875000000000000       0.81250000000000000        0.0000000000000000     
   1.0000000000000000       0.81250000000000000        0.0000000000000000     
  0.87500000000000000       0.84375000000000000        0.0000000000000000     
  0.90625000000000000       0.84375000000000000        0.0000000000000000     
  0.93750000000000000       0.84375000000000000        0.0000000000000000     
  0.96875000000000000       0.84375000000000000        0.0000000000000000     
   1.0000000000000000       0.84375000000000000        0.0000000000000000     
  0.87500000000000000       0.87500000000000000        0.0000000000000000     
  0.90625000000000000       0.87500000000000000        0.0000000000000000     
  0.93750000000000000       0.87500000000000000        0.0000000000000000     
  0.96875000000000000       0.87500000000000000        0.0000000000000000     
   1.0000000000000000       0.87500000000000000        0.0000000000000000     
   0.0000000000000000       0.87500000000000000        0.0000000000000000     
   3.1250000000000000E-002  0.87500000000000000        0.0000000000000000     
   6.2500000000000000E-002  0.87500000000000000        0.0000000000000000     
   9.3750000000000000E-002  0.87500000000000000        0.0000000000000000     
  0.12500000000000000       0.87500000000000000        0.0000000000000000     
   0.0000000000000000       0.90625000000000000        0.0000000000000000     
   3.1250000000000000E-002  0.90625000000000000        0.0000000000000000     
   6.2500000000000000E-002  0.90625000000000000        0.0000000000000000     
   9.3750000000000000E-002  0.90625000000000000        0.0000000000000000     
  0.12500000000000000       0.90625000000000000        0.0000000000000000     
   0.0000000000000000       0.93750000000000000        0.0000000000000000     
   3.1250000000000000E-002  0.93750000000000000        0.0000000000000000     
   6.2500000000000000E-002  0.93750000000000000        0.0000000000000000     
   9.3750000000000000E-002  0.93750000000000000        0.0000000000000000     
  0.12500000000000000       0.93750000000000000        0.0000000000000000     
   0.0000000000000000       0.96875000000000000        0.0000000000000000     
   3.1250000000000000E-002  0.96875000000000000        0.0000000000000000     
   6.2500000000000000E-002  0.96875000000000000        0.0000000000000000     
   9.3750000000000000E-002  0.96875000000000000        0.0000000000000000     
  0.12500000000000000       0.96875000000000000        0.0000000000000000     
   0.0000000000000000        1.0000000000000000        0.0000000000000000     
   3.1250000000000000E-002   1.0000000000000000        0.0000000000000000     
   6.2500000000000000E-002   1.0000000000000000        0.0000000000000000     
   9.3750000000000000E-002   1.0000000000000000        0.0000000000000000     
  0.12500000000000000        1.0000000000000000        0.0000000000000000     
  0.12500000000000000       0.87500000000000000        0.0000000000000000     
  0.15625000000000000       0.87500000000000000        0.0000000000000000     
  0.18750000000000000       0.87500000000000000        0.0000000000000000     
  0.21875000000000000       0.87500000000000000        0.0000000000000000     
  0.25000000000000000       0.87500000000000000        0.0000000000000000     
  0.12500000000000000       0.90625000000000000        0.0000000000000000     
  0.15625000000000000       0.90625000000000000        0.0000000000000000     
  0.18750000000000000       0.90625000000000000        0.0000000000000000     
  0.21875000000000000       0.90625000000000000        0.0000000000000000     
  0.25000000000000000       0.90625000000000000        0.0000000000000000     
  0.12500000000000000       0.93750000000000000        0.0000000000000000     
  0.15625000000000000       0.93750000000000000        0.0000000000000000     
  0.18750000000000000       0.93750000000000000        0.0000000000000000     
  0.21875000000000000       0.93750000000000000        0.0000000000000000     
  0.25000000000000000       0.93750000000000000        0.0000000000000000     
  0.12500000000000000       0.96875000000000000        0.0000000000000000     
  0.15625000000000000       0.96875000000000000        0.0000000000000000     
  0.18750000000000000       0.96875000000000000        0.0000000000000000     
  0.21875000000000000       0.96875000000000000        0.0000000000000000     
  0.25000000000000000       0.96875000000000000        0.0000000000000000     
  0.12500000000000000        1.0000000000000000        0.0000000000000000     
  0.15625000000000000        1.0000000000000000        0.0000000000000000     
  0.18750000000000000        1.0000000000000000        0.0000000000000000     
  0.21875000000000000        1.0000000000000000        0.0000000000000000     
  0.25000000000000000        1.0000000000000000        0.0000000000000000     
  0.25000000000000000       0.87500000000000000        0.0000000000000000     
  0.28125000000000000       0.87500000000000000        0.0000000000000000     
  0.31250000000000000       0.87500000000000000        0.0000000000000000     
  0.34375000000000000       0.87500000000000000        0.0000000000000000     
  0.37500000000000000       0.87500000000000000        0.0000000000000000     
  0.25000000000000000       0.90625000000000000        0.0000000000000000     
  0.28125000000000000       0.90625000000000000        0.0000000000000000     
  0.31250000000000000       0.90625000000000000        0.0000000000000000     
  0.34375000000000000       0.90625000000000000        0.0000000000000000     
  0.37500000000000000       0.90625000000000000        0.0000000000000000     
  0.25000000000000000       0.93750000000000000        0.0000000000000000     
  0.28125000000000000       0.93750000000000000        0.0000000000000000     
  0.31250000000000000       0.93750000000000000        0.0000000000000000     
  0.34375000000000000       0.93750000000000000        0.0000000000000000     
  0.37500000000000000       0.93750000000000000        0.0000000000000000     
  0.25000000000000000       0.96875000000000000        0.0000000000000000     
  0.28125000000000000       0.96875000000000000        0.0000000000000000     
  0.31250000000000000       0.96875000000000000        0.0000000000000000     
  0.34375000000000000       0.96875000000000000        0.0000000000000000     
  0.37500000000000000       0.96875000000000000        0.0000000000000000     
  0.25000000000000000        1.0000000000000000        0.0000000000000000     
  0.28125000000000000        1.0000000000000000        0.0000000000000000     
  0.31250000000000000        1.0000000000000000        0.0000000000000000     
  0.34375000000000000        1.0000000000000000        0.0000000000000000     
  0.37500000000000000        1.0000000000000000        0.0000000000000000     
  0.37500000000000000       0.87500000000000000        0.0000000000000000     
  0.40625000000000000       0.87500000000000000        0.0000000000000000     
  0.43750000000000000       0.87500000000000000        0.0000000000000000     
  0.46875000000000000       0.87500000000000000        0.0000000000000000     
  0.50000000000000000       0.87500000000000000        0.0000000000000000     
  0.37500000000000000       0.90625000000000000        0.0000000000000000     
  0.40625000000000000       0.90625000000000000        0.0000000000000000     
  0.43750000000000000       0.90625000000000000        0.0000000000000000     
  0.46875000000000000       0.90625000000000000        0.0000000000000000     
  0.50000000000000000       0.90625000000000000        0.0000000000000000     
  0.37500000000000000       0.93750000000000000        0.0000000000000000     
  0.40625000000000000       0.93750000000000000        0.0000000000000000     
  0.43750000000000000       0.93750000000000000        0.0000000000000000     
  0.46875000000000000       0.93750000000000000        0.0000000000000000     
  0.50000000000000000       0.93750000000000000        0.0000000000000000     
  0.37500000000000000       0.96875000000000000        0.0000000000000000     
  0.40625000000000000       0.96875000000000000        0.0000000000000000     
  0.43750000000000000       0.96875000000000000        0.0000000000000000     
  0.46875000000000000       0.96875000000000000        0.0000000000000000     
  0.50000000000000000       0.96875000000000000        0.0000000000000000     
  0.37500000000000000        1.0000000000000000        0.0000000000000000     
  0.40625000000000000        1.0000000000000000        0.0000000000000000     
  0.43750000000000000        1.0000000000000000        0.0000000000000000     
  0.46875000000000000        1.0000000000000000        0.0000000000000000     
  0.50000000000000000        1.0000000000000000        0.0000000000000000     
  0.50000000000000000       0.87500000000000000        0.0000000000000000     
  0.53125000000000000       0.87500000000000000        0.0000000000000000     
  0.56250000000000000       0.87500000000000000        0.0000000000000000     
  0.59375000000000000       0.87500000000000000        0.0000000000000000     
  0.62500000000000000       0.87500000000000000        0.0000000000000000     
  0.50000000000000000       0.90625000000000000        0.0000000000000000     
  0.53125000000000000       0.90625000000000000        0.0000000000000000     
  0.56250000000000000       0.90625000000000000        0.0000000000000000     
  0.59375000000000000       0.90625000000000000        0.0000000000000000     
  0.62500000000000000       0.90625000000000000        0.0000000000000000     
  0.50000000000000000       0.93750000000000000        0.0000000000000000     
  0.53125000000000000       0.93750000000000000        0.0000000000000000     
  0.56250000000000000       0.93750000000000000        0.0000000000000000     
  0.59375000000000000       0.93750000000000000        0.0000000000000000     
  0.62500000000000000       0.93750000000000000        0.0000000000000000     
  0.50000000000000000       0.96875000000000000        0.0000000000000000     
  0.53125000000000000       0.96875000000000000        0.0000000000000000     
  0.56250000000000000       0.96875000000000000        0.0000000000000000     
  0.59375000000000000       0.96875000000000000        0.0000000000000000     
  0.62500000000000000       0.96875000000000000        0.0000000000000000     
  0.50000000000000000        1.0000000000000000        0.0000000000000000     
  0.53125000000000000        1.0000000000000000        0.0000000000000000     
  0.56250000000000000        1.0000000000000000        0.0000000000000000     
  0.59375000000000000        1.0000000000000000        0.0000000000000000     
  0.62500000000000000        1.0000000000000000        0.0000000000000000     
  0.62500000000000000       0.87500000000000000        0.0000000000000000     
  0.65625000000000000       0.87500000000000000        0.0000000000000000     
  0.68750000000000000       0.87500000000000000        0.0000000000000000     
  0.71875000000000000       0.87500000000000000        0.0000000000000000     
  0.75000000000000000       0.87500000000000000        0.0000000000000000     
  0.62500000000000000       0.90625000000000000        0.0000000000000000     
  0.65625000000000000       0.90625000000000000        0.0000000000000000     
  0.68750000000000000       0.90625000000000000        0.0000000000000000     
  0.71875000000000000       0.90625000000000000        0.0000000000000000     
  0.75000000000000000       0.90625000000000000        0.0000000000000000     
  0.62500000000000000       0.93750000000000000        0.0000000000000000     
  0.65625000000000000       0.93750000000000000        0.0000000000000000     
  0.68750000000000000       0.93750000000000000        0.0000000000000000     
  0.71875000000000000       0.93750000000000000        0.0000000000000000     
  0.75000000000000000       0.93750000000000000        0.0000000000000000     
  0.62500000000000000       0.96875000000000000        0.0000000000000000     
  0.65625000000000000       0.96875000000000000        0.0000000000000000     
  0.68750000000000000       0.96875000000000000        0.0000000000000000     
  0.71875000000000000       0.96875000000000000        0.0000000000000000     
  0.75000000000000000       0.96875000000000000        0.0000000000000000     
  0.62500000000000000        1.0000000000000000        0.0000000000000000     
  0.65625000000000000        1.0000000000000000        0.0000000000000000     
  0.68750000000000000        1.0000000000000000        0.0000000000000000     
  0.71875000000000000        1.0000000000000000        0.0000000000000000     
  0.75000000000000000        1.0000000000000000        0.0000000000000000     
  0.75000000000000000       0.87500000000000000        0.0000000000000000     
  0.78125000000000000       0.87500000000000000        0.0000000000000000     
  0.81250000000000000       0.87500000000000000        0.0000000000000000     
  0.84375000000000000       0.87500000000000000        0.0000000000000000     
  0.87500000000000000       0.87500000000000000        0.0000000000000000     
  0.75000000000000000       0.90625000000000000        0.0000000000000000     
  0.78125000000000000       0.90625000000000000        0.0000000000000000     
  0.81250000000000000       0.90625000000000000        0.0000000000000000     
  0.84375000000000000       0.90625000000000000        0.0000000000000000     
  0.87500000000000000       0.90625000000000000        0.0000000000000000     
  0.75000000000000000       0.93750000000000000        0.0000000000000000     
  0.78125000000000000       0.93750000000000000        0.0000000000000000     
  0.81250000000000000       0.93750000000000000        0.0000000000000000     
  0.84375000000000000       0.93750000000000000        0.0000000000000000     
  0.87500000000000000       0.93750000000000000        0.0000000000000000     
  0.75000000000000000       0.96875000000000000        0.0000000000000000     
  0.78125000000000000       0.96875000000000000        0.0000000000000000     
  0.81250000000000000       0.96875000000000000        0.0000000000000000     
  0.84375000000000000       0.96875000000000000        0.0000000000000000     
  0.87500000000000000       0.96875000000000000        0.0000000000000000     
  0.75000000000000000        1.0000000000000000        0.0000000000000000     
  0.78125000000000000        1.0000000000000000        0.0000000000000000     
  0.81250000000000000        1.0000000000000000        0.0000000000000000     
  0.84375000000000000        1.0000000000000000        0.0000000000000000     
  0.87500000000000000        1.0000000000000000        0.0000000000000000     
  0.87500000000000000       0.87500000000000000        0.0000000000000000     
  0.90625000000000000       0.87500000000000000        0.0000000000000000     
  0.93750000000000000       0.87500000000000000        0.0000000000000000     
  0.96875000000000000       0.87500000000000000        0.0000000000000000     
   1.0000000000000000       0.87500000000000000        0.0000000000000000     
  0.87500000000000000       0.90625000000000000        0.0000000000000000     
  0.90625000000000000       0.90625000000000000        0.0000000000000000     
  0.93750000000000000       0.90625000000000000        0.0000000000000000     
  0.96875000000000000       0.90625000000000000        0.0000000000000000     
   1.0000000000000000       0.90625000000000000        0.0000000000000000     
  0.87500000000000000       0.93750000000000000        0.0000000000000000     
  0.90625000000000000       0.93750000000000000        0.0000000000000000     
  0.93750000000000000       0.93750000000000000        0.0000000000000000     
  0.96875000000000000       0.93750000000000000        0.0000000000000000     
   1.0000000000000000       0.93750000000000000        0.0000000000000000     
  0.87500000000000000       0.96875000000000000        0.0000000000000000     
  0.90625000000000000       0.96875000000000000        0.0000000000000000     
  0.93750000000000000       0.96875000000000000        0.0000000000000000     
  0.96875000000000000       0.96875000000000000        0.0000000000000000     
   1.0000000000000000       0.96875000000000000        0.0000000000000000     
  0.87500000000000000        1.0000000000000000        0.0000000000000000     
  0.90625000000000000        1.0000000000000000        0.0000000000000000     
  0.93750000000000000        1.0000000000000000        0.0000000000000000     
  0.96875000000000000        1.0000000000000000        0.0000000000000000     
   1.0000000000000000        1.0000000000000000        0.0000000000000000     
 </DataArray>
 </Points>
 <Cells>
 <DataArray  type="Int32"  Name="connectivity"  format="ascii">
           0           1           6           5
           1           2           7           6
           2           3           8           7
           3           4           9           8
           5           6          11          10
           6           7          12          11
           7           8          13          12
           8           9          14          13
          10          11          16          15
          11          12          17          16
          12          13          18          17
          13          14          19          18
          15          16          21          20
          16          17          22          21
          17          18          23          22
          18          19          24          23
          25          26          31          30
          26          27          32          31
          27          28          33          32
          28          29          34          33
          30          31          36          35
          31          32          37          36
          32          33          38          37
          33          34          39          38
          35          36          41          40
          36          37          42          41
          37          38          43          42
          38          39          44          43
          40          41          46          45
          41          42          47          46
          42          43          48          47
          43          44          49          48
          50          51          56          55
          51          52          57          56
          52          53          58          57
          53          54          59          58
          55          56          61          60
          56          57          62          61
          57          58          63          62
          58          59          64          63
          60          61          66          65
          61          62          67          66
          62          63          68          67
          63          64          69          68
          65          66          71          70
          66          67          72          71
          67          68          73          72
          68          69          74          73
          75          76          81          80
          76          77          82          81
          77          78          83          82
          78          79          84          83
          80          81          86          85
          81          82          87          86
          82          83          88          87
          83          84          89          88
          85          86          91          90
          86          87          92          91
          87          88          93          92
          88          89          94          93
          90          91          96          95
          91          92          97          96
          92          93          98          97
          93          94          99          98
         100         101         106         105
         101         102         107         106
         102         103         108         107
         103         104         109         108
         105         106         111         110
         106         107         112         111
         107         108         113         112
         108         109         114         113
         110         111         116         115
         111         112         117         116
         112         113         118         117
         113         114         119         118
         115         116         121         120
         116         117         122         121
         117         118         123         122
         118         119         124         123
         125         126         131         130
         126         127         132         131
         127         128         133         132
         128         129         134         133
         130         131         136         135
         131         132         137         136
         132         133         138         137
         133         134         139         138
         135         136         141         140
         136         137         142         141
         137         138         143         142
         138         139         144         143
         140         141         146         145
         141         142         147         146
         142         143         148         147
         143         144         149         148
         150         151         156         155
         151         152         157         156
         152         153         158         157
         153         154         159         158
         155         156         161         160
         156         157         162         161
         157         158         163         162
         158         159         164         163
         160         161         166         165
         161         162         167         166
         162         163         168         167
         163         164         169         168
         165         166         171         170
         166         167         172         171
         167         168         173         172
         168         169         174         173
         175         176         181         180
         176         177         182         181
         177         178         183         182
         178         179         184         183
         180         181         186         185
         181         182         187         186
         182         183         188         187
         183         184         189         188
         185         186         191         190
         186         187         192         191
         187         188         193         192
         188         189         194         193
         190         191         196         195
         191         192         197         196
         192         193         198         197
         193         194         199         198
         200         201         206         205
         201         202         207         206
         202         203         208         207
         203         204         209         208
         205         206         211         210
         206         207         212         211
         207         208         213         212
         208         209         214         213
         210         211         216         215
         211         212         217         216
         212         213         218         217
         213         214         219         218
         215         216         221         220
         216         217         222         221
         217         218         223         222
         218         219         224         223
         225         226         231         230
         226         227         232         231
         227         228         233         232
         228         229         234         233
         230         231         236         235
         231         232         237         236
         232         233         238         237
         233         234         239         238
         235         236         241         240
         236         237         242         241
         237         238         243         242
         238         239         244         243
         240         241         246         245
         241         242         247         246
         242         243         248         247
         243         244         249         248
         250         251         256         255
         251         252         257         256
         252         253         258         257
         253         254         259         258
         255         256         261         260
         256         257         262         261
         257         258         263         262
         258         259         264         263
         260         261         266         265
         261         262         267         266
         262         263         268         267
         263         264         269         268
         265         266         271         270
         266         267         272         271
         267         268         273         272
         268         269         274         273
         275         276         281         280
         276         277         282         281
         277         278         283         282
         278         279         284         283
         280         281         286         285
         281         282         287         286
         282         283         288         287
         283         284         289         288
         285         286         291         290
         286         287         292         291
         287         288         293         292
         288         289         294         293
         290         291         296         295
         291         292         297         296
         292         293         298         297
         293         294         299         298
         300         301         306         305
         301         302         307         306
         302         303         308         307
         303         304         309         308
         305         306         311         310
         306         307         312         311
         307         308         313         312
         308         309         314         313
         310         311         316         315
         311         312         317         316
         312         313         318         317
         313         314         319         318
         315         316         321         320
         316         317         322         321
         317         318         323         322
         318         319         324         323
         325         326         331         330
         326         327         332         331
         327         328         333         332
         328         329         334         333
         330         331         336         335
         331         332         337         336
         332         333         338         337
         333         334         339         338
         335         336         341         340
         336         337         342         341
         337         338         343         342
         338         339         344         343
         340         341         346         345
         341         342         347         346
         342         343         348         347
         343         344         349         348
         350         351         356         355
         351         352         357         356
         352         353         358         357
         353         354         359         358
         355         356         361         360
         356         357         362         361
         357         358         363         362
         358         359         364         363
         360         361         366         365
         361         362         367         366
         362         363         368         367
         363         364         369         368
         365         366         371         370
         366         367         372         371
         367         368         373         372
         368         369         374         373
         375         376         381         380
         376         377         382         381
         377         378         383         382
         378         379         384         383
         380         381         386         385
         381         382         387         386
         382         383         388         387
         383         384         389         388
         385         386         391         390
         386         387         392         391
         387         388         393         392
         388         389         394         393
         390         391         396         395
         391         392         397         396
         392         393         398         397
         393         394         399         398
         400         401         406         405
         401         402         407         406
         402         403         408         407
         403         404         409         408
         405         406         411         410
         406         407         412         411
         407         408         413         412
         408         409         414         413
         410         411         416         415
         411         412         417         416
         412         413         418         417
         413         414         419         418
         415         416         421         420
         416         417         422         421
         417         418         423         422
         418         419         424         423
         425         426         431         430
         426         427         432         431
         427         428         433         432
         428         429         434         433
         430         431         436         435
         431         432         437         436
         432         433         438         437
         433         434         439         438
         435         436         441         440
         436         437         442         441
         437         438         443         442
         438         439         444         443
         440         441         446         445
         441         442         447         446
         442         443         448         447
         443         444         449         448
         450         451         456         455
         451         452         457         456
         452         453         458         457
         453         454         459         458
         455         456         461         460
         456         457         462         461
         457         458         463         462
         458         459         464         463
         460         461         466         465
         461         462         467         466
         462         463         468         467
         463         464         469         468
         465         466         471         470
         466         467         472         471
         467         468         473         472
         468         469         474         473
         475         476         481         480
         476         477         482         481
         477         478         483         482
         478         479         484         483
         480         481         486         485
         481         482         487         486
         482         483         488         487
         483         484         489         488
         485         486         491         490
         486         487         492         491
         487         488         493         492
         488         489         494         493
         490         491         496         495
         491         492         497         496
         492         493         498         497
         493         494         499         498
         500         501         506         505
         501         502         507         506
         502         503         508         507
         503         504         509         508
         505         506         511         510
         506         507         512         511
         507         508         513         512
         508         509         514         513
         510         511         516         515
         511         512         517         516
         512         513         518         517
         513         514         519         518
         515         516         521         520
         516         517         522         521
         517         518         523         522
         518         519         524         523
         525         526         531         530
         526         527         532         531
         527         528         533         532
         528         529         534         533
         530         531         536         535
         531         532         537         536
         532         533         538         537
         533         534         539         538
         535         536         541         540
         536         537         542         541
         537         538         543         542
         538         539         544         543
         540         541         546         545
         541         542         547         546
         542         543         548         547
         543         544         549         548
         550         551         556         555
         551         552         557         556
         552         553         558         557
         553         554         559         558
         555         556         561         560
         556         557         562         561
         557         558         563         562
         558         559         564         563
         560         561         566         565
         561         562         567         566
         562         563         568         567
         563         564         569         568
         565         566         571         570
         566         567         572         571
         567         568         573         572
         568         569         574         573
         575         576         581         580
         576         577         582         581
         577         578         583         582
         578         579         584         583
         580         581         586         585
         581         582         587         586
         582         583         588         587
         583         584         589         588
         585         586         591         590
         586         587         592         591
         587         588         593         592
         588         589         594         593
         590         591         596         595
         591         592         597         596
         592         593         598         597
         593         594         599         598
         600         601         606         605
         601         602         607         606
         602         603         608         607
         603         604         609         608
         605         606         611         610
         606         607         612         611
         607         608         613         612
         608         609         614         613
         610         611         616         615
         611         612         617         616
         612         613         618         617
         613         614         619         618
         615         616         621         620
         616         617         622         621
         617         618         623         622
         618         619         624         623
         625         626         631         630
         626         627         632         631
         627         628         633         632
         628         629         634         633
         630         631         636         635
         631         632         637         636
         632         633         638         637
         633         634         639         638
         635         636         641         640
         636         637         642         641
         637         638         643         642
         638         639         644         643
         640         641         646         645
         641         642         647         646
         642         643         648         647
         643         644         649         648
         650         651         656         655
         651         652         657         656
         652         653         658         657
         653         654         659         658
         655         656         661         660
         656         657         662         661
         657         658         663         662
         658         659         664         663
         660         661         666         665
         661         662         667         666
         662         663         668         667
         663         664         669         668
         665         666         671         670
         666         667         672         671
         667         668         673         672
         668         669         674         673
         675         676         681         680
         676         677         682         681
         677         678         683         682
         678         679         684         683
         680         681         686         685
         681         682         687         686
         682         683         688         687
         683         684         689         688
         685         686         691         690
         686         687         692         691
         687         688         693         692
         688         689         694         693
         690         691         696         695
         691         692         697         696
         692         693         698         697
         693         694         699         698
         700         701         706         705
         701         702         707         706
         702         703         708         707
         703         704         709         708
         705         706         711         710
         706         707         712         711
         707         708         713         712
         708         709         714         713
         710         711         716         715
         711         712         717         716
         712         713         718         717
         713         714         719         718
         715         716         721         720
         716         717         722         721
         717         718         723         722
         718         719         724         723
         725         726         731         730
         726         727         732         731
         727         728         733         732
         728         729         734         733
         730         731         736         735
         731         732         737         736
         732         733         738         737
         733         734         739         738
         735         736         741         740
         736         737         742         741
         737         738         743         742
         738         739         744         743
         740         741         746         745
         741         742         747         746
         742         743         748         747
         743         744         749         748
         750         751         756         755
         751         752         757         756
         752         753         758         757
         753         754         759         758
         755         756         761         760
         756         757         762         761
         757         758         763         762
         758         759         764         763
         760         761         766         765
         761         762         767         766
         762         763         768         767
         763         764         769         768
         765         766         771         770
         766         767         772         771
         767         768         773         772
         768         769         774         773
         775         776         781         780
         776         777         782         781
         777         778         783         782
         778         779         784         783
         780         781         786         785
         781         782         787         786
         782         783         788         787
         783         784         789         788
         785         786         791         790
         786         787         792         791
         787         788         793         792
         788         789         794         793
         790         791         796         795
         791         792         797         796
         792         793         798         797
         793         794         799         798
         800         801         806         805
         801         802         807         806
         802         803         808         807
         803         804         809         808
         805         806         811         810
         806         807         812         811
         807         808         813         812
         808         809         814         813
         810         811         816         815
         811         812         817         816
         812         813         818         817
         813         814         819         818
         815         816         821         820
         816         817         822         821
         817         818         823         822
         818         819         824         823
         825         826         831         830
         826         827         832         831
         827         828         833         832
         828         829         834         833
         830         831         836         835
         831         832         837         836
         832         833         838         837
         833         834         839         838
         835         836         841         840
         836         837         842         841
         837         838         843         842
         838         839         844         843
         840         841         846         845
         841         842         847         846
         842         843         848         847
         843         844         849         848
         850         851         856         855
         851         852         857         856
         852         853         858         857
         853         854         859         858
         855         856         861         860
         856         857         862         861
         857         858         863         862
         858         859         864         863
         860         861         866         865
         861         862         867         866
         862         863         868         867
         863         864         869         868
         865         866         871         870
         866         867         872         871
         867         868         873         872
         868         869         874         873
         875         876         881         880
         876         877         882         881
         877         878         883         882
         878         879         884         883
         880         881         886         885
         881         882         887         886
         882         883         888         887
         883         884         889         888
         885         886         891         890
         886         887         892         891
         887         888         893         892
         888         889         894         893
         890         891         896         895
         891         892         897         896
         892         893         898         897
         893         894         899         898
         900         901         906         905
         901         902         907         906
         902         903         908         907
         903         904         909         908
         905         906         911         910
         906         907         912         911
         907         908         913         912
         908         909         914         913
         910         911         916         915
         911         912         917         916
         912         913         918         917
         913         914         919         918
         915         916         921         920
         916         917         922         921
         917         918         923         922
         918         919         924         923
         925         926         931         930
         926         927         932         931
         927         928         933         932
         928         929         934         933
         930         931         936         935
         931         932         937         936
         932         933         938         937
         933         934         939         938
         935         936         941         940
         936         937         942         941
         937         938         943         942
         938         939         944         943
         940         941         946         945
         941         942         947         946
         942         943         948         947
         943         944         949         948
         950         951         956         955
         951         952         957         956
         952         953         958         957
         953         954         959         958
         955         956         961         960
         956         957         962         961
         957         958         963         962
         958         959         964         963
         960         961         966         965
         961         962         967         966
         962         963         968         967
         963         964         969         968
         965         966         971         970
         966         967         972         971
         967         968         973         972
         968         969         974         973
         975         976         981         980
         976         977         982         981
         977         978         983         982
         978         979         984         983
         980         981         986         985
         981         982         987         986
         982         983         988         987
         983         984         989         988
         985         986         991         990
         986         987         992         991
         987         988         993         992
         988         989         994         993
         990         991         996         995
         991         992         997         996
         992         993         998         997
         993         994         999         998
        1000        1001        1006        1005
        1001        1002        1007        1006
        1002        1003        1008        1007
        1003        1004        1009        1008
        1005        1006        1011        1010
        1006        1007        1012        1011
        1007        1008        1013        1012
        1008        1009        1014        1013
        1010        1011        1016        1015
        1011        1012        1017        1016
        1012        1013        1018        1017
        1013        1014        1019        1018
        1015        1016        1021        1020
        1016        1017        1022        1021
        1017        1018        1023        1022
        1018        1019        1024        1023
        1025        1026        1031        1030
        1026        1027        1032        1031
        1027        1028        1033        1032
        1028        1029        1034        1033
        1030        1031        1036        1035
        1031        1032        1037        1036
        1032        1033        1038        1037
        1033        1034        1039        1038
        1035        1036        1041        1040
        1036        1037        1042        1041
        1037        1038        1043        1042
        1038        1039        1044        1043
        1040        1041        1046        1045
        1041        1042        1047        1046
        1042        1043        1048        1047
        1043        1044        1049        1048
        1050        1051        1056        1055
        1051        1052        1057        1056
        1052        1053        1058        1057
        1053        1054        1059        1058
        1055        1056        1061        1060
        1056        1057        1062        1061
        1057        1058        1063        1062
        1058        1059        1064        1063
        1060        1061        1066        1065
        1061        1062        1067        1066
        1062        1063        1068        1067
        1063        1064        1069        1068
        1065        1066        1071        1070
        1066        1067        1072        1071
        1067        1068        1073        1072
        1068        1069        1074        1073
        1075        1076        1081        1080
        1076        1077        1082        1081
        1077        1078        1083        1082
        1078        1079        1084        1083
        1080        1081        1086        1085
        1081        1082        1087        1086
        1082        1083        1088        1087
        1083        1084        1089        1088
        1085        1086        1091        1090
        1086        1087        1092        1091
        1087        1088        1093        1092
        1088        1089        1094        1093
        1090        1091        1096        1095
        1091        1092        1097        1096
        1092        1093        1098        1097
        1093        1094        1099        1098
        1100        1101        1106        1105
        1101        1102        1107        1106
        1102        1103        1108        1107
        1103        1104        1109        1108
        1105        1106        1111        1110
        1106        1107        1112        1111
        1107        1108        1113        1112
        1108        1109        1114        1113
        1110        1111        1116        1115
        1111        1112        1117        1116
        1112        1113        1118        1117
        1113        1114        1119        1118
        1115        1116        1121        1120
        1116        1117        1122        1121
        1117        1118        1123        1122
        1118        1119        1124        1123
        1125        1126        1131        1130
        1126        1127        1132        1131
        1127        1128        1133        1132
        1128        1129        1134        1133
        1130        1131        1136        1135
        1131        1132        1137        1136
        1132        1133        1138        1137
        1133        1134        1139        1138
        1135        1136        1141        1140
        1136        1137        1142        1141
        1137        1138        1143        1142
        1138        1139        1144        1143
        1140        1141        1146        1145
        1141        1142        1147        1146
        1142        1143        1148        1147
        1143        1144        1149        1148
        1150        1151        1156        1155
        1151        1152        1157        1156
        1152        1153        1158        1157
        1153        1154        1159        1158
        1155        1156        1161        1160
        1156        1157        1162        1161
        1157        1158        1163        1162
        1158        1159        1164        1163
        1160        1161        1166        1165
        1161        1162        1167        1166
        1162        1163        1168        1167
        1163        1164        1169        1168
        1165        1166        1171        1170
        1166        1167        1172        1171
        1167        1168        1173        1172
        1168        1169        1174        1173
        1175        1176        1181        1180
        1176        1177        1182        1181
        1177        1178        1183        1182
        1178        1179        1184        1183
        1180        1181        1186        1185
        1181        1182        1187        1186
        1182        1183        1188        1187
        1183        1184        1189        1188
        1185        1186        1191        1190
        1186        1187        1192        1191
        1187        1188        1193        1192
        1188        1189        1194        1193
        1190        1191        1196        1195
        1191        1192        1197        1196
        1192        1193        1198        1197
        1193        1194        1199        1198
        1200        1201        1206        1205
        1201        1202        1207        1206
        1202        1203        1208        1207
        1203        1204        1209        1208
        1205        1206        1211        1210
        1206        1207        1212        1211
        1207        1208        1213        1212
        1208        1209        1214        1213
        1210        1211        1216        1215
        1211        1212        1217        1216
        1212        1213        1218        1217
        1213        1214        1219        1218
        1215        1216        1221        1220
        1216        1217        1222        1221
        1217        1218        1223        1222
        1218        1219        1224        1223
        1225        1226        1231        1230
        1226        1227        1232        1231
        1227        1228        1233        1232
        1228        1229        1234        1233
        1230        1231        1236        1235
        1231        1232        1237        1236
        1232        1233        1238        1237
        1233        1234        1239        1238
        1235        1236        1241        1240
        1236        1237        1242        1241
        1237        1238        1243        1242
        1238        1239        1244        1243
        1240        1241        1246        1245
        1241        1242        1247        1246
        1242        1243        1248        1247
        1243        1244        1249        1248
        1250        1251        1256        1255
        1251        1252        1257        1256
        1252        1253        1258        1257
        1253        1254        1259        1258
        1255        1256        1261        1260
        1256        1257        1262        1261
        1257        1258        1263        1262
        1258        1259        1264        1263
        1260        1261        1266        1265
        1261        1262        1267        1266
        1262        1263        1268        1267
        1263        1264        1269        1268
        1265        1266        1271        1270
        1266        1267        1272        1271
        1267        1268        1273        1272
        1268        1269        1274        1273
        1275        1276        1281        1280
        1276        1277        1282        1281
        1277        1278        1283        1282
        1278        1279        1284        1283
        1280        1281        1286        1285
        1281        1282        1287        1286
        1282        1283        1288        1287
        1283        1284        1289        1288
        1285        1286        1291        1290
        1286        1287        1292        1291
        1287        1288        1293        1292
        1288        1289        1294        1293
        1290        1291        1296        1295
        1291        1292        1297        1296
        1292        1293        1298        1297
        1293        1294        1299        1298
        1300        1301        1306        1305
        1301        1302        1307        1306
        1302        1303        1308        1307
        1303        1304        1309        1308
        1305        1306        1311        1310
        1306        1307        1312        1311
        1307        1308        1313        1312
        1308        1309        1314        1313
        1310        1311        1316        1315
        1311        1312        1317        1316
        1312        1313        1318        1317
        1313        1314        1319        1318
        1315        1316        1321        1320
        1316        1317        1322        1321
        1317        1318        1323        1322
        1318        1319        1324        1323
        1325        1326        1331        1330
        1326        1327        1332        1331
        1327        1328        1333        1332
        1328        1329        1334        1333
        1330        1331        1336        1335
        1331        1332        1337        1336
        1332        1333        1338        1337
        1333        1334        1339        1338
        1335        1336        1341        1340
        1336        1337        1342        1341
        1337        1338        1343        1342
        1338        1339        1344        1343
        1340        1341        1346        1345
        1341        1342        1347        1346
        1342        1343        1348        1347
        1343        1344        1349        1348
        1350        1351        1356        1355
        1351        1352        1357        1356
        1352        1353        1358        1357
        1353        1354        1359        1358
        1355        1356        1361        1360
        1356        1357        1362        1361
        1357        1358        1363        1362
        1358        1359        1364        1363
        1360        1361        1366        1365
        1361        1362        1367        1366
        1362        1363        1368        1367
        1363        1364        1369        1368
        1365        1366        1371        1370
        1366        1367        1372        1371
        1367        1368        1373        1372
        1368        1369        1374        1373
        1375        1376        1381        1380
        1376        1377        1382        1381
        1377        1378        1383        1382
        1378        1379        1384        1383
        1380        1381        1386        1385
        1381        1382        1387        1386
        1382        1383        1388        1387
        1383        1384        1389        1388
        1385        1386        1391        1390
        1386        1387        1392        1391
        1387        1388        1393        1392
        1388        1389        1394        1393
        1390        1391        1396        1395
        1391        1392        1397        1396
        1392        1393        1398        1397
        1393        1394        1399        1398
        1400        1401        1406        1405
        1401        1402        1407        1406
        1402        1403        1408        1407
        1403        1404        1409        1408
        1405        1406        1411        1410
        1406        1407        1412        1411
        1407        1408        1413        1412
        1408        1409        1414        1413
        1410        1411        1416        1415
        1411        1412        1417        1416
        1412        1413        1418        1417
        1413        1414        1419        1418
        1415        1416        1421        1420
        1416        1417        1422        1421
        1417        1418        1423        1422
        1418        1419        1424        1423
        1425        1426        1431        1430
        1426        1427        1432        1431
        1427        1428        1433        1432
        1428        1429        1434        1433
        1430        1431        1436        1435
        1431        1432        1437        1436
        1432        1433        1438        1437
        1433        1434        1439        1438
        1435        1436        1441        1440
        1436        1437        1442        1441
        1437        1438        1443        1442
        1438        1439        1444        1443
        1440        1441        1446        1445
        1441        1442        1447        1446
        1442        1443        1448        1447
        1443        1444        1449        1448
        1450        1451        1456        1455
        1451        1452        1457        1456
        1452        1453        1458        1457
        1453        1454        1459        1458
        1455        1456        1461        1460
        1456        1457        1462        1461
        1457        1458        1463        1462
        1458        1459        1464        1463
        1460        1461        1466        1465
        1461        1462        1467        1466
        1462        1463        1468        1467
        1463        1464        1469        1468
        1465        1466        1471        1470
        1466        1467        1472        1471
        1467        1468        1473        1472
        1468        1469        1474        1473
        1475        1476        1481        1480
        1476        1477        1482        1481
        1477        1478        1483        1482
        1478        1479        1484        1483
        1480        1481        1486        1485
        1481        1482        1487        1486
        1482        1483        1488        1487
        1483        1484        1489        1488
        1485        1486        1491        1490
        1486        1487        1492        1491
        1487        1488        1493        1492
        1488        1489        1494        1493
        1490        1491        1496        1495
        1491        1492        1497        1496
        1492        1493        1498        1497
        1493        1494        1499        1498
        1500        1501        1506        1505
        1501        1502        1507        1506
        1502        1503        1508        1507
        1503        1504        1509        1508
        1505        1506        1511        1510
        1506        1507        1512        1511
        1507        1508        1513        1512
        1508        1509        1514        1513
        1510        1511        1516        1515
        1511        1512        1517        1516
        1512        1513        1518        1517
        1513        1514        1519        1518
        1515        1516        1521        1520
        1516        1517        1522        1521
        1517        1518        1523        1522
        1518        1519        1524        1523
        1525        1526        1531        1530
        1526        1527        1532        1531
        1527        1528        1533        1532
        1528        1529        1534        1533
        1530        1531        1536        1535
        1531        1532        1537        1536
        1532        1533        1538        1537
        1533        1534        1539        1538
        1535        1536        1541        1540
        1536        1537        1542        1541
        1537        1538        1543        1542
        1538        1539        1544        1543
        1540        1541        1546        1545
        1541        1542        1547        1546
        1542        1543        1548        1547
        1543        1544        1549        1548
        1550        1551        1556        1555
        1551        1552        1557        1556
        1552        1553        1558        1557
        1553        1554        1559        1558
        1555        1556        1561        1560
        1556        1557        1562        1561
        1557        1558        1563        1562
        1558        1559        1564        1563
        1560        1561        1566        1565
        1561        1562        1567        1566
        1562        1563        1568        1567
        1563        1564        1569        1568
        1565        1566        1571        1570
        1566        1567        1572        1571
        1567        1568        1573        1572
        1568        1569        1574        1573
        1575        1576        1581        1580
        1576        1577        1582        1581
        1577        1578        1583        1582
        1578        1579        1584        1583
        1580        1581        1586        1585
        1581        1582        1587        1586
        1582        1583        1588        1587
        1583        1584        1589        1588
        1585        1586        1591        1590
        1586        1587        1592        1591
        1587        1588        1593        1592
        1588        1589        1594        1593
        1590        1591        1596        1595
        1591        1592        1597        1596
        1592        1593        1598        1597
        1593        1594        1599        1598
 </DataArray>
 <DataArray  type="Int32"  Name="offsets"  format="ascii"> 
           4
           8
          12
          16
          20
          24
          28
          32
          36
          40
          44
          48
          52
          56
          60
          64
          68
          72
          76
          80
          84
          88
          92
          96
         100
         104
         108
         112
         116
         120
         124
         128
         132
         136
         140
         144
         148
         152
         156
         160
         164
         168
         172
         176
         180
         184
         188
         192
         196
         200
         204
         208
         212
         216
         220
         224
         228
         232
         236
         240
         244
         248
         252
         256
         260
         264
         268
         272
         276
         280
         284
         288
         292
         296
         300
         304
         308
         312
         316
         320
         324
         328
         332
         336
         340
         344
         348
         352
         356
         360
         364
         368
         372
         376
         380
         384
         388
         392
         396
         400
         404
         408
         412
         416
         420
         424
         428
         432
         436
         440
         444
         448
         452
         456
         460
         464
         468
         472
         476
         480
         484
         488
         492
         496
         500
         504
         508
         512
         516
         520
         524
         528
         532
         536
         540
         544
         548
         552
         556
         560
         564
         568
         572
         576
         580
         584
         588
         592
         596
         600
         604
         608
         612
         616
         620
         624
         628
         632
         636
         640
         644
         648
         652
         656
         660
         664
         668
         672
         676
         680
         684
         688
         692
         696
         700
         704
         708
         712
         716
         720
         724
         728
         732
         736
         740
         744
         748
         752
         756
         760
         764
         768
         772
         776
         780
         784
         788
         792
         796
         800
         804
         808
         812
         816
         820
         824
         828
         832
         836
         840
         844
         848
         852
         856
         860
         864
         868
         872
         876
         880
         884
         888
         892
         896
         900
         904
         908
         912
         916
         920
         924
         928
         932
         936
         940
         944
         948
         952
         956
         960
         964
         968
         972
         976
         980
         984
         988
         992
         996
        1000
        1004
        1008
        1012
        1016
        1020
        1024
        1028
        1032
        1036
        1040
        1044
        1048
        1052
        1056
        1060
        1064
        1068
        1072
        1076
        1080
        1084
        1088
        1092
        1096
        1100
        1104
        1108
        1112
        1116
        1120
        1124
        1128
        1132
        1136
        1140
        1144
        1148
        1152
        1156
        1160
        1164
        1168
        1172
        1176
        1180
        1184
        1188
        1192
        1196
        1200
        1204
        1208
        1212
        1216
        1220
        1224
        1228
        1232
        1236
        1240
        1244
        1248
        1252
        1256
        1260
        1264
        1268
        1272
        1276
        1280
        1284
        1288
        1292
        1296
        1300
        1304
        1308
        1312
        1316
        1320
        1324
        1328
        1332
        1336
        1340
        1344
        1348
        1352
        1356
        1360
        1364
        1368
        1372
        1376
        1380
        1384
        1388
        1392
        1396
        1400
        1404
        1408
        1412
        1416
        1420
        1424
        1428
        1432
        1436
        1440
        1444
        1448
        1452
        1456
        1460
        1464
        1468
        1472
        1476
        1480
        1484
        1488
        1492
        1496
        1500
        1504
        1508
        1512
        1516
        1520
        1524
        1528
        1532
        1536
        1540
        1544
        1548
        1552
        1556
        1560
        1564
        1568
        1572
        1576
        1580
        1584
        1588
        1592
        1596
        1600
        1604
        1608
        1612
        1616
        1620
        1624
        1628
        1632
        1636
        1640
        1644
        1648
        1652
        1656
        1660
        1664
        1668
        1672
        1676
        1680
        1684
        1688
        1692
        1696
        1700
        1704
        1708
        1712
        1716
        1720
        1724
        1728
        1732
        1736
        1740
        1744
        1748
        1752
        1756
        1760
        1764
        1768
        1772
        1776
        1780
        1784
        1788
        1792
        1796
        1800
        1804
        1808
        1812
        1816
        1820
        1824
        1828
        1832
        1836
        1840
        1844
        1848
        1852
        1856
        1860
        1864
        1868
        1872
        1876
        1880
        1884
        1888
        1892
        1896
        1900
        1904
        1908
        1912
        1916
        1920
        1924
        1928
        1932
        1936
        1940
        1944
        1948
        1952
        1956
        1960
        1964
        1968
        1972
        1976
        1980
        1984
        1988
        1992
        1996
        2000
        2004
        2008
        2012
        2016
        2020
        2024
        2028
        2032
        2036
        2040
        2044
        2048
        2052
        2056
        2060
        2064
        2068
        2072
        2076
        2080
        2084
        2088
        2092
        2096
        2100
        2104
        2108
        2112
        2116
        2120
        2124
        2128
        2132
        2136
        2140
        2144
        2148
        2152
        2156
        2160
        2164
        2168
        2172
        2176
        2180
        2184
        2188
        2192
        2196
        2200
        2204
        2208
        2212
        2216
        2220
        2224
        2228
        2232
        2236
        2240
        2244
        2248
        2252
        2256
        2260
        2264
        2268
        2272
        2276
        2280
        2284
        2288
        2292
        2296
        2300
        2304
        2308
        2312
        2316
        2320
        2324
        2328
        2332
        2336
        2340
        2344
        2348
        2352
        2356
        2360
        2364
        2368
        2372
        2376
        2380
        2384
        2388
        2392
        2396
        2400
        2404
        2408
        2412
        2416
        2420
        2424
        2428
        2432
        2436
        2440
        2444
        2448
        2452
        2456
        2460
        2464
        2468
        2472
        2476
        2480
        2484
        2488
        2492
        2496
        2500
        2504
        2508
        2512
        2516
        2520
        2524
        2528
        2532
        2536
        2540
        2544
        2548
        2552
        2556
        2560
        2564
        2568
        2572
        2576
        2580
        2584
        2588
        2592
        2596
        2600
        2604
        2608
        2612
        2616
        2620
        2624
        2628
        2632
        2636
        2640
        2644
        2648
        2652
        2656
        2660
        2664
        2668
        2672
        2676
        2680
        2684
        2688
        2692
        2696
        2700
        2704
        2708
        2712
        2716
        2720
        2724
        2728
        2732
        2736
        2740
        2744
        2748
        2752
        2756
        2760
        2764
        2768
        2772
        2776
        2780
        2784
        2788
        2792
        2796
        2800
        2804
        2808
        2812
        2816
        2820
        2824
        2828
        2832
        2836
        2840
        2844
        2848
        2852
        2856
        2860
        2864
        2868
        2872
        2876
        2880
        2884
        2888
        2892
        2896
        2900
        2904
        2908
        2912
        2916
        2920
        2924
        2928
        2932
        2936
        2940
        2944
        2948
        2952
        2956
        2960
        2964
        2968
        2972
        2976
        2980
        2984
        2988
        2992
        2996
        3000
        3004
        3008
        3012
        3016
        3020
        3024
        3028
        3032
        3036
        3040
        3044
        3048
        3052
        3056
        3060
        3064
        3068
        3072
        3076
        3080
        3084
        3088
        3092
        3096
        3100
        3104
        3108
        3112
        3116
        3120
        3124
        3128
        3132
        3136
        3140
        3144
        3148
        3152
        3156
        3160
        3164
        3168
        3172
        3176
        3180
        3184
        3188
        3192
        3196
        3200
        3204
        3208
        3212
        3216
        3220
        3224
        3228
        3232
        3236
        3240
        3244
        3248
        3252
        3256
        3260
        3264
        3268
        3272
        3276
        3280
        3284
        3288
        3292
        3296
        3300
        3304
        3308
        3312
        3316
        3320
        3324
        3328
        3332
        3336
        3340
        3344
        3348
        3352
        3356
        3360
        3364
        3368
        3372
        3376
        3380
        3384
        3388
        3392
        3396
        3400
        3404
        3408
        3412
        3416
        3420
        3424
        3428
        3432
        3436
        3440
        3444
        3448
        3452
        3456
        3460
        3464
        3468
        3472
        3476
        3480
        3484
        3488
        3492
        3496
        3500
        3504
        3508
        3512
        3516
        3520
        3524
        3528
        3532
        3536
        3540
        3544
        3548
        3552
        3556
        3560
        3564
        3568
        3572
        3576
        3580
        3584
        3588
        3592
        3596
        3600
        3604
        3608
        3612
        3616
        3620
        3624
        3628
        3632
        3636
        3640
        3644
        3648
        3652
        3656
        3660
        3664
        3668
        3672
        3676
        3680
        3684
        3688
        3692
        3696
        3700
        3704
        3708
        3712
        3716
        3720
        3724
        3728
        3732
        3736
        3740
        3744
        3748
        3752
        3756
        3760
        3764
        3768
        3772
        3776
        3780
        3784
        3788
        3792
        3796
        3800
        3804
        3808
        3812
        3816
        3820
        3824
        3828
        3832
        3836
        3840
        3844
        3848
        3852
        3856
        3860
        3864
        3868
        3872
        3876
        3880
        3884
        3888
        3892
        3896
        3900
        3904
        3908
        3912
        3916
        3920
        3924
        3928
        3932
        3936
        3940
        3944
        3948
        3952
        3956
        3960
        3964
        3968
        3972
        3976
        3980
        3984
        3988
        3992
        3996
        4000
        4004
        4008
        4012
        4016
        4020
        4024
        4028
        4032
        4036
        4040
        4044
        4048
        4052
        4056
        4060
        4064
        4068
        4072
        4076
        4080
        4084
        4088
        4092
        4096
 </DataArray>
 <DataArray  type="UInt8"  Name="types"  format="ascii">
 9
 9
 9
 9
 9
 9
 9
 9
 9
 9
 9
 9
 9
 9
 9
 9
 9
 9
 9
 9
 9
 9
 9
 9
 9
 9
 9
 9
 9
 9
 9
 9
 9
 9
 9
 9
 9
 9
 9
 9
 9
 9
 9
 9
 9
 9
 9
 9
 9
 9
 9
 9
 9
 9
 9
 9
 9
 9
 9
 9
 9
 9
 9
 9
 9
 9
 9
 9
 9
 9
 9
 9
 9
 9
 9
 9
 9
 9
 9
 9
 9
 9
 9
 9
 9
 9
 9
 9
 9
 9
 9
 9
 9
 9
 9
 9
 9
 9
 9
 9
 9
 9
 9
 9
 9
 9
 9
 9
 9
 9
 9
 9
 9
 9
 9
 9
 9
 9
 9
 9
 9
 9
 9
 9
 9
 9
 9
 9
 9
 9
 9
 9
 9
 9
 9
 9
 9
 9
 9
 9
 9
 9
 9
 9
 9
 9
 9
 9
 9
 9
 9
 9
 9
 9
 9
 9
 9
 9
 9
 9
 9
 9
 9
 9
 9
 9
 9
 9
 9
 9
 9
 9
 9
 9
 9
 9
 9
 9
 9
 9
 9
 9
 9
 9
 9
 9
 9
 9
 9
 9
 9
 9
 9
 9
 9
 9
 9
 9
 9
 9
 9
 9
 9
 9
 9
 9
 9
 9
 9
 9
 9
 9
 9
 9
 9
 9
 9
 9
 9
 9
 9
 9
 9
 9
 9
 9
 9
 9
 9
 9
 9
 9
 9
 9
 9
 9
 9
 9
 9
 9
 9
 9
 9
 9
 9
 9
 9
 9
 9
 9
 9
 9
 9
 9
 9
 9
 9
 9
 9
 9
 9
 9
 9
 9
 9
 9
 9
 9
 9
 9
 9
 9
 9
 9
 9
 9
 9
 9
 9
 9
 9
 9
 9
 9
 9
 9
 9
 9
 9
 9
 9
 9
 9
 9
 9
 9
 9
 9
 9
 9
 9
 9
 9
 9
 9
 9
 9
 9
 9
 9
 9
 9
 9
 9
 9
 9
 9
 9
 9
 9
 9
 9
 9
 9
 9
 9
 9
 9
 9
 9
 9
 9
 9
 9
 9
 9
 9
 9
 9
 9
 9
 9
 9
 9
 9
 9
 9
 9
 9
 9
 9
 9
 9
 9
 9
 9
 9
 9
 9
 9
 9
 9
 9
 9
 9
 9
 9
 9
 9
 9
 9
 9
 9
 9
 9
 9
 9
 9
 9
 9
 9
 9
 9
 9
 9
 9
 9
 9
 9
 9
 9
 9
 9
 9
 9
 9
 9
 9
 9
 9
 9
 9
 9
 9
 9
 9
 9
 9
 9
 9
 9
 9
 9
 9
 9
 9
 9
 9
 9
 9
 9
 9
 9
 9
 9
 9
 9
 9
 9
 9
 9
 9
 9
 9
 9
 9
 9
 9
 9
 9
 9
 9
 9
 9
 9
 9
 9
 9
 9
 9
 9
 9
 9
 9
 9
 9
 9
 9
 9
 9
 9
 9
 9
 9
 9
 9
 9
 9
 9
 9
 9
 9
 9
 9
 9
 9
 9
 9
 9
 9
 9
 9
 9
 9
 9
 9
 9
 9
 9
 9
 9
 9
 9
 9
 9
 9
 9
 9
 9
 9
 9
 9
 9
 9
 9
 9
 9
 9
 9
 9
 9
 9
 9
 9
 9
 9
 9
 9
 9
 9
 9
 9
 9
 9
 9
 9
 9
 9
 9
 9
 9
 9
 9
 9
 9
 9
 9
 9
 9
 9
 9
 9
 9
 9
 9
 9
 9
 9
 9
 9
 9
 9
 9
 9
 9
 9
 9
 9
 9
 9
 9
 9
 9
 9
 9
 9
 9
 9
 9
 9
 9
 9
 9
 9
 9
 9
 9
 9
 9
 9
 9
 9
 9
 9
 9
 9
 9
 9
 9
 9
 9
 9
 9
 9
 9
 9
 9
 9
 9
 9
 9
 9
 9
 9
 9
 9
 9
 9
 9
 9
 9
 9
 9
 9
 9
 9
 9
 9
 9
 9
 9
 9
 9
 9
 9
 9
 9
 9
 9
 9
 9
 9
 9
 9
 9
 9
 9
 9
 9
 9
 9
 9
 9
 9
 9
 9
 9
 9
 9
 9
 9
 9
 9
 9
 9
 9
 9
 9
 9
 9
 9
 9
 9
 9
 9
 9
 9
 9
 9
 9
 9
 9
 9
 9
 9
 9
 9
 9
 9
 9
 9
 9
 9
 9
 9
 9
 9
 9
 9
 9
 9
 9
 9
 9
 9
 9
 9
 9
 9
 9
 9
 9
 9
 9
 9
 9
 9
 9
 9
 9
 9
 9
 9
 9
 9
 9
 9
 9
 9
 9
 9
 9
 9
 9
 9
 9
 9
 9
 9
 9
 9
 9
 9
 9
 9
 9
 9
 9
 9
 9
 9
 9
 9
 9
 9
 9
 9
 9
 9
 9
 9
 9
 9
 9
 9
 9
 9
 9
 9
 9
 9
 9
 9
 9
 9
 9
 9
 9
 9
 9
 9
 9
 9
 9
 9
 9
 9
 9
 9
 9
 9
 9
 9
 9
 9
 9
 9
 9
 9
 9
 9
 9
 9
 9
 9
 9
 9
 9
 9
 9
 9
 9
 9
 9
 9
 9
 9
 9
 9
 9
 9
 9
 9
 9
 9
 9
 9
 9
 9
 9
 9
 9
 9
 9
 9
 9
 9
 9
 9
 9
 9
 9
 9
 9
 9
 9
 9
 9
 9
 9
 9
 9
 9
 9
 9
 9
 9
 9
 9
 9
 9
 9
 9
 9
 9
 9
 9
 9
 9
 9
 9
 9
 9
 9
 9
 9
 9
 9
 9
 9
 9
 9
 9
 9
 9
 9
 9
 9
 9
 9
 9
 9
 9
 9
 9
 9
 9
 9
 9
 9
 9
 9
 9
 9
 9
 9
 9
 9
 9
 9
 9
 9
 9
 9
 9
 9
 9
 9
 9
 9
 9
 9
 9
 9
 9
 9
 9
 9
 9
 9
 9
 9
 9
 9
 9
 9
 9
 9
 9
 9
 9
 9
 9
 9
 9
 9
 9
 9
 9
 9
 9
 9
 9
 9
 9
 9
 9
 9
 9
 9
 9
 9
 9
 9
 9
 9
 9
 9
 9
 9
 9
 9
 9
 9
 9
 9
 9
 9
 9
 9
 9
 9
 9
 9
 9
 9
 9
 9
 9
 9
 9
 9
 9
 9
 9
 9
 9
 9
 9
 9
 9
 9
 9
 9
 9
 9
 9
 9
 9
 9
 9
 9
 9
 9
 9
 9
 9
 9
 9
 9
 9
 9
 9
 9
 9
 9
 9
 9
 9
 9
 9
 9
 9
 9
 </DataArray>
 </Cells> 
 <PointData>
 <DataArray  type="Float64" Name="disp" NumberOfComponents="3" format="ascii">
   0.0000000000000000        0.0000000000000000        0.0000000000000000     
   6.0961963302272092E-003   3.7903211613739833E-003   0.0000000000000000     
   1.1666470727383881E-002   7.3234064743790250E-003   0.0000000000000000     
   1.6710823191470013E-002   1.0599255939015124E-002   0.0000000000000000     
   2.1229253722485610E-002   1.3617869555282283E-002   0.0000000000000000     
   0.0000000000000000        0.0000000000000000        0.0000000000000000     
   4.8914185725137532E-003   3.0218175571354398E-003   0.0000000000000000     
   9.5742106807079827E-003   6.0597995244468916E-003   0.0000000000000000     
   1.4048376324582692E-002   9.1139459019343571E-003   0.0000000000000000     
   1.8313915504137877E-002   1.2184256689597831E-002   0.0000000000000000     
   0.0000000000000000        0.0000000000000000        0.0000000000000000     
   3.9538266377279561E-003   2.4246508628310115E-003   0.0000000000000000     
   7.9111952926766826E-003   5.0619704145755586E-003   0.0000000000000000     
   1.1872105964846179E-002   7.9119586552336418E-003   0.0000000000000000     
   1.5836558654236450E-002   1.0974615584805262E-002   0.0000000000000000     
   0.0000000000000000        0.0000000000000000        0.0000000000000000     
   3.2834205258698160E-003   1.9988210784606980E-003   0.0000000000000000     
   6.6774245632899767E-003   4.3299191447650261E-003   0.0000000000000000     
   1.0182012112260483E-002   6.9932941989129830E-003   0.0000000000000000     
   1.3797183172781330E-002   9.9889462409045726E-003   0.0000000000000000     
   0.0000000000000000        0.0000000000000000        0.0000000000000000     
   2.8802002369393348E-003   1.7443282040244998E-003   0.0000000000000000     
   5.8728984925478667E-003   3.8636457150152933E-003   0.0000000000000000     
   8.9780947668255950E-003   6.3579525329723798E-003   0.0000000000000000     
   1.2195789059772519E-002   9.2272486578957608E-003   0.0000000000000000     
   2.1229253722485610E-002   1.3617869555282283E-002   0.0000000000000000     
   2.5434920509658624E-002   1.6610143382514410E-002   0.0000000000000000     
   2.9540981742217011E-002   1.9806973480045412E-002   0.0000000000000000     
   3.3547437420160774E-002   2.3208359847875292E-002   0.0000000000000000     
   3.7454287543489902E-002   2.6814302486004048E-002   0.0000000000000000     
   1.8313915504137877E-002   1.2184256689597831E-002   0.0000000000000000     
   2.2409175661282560E-002   1.5339178351986621E-002   0.0000000000000000     
   2.6372504237925753E-002   1.8647157353650027E-002   0.0000000000000000     
   3.0203901234067458E-002   2.2108193694588042E-002   0.0000000000000000     
   3.3903366649707688E-002   2.5722287374800670E-002   0.0000000000000000     
   1.5836558654236450E-002   1.0974615584805262E-002   0.0000000000000000     
   1.9732813623354276E-002   1.4208741571911918E-002   0.0000000000000000     
   2.3489131134706430E-002   1.7573136985175108E-002   0.0000000000000000     
   2.7105511188292922E-002   2.1067801824594834E-002   0.0000000000000000     
   3.0581953784113755E-002   2.4692736090171093E-002   0.0000000000000000     
   1.3797183172781330E-002   9.9889462409045726E-003   0.0000000000000000     
   1.7405834395873770E-002   1.3218833042290290E-002   0.0000000000000000     
   2.0890862432559044E-002   1.6584912374620658E-002   0.0000000000000000     
   2.4252267282837157E-002   2.0087184237895666E-002   0.0000000000000000     
   2.7490048946708107E-002   2.3725648632115313E-002   0.0000000000000000     
   1.2195789059772519E-002   9.2272486578957608E-003   0.0000000000000000     
   1.5428237978841051E-002   1.2369452763121755E-002   0.0000000000000000     
   1.8577698131483598E-002   1.5682483521986680E-002   0.0000000000000000     
   2.1644169517700165E-002   1.9166340934490541E-002   0.0000000000000000     
   2.4627652137490755E-002   2.2821025000633332E-002   0.0000000000000000     
   3.7454287543489902E-002   2.6814302486004048E-002   0.0000000000000000     
   4.1265571043054367E-002   3.0619927881266867E-002   0.0000000000000000     
   4.4985326849704119E-002   3.4620362520498951E-002   0.0000000000000000     
   4.8613554963439179E-002   3.8815606403700284E-002   0.0000000000000000     
   5.2150255384259520E-002   4.3205659530870882E-002   0.0000000000000000     
   3.3903366649707688E-002   2.5722287374800670E-002   0.0000000000000000     
   3.7493970545507044E-002   2.9518473624448264E-002   0.0000000000000000     
   4.0998782982126176E-002   3.3525787673691167E-002   0.0000000000000000     
   4.4417803959565079E-002   3.7744229522529371E-002   0.0000000000000000     
   4.7751033477823744E-002   4.2173799170962888E-002   0.0000000000000000     
   3.0581953784113755E-002   2.4692736090171093E-002   0.0000000000000000     
   3.3947891084301976E-002   2.8492910412442542E-002   0.0000000000000000     
   3.7232755250990665E-002   3.2513295421947835E-002   0.0000000000000000     
   4.0436546284179808E-002   3.6753891118686974E-002   0.0000000000000000     
   4.3559264183869420E-002   4.1214697502659964E-002   0.0000000000000000     
   2.7490048946708107E-002   2.3725648632115313E-002   0.0000000000000000     
   3.0627332659439163E-002   2.7543238245249714E-002   0.0000000000000000     
   3.3687243656297584E-002   3.1582885765268971E-002   0.0000000000000000     
   3.6669781937283395E-002   3.5844591192173099E-002   0.0000000000000000     
   3.9574947502396561E-002   4.0328354525962083E-002   0.0000000000000000     
   2.4627652137490755E-002   2.2821025000633332E-002   0.0000000000000000     
   2.7532295270918595E-002   2.6669457122869767E-002   0.0000000000000000     
   3.0362248198046948E-002   3.0734558703654571E-002   0.0000000000000000     
   3.3117510918875798E-002   3.5016329742987733E-002   0.0000000000000000     
   3.5798083433405160E-002   3.9514770240869274E-002   0.0000000000000000     
   5.2150255384259520E-002   4.3205659530870882E-002   0.0000000000000000     
   5.5595161853553288E-002   4.7796977263181765E-002   0.0000000000000000     
   5.8948008112708616E-002   5.2596014961803966E-002   0.0000000000000000     
   6.2208794161725499E-002   5.7602772626737478E-002   0.0000000000000000     
   6.5377520000603942E-002   6.2817250257982307E-002   0.0000000000000000     
   4.7751033477823744E-002   4.2173799170962888E-002   0.0000000000000000     
   5.0995080553930691E-002   4.6808659111751638E-002   0.0000000000000000     
   5.4146554204914439E-002   5.1642971837655538E-002   0.0000000000000000     
   5.7205454430775002E-002   5.6676737348674580E-002   0.0000000000000000     
   6.0171781231512372E-002   6.1909955644808778E-002   0.0000000000000000     
   4.3559264183869420E-002   4.1214697502659964E-002   0.0000000000000000     
   4.6596536743898194E-002   4.5883282301269979E-002   0.0000000000000000     
   4.9543991758104831E-002   5.0747213241920233E-002   0.0000000000000000     
   5.2401629226489353E-002   5.5806490324610727E-002   0.0000000000000000     
   5.5169449149051732E-002   6.1061113549341454E-002   0.0000000000000000     
   3.9574947502396561E-002   4.0328354525962083E-002   0.0000000000000000     
   4.2399530423455789E-002   4.5020846831736787E-002   0.0000000000000000     
   4.5140320772279793E-002   4.9908739174598052E-002   0.0000000000000000     
   4.7797318548868532E-002   5.4992031554545899E-002   0.0000000000000000     
   5.0370523753222048E-002   6.0270723971580314E-002   0.0000000000000000     
   3.5798083433405160E-002   3.9514770240869274E-002   0.0000000000000000     
   3.8404061592603504E-002   4.4221352703152056E-002   0.0000000000000000     
   4.0935541247439304E-002   4.9127549635689008E-002   0.0000000000000000     
   4.3392522397912581E-002   5.4233361038480123E-002   0.0000000000000000     
   4.5775005044023313E-002   5.9538786911525379E-002   0.0000000000000000     
   6.5377520000603942E-002   6.2817250257982307E-002   0.0000000000000000     
   6.8451420559296247E-002   6.8221715328078678E-002   0.0000000000000000     
   7.1427730767754716E-002   7.3798435309566812E-002   0.0000000000000000     
   7.4306450625979348E-002   7.9547410202446739E-002   0.0000000000000000     
   7.7087580133970143E-002   8.5468640006718430E-002   0.0000000000000000     
   6.0171781231512372E-002   6.1909955644808778E-002   0.0000000000000000     
   6.3046656933252149E-002   6.7331048776783156E-002   0.0000000000000000     
   6.5831203862119964E-002   7.2928438795322736E-002   0.0000000000000000     
   6.8525422018115803E-002   7.8702125700427533E-002   0.0000000000000000     
   7.1129311401239681E-002   8.4652109492097533E-002   0.0000000000000000     
   5.5169449149051732E-002   6.1061113549341454E-002   0.0000000000000000     
   5.7850394570854849E-002   6.6502711149767510E-002   0.0000000000000000     
   6.0447408536961567E-002   7.2122911359544004E-002   0.0000000000000000     
   6.2960491047371878E-002   7.7921714178670914E-002   0.0000000000000000     
   6.5389642102085768E-002   8.3899119607148270E-002   0.0000000000000000     
   5.0370523753222048E-002   6.0270723971580314E-002   0.0000000000000000     
   5.2862633472104376E-002   6.5736702447031739E-002   0.0000000000000000     
   5.5276344792279532E-002   7.1381853002230600E-002   0.0000000000000000     
   5.7611657713747558E-002   7.7206175637176896E-002   0.0000000000000000     
   5.9868572236508440E-002   8.3209670351870643E-002   0.0000000000000000     
   4.5775005044023313E-002   5.9538786911525379E-002   0.0000000000000000     
   4.8083373637000680E-002   6.5033022668575843E-002   0.0000000000000000     
   5.0318012628073866E-002   7.0705263723382539E-002   0.0000000000000000     
   5.2478922017242864E-002   7.6555510075945465E-002   0.0000000000000000     
   5.4566101804507675E-002   8.2583761726264637E-002   0.0000000000000000     
   7.7087580133970143E-002   8.5468640006718430E-002   0.0000000000000000     
   7.9772810628834845E-002   9.1559122244646768E-002   0.0000000000000000     
   8.2363833447681181E-002   9.7815854438496677E-002   0.0000000000000000     
   8.4860648590509166E-002  0.10423883658826812        0.0000000000000000     
   8.7263256057318800E-002  0.11082806869396108        0.0000000000000000     
   7.1129311401239681E-002   8.4652109492097533E-002   0.0000000000000000     
   7.3643402186682805E-002   9.0771722880955863E-002   0.0000000000000000     
   7.6068224549636396E-002   9.7054298577625625E-002   0.0000000000000000     
   7.8403778490100454E-002  0.10349983658210685        0.0000000000000000     
   8.0650064008074979E-002  0.11010833689439950        0.0000000000000000     
   6.5389642102085768E-002   8.3899119607148270E-002   0.0000000000000000     
   6.7734799255941322E-002   9.0046223607116421E-002   0.0000000000000000     
   6.9995900063776567E-002   9.6354122140715759E-002   0.0000000000000000     
   7.2172944525591545E-002  0.10282281520794626        0.0000000000000000     
   7.4265932641386173E-002  0.10945230280880795        0.0000000000000000     
   5.9868572236508440E-002   8.3209670351870643E-002   0.0000000000000000     
   6.2047001836610417E-002   8.9382624423128471E-002   0.0000000000000000     
   6.4146859990101737E-002   9.5715325127767051E-002   0.0000000000000000     
   6.6168146696982386E-002  0.10220777246578640        0.0000000000000000     
   6.8110861957252369E-002  0.10885996643718648        0.0000000000000000     
   5.4566101804507675E-002   8.2583761726264637E-002   0.0000000000000000     
   5.6580009928690091E-002   8.8780925328991997E-002   0.0000000000000000     
   5.8521104328611864E-002   9.5137907538779529E-002   0.0000000000000000     
   6.0389385004273044E-002  0.10165470835562722        0.0000000000000000     
   6.2184851955673574E-002  0.10833132777953511        0.0000000000000000     
   8.7263256057318800E-002  0.11082806869396108        0.0000000000000000     
   8.9573544250286644E-002  0.11756219692623887        0.0000000000000000     
   9.1793401571589231E-002  0.12441986745576464        0.0000000000000000     
   9.3922828021226604E-002  0.13140108028253844        0.0000000000000000     
   9.5961823599198748E-002  0.13850583540656025        0.0000000000000000     
   8.0650064008074979E-002  0.11010833689439950        0.0000000000000000     
   8.2807321142768259E-002  0.11686171856409500        0.0000000000000000     
   8.4875789933388512E-002  0.12374190064078475        0.0000000000000000     
   8.6855470379935781E-002  0.13074888312446875        0.0000000000000000     
   8.8746362482410024E-002  0.13788266601514704        0.0000000000000000     
   7.4265932641386173E-002  0.10945230280880795        0.0000000000000000     
   7.6274062792130726E-002  0.11622699393286225        0.0000000000000000     
   7.8196533358795381E-002  0.12313129756967056        0.0000000000000000     
   8.0033344341380167E-002  0.13016521371923287        0.0000000000000000     
   8.1784495739885027E-002  0.13732874238154921        0.0000000000000000     
   6.8110861957252369E-002  0.10885996643718648        0.0000000000000000     
   6.9973769198374072E-002  0.11565802303254062        0.0000000000000000     
   7.1755631847809864E-002  0.12258805824242204        0.0000000000000000     
   7.3456449905559718E-002  0.12965007206683080        0.0000000000000000     
   7.5076223371623702E-002  0.13684406450576680        0.0000000000000000     
   6.2184851955673574E-002  0.10833132777953511        0.0000000000000000     
   6.3906440361498285E-002  0.11515480586313011        0.0000000000000000     
   6.5553085400431949E-002  0.12211218265903924        0.0000000000000000     
   6.7124787072474545E-002  0.12920345816726247        0.0000000000000000     
   6.8621545377626089E-002  0.13642863238779981        0.0000000000000000     
   9.5961823599198748E-002  0.13850583540656025        0.0000000000000000     
   9.7949100915995832E-002  0.14579402603894989        0.0000000000000000     
   9.9923372582108122E-002  0.15332554539082724        0.0000000000000000     
  0.10188463859753553       0.16110039346219224        0.0000000000000000     
  0.10383289896227814       0.16911857025304491        0.0000000000000000     
   8.8746362482410024E-002  0.13788266601514704        0.0000000000000000     
   9.0561229728984574E-002  0.14515729492144089        0.0000000000000000     
   9.2312835607832738E-002  0.15258681545197164        0.0000000000000000     
   9.4001180118954475E-002  0.16017122760673938        0.0000000000000000     
   9.5626263262349825E-002  0.16791053138574397        0.0000000000000000     
   8.1784495739885027E-002  0.13732874238154921        0.0000000000000000     
   8.3446169054013086E-002  0.14460845963743887        0.0000000000000000     
   8.5014545783467454E-002  0.15199094156772117        0.0000000000000000     
   8.6489625928248118E-002  0.15947618817239606        0.0000000000000000     
   8.7871409488355104E-002  0.16706419945146356        0.0000000000000000     
   7.5076223371623702E-002  0.13684406450576680        0.0000000000000000     
   7.6603918891081341E-002  0.14414752018694391        0.0000000000000000     
   7.8028503109012284E-002  0.15153792373807576        0.0000000000000000     
   7.9349976025416463E-002  0.15901527515916236        0.0000000000000000     
   8.0568337640293947E-002  0.16657957445020372        0.0000000000000000     
   6.8621545377626089E-002  0.13642863238779981        0.0000000000000000     
   7.0034479240189379E-002  0.14377447656995590        0.0000000000000000     
   7.1354707584467186E-002  0.15122776196303536        0.0000000000000000     
   7.2582230410459525E-002  0.15878848856703823        0.0000000000000000     
   7.3717047718166381E-002  0.16645665638196444        0.0000000000000000     
   0.0000000000000000        0.0000000000000000        0.0000000000000000     
   2.8802002369393348E-003   1.7443282040244998E-003   0.0000000000000000     
   5.8728984925478667E-003   3.8636457150152933E-003   0.0000000000000000     
   8.9780947668255950E-003   6.3579525329723798E-003   0.0000000000000000     
   1.2195789059772519E-002   9.2272486578957608E-003   0.0000000000000000     
   0.0000000000000000        0.0000000000000000        0.0000000000000000     
   2.6103496419174598E-003   1.5884850913972172E-003   0.0000000000000000     
   5.2897122166913552E-003   3.5558148275292609E-003   0.0000000000000000     
   8.0380877243216887E-003   5.9019892083961309E-003   0.0000000000000000     
   1.0855476164808460E-002   8.6270082339978266E-003   0.0000000000000000     
   0.0000000000000000        0.0000000000000000        0.0000000000000000     
   2.3400526117851386E-003   1.4586045924536504E-003   0.0000000000000000     
   4.7199608719614506E-003   3.2990911845098294E-003   0.0000000000000000     
   7.1397247805289350E-003   5.5214597761685368E-003   0.0000000000000000     
   9.5993443374875927E-003   8.1257103674297719E-003   0.0000000000000000     
   0.0000000000000000        0.0000000000000000        0.0000000000000000     
   2.0693091465423721E-003   1.3546867071937997E-003   0.0000000000000000     
   4.1636444583581494E-003   3.0934747859569984E-003   0.0000000000000000     
   6.2830059354473337E-003   5.2163642362895958E-003   0.0000000000000000     
   8.4273935778099232E-003   7.7233550581915916E-003   0.0000000000000000     
   0.0000000000000000        0.0000000000000000        0.0000000000000000     
   1.7981192461891593E-003   1.2767314356176651E-003   0.0000000000000000     
   3.6207629758814538E-003   2.9389656318707684E-003   0.0000000000000000     
   5.4679311890768832E-003   4.9867025887593095E-003   0.0000000000000000     
   7.3396238857754478E-003   7.4199423062832892E-003   0.0000000000000000     
   1.2195789059772519E-002   9.2272486578957608E-003   0.0000000000000000     
   1.5428237978841051E-002   1.2369452763121755E-002   0.0000000000000000     
   1.8577698131483598E-002   1.5682483521986680E-002   0.0000000000000000     
   2.1644169517700165E-002   1.9166340934490541E-002   0.0000000000000000     
   2.4627652137490755E-002   2.2821025000633332E-002   0.0000000000000000     
   1.0855476164808460E-002   8.6270082339978266E-003   0.0000000000000000     
   1.3688557207843035E-002   1.1648671306341759E-002   0.0000000000000000     
   1.6484010523116786E-002   1.4884777827435332E-002   0.0000000000000000     
   1.9241836110629715E-002   1.8335327797278551E-002   0.0000000000000000     
   2.1962033970381819E-002   2.2000321215871414E-002   0.0000000000000000     
   9.5993443374875927E-003   8.1257103674297719E-003   0.0000000000000000     
   1.2075324918466641E-002   1.1044559243885777E-002   0.0000000000000000     
   1.4544171899095300E-002   1.4210722691128786E-002   0.0000000000000000     
   1.7005885279373568E-002   1.7624200709158804E-002   0.0000000000000000     
   1.9460465059301442E-002   2.1284993297975830E-002   0.0000000000000000     
   8.4273935778099232E-003   7.7233550581915916E-003   0.0000000000000000     
   1.0588541110711874E-002   1.0557116575753799E-002   0.0000000000000000     
   1.2758182259419139E-002   1.3660318113067033E-002   0.0000000000000000     
   1.4936317023931722E-002   1.7032959670131291E-002   0.0000000000000000     
   1.7122945404249624E-002   2.0675041246946576E-002   0.0000000000000000     
   7.3396238857754478E-003   7.4199423062832892E-003   0.0000000000000000     
   9.2282057845787299E-003   1.0186343301945835E-002   0.0000000000000000     
   1.1126041604088307E-002   1.3233564093250079E-002   0.0000000000000000     
   1.3033131344304186E-002   1.6561604680196018E-002   0.0000000000000000     
   1.4949475005226358E-002   2.0170465062783659E-002   0.0000000000000000     
   2.4627652137490755E-002   2.2821025000633332E-002   0.0000000000000000     
   2.7532295270918595E-002   2.6669457122869767E-002   0.0000000000000000     
   3.0362248198046948E-002   3.0734558703654571E-002   0.0000000000000000     
   3.3117510918875798E-002   3.5016329742987733E-002   0.0000000000000000     
   3.5798083433405160E-002   3.9514770240869274E-002   0.0000000000000000     
   2.1962033970381819E-002   2.2000321215871414E-002   0.0000000000000000     
   2.4627904238627103E-002   2.5877706286157234E-002   0.0000000000000000     
   2.7222747051619572E-002   2.9965431211079328E-002   0.0000000000000000     
   2.9746562409359228E-002   3.4263495990637702E-002   0.0000000000000000     
   3.2199350311846064E-002   3.8771900624832351E-002   0.0000000000000000     
   1.9460465059301442E-002   2.1284993297975830E-002   0.0000000000000000     
   2.1879284882451493E-002   2.5174124975966623E-002   0.0000000000000000     
   2.4233718392396283E-002   2.9272620261517942E-002   0.0000000000000000     
   2.6523765589135828E-002   3.3580479154629791E-002   0.0000000000000000     
   2.8749426472670113E-002   3.8097701655302171E-002   0.0000000000000000     
   1.7122945404249624E-002   2.0675041246946576E-002   0.0000000000000000     
   1.9286437202391767E-002   2.4558713192297934E-002   0.0000000000000000     
   2.1395162220377097E-002   2.8656125854970418E-002   0.0000000000000000     
   2.3449120458205609E-002   3.2967279234964023E-002   0.0000000000000000     
   2.5448311915877302E-002   3.7492173332278736E-002   0.0000000000000000     
   1.4949475005226358E-002   2.0170465062783659E-002   0.0000000000000000     
   1.6849361198447935E-002   2.4031470935151171E-002   0.0000000000000000     
   1.8707078535562000E-002   2.8115947991436741E-002   0.0000000000000000     
   2.0522627016568571E-002   3.2423896231640367E-002   0.0000000000000000     
   2.2296006641467636E-002   3.6955315655762044E-002   0.0000000000000000     
   3.5798083433405160E-002   3.9514770240869274E-002   0.0000000000000000     
   3.8404061592603504E-002   4.4221352703152056E-002   0.0000000000000000     
   4.0935541247439304E-002   4.9127549635689008E-002   0.0000000000000000     
   4.3392522397912581E-002   5.4233361038480123E-002   0.0000000000000000     
   4.5775005044023313E-002   5.9538786911525379E-002   0.0000000000000000     
   3.2199350311846064E-002   3.8771900624832351E-002   0.0000000000000000     
   3.4584361372636083E-002   4.3487848714727870E-002   0.0000000000000000     
   3.6904846205285266E-002   4.8408543861388875E-002   0.0000000000000000     
   3.9160804809793621E-002   5.3533986064815353E-002   0.0000000000000000     
   4.1352237186161142E-002   5.8864175325007304E-002   0.0000000000000000     
   2.8749426472670113E-002   3.8097701655302171E-002   0.0000000000000000     
   3.0914660884848292E-002   4.2823383665676326E-002   0.0000000000000000     
   3.3023428667519533E-002   4.7756621087893469E-002   0.0000000000000000     
   3.5075729820683819E-002   5.2897413921953615E-002   0.0000000000000000     
   3.7071564344341161E-002   5.8245762167856770E-002   0.0000000000000000     
   2.5448311915877302E-002   3.7492173332278736E-002   0.0000000000000000     
   2.7394960129240142E-002   4.2227957555997390E-002   0.0000000000000000     
   2.9291288634142099E-002   4.7171781315202783E-002   0.0000000000000000     
   3.1137297430583182E-002   5.2323644609894894E-002   0.0000000000000000     
   3.2932986518563363E-002   5.7683547440073743E-002   0.0000000000000000     
   2.2296006641467636E-002   3.6955315655762044E-002   0.0000000000000000     
   2.4025259105811624E-002   4.1701570385691090E-002   0.0000000000000000     
   2.5708426105152983E-002   4.6654024543316810E-002   0.0000000000000000     
   2.7345507639491694E-002   5.1812678128639211E-002   0.0000000000000000     
   2.8936503708827766E-002   5.7177531141658265E-002   0.0000000000000000     
   4.5775005044023313E-002   5.9538786911525379E-002   0.0000000000000000     
   4.8083373637000680E-002   6.5033022668575843E-002   0.0000000000000000     
   5.0318012628073866E-002   7.0705263723382539E-002   0.0000000000000000     
   5.2478922017242864E-002   7.6555510075945465E-002   0.0000000000000000     
   5.4566101804507675E-002   8.2583761726264637E-002   0.0000000000000000     
   4.1352237186161142E-002   5.8864175325007304E-002   0.0000000000000000     
   4.3476901127932219E-002   6.4385073223080388E-002   0.0000000000000000     
   4.5532554428651215E-002   7.0082641340150242E-002   0.0000000000000000     
   4.7519197088318151E-002   7.5956879676216879E-002   0.0000000000000000     
   4.9436829106933013E-002   8.2007788231280299E-002   0.0000000000000000     
   3.7071564344341161E-002   5.8245762167856770E-002   0.0000000000000000     
   3.9007502007287365E-002   6.3786255519225926E-002   0.0000000000000000     
   4.0880112578318230E-002   6.9503483669684132E-002   0.0000000000000000     
   4.2689396057433771E-002   7.5397446619231367E-002   0.0000000000000000     
   4.4435352444633973E-002   8.1468144367867659E-002   0.0000000000000000     
   3.2932986518563363E-002   5.7683547440073743E-002   0.0000000000000000     
   3.4675176275066132E-002   6.3236569557012470E-002   0.0000000000000000     
   3.6360687077074925E-002   6.8967790711984223E-002   0.0000000000000000     
   3.7989518924589738E-002   7.4877210904988972E-002   0.0000000000000000     
   3.9561671817610569E-002   8.0964830136026719E-002   0.0000000000000000     
   2.8936503708827766E-002   5.7177531141658265E-002   0.0000000000000000     
   3.0479923931268520E-002   6.2736015336440021E-002   0.0000000000000000     
   3.1974277924921274E-002   6.8475562467050485E-002   0.0000000000000000     
   3.3419565689786032E-002   7.4396172533489638E-002   0.0000000000000000     
   3.4815787225862795E-002   8.0497845535757492E-002   0.0000000000000000     
   5.4566101804507675E-002   8.2583761726264637E-002   0.0000000000000000     
   5.6580009928690091E-002   8.8780925328991997E-002   0.0000000000000000     
   5.8521104328611864E-002   9.5137907538779529E-002   0.0000000000000000     
   6.0389385004273044E-002  0.10165470835562722        0.0000000000000000     
   6.2184851955673574E-002  0.10833132777953511        0.0000000000000000     
   4.9436829106933013E-002   8.2007788231280299E-002   0.0000000000000000     
   5.1286466559954183E-002   8.8227123545582847E-002   0.0000000000000000     
   5.3069125522840051E-002   9.4606642159366899E-002   0.0000000000000000     
   5.4784805995590609E-002  0.10114634407263247        0.0000000000000000     
   5.6433507978205857E-002  0.10784622928537957        0.0000000000000000     
   4.4435352444633973E-002   8.1468144367867659E-002   0.0000000000000000     
   4.6119014758176584E-002   8.7707216293776868E-002   0.0000000000000000     
   4.7741416016319350E-002   9.4106301775142953E-002   0.0000000000000000     
   4.9302556219062252E-002  0.10066540081196591        0.0000000000000000     
   5.0802435366405309E-002  0.10738451340424569        0.0000000000000000     
   3.9561671817610569E-002   8.0964830136026719E-002   0.0000000000000000     
   4.1077654523357286E-002   8.7221203573574102E-002   0.0000000000000000     
   4.2537975809049756E-002   9.3636886386107676E-002   0.0000000000000000     
   4.3942635674687959E-002  0.10021187857362747        0.0000000000000000     
   4.5291634120271908E-002  0.10694618013613345        0.0000000000000000     
   3.4815787225862795E-002   8.0497845535757492E-002   0.0000000000000000     
   3.6162385855496297E-002   8.6769085384974493E-002   0.0000000000000000     
   3.7458804901031283E-002   9.3198395992261054E-002   0.0000000000000000     
   3.8705044362467730E-002   9.9785777357617192E-002   0.0000000000000000     
   3.9901104239805668E-002  0.10653122948104289        0.0000000000000000     
   6.2184851955673574E-002  0.10833132777953511        0.0000000000000000     
   6.3906440361498285E-002  0.11515480586313011        0.0000000000000000     
   6.5553085400431949E-002  0.12211218265903924        0.0000000000000000     
   6.7124787072474545E-002  0.12920345816726247        0.0000000000000000     
   6.8621545377626089E-002  0.13642863238779981        0.0000000000000000     
   5.6433507978205857E-002  0.10784622928537957        0.0000000000000000     
   5.8014506263021022E-002  0.11469374279437414        0.0000000000000000     
   5.9527075642371335E-002  0.12167632959638217        0.0000000000000000     
   6.0971216116256777E-002  0.12879398969140363        0.0000000000000000     
   6.2346927684677353E-002  0.13604672307943855        0.0000000000000000     
   5.0802435366405309E-002  0.10738451340424569        0.0000000000000000     
   5.2240396884459986E-002  0.11425123419601607        0.0000000000000000     
   5.3615784199337775E-002  0.12125315783131083        0.0000000000000000     
   5.4928597311038670E-002  0.12839028431012989        0.0000000000000000     
   5.6178836219562669E-002  0.13566261363247334        0.0000000000000000     
   4.5291634120271908E-002  0.10694618013613345        0.0000000000000000     
   4.6584112225815162E-002  0.11382728006805598        0.0000000000000000     
   4.7819211071331268E-002  0.12084266736382525        0.0000000000000000     
   4.8996930656820217E-002  0.12799234202344131        0.0000000000000000     
   5.0117270982282025E-002  0.13527630404690419        0.0000000000000000     
   3.9901104239805668E-002  0.10653122948104289        0.0000000000000000     
   4.1045652287086537E-002  0.11342188041049375        0.0000000000000000     
   4.2137356258351785E-002  0.12044485819392542        0.0000000000000000     
   4.3176216153601420E-002  0.12760016283133788        0.0000000000000000     
   4.4162231972835447E-002  0.13488779432273107        0.0000000000000000     
   6.8621545377626089E-002  0.13642863238779981        0.0000000000000000     
   7.0034479240189379E-002  0.14377447656995590        0.0000000000000000     
   7.1354707584467186E-002  0.15122776196303536        0.0000000000000000     
   7.2582230410459525E-002  0.15878848856703823        0.0000000000000000     
   7.3717047718166381E-002  0.16645665638196444        0.0000000000000000     
   6.2346927684677353E-002  0.13604672307943855        0.0000000000000000     
   6.3651049013771360E-002  0.14343447902673867        0.0000000000000000     
   6.4880418769677109E-002  0.15095720679955568        0.0000000000000000     
   6.6035036952394599E-002  0.15861490639788967        0.0000000000000000     
   6.7114903561923817E-002  0.16640757782174057        0.0000000000000000     
   5.6178836219562669E-002  0.13566261363247334        0.0000000000000000     
   5.7366827124261513E-002  0.14307267779755589        0.0000000000000000     
   5.8492896224486959E-002  0.15062300880459234        0.0000000000000000     
   5.9557043520239009E-002  0.15831360665358271        0.0000000000000000     
   6.0559269011517661E-002  0.16614447134452690        0.0000000000000000     
   5.0117270982282025E-002  0.13527630404690419        0.0000000000000000     
   5.1181813571659823E-002  0.14268907288240756        0.0000000000000000     
   5.2192139948896737E-002  0.15022516797814525        0.0000000000000000     
   5.3148250113992761E-002  0.15788458933411723        0.0000000000000000     
   5.4050144066947914E-002  0.16566733695032346        0.0000000000000000     
   4.4162231972835447E-002  0.13488779432273107        0.0000000000000000     
   4.5096008355966305E-002  0.14228366428129374        0.0000000000000000     
   4.5978149942906443E-002  0.14976368432021447        0.0000000000000000     
   4.6808656733655869E-002  0.15732785443949332        0.0000000000000000     
   4.7587528728214590E-002  0.16497617463913025        0.0000000000000000     
   0.0000000000000000        0.0000000000000000        0.0000000000000000     
   1.7981192461891593E-003   1.2767314356176651E-003   0.0000000000000000     
   3.6207629758814538E-003   2.9389656318707684E-003   0.0000000000000000     
   5.4679311890768832E-003   4.9867025887593095E-003   0.0000000000000000     
   7.3396238857754478E-003   7.4199423062832892E-003   0.0000000000000000     
   0.0000000000000000        0.0000000000000000        0.0000000000000000     
   1.5347635671760233E-003   1.2176104772125330E-003   0.0000000000000000     
   3.0986849256650585E-003   2.8210093469802316E-003   0.0000000000000000     
   4.6917640754671058E-003   4.8101966093030968E-003   0.0000000000000000     
   6.3140010165821667E-003   7.1851722641811258E-003   0.0000000000000000     
   0.0000000000000000        0.0000000000000000        0.0000000000000000     
   1.2875227659534857E-003   1.1701955314656902E-003   0.0000000000000000     
   2.6047788088426607E-003   2.7250515560144819E-003   0.0000000000000000     
   3.9517681286675250E-003   4.6645680736463746E-003   0.0000000000000000     
   5.3284907254280787E-003   6.9887450843613697E-003   0.0000000000000000     
   0.0000000000000000        0.0000000000000000        0.0000000000000000     
   1.0563968425215471E-003   1.1344865983771361E-003   0.0000000000000000     
   2.1390446254142604E-003   2.6510922589735174E-003   0.0000000000000000     
   3.2479433486781390E-003   4.5498169817891447E-003   0.0000000000000000     
   4.3830930123131846E-003   6.8306607668240163E-003   0.0000000000000000     
   0.0000000000000000        0.0000000000000000        0.0000000000000000     
   8.4138579688020716E-004   1.1104836779468714E-003   0.0000000000000000     
   1.7014823753798566E-003   2.5991314558573399E-003   0.0000000000000000     
   2.5802897354989486E-003   4.4659433337314054E-003   0.0000000000000000     
   3.4778078772374830E-003   6.7109193115690692E-003   0.0000000000000000     
   7.3396238857754478E-003   7.4199423062832892E-003   0.0000000000000000     
   9.2282057845787299E-003   1.0186343301945835E-002   0.0000000000000000     
   1.1126041604088307E-002   1.3233564093250079E-002   0.0000000000000000     
   1.3033131344304186E-002   1.6561604680196018E-002   0.0000000000000000     
   1.4949475005226358E-002   2.0170465062783659E-002   0.0000000000000000     
   6.3140010165821667E-003   7.1851722641811258E-003   0.0000000000000000     
   7.9527194204370641E-003   9.8964163464910580E-003   0.0000000000000000     
   9.5952429584586271E-003   1.2894408891109618E-002   0.0000000000000000     
   1.1241571630646853E-002   1.6179149898036815E-002   0.0000000000000000     
   1.2891705437001747E-002   1.9750639367272640E-002   0.0000000000000000     
   5.3284907254280787E-003   6.9887450843613697E-003   0.0000000000000000     
   6.7204824986567381E-003   9.6515126334186362E-003   0.0000000000000000     
   8.1132793478859259E-003   1.2606800766077347E-002   0.0000000000000000     
   9.5068812731156360E-003   1.5854609482337502E-002   0.0000000000000000     
   1.0901288274345874E-002   1.9394938782199101E-002   0.0000000000000000     
   4.3830930123131846E-003   6.8306607668240163E-003   0.0000000000000000     
   5.5314950192377529E-003   9.4516321627285734E-003   0.0000000000000000     
   6.6801507723702018E-003   1.2370739718153266E-002   0.0000000000000000     
   7.8290602717105313E-003   1.5587983433098081E-002   0.0000000000000000     
   8.9782235172587432E-003   1.9103363307563032E-002   0.0000000000000000     
   3.4778078772374830E-003   6.7109193115690692E-003   0.0000000000000000     
   4.3857569821801048E-003   9.2967749344208730E-003   0.0000000000000000     
   5.2958572319114564E-003   1.2186225747337371E-002   0.0000000000000000     
   6.2081086264315381E-003   1.5379271750318557E-002   0.0000000000000000     
   7.1225111657403518E-003   1.8875912943364433E-002   0.0000000000000000     
   1.4949475005226358E-002   2.0170465062783659E-002   0.0000000000000000     
   1.6849361198447935E-002   2.4031470935151171E-002   0.0000000000000000     
   1.8707078535562000E-002   2.8115947991436741E-002   0.0000000000000000     
   2.0522627016568571E-002   3.2423896231640367E-002   0.0000000000000000     
   2.2296006641467636E-002   3.6955315655762044E-002   0.0000000000000000     
   1.2891705437001747E-002   1.9750639367272640E-002   0.0000000000000000     
   1.4528920156847112E-002   2.3582775734520091E-002   0.0000000000000000     
   1.6136491569506761E-002   2.7649457435482153E-002   0.0000000000000000     
   1.7714419674980695E-002   3.1950684470158822E-002   0.0000000000000000     
   1.9262704473268909E-002   3.6486456838550098E-002   0.0000000000000000     
   1.0901288274345874E-002   1.9394938782199101E-002   0.0000000000000000     
   1.2285977363816439E-002   2.3203005120398454E-002   0.0000000000000000     
   1.3650425553767132E-002   2.7254024951671871E-002   0.0000000000000000     
   1.4994632844197955E-002   3.1547998276019347E-002   0.0000000000000000     
   1.6318599235108911E-002   3.6084925093440891E-002   0.0000000000000000     
   8.9782235172587432E-003   1.9103363307563032E-002   0.0000000000000000     
   1.0120532819355913E-002   2.2892159092786257E-002   0.0000000000000000     
   1.1248880488343119E-002   2.6929650540005897E-002   0.0000000000000000     
   1.2363266524220366E-002   3.1215837649221950E-002   0.0000000000000000     
   1.3463690926987650E-002   3.5750720420434423E-002   0.0000000000000000     
   7.1225111657403518E-003   1.8875912943364433E-002   0.0000000000000000     
   8.0325865234655344E-003   2.2650237651683492E-002   0.0000000000000000     
   8.9318563732347228E-003   2.6676334200484226E-002   0.0000000000000000     
   9.8203207150479189E-003   3.0954202589766621E-002   0.0000000000000000     
   1.0697979548905123E-002   3.5483842819530702E-002   0.0000000000000000     
   2.2296006641467636E-002   3.6955315655762044E-002   0.0000000000000000     
   2.4025259105811624E-002   4.1701570385691090E-002   0.0000000000000000     
   2.5708426105152983E-002   4.6654024543316810E-002   0.0000000000000000     
   2.7345507639491694E-002   5.1812678128639211E-002   0.0000000000000000     
   2.8936503708827766E-002   5.7177531141658265E-002   0.0000000000000000     
   1.9262704473268909E-002   3.6486456838550098E-002   0.0000000000000000     
   2.0775090711000106E-002   4.1241588798300380E-002   0.0000000000000000     
   2.2245323134802993E-002   4.6200894607054073E-002   0.0000000000000000     
   2.3673401744677559E-002   5.1364374264811163E-002   0.0000000000000000     
   2.5059326540623823E-002   5.6732027771571665E-002   0.0000000000000000     
   1.6318599235108911E-002   3.6084925093440891E-002   0.0000000000000000     
   1.7613987841242934E-002   4.0845379437368226E-002   0.0000000000000000     
   1.8872461777342954E-002   4.5809935341233066E-002   0.0000000000000000     
   2.0094021043408985E-002   5.0978592805035410E-002   0.0000000000000000     
   2.1278665639441013E-002   5.6351351828775278E-002   0.0000000000000000     
   1.3463690926987650E-002   3.5750720420434423E-002   0.0000000000000000     
   1.4541950496540106E-002   4.0512942302894608E-002   0.0000000000000000     
   1.5589842032772874E-002   4.5481146745853789E-002   0.0000000000000000     
   1.6607365535685953E-002   5.0655333749311943E-002   0.0000000000000000     
   1.7594521005279341E-002   5.6035503313269112E-002   0.0000000000000000     
   1.0697979548905123E-002   3.5483842819530702E-002   0.0000000000000000     
   1.1558978676891632E-002   4.0244277394879534E-002   0.0000000000000000     
   1.2397463901092748E-002   4.5214528820916235E-002   0.0000000000000000     
   1.3213435221508469E-002   5.0394597097640777E-002   0.0000000000000000     
   1.4006892638138795E-002   5.5784482225053181E-002   0.0000000000000000     
   2.8936503708827766E-002   5.7177531141658265E-002   0.0000000000000000     
   3.0479923931268520E-002   6.2736015336440021E-002   0.0000000000000000     
   3.1974277924921274E-002   6.8475562467050485E-002   0.0000000000000000     
   3.3419565689786032E-002   7.4396172533489638E-002   0.0000000000000000     
   3.4815787225862795E-002   8.0497845535757492E-002   0.0000000000000000     
   2.5059326540623823E-002   5.6732027771571665E-002   0.0000000000000000     
   2.6403473969072819E-002   6.2293804676349283E-002   0.0000000000000000     
   2.7706220476455601E-002   6.8039654528157731E-002   0.0000000000000000     
   2.8967566062772176E-002   7.3969577326997035E-002   0.0000000000000000     
   3.0187510728022535E-002   8.0083573072867162E-002   0.0000000000000000     
   2.1278665639441013E-002   5.6351351828775278E-002   0.0000000000000000     
   2.2427555381657326E-002   6.1919149395580970E-002   0.0000000000000000     
   2.3541850086276211E-002   6.7672922488580811E-002   0.0000000000000000     
   2.4621549753297660E-002   7.3612671107774794E-002   0.0000000000000000     
   2.5666654382721671E-002   7.9738395253162925E-002   0.0000000000000000     
   1.7594521005279341E-002   5.6035503313269112E-002   0.0000000000000000     
   1.8552168169022047E-002   6.1612049494135110E-002   0.0000000000000000     
   1.9481166754383095E-002   6.7375366348319712E-002   0.0000000000000000     
   2.0381516761362479E-002   7.3325453875822955E-002   0.0000000000000000     
   2.1253218189960205E-002   7.9462312076644809E-002   0.0000000000000000     
   1.4006892638138795E-002   5.5784482225053181E-002   0.0000000000000000     
   1.4777312331166975E-002   6.1372504972011653E-002   0.0000000000000000     
   1.5524170480776258E-002   6.7146986107374421E-002   0.0000000000000000     
   1.6247467086966640E-002   7.3107925631141463E-002   0.0000000000000000     
   1.6947202149738130E-002   7.9255323543312800E-002   0.0000000000000000     
   3.4815787225862795E-002   8.0497845535757492E-002   0.0000000000000000     
   3.6162385855496297E-002   8.6769085384974493E-002   0.0000000000000000     
   3.7458804901031283E-002   9.3198395992261054E-002   0.0000000000000000     
   3.8705044362467730E-002   9.9785777357617192E-002   0.0000000000000000     
   3.9901104239805668E-002  0.10653122948104289        0.0000000000000000     
   3.0187510728022535E-002   8.0083573072867162E-002   0.0000000000000000     
   3.1364405701040952E-002   8.6368053731698716E-002   0.0000000000000000     
   3.2496602210661689E-002   9.2809431269422232E-002   0.0000000000000000     
   3.3584100256884748E-002   9.9407705686037767E-002   0.0000000000000000     
   3.4626899839710137E-002  0.10616287698154528        0.0000000000000000     
   2.5666654382721671E-002   7.9738395253162925E-002   0.0000000000000000     
   2.6674911006438595E-002   8.6035300617467392E-002   0.0000000000000000     
   2.7644066656338773E-002   9.2488592893410396E-002   0.0000000000000000     
   2.8574121332422191E-002   9.9098272080991895E-002   0.0000000000000000     
   2.9465075034688867E-002  0.10586433818021193        0.0000000000000000     
   2.1253218189960205E-002   7.9462312076644809E-002   0.0000000000000000     
   2.2093901771689226E-002   8.5770826042280576E-002   0.0000000000000000     
   2.2901198238062508E-002   9.2235880864225503E-002   0.0000000000000000     
   2.3675107589080046E-002   9.8857476542479603E-002   0.0000000000000000     
   2.4415629824741852E-002  0.10563561307704283        0.0000000000000000     
   1.6947202149738130E-002   7.9255323543312800E-002   0.0000000000000000     
   1.7621377996792843E-002   8.5574630006138228E-002   0.0000000000000000     
   1.8267996955832908E-002   9.2051295181867582E-002   0.0000000000000000     
   1.8887059026858326E-002   9.8685319070500835E-002   0.0000000000000000     
   1.9478564209869102E-002  0.10547670167203803        0.0000000000000000     
   3.9901104239805668E-002  0.10653122948104289        0.0000000000000000     
   4.1045652287086537E-002  0.11342188041049375        0.0000000000000000     
   4.2137356258351785E-002  0.12044485819392542        0.0000000000000000     
   4.3176216153601420E-002  0.12760016283133788        0.0000000000000000     
   4.4162231972835447E-002  0.13488779432273107        0.0000000000000000     
   3.4626899839710137E-002  0.10616287698154528        0.0000000000000000     
   3.5623387986710060E-002  0.11306176666519761        0.0000000000000000     
   3.6571951725456728E-002  0.12009119624624766        0.0000000000000000     
   3.7472591055950147E-002  0.12725116572469539        0.0000000000000000     
   3.8325305978190310E-002  0.13454167510054080        0.0000000000000000     
   2.9465075034688867E-002  0.10586433818021193        0.0000000000000000     
   3.0315690243121661E-002  0.11277367027403565        0.0000000000000000     
   3.1124729437703457E-002  0.11981314744542824        0.0000000000000000     
   3.1892192618434234E-002  0.12698276969438974        0.0000000000000000     
   3.2618079785314009E-002  0.13428253702092011        0.0000000000000000     
   2.4415629824741852E-002  0.10563561307704283        0.0000000000000000     
   2.5122559056321350E-002  0.11255759123700784        0.0000000000000000     
   2.5795689395091963E-002  0.11961071179146719        0.0000000000000000     
   2.6435020841053695E-002  0.12679497474042092        0.0000000000000000     
   2.7040553394206555E-002  0.13411038008386900        0.0000000000000000     
   1.9478564209869102E-002  0.10547670167203803        0.0000000000000000     
   2.0043994426309115E-002  0.11241352955411421        0.0000000000000000     
   2.0584831597622255E-002  0.11948388928436453        0.0000000000000000     
   2.1101075723808531E-002  0.12668778086278895        0.0000000000000000     
   2.1592726804867932E-002  0.13402520428938747        0.0000000000000000     
   4.4162231972835447E-002  0.13488779432273107        0.0000000000000000     
   4.5096008355966305E-002  0.14228366428129374        0.0000000000000000     
   4.5978149942906443E-002  0.14976368432021447        0.0000000000000000     
   4.6808656733655869E-002  0.15732785443949332        0.0000000000000000     
   4.7587528728214590E-002  0.16497617463913025        0.0000000000000000     
   3.8325305978190310E-002  0.13454167510054080        0.0000000000000000     
   3.9128662919208218E-002  0.14192021987285180        0.0000000000000000     
   3.9881228306034883E-002  0.14934429554069639        0.0000000000000000     
   4.0583002138670290E-002  0.15681390210407448        0.0000000000000000     
   4.1233984417114448E-002  0.16432903956298614        0.0000000000000000     
   3.2618079785314009E-002  0.13428253702092011        0.0000000000000000     
   3.3299028703412850E-002  0.14166250753571932        0.0000000000000000     
   3.3931677137800841E-002  0.14907273934948737        0.0000000000000000     
   3.4516025088477988E-002  0.15651323246222429        0.0000000000000000     
   3.5052072555444277E-002  0.16398398687393001        0.0000000000000000     
   2.7040553394206555E-002  0.13411038008386900        0.0000000000000000     
   2.7607105708580208E-002  0.14151052726989621        0.0000000000000000     
   2.8129496438204345E-002  0.14894901574658745        0.0000000000000000     
   2.8607725583078971E-002  0.15642584551394265        0.0000000000000000     
   2.9041793143204073E-002  0.16394101657196181        0.0000000000000000     
   2.1592726804867932E-002  0.13402520428938747        0.0000000000000000     
   2.2052893934710278E-002  0.14146427907538253        0.0000000000000000     
   2.2474686207245378E-002  0.14897312473199659        0.0000000000000000     
   2.2858103622473230E-002  0.15655174125922960        0.0000000000000000     
   2.3203146180393836E-002  0.16420012865708161        0.0000000000000000     
   0.0000000000000000        0.0000000000000000        0.0000000000000000     
   8.4138579688020716E-004   1.1104836779468714E-003   0.0000000000000000     
   1.7014823753798566E-003   2.5991314558573399E-003   0.0000000000000000     
   2.5802897354989486E-003   4.4659433337314054E-003   0.0000000000000000     
   3.4778078772374830E-003   6.7109193115690692E-003   0.0000000000000000     
   0.0000000000000000        0.0000000000000000        0.0000000000000000     
   6.3358397952076751E-004   1.0946025031059895E-003   0.0000000000000000     
   1.2775325144265448E-003   2.5632900942182311E-003   0.0000000000000000     
   1.9318456047173317E-003   4.4060627733367250E-003   0.0000000000000000     
   2.5965232503931280E-003   6.6229205404614707E-003   0.0000000000000000     
   0.0000000000000000        0.0000000000000000        0.0000000000000000     
   4.2408574093453062E-004   1.0832588067855840E-003   0.0000000000000000     
   8.5263549824141950E-004   2.5376891216084729E-003   0.0000000000000000     
   1.2856492719206664E-003   4.3632909444686670E-003   0.0000000000000000     
   1.7231270619722718E-003   6.5600642753661674E-003   0.0000000000000000     
   0.0000000000000000        0.0000000000000000        0.0000000000000000     
   2.1289108112149623E-004   1.0764525889856553E-003   0.0000000000000000     
   4.2679132682448061E-004   2.5223285380280669E-003   0.0000000000000000     
   6.4170073710895312E-004   4.3376278471272348E-003   0.0000000000000000     
   8.5761931197491379E-004   6.5223505162831600E-003   0.0000000000000000     
   0.0000000000000000        0.0000000000000000        0.0000000000000000     
   8.1664330246061789E-014   1.0741838497062034E-003   0.0000000000000000     
   1.7572824705797130E-013   2.5172083434770124E-003   0.0000000000000000     
   2.8219164201551128E-013   4.3290734813124267E-003   0.0000000000000000     
   4.0105462353889898E-013   6.5097792632124460E-003   0.0000000000000000     
   3.4778078772374830E-003   6.7109193115690692E-003   0.0000000000000000     
   4.3857569821801048E-003   9.2967749344208730E-003   0.0000000000000000     
   5.2958572319114564E-003   1.2186225747337371E-002   0.0000000000000000     
   6.2081086264315381E-003   1.5379271750318557E-002   0.0000000000000000     
   7.1225111657403518E-003   1.8875912943364433E-002   0.0000000000000000     
   2.5965232503931280E-003   6.6229205404614707E-003   0.0000000000000000     
   3.2685621839195428E-003   9.1809725281843772E-003   0.0000000000000000     
   3.9449591377621841E-003   1.2047327869097357E-002   0.0000000000000000     
   4.6257141119210509E-003   1.5221986563200412E-002   0.0000000000000000     
   5.3108271063961460E-003   1.8704948610493533E-002   0.0000000000000000     
   1.7231270619722718E-003   6.5600642753661674E-003   0.0000000000000000     
   2.1652044208918158E-003   9.0982565237079285E-003   0.0000000000000000     
   2.6120169011748808E-003   1.1948115098900916E-002   0.0000000000000000     
   3.0635645028214654E-003   1.5109640000945121E-002   0.0000000000000000     
   3.5198472258315705E-003   1.8582831229840550E-002   0.0000000000000000     
   8.5761931197491379E-004   6.5223505162831600E-003   0.0000000000000000     
   1.0756836930969243E-003   9.0486269209915319E-003   0.0000000000000000     
   1.2970305221495465E-003   1.1888587436748041E-002   0.0000000000000000     
   1.5216597991327802E-003   1.5042232063552693E-002   0.0000000000000000     
   1.7495715240466254E-003   1.8509560801405478E-002   0.0000000000000000     
   4.0105462353889898E-013   6.5097792632124460E-003   0.0000000000000000     
   5.3486775013385224E-013   9.0320837200351806E-003   0.0000000000000000     
   6.8618155320103458E-013   1.1868744882638739E-002   0.0000000000000000     
   8.5499594464901948E-013   1.5019762751023123E-002   0.0000000000000000     
   1.0413113513824124E-012   1.8485137325188333E-002   0.0000000000000000     
   7.1225111657403518E-003   1.8875912943364433E-002   0.0000000000000000     
   8.0325865234655344E-003   2.2650237651683492E-002   0.0000000000000000     
   8.9318563732347228E-003   2.6676334200484226E-002   0.0000000000000000     
   9.8203207150479189E-003   3.0954202589766621E-002   0.0000000000000000     
   1.0697979548905123E-002   3.5483842819530702E-002   0.0000000000000000     
   5.3108271063961460E-003   1.8704948610493533E-002   0.0000000000000000     
   5.9936519871237664E-003   2.2468710897301441E-002   0.0000000000000000     
   6.6675426200402130E-003   2.6485770309948850E-002   0.0000000000000000     
   7.3324990051454883E-003   3.0756126848435743E-002   0.0000000000000000     
   7.9885211424395898E-003   3.5279780512762135E-002   0.0000000000000000     
   3.5198472258315705E-003   1.8582831229840550E-002   0.0000000000000000     
   3.9752427213090779E-003   2.2339048929851366E-002   0.0000000000000000     
   4.4241286403578712E-003   2.6349653245241744E-002   0.0000000000000000     
   4.8665049829779506E-003   3.0614644176011674E-002   0.0000000000000000     
   5.3023717491693153E-003   3.5134021722161166E-002   0.0000000000000000     
   1.7495715240466254E-003   1.8509560801405478E-002   0.0000000000000000     
   1.9773587260214680E-003   2.2261251749333272E-002   0.0000000000000000     
   2.2016144341876947E-003   2.6267983006362912E-002   0.0000000000000000     
   2.4223386485453056E-003   3.0529754572494412E-002   0.0000000000000000     
   2.6395313690942999E-003   3.5046566447727780E-002   0.0000000000000000     
   1.0413113513824124E-012   1.8485137325188333E-002   0.0000000000000000     
   1.2609375349414975E-012   2.2235319355747147E-002   0.0000000000000000     
   1.5296845279171023E-012   2.6240759593312360E-002   0.0000000000000000     
   1.8475525878072427E-012   3.0501458037883969E-002   0.0000000000000000     
   2.2145419178998260E-012   3.5017414689461977E-002   0.0000000000000000     
   1.0697979548905123E-002   3.5483842819530702E-002   0.0000000000000000     
   1.1558978676891632E-002   4.0244277394879534E-002   0.0000000000000000     
   1.2397463901092748E-002   4.5214528820916235E-002   0.0000000000000000     
   1.3213435221508469E-002   5.0394597097640777E-002   0.0000000000000000     
   1.4006892638138795E-002   5.5784482225053181E-002   0.0000000000000000     
   7.9885211424395898E-003   3.5279780512762135E-002   0.0000000000000000     
   8.6327132169095218E-003   4.0037095949419496E-002   0.0000000000000000     
   9.2621794135422895E-003   4.5008437804899291E-002   0.0000000000000000     
   9.8769197323378931E-003   5.0193806079201521E-002   0.0000000000000000     
   1.0476934173296329E-002   5.5593200772326185E-002   0.0000000000000000     
   5.3023717491693153E-003   3.5134021722161166E-002   0.0000000000000000     
   5.7307949512057947E-003   3.9889109202610969E-002   0.0000000000000000     
   6.1508406013612155E-003   4.4861229936281853E-002   0.0000000000000000     
   6.5625086996355785E-003   5.0050383923173812E-002   0.0000000000000000     
   6.9657992460288856E-003   5.5456571163286859E-002   0.0000000000000000     
   2.6395313690942999E-003   3.5046566447727780E-002   0.0000000000000000     
   2.8532238797804492E-003   3.9800317154453958E-002   0.0000000000000000     
   3.0634474645495264E-003   4.4772905215063913E-002   0.0000000000000000     
   3.2702021234015306E-003   4.9964330629557657E-002   0.0000000000000000     
   3.4734878563364626E-003   5.5374593397935185E-002   0.0000000000000000     
   2.2145419178998260E-012   3.5017414689461977E-002   0.0000000000000000     
   2.6334862025453876E-012   3.9770719804948451E-002   0.0000000000000000     
   3.1072211860785903E-012   4.4743463641245478E-002   0.0000000000000000     
   3.6357459198225334E-012   4.9935646198353049E-002   0.0000000000000000     
   4.2190610814035745E-012   5.5347267476271174E-002   0.0000000000000000     
   1.4006892638138795E-002   5.5784482225053181E-002   0.0000000000000000     
   1.4777312331166975E-002   6.1372504972011653E-002   0.0000000000000000     
   1.5524170480776258E-002   6.7146986107374421E-002   0.0000000000000000     
   1.6247467086966640E-002   7.3107925631141463E-002   0.0000000000000000     
   1.6947202149738130E-002   7.9255323543312800E-002   0.0000000000000000     
   1.0476934173296329E-002   5.5593200772326185E-002   0.0000000000000000     
   1.1060287697910313E-002   6.1192458993657169E-002   0.0000000000000000     
   1.1625045267672558E-002   6.6977417852578380E-002   0.0000000000000000     
   1.2171206882583057E-002   7.2948077349089771E-002   0.0000000000000000     
   1.2698772542641814E-002   7.9104437483191403E-002   0.0000000000000000     
   6.9657992460288856E-003   5.5456571163286859E-002   0.0000000000000000     
   7.3583940990702640E-003   6.1063854723518177E-002   0.0000000000000000     
   7.7379751172888455E-003   6.6856297670765008E-002   0.0000000000000000     
   8.1045423006846327E-003   7.2833900005027319E-002   0.0000000000000000     
   8.4580956492576222E-003   7.8996661726305165E-002   0.0000000000000000     
   3.4734878563364626E-003   5.5374593397935185E-002   0.0000000000000000     
   3.6716315346468275E-003   6.0986692161594663E-002   0.0000000000000000     
   3.8629600296251295E-003   6.6783625561934304E-002   0.0000000000000000     
   4.0474733412713708E-003   7.2765393598954106E-002   0.0000000000000000     
   4.2251714695855482E-003   7.8931996272654043E-002   0.0000000000000000     
   4.2190610814035745E-012   5.5347267476271174E-002   0.0000000000000000     
   4.6400020327699854E-012   6.0960971307886642E-002   0.0000000000000000     
   4.6814046779711238E-012   6.6759401526086296E-002   0.0000000000000000     
   4.3432674178087854E-012   7.2742558130870105E-002   0.0000000000000000     
   3.6255935319945420E-012   7.8910441122238079E-002   0.0000000000000000     
   1.6947202149738130E-002   7.9255323543312800E-002   0.0000000000000000     
   1.7621377996792843E-002   8.5574630006138228E-002   0.0000000000000000     
   1.8267996955832908E-002   9.2051295181867582E-002   0.0000000000000000     
   1.8887059026858326E-002   9.8685319070500835E-002   0.0000000000000000     
   1.9478564209869102E-002  0.10547670167203803        0.0000000000000000     
   1.2698772542641814E-002   7.9104437483191403E-002   0.0000000000000000     
   1.3206331088421532E-002   8.5432830335527385E-002   0.0000000000000000     
   1.3692471360494911E-002   9.1919587986741824E-002   0.0000000000000000     
   1.4157193358861947E-002   9.8564710436834749E-002   0.0000000000000000     
   1.4600497083522644E-002  0.10536819768580616        0.0000000000000000     
   8.4580956492576222E-003   7.8996661726305165E-002   0.0000000000000000     
   8.7977524532473709E-003   8.5331544856935018E-002   0.0000000000000000     
   9.1226300028934351E-003   9.1825511419253422E-002   0.0000000000000000     
   9.4327282981958166E-003   9.8478561413260432E-002   0.0000000000000000     
   9.7280473391545136E-003  0.10529069483895596        0.0000000000000000     
   4.2251714695855482E-003   7.8931996272654043E-002   0.0000000000000000     
   4.3956420912703558E-003   8.5270773570361141E-002   0.0000000000000000     
   4.5584728830284846E-003   9.1769065479402431E-002   0.0000000000000000     
   4.7136638448599371E-003   9.8426871999777843E-002   0.0000000000000000     
   4.8612149767647099E-003  0.10524419313148743        0.0000000000000000     
   3.6255935319945420E-012   7.8910441122238079E-002   0.0000000000000000     
   2.4904885011917122E-012   8.5250516475805768E-002   0.0000000000000000     
   9.0006078761958874E-013   9.1750250167188754E-002   0.0000000000000000     
  -1.1456903270057675E-012   9.8409642196387023E-002   0.0000000000000000     
  -3.6467643141357975E-012  0.10522869256340055        0.0000000000000000     
   1.9478564209869102E-002  0.10547670167203803        0.0000000000000000     
   2.0043994426309115E-002  0.11241352955411421        0.0000000000000000     
   2.0584831597622255E-002  0.11948388928436453        0.0000000000000000     
   2.1101075723808531E-002  0.12668778086278895        0.0000000000000000     
   2.1592726804867932E-002  0.13402520428938747        0.0000000000000000     
   1.4600497083522644E-002  0.10536819768580616        0.0000000000000000     
   1.5025283760548241E-002  0.11231898317419031        0.0000000000000000     
   1.5434454616009981E-002  0.11940600034252143        0.0000000000000000     
   1.5828009649907868E-002  0.12662924919079951        0.0000000000000000     
   1.6205948862241894E-002  0.13398872971902459        0.0000000000000000     
   9.7280473391545136E-003  0.10529069483895596        0.0000000000000000     
   1.0011714466502007E-002  0.11225145004607169        0.0000000000000000     
   1.0286857020970782E-002  0.11935036538433920        0.0000000000000000     
   1.0553475002560838E-002  0.12658744085375845        0.0000000000000000     
   1.0811568411272175E-002  0.13396267645432947        0.0000000000000000     
   4.8612149767647099E-003  0.10524419313148743        0.0000000000000000     
   5.0032865441704145E-003  0.11221093016975835        0.0000000000000000     
   5.1420388125046597E-003  0.11931698440981776        0.0000000000000000     
   5.2774717817674456E-003  0.12656235585166564        0.0000000000000000     
   5.4095854519587722E-003  0.13394704449530206        0.0000000000000000     
  -3.6467643141357975E-012  0.10522869256340055        0.0000000000000000     
  -6.4465377480615871E-012  0.11219742354525029        0.0000000000000000     
  -9.3883865525529187E-012  0.11930585741895719        0.0000000000000000     
  -1.2472312733383811E-011  0.12655399418452123        0.0000000000000000     
  -1.5698313742679160E-011  0.13394183384194241        0.0000000000000000     
   2.1592726804867932E-002  0.13402520428938747        0.0000000000000000     
   2.2052893934710278E-002  0.14146427907538253        0.0000000000000000     
   2.2474686207245378E-002  0.14897312473199659        0.0000000000000000     
   2.2858103622473230E-002  0.15655174125922960        0.0000000000000000     
   2.3203146180393836E-002  0.16420012865708161        0.0000000000000000     
   1.6205948862241894E-002  0.13398872971902459        0.0000000000000000     
   1.6560570940075330E-002  0.14147006968614254        0.0000000000000000     
   1.6884174570471422E-002  0.14905889685109922        0.0000000000000000     
   1.7176759753430183E-002  0.15675521121389466        0.0000000000000000     
   1.7438326488951605E-002  0.16455901277452878        0.0000000000000000     
   1.0811568411272175E-002  0.13396267645432947        0.0000000000000000     
   1.1054314282947611E-002  0.14147420583614051        0.0000000000000000     
   1.1274889653429961E-002  0.14912016264927977        0.0000000000000000     
   1.1473294522719229E-002  0.15690054689374722        0.0000000000000000     
   1.1649528890815414E-002  0.16481535856954288        0.0000000000000000     
   5.4095854519587722E-003  0.13394704449530206        0.0000000000000000     
   5.5341239633271257E-003  0.14147668752537643        0.0000000000000000     
   5.6468314561209931E-003  0.14915692212653814        0.0000000000000000     
   5.7477079303403745E-003  0.15698774829878726        0.0000000000000000     
   5.8367533859852716E-003  0.16496916604212380        0.0000000000000000     
  -1.5698313742679160E-011  0.13394183384194241        0.0000000000000000     
  -1.8786125649886132E-011  0.14147751475385031        0.0000000000000000     
  -2.1455481271845378E-011  0.14916917528287446        0.0000000000000000     
  -2.3706382614330918E-011  0.15701681542901488        0.0000000000000000     
  -2.5538828864191121E-011  0.16502043519227158        0.0000000000000000     
   0.0000000000000000        0.0000000000000000        0.0000000000000000     
   8.1664330246061789E-014   1.0741838497062034E-003   0.0000000000000000     
   1.7572824705797130E-013   2.5172083434770124E-003   0.0000000000000000     
   2.8219164201551128E-013   4.3290734813124267E-003   0.0000000000000000     
   4.0105462353889898E-013   6.5097792632124460E-003   0.0000000000000000     
   0.0000000000000000        0.0000000000000000        0.0000000000000000     
  -2.1289108096156023E-004   1.0764525889497192E-003   0.0000000000000000     
  -4.2679132648072764E-004   2.5223285379602912E-003   0.0000000000000000     
  -6.4170073655750242E-004   4.3376278470317166E-003   0.0000000000000000     
  -8.5761931119188422E-004   6.5223505161639940E-003   0.0000000000000000     
   0.0000000000000000        0.0000000000000000        0.0000000000000000     
  -4.2408574078477271E-004   1.0832588067186937E-003   0.0000000000000000     
  -8.5263549792077690E-004   2.5376891214828863E-003   0.0000000000000000     
  -1.2856492714080131E-003   4.3632909442925779E-003   0.0000000000000000     
  -1.7231270612464806E-003   6.5600642751477665E-003   0.0000000000000000     
   0.0000000000000000        0.0000000000000000        0.0000000000000000     
  -6.3358397938797291E-004   1.0946025030131273E-003   0.0000000000000000     
  -1.2775325141444198E-003   2.5632900940447973E-003   0.0000000000000000     
  -1.9318456042693405E-003   4.4060627730950095E-003   0.0000000000000000     
  -2.5965232497627343E-003   6.6229205401637662E-003   0.0000000000000000     
   0.0000000000000000        0.0000000000000000        0.0000000000000000     
  -8.4138579677116125E-004   1.1104836778330195E-003   0.0000000000000000     
  -1.7014823751516561E-003   2.5991314556460246E-003   0.0000000000000000     
  -2.5802897351414845E-003   4.4659433334390151E-003   0.0000000000000000     
  -3.4778078767406461E-003   6.7109193112119903E-003   0.0000000000000000     
   4.0105462353889898E-013   6.5097792632124460E-003   0.0000000000000000     
   5.3486775013385224E-013   9.0320837200351806E-003   0.0000000000000000     
   6.8618155320103458E-013   1.1868744882638739E-002   0.0000000000000000     
   8.5499594464901948E-013   1.5019762751023123E-002   0.0000000000000000     
   1.0413113513824124E-012   1.8485137325188333E-002   0.0000000000000000     
  -8.5761931119188422E-004   6.5223505161639940E-003   0.0000000000000000     
  -1.0756836920537069E-003   9.0486269208513593E-003   0.0000000000000000     
  -1.2970305208128046E-003   1.1888587436588046E-002   0.0000000000000000     
  -1.5216597974691771E-003   1.5042232063374055E-002   0.0000000000000000     
  -1.7495715220228244E-003   1.8509560801209385E-002   0.0000000000000000     
  -1.7231270612464806E-003   6.5600642751477665E-003   0.0000000000000000     
  -2.1652044199281526E-003   9.0982565234525459E-003   0.0000000000000000     
  -2.6120168999450026E-003   1.1948115098610997E-002   0.0000000000000000     
  -3.0635645012970290E-003   1.5109640000623125E-002   0.0000000000000000     
  -3.5198472239842335E-003   1.8582831229488929E-002   0.0000000000000000     
  -2.5965232497627343E-003   6.6229205401637662E-003   0.0000000000000000     
  -3.2685621830884689E-003   9.1809725278387370E-003   0.0000000000000000     
  -3.9449591367104108E-003   1.2047327868707594E-002   0.0000000000000000     
  -4.6257141106285605E-003   1.5221986562770339E-002   0.0000000000000000     
  -5.3108271048429162E-003   1.8704948610026965E-002   0.0000000000000000     
  -3.4778078767406461E-003   6.7109193112119903E-003   0.0000000000000000     
  -4.3857569815346567E-003   9.2967749340099361E-003   0.0000000000000000     
  -5.2958572311090323E-003   1.2186225746877836E-002   0.0000000000000000     
  -6.2081086254637706E-003   1.5379271749815690E-002   0.0000000000000000     
  -7.1225111645988734E-003   1.8875912942823501E-002   0.0000000000000000     
   1.0413113513824124E-012   1.8485137325188333E-002   0.0000000000000000     
   1.2609375349414975E-012   2.2235319355747147E-002   0.0000000000000000     
   1.5296845279171023E-012   2.6240759593312360E-002   0.0000000000000000     
   1.8475525878072427E-012   3.0501458037883969E-002   0.0000000000000000     
   2.2145419178998260E-012   3.5017414689461977E-002   0.0000000000000000     
  -1.7495715220228244E-003   1.8509560801209385E-002   0.0000000000000000     
  -1.9773587235738877E-003   2.2261251749116598E-002   0.0000000000000000     
  -2.2016144312225084E-003   2.6267983006118260E-002   0.0000000000000000     
  -2.4223386449686857E-003   3.0529754572214379E-002   0.0000000000000000     
  -2.6395313648124204E-003   3.5046566447404948E-002   0.0000000000000000     
  -3.5198472239842335E-003   1.8582831229488929E-002   0.0000000000000000     
  -3.9752427190843783E-003   2.2339048929465217E-002   0.0000000000000000     
  -4.4241286376752306E-003   2.6349653244808806E-002   0.0000000000000000     
  -4.8665049797567876E-003   3.0614644175519689E-002   0.0000000000000000     
  -5.3023717453290495E-003   3.5134021721597873E-002   0.0000000000000000     
  -5.3108271048429162E-003   1.8704948610026965E-002   0.0000000000000000     
  -5.9936519852705388E-003   2.2468710896793011E-002   0.0000000000000000     
  -6.6675426178284839E-003   2.6485770309383986E-002   0.0000000000000000     
  -7.3324990025167552E-003   3.0756126847799905E-002   0.0000000000000000     
  -7.9885211393353507E-003   3.5279780512040754E-002   0.0000000000000000     
  -7.1225111645988734E-003   1.8875912942823501E-002   0.0000000000000000     
  -8.0325865221323647E-003   2.2650237651099969E-002   0.0000000000000000     
  -8.9318563716822702E-003   2.6676334199843811E-002   0.0000000000000000     
  -9.8203207132485839E-003   3.0954202589055024E-002   0.0000000000000000     
  -1.0697979546831313E-002   3.5483842818733596E-002   0.0000000000000000     
   2.2145419178998260E-012   3.5017414689461977E-002   0.0000000000000000     
   2.6334862025453876E-012   3.9770719804948451E-002   0.0000000000000000     
   3.1072211860785903E-012   4.4743463641245478E-002   0.0000000000000000     
   3.6357459198225334E-012   4.9935646198353049E-002   0.0000000000000000     
   4.2190610814035745E-012   5.5347267476271174E-002   0.0000000000000000     
  -2.6395313648124204E-003   3.5046566447404948E-002   0.0000000000000000     
  -2.8532238746946333E-003   3.9800317154138086E-002   0.0000000000000000     
  -3.0634474585562428E-003   4.4772905214861922E-002   0.0000000000000000     
  -3.2702021163972506E-003   4.9964330629576448E-002   0.0000000000000000     
  -3.4734878482176558E-003   5.5374593398281671E-002   0.0000000000000000     
  -5.3023717453290495E-003   3.5134021721597873E-002   0.0000000000000000     
  -5.7307949466634481E-003   3.9889109202066481E-002   0.0000000000000000     
  -6.1508405960314086E-003   4.4861229935948627E-002   0.0000000000000000     
  -6.5625086934329351E-003   5.0050383923244318E-002   0.0000000000000000     
  -6.9657992388680225E-003   5.5456571163953541E-002   0.0000000000000000     
  -7.9885211393353507E-003   3.5279780512040754E-002   0.0000000000000000     
  -8.6327132132729602E-003   4.0037095948733621E-002   0.0000000000000000     
  -9.2621794093182778E-003   4.5008437804505586E-002   0.0000000000000000     
  -9.8769197274713085E-003   5.0193806079356633E-002   0.0000000000000000     
  -1.0476934167732044E-002   5.5593200773286791E-002   0.0000000000000000     
  -1.0697979546831313E-002   3.5483842818733596E-002   0.0000000000000000     
  -1.1558978674523167E-002   4.0244277394139535E-002   0.0000000000000000     
  -1.2397463898416849E-002   4.5214528820532819E-002   0.0000000000000000     
  -1.3213435218512369E-002   5.0394597097913441E-002   0.0000000000000000     
  -1.4006892634809715E-002   5.5784482226281400E-002   0.0000000000000000     
   4.2190610814035745E-012   5.5347267476271174E-002   0.0000000000000000     
   4.6400020327699854E-012   6.0960971307886642E-002   0.0000000000000000     
   4.6814046779711238E-012   6.6759401526086296E-002   0.0000000000000000     
   4.3432674178087854E-012   7.2742558130870105E-002   0.0000000000000000     
   3.6255935319945420E-012   7.8910441122238079E-002   0.0000000000000000     
  -3.4734878482176558E-003   5.5374593398281671E-002   0.0000000000000000     
  -3.6716315257292131E-003   6.0986692162341212E-002   0.0000000000000000     
  -3.8629600206436785E-003   6.6783625563118718E-002   0.0000000000000000     
  -4.0474733329610530E-003   7.2765393600614153E-002   0.0000000000000000     
  -4.2251714626813323E-003   7.8931996274827540E-002   0.0000000000000000     
  -6.9657992388680225E-003   5.5456571163953541E-002   0.0000000000000000     
  -7.3583940912398220E-003   6.1063854724905504E-002   0.0000000000000000     
  -7.7379751094514707E-003   6.6856297672929346E-002   0.0000000000000000     
  -8.1045422935029695E-003   7.2833900008025101E-002   0.0000000000000000     
  -8.4580956433943227E-003   7.8996661730192735E-002   0.0000000000000000     
  -1.0476934167732044E-002   5.5593200773286791E-002   0.0000000000000000     
  -1.1060287691891820E-002   6.1192458995579478E-002   0.0000000000000000     
  -1.1625045261741969E-002   6.6977417855518195E-002   0.0000000000000000     
  -1.2171206877282488E-002   7.2948077353102894E-002   0.0000000000000000     
  -1.2698772538513375E-002   7.9104437488333623E-002   0.0000000000000000     
  -1.4006892634809715E-002   5.5784482226281400E-002   0.0000000000000000     
  -1.4777312327685213E-002   6.1372504974363182E-002   0.0000000000000000     
  -1.5524170477515177E-002   6.7146986110885251E-002   0.0000000000000000     
  -1.6247467084299600E-002   7.3107925635847601E-002   0.0000000000000000     
  -1.6947202148038493E-002   7.9255323549250231E-002   0.0000000000000000     
   3.6255935319945420E-012   7.8910441122238079E-002   0.0000000000000000     
   2.4904885011917122E-012   8.5250516475805768E-002   0.0000000000000000     
   9.0006078761958874E-013   9.1750250167188754E-002   0.0000000000000000     
  -1.1456903270057675E-012   9.8409642196387023E-002   0.0000000000000000     
  -3.6467643141357975E-012  0.10522869256340055        0.0000000000000000     
  -4.2251714626813323E-003   7.8931996274827540E-002   0.0000000000000000     
  -4.3956420865788690E-003   8.5270773572975883E-002   0.0000000000000000     
  -4.5584728814280140E-003   9.1769065482276160E-002   0.0000000000000000     
  -4.7136638472287636E-003   9.8426872002728372E-002   0.0000000000000000     
  -4.8612149839811197E-003  0.10524419313433254        0.0000000000000000     
  -8.4580956433943227E-003   7.8996661730192735E-002   0.0000000000000000     
  -8.7977524494243595E-003   8.5331544861578415E-002   0.0000000000000000     
  -9.1226300018919116E-003   9.1825511424328279E-002   0.0000000000000000     
  -9.4327283007969824E-003   9.8478561418442329E-002   0.0000000000000000     
  -9.7280473461395650E-003  0.10529069484392059        0.0000000000000000     
  -1.2698772538513375E-002   7.9104437488333623E-002   0.0000000000000000     
  -1.3206331086045976E-002   8.5432830341613364E-002   0.0000000000000000     
  -1.3692471360491631E-002   9.1919587993345125E-002   0.0000000000000000     
  -1.4157193361850336E-002   9.8564710443528908E-002   0.0000000000000000     
  -1.4600497090122098E-002  0.10536819769216474        0.0000000000000000     
  -1.6947202148038493E-002   7.9255323549250231E-002   0.0000000000000000     
  -1.7621377996443723E-002   8.5574630013080730E-002   0.0000000000000000     
  -1.8267996957227171E-002   9.2051295189326685E-002   0.0000000000000000     
  -1.8887059030388838E-002   9.8685319077988096E-002   0.0000000000000000     
  -1.9478564215928723E-002  0.10547670167906496        0.0000000000000000     
  -3.6467643141357975E-012  0.10522869256340055        0.0000000000000000     
  -6.4465377480615871E-012  0.11219742354525029        0.0000000000000000     
  -9.3883865525529187E-012  0.11930585741895719        0.0000000000000000     
  -1.2472312733383811E-011  0.12655399418452123        0.0000000000000000     
  -1.5698313742679160E-011  0.13394183384194241        0.0000000000000000     
  -4.8612149839811197E-003  0.10524419313433254        0.0000000000000000     
  -5.0032865568115596E-003  0.11221093017221148        0.0000000000000000     
  -5.1420388308465615E-003  0.11931698441148803        0.0000000000000000     
  -5.2774718060861281E-003  0.12656235585216219        0.0000000000000000     
  -5.4095854825302585E-003  0.13394704449423397        0.0000000000000000     
  -9.7280473461395650E-003  0.10529069484392059        0.0000000000000000     
  -1.0011714478387362E-002  0.11225145005030583        0.0000000000000000     
  -1.0286857038008074E-002  0.11935036538714083        0.0000000000000000     
  -1.0553475025001700E-002  0.12658744085442564        0.0000000000000000     
  -1.0811568439368239E-002  0.13396267645216017        0.0000000000000000     
  -1.4600497090122098E-002  0.10536819769216474        0.0000000000000000     
  -1.5025283771173948E-002  0.11231898317953339        0.0000000000000000     
  -1.5434454630872920E-002  0.11940600034591567        0.0000000000000000     
  -1.5828009669219021E-002  0.12662924919131158        0.0000000000000000     
  -1.6205948886212254E-002  0.13398872971572112        0.0000000000000000     
  -1.9478564215928723E-002  0.10547670167906496        0.0000000000000000     
  -2.0043994435171315E-002  0.11241352955989414        0.0000000000000000     
  -2.0584831609441110E-002  0.11948388928781251        0.0000000000000000     
  -2.1101075738738102E-002  0.12668778086282007        0.0000000000000000     
  -2.1592726823062305E-002  0.13402520428491677        0.0000000000000000     
  -1.5698313742679160E-011  0.13394183384194241        0.0000000000000000     
  -1.8786125649886132E-011  0.14147751475385031        0.0000000000000000     
  -2.1455481271845378E-011  0.14916917528287446        0.0000000000000000     
  -2.3706382614330918E-011  0.15701681542901488        0.0000000000000000     
  -2.5538828864191121E-011  0.16502043519227158        0.0000000000000000     
  -5.4095854825302585E-003  0.13394704449423397        0.0000000000000000     
  -5.5341239998853708E-003  0.14147668752183359        0.0000000000000000     
  -5.6468314978578927E-003  0.14915692211909123        0.0000000000000000     
  -5.7477079764478240E-003  0.15698774828600695        0.0000000000000000     
  -5.8367534356551605E-003  0.16496916602258066        0.0000000000000000     
  -1.0811568439368239E-002  0.13396267645216017        0.0000000000000000     
  -1.1054314316463844E-002  0.14147420582959763        0.0000000000000000     
  -1.1274889691644670E-002  0.14912016263599101        0.0000000000000000     
  -1.1473294564910721E-002  0.15690054687134028        0.0000000000000000     
  -1.1649528936261999E-002  0.16481535853564552        0.0000000000000000     
  -1.6205948886212254E-002  0.13398872971572112        0.0000000000000000     
  -1.6560570968521537E-002  0.14147006967714248        0.0000000000000000     
  -1.6884174602815820E-002  0.14905889683357376        0.0000000000000000     
  -1.7176759789095088E-002  0.15675521118501495        0.0000000000000000     
  -1.7438326527359348E-002  0.16455901273146611        0.0000000000000000     
  -2.1592726823062305E-002  0.13402520428491677        0.0000000000000000     
  -2.2052893956058462E-002  0.14146427906446812        0.0000000000000000     
  -2.2474686231371329E-002  0.14897312471183952        0.0000000000000000     
  -2.2858103649000910E-002  0.15655174122703097        0.0000000000000000     
  -2.3203146208947197E-002  0.16420012861004246        0.0000000000000000     
   0.0000000000000000        0.0000000000000000        0.0000000000000000     
  -8.4138579677116125E-004   1.1104836778330195E-003   0.0000000000000000     
  -1.7014823751516561E-003   2.5991314556460246E-003   0.0000000000000000     
  -2.5802897351414845E-003   4.4659433334390151E-003   0.0000000000000000     
  -3.4778078767406461E-003   6.7109193112119903E-003   0.0000000000000000     
   0.0000000000000000        0.0000000000000000        0.0000000000000000     
  -1.0563968424399700E-003   1.1344865982486892E-003   0.0000000000000000     
  -2.1390446252478371E-003   2.6510922587371006E-003   0.0000000000000000     
  -3.2479433484236008E-003   4.5498169814652345E-003   0.0000000000000000     
  -4.3830930119672616E-003   6.8306607664330912E-003   0.0000000000000000     
   0.0000000000000000        0.0000000000000000        0.0000000000000000     
  -1.2875227659000319E-003   1.1701955313304542E-003   0.0000000000000000     
  -2.6047788087383145E-003   2.7250515557685592E-003   0.0000000000000000     
  -3.9517681285148459E-003   4.6645680733143147E-003   0.0000000000000000     
  -5.3284907252296289E-003   6.9887450839677210E-003   0.0000000000000000     
   0.0000000000000000        0.0000000000000000        0.0000000000000000     
  -1.5347635671513469E-003   1.2176104770783151E-003   0.0000000000000000     
  -3.0986849256230864E-003   2.8210093467403996E-003   0.0000000000000000     
  -4.6917640754152203E-003   4.8101966089862530E-003   0.0000000000000000     
  -6.3140010165277441E-003   7.1851722638158772E-003   0.0000000000000000     
   0.0000000000000000        0.0000000000000000        0.0000000000000000     
  -1.7981192461939150E-003   1.2767314354922711E-003   0.0000000000000000     
  -3.6207629759021551E-003   2.9389656316526217E-003   0.0000000000000000     
  -5.4679311891247199E-003   4.9867025884810529E-003   0.0000000000000000     
  -7.3396238858616115E-003   7.4199423059775624E-003   0.0000000000000000     
  -3.4778078767406461E-003   6.7109193112119903E-003   0.0000000000000000     
  -4.3857569815346567E-003   9.2967749340099361E-003   0.0000000000000000     
  -5.2958572311090323E-003   1.2186225746877836E-002   0.0000000000000000     
  -6.2081086254637706E-003   1.5379271749815690E-002   0.0000000000000000     
  -7.1225111645988734E-003   1.8875912942823501E-002   0.0000000000000000     
  -4.3830930119672616E-003   6.8306607664330912E-003   0.0000000000000000     
  -5.5314950188009313E-003   9.4516321622845258E-003   0.0000000000000000     
  -6.6801507718467230E-003   1.2370739717663393E-002   0.0000000000000000     
  -7.8290602711046375E-003   1.5587983432569688E-002   0.0000000000000000     
  -8.9782235165746741E-003   1.9103363307003417E-002   0.0000000000000000     
  -5.3284907252296289E-003   6.9887450839677210E-003   0.0000000000000000     
  -6.7204824984215114E-003   9.6515126329808892E-003   0.0000000000000000     
  -8.1132793476293517E-003   1.2606800765605929E-002   0.0000000000000000     
  -9.5068812728531446E-003   1.5854609481842842E-002   0.0000000000000000     
  -1.0901288274092893E-002   1.9394938781691625E-002   0.0000000000000000     
  -6.3140010165277441E-003   7.1851722638158772E-003   0.0000000000000000     
  -7.9527194203963970E-003   9.8964163460990226E-003   0.0000000000000000     
  -9.5952429584569097E-003   1.2894408890705445E-002   0.0000000000000000     
  -1.1241571630709287E-002   1.6179149897635140E-002   0.0000000000000000     
  -1.2891705437153525E-002   1.9750639366888111E-002   0.0000000000000000     
  -7.3396238858616115E-003   7.4199423059775624E-003   0.0000000000000000     
  -9.2282057847255863E-003   1.0186343301638933E-002   0.0000000000000000     
  -1.1126041604329406E-002   1.3233564092961943E-002   0.0000000000000000     
  -1.3033131344673066E-002   1.6561604679946589E-002   0.0000000000000000     
  -1.4949475005756576E-002   2.0170465062592881E-002   0.0000000000000000     
  -7.1225111645988734E-003   1.8875912942823501E-002   0.0000000000000000     
  -8.0325865221323647E-003   2.2650237651099969E-002   0.0000000000000000     
  -8.9318563716822702E-003   2.6676334199843811E-002   0.0000000000000000     
  -9.8203207132485839E-003   3.0954202589055024E-002   0.0000000000000000     
  -1.0697979546831313E-002   3.5483842818733596E-002   0.0000000000000000     
  -8.9782235165746741E-003   1.9103363307003417E-002   0.0000000000000000     
  -1.0120532818599003E-002   2.2892159092193123E-002   0.0000000000000000     
  -1.1248880487519791E-002   2.6929650539367331E-002   0.0000000000000000     
  -1.2363266523337038E-002   3.1215837648526049E-002   0.0000000000000000     
  -1.3463690926050747E-002   3.5750720419669278E-002   0.0000000000000000     
  -1.0901288274092893E-002   1.9394938781691625E-002   0.0000000000000000     
  -1.2285977363599595E-002   2.3203005119879477E-002   0.0000000000000000     
  -1.3650425553624257E-002   2.7254024951133608E-002   0.0000000000000000     
  -1.4994632844166873E-002   3.1547998275454001E-002   0.0000000000000000     
  -1.6318599235227445E-002   3.6084925092840670E-002   0.0000000000000000     
  -1.2891705437153525E-002   1.9750639366888111E-002   0.0000000000000000     
  -1.4528920157134147E-002   2.3582775734159046E-002   0.0000000000000000     
  -1.6136491569995668E-002   2.7649457435142636E-002   0.0000000000000000     
  -1.7714419675738089E-002   3.1950684469838876E-002   0.0000000000000000     
  -1.9262704474361410E-002   3.6486456838247777E-002   0.0000000000000000     
  -1.4949475005756576E-002   2.0170465062592881E-002   0.0000000000000000     
  -1.6849361199202651E-002   2.4031470935031822E-002   0.0000000000000000     
  -1.8707078536634020E-002   2.8115947991394420E-002   0.0000000000000000     
  -2.0522627018050684E-002   3.2423896231680675E-002   0.0000000000000000     
  -2.2296006643452645E-002   3.6955315655890601E-002   0.0000000000000000     
  -1.0697979546831313E-002   3.5483842818733596E-002   0.0000000000000000     
  -1.1558978674523167E-002   4.0244277394139535E-002   0.0000000000000000     
  -1.2397463898416849E-002   4.5214528820532819E-002   0.0000000000000000     
  -1.3213435218512369E-002   5.0394597097913441E-002   0.0000000000000000     
  -1.4006892634809715E-002   5.5784482226281400E-002   0.0000000000000000     
  -1.3463690926050747E-002   3.5750720419669278E-002   0.0000000000000000     
  -1.4541950495569566E-002   4.0512942302215145E-002   0.0000000000000000     
  -1.5589842031802146E-002   4.5481146745581791E-002   0.0000000000000000     
  -1.6607365534748484E-002   5.0655333749769202E-002   0.0000000000000000     
  -1.7594521004408586E-002   5.6035503314777399E-002   0.0000000000000000     
  -1.6318599235227445E-002   3.6084925092840670E-002   0.0000000000000000     
  -1.7613987841567657E-002   4.0845379436891399E-002   0.0000000000000000     
  -1.8872461777949188E-002   4.5809935341204006E-002   0.0000000000000000     
  -2.0094021044372041E-002   5.0978592805778475E-002   0.0000000000000000     
  -2.1278665640836209E-002   5.6351351830614800E-002   0.0000000000000000     
  -1.9262704474361410E-002   3.6486456838247777E-002   0.0000000000000000     
  -2.0775090712517444E-002   4.1241588798168312E-002   0.0000000000000000     
  -2.2245323136857981E-002   4.6200894607399456E-002   0.0000000000000000     
  -2.3673401747383024E-002   5.1364374265941225E-002   0.0000000000000000     
  -2.5059326544092576E-002   5.6732027773793617E-002   0.0000000000000000     
  -2.2296006643452645E-002   3.6955315655890601E-002   0.0000000000000000     
  -2.4025259108418916E-002   4.1701570386045869E-002   0.0000000000000000     
  -2.5708426108528516E-002   4.6654024544168157E-002   0.0000000000000000     
  -2.7345507643781443E-002   5.1812678130257479E-002   0.0000000000000000     
  -2.8936503714177695E-002   5.7177531144313828E-002   0.0000000000000000     
  -1.4006892634809715E-002   5.5784482226281400E-002   0.0000000000000000     
  -1.4777312327685213E-002   6.1372504974363182E-002   0.0000000000000000     
  -1.5524170477515177E-002   6.7146986110885251E-002   0.0000000000000000     
  -1.6247467084299600E-002   7.3107925635847601E-002   0.0000000000000000     
  -1.6947202148038493E-002   7.9255323549250231E-002   0.0000000000000000     
  -1.7594521004408586E-002   5.6035503314777399E-002   0.0000000000000000     
  -1.8552168168326492E-002   6.1612049496853401E-002   0.0000000000000000     
  -1.9481166754046257E-002   6.7375366352244254E-002   0.0000000000000000     
  -2.0381516761567863E-002   7.3325453880949923E-002   0.0000000000000000     
  -2.1253218190891324E-002   7.9462312082970457E-002   0.0000000000000000     
  -2.1278665640836209E-002   5.6351351830614800E-002   0.0000000000000000     
  -2.2427555383522167E-002   6.1919149398646969E-002   0.0000000000000000     
  -2.3541850088610358E-002   6.7672922492808915E-002   0.0000000000000000     
  -2.4621549756100817E-002   7.3612671113100658E-002   0.0000000000000000     
  -2.5666654385993515E-002   7.9738395259522185E-002   0.0000000000000000     
  -2.5059326544092576E-002   5.6732027773793617E-002   0.0000000000000000     
  -2.6403473973272217E-002   6.2293804679743880E-002   0.0000000000000000     
  -2.7706220481207505E-002   6.8039654532579263E-002   0.0000000000000000     
  -2.8967566067898461E-002   7.3969577332299752E-002   0.0000000000000000     
  -3.0187510733345066E-002   8.0083573078905415E-002   0.0000000000000000     
  -2.8936503714177695E-002   5.7177531144313828E-002   0.0000000000000000     
  -3.0479923937576654E-002   6.2736015340144113E-002   0.0000000000000000     
  -3.1974277931837693E-002   6.8475562471555285E-002   0.0000000000000000     
  -3.3419565696960800E-002   7.4396172538547273E-002   0.0000000000000000     
  -3.4815787232945983E-002   8.0497845541120147E-002   0.0000000000000000     
  -1.6947202148038493E-002   7.9255323549250231E-002   0.0000000000000000     
  -1.7621377996443723E-002   8.5574630013080730E-002   0.0000000000000000     
  -1.8267996957227171E-002   9.2051295189326685E-002   0.0000000000000000     
  -1.8887059030388838E-002   9.8685319077988096E-002   0.0000000000000000     
  -1.9478564215928723E-002  0.10547670167906496        0.0000000000000000     
  -2.1253218190891324E-002   7.9462312082970457E-002   0.0000000000000000     
  -2.2093901773510428E-002   8.5770826049545473E-002   0.0000000000000000     
  -2.2901198240918984E-002   9.2235880871914616E-002   0.0000000000000000     
  -2.3675107593116976E-002   9.8857476550077927E-002   0.0000000000000000     
  -2.4415629830104417E-002  0.10563561308403537        0.0000000000000000     
  -2.5666654385993515E-002   7.9738395259522185E-002   0.0000000000000000     
  -2.6674911010138923E-002   8.6035300624572486E-002   0.0000000000000000     
  -2.7644066660387507E-002   9.2488592900750580E-002   0.0000000000000000     
  -2.8574121336739255E-002   9.9098272088056438E-002   0.0000000000000000     
  -2.9465075039194186E-002  0.10586433818649006        0.0000000000000000     
  -3.0187510733345066E-002   8.0083573078905415E-002   0.0000000000000000     
  -3.1364405706329208E-002   8.6368053738161810E-002   0.0000000000000000     
  -3.2496602215632740E-002   9.2809431275834520E-002   0.0000000000000000     
  -3.3584100261255675E-002   9.9407705691923615E-002   0.0000000000000000     
  -3.4626899843198007E-002  0.10616287698642904        0.0000000000000000     
  -3.4815787232945983E-002   8.0497845541120147E-002   0.0000000000000000     
  -3.6162385862081273E-002   8.6769085390313375E-002   0.0000000000000000     
  -3.7458804906654694E-002   9.3198395997166492E-002   0.0000000000000000     
  -3.8705044366666226E-002   9.9785777361679456E-002   0.0000000000000000     
  -3.9901104242115897E-002  0.10653122948385231        0.0000000000000000     
  -1.9478564215928723E-002  0.10547670167906496        0.0000000000000000     
  -2.0043994435171315E-002  0.11241352955989414        0.0000000000000000     
  -2.0584831609441110E-002  0.11948388928781251        0.0000000000000000     
  -2.1101075738738102E-002  0.12668778086282007        0.0000000000000000     
  -2.1592726823062305E-002  0.13402520428491677        0.0000000000000000     
  -2.4415629830104417E-002  0.10563561308403537        0.0000000000000000     
  -2.5122559063127759E-002  0.11255759124256497        0.0000000000000000     
  -2.5795689403433450E-002  0.11961071179444477        0.0000000000000000     
  -2.6435020851021489E-002  0.12679497473967474        0.0000000000000000     
  -2.7040553405891888E-002  0.13411038007825493        0.0000000000000000     
  -2.9465075039194186E-002  0.10586433818649006        0.0000000000000000     
  -3.0315690247791585E-002  0.11277367027872277        0.0000000000000000     
  -3.1124729442570772E-002  0.11981314744742590        0.0000000000000000     
  -3.1892192623531740E-002  0.12698276969259942        0.0000000000000000     
  -3.2618079790674492E-002  0.13428253701424336        0.0000000000000000     
  -3.4626899843198007E-002  0.10616287698642904        0.0000000000000000     
  -3.5623387989162786E-002  0.11306176666836756        0.0000000000000000     
  -3.6571951726853069E-002  0.12009119624675590        0.0000000000000000     
  -3.7472591056268836E-002  0.12725116572159406        0.0000000000000000     
  -3.8325305977410122E-002  0.13454167509288206        0.0000000000000000     
  -3.9901104242115897E-002  0.10653122948385231        0.0000000000000000     
  -4.1045652287241371E-002  0.11342188041149931        0.0000000000000000     
  -4.2137356256280345E-002  0.12044485819243479        0.0000000000000000     
  -4.3176216149232817E-002  0.12760016282665870        0.0000000000000000     
  -4.4162231966098767E-002  0.13488779431417111        0.0000000000000000     
  -2.1592726823062305E-002  0.13402520428491677        0.0000000000000000     
  -2.2052893956058462E-002  0.14146427906446812        0.0000000000000000     
  -2.2474686231371329E-002  0.14897312471183952        0.0000000000000000     
  -2.2858103649000910E-002  0.15655174122703097        0.0000000000000000     
  -2.3203146208947197E-002  0.16420012861004246        0.0000000000000000     
  -2.7040553405891888E-002  0.13411038007825493        0.0000000000000000     
  -2.7607105721956605E-002  0.14151052725754312        0.0000000000000000     
  -2.8129496453127619E-002  0.14894901572489722        0.0000000000000000     
  -2.8607725599404926E-002  0.15642584548031718        0.0000000000000000     
  -2.9041793160788528E-002  0.16394101652380302        0.0000000000000000     
  -3.2618079790674492E-002  0.13428253701424336        0.0000000000000000     
  -3.3299028709097962E-002  0.14166250752233600        0.0000000000000000     
  -3.3931677143901093E-002  0.14907273932685572        0.0000000000000000     
  -3.4516025095083863E-002  0.15651323242780252        0.0000000000000000     
  -3.5052072562646308E-002  0.16398398682517631        0.0000000000000000     
  -3.8325305977410122E-002  0.13454167509288206        0.0000000000000000     
  -3.9128662917482536E-002  0.14192021985884679        0.0000000000000000     
  -3.9881228303691750E-002  0.14934429551771508        0.0000000000000000     
  -4.0583002136037744E-002  0.15681390206948692        0.0000000000000000     
  -4.1233984414520544E-002  0.16432903951416231        0.0000000000000000     
  -4.4162231966098767E-002  0.13488779431417111        0.0000000000000000     
  -4.5096008347110327E-002  0.14228366426707545        0.0000000000000000     
  -4.5978149932499580E-002  0.14976368429747522        0.0000000000000000     
  -4.6808656722266549E-002  0.15732785440537042        0.0000000000000000     
  -4.7587528716411212E-002  0.16497617459076103        0.0000000000000000     
   0.0000000000000000        0.0000000000000000        0.0000000000000000     
  -1.7981192461939150E-003   1.2767314354922711E-003   0.0000000000000000     
  -3.6207629759021551E-003   2.9389656316526217E-003   0.0000000000000000     
  -5.4679311891247199E-003   4.9867025884810529E-003   0.0000000000000000     
  -7.3396238858616115E-003   7.4199423059775624E-003   0.0000000000000000     
   0.0000000000000000        0.0000000000000000        0.0000000000000000     
  -2.0693091465754229E-003   1.3546867070824767E-003   0.0000000000000000     
  -4.1636444584380655E-003   3.0934747857701418E-003   0.0000000000000000     
  -6.2830059355879269E-003   5.2163642360629949E-003   0.0000000000000000     
  -8.4273935780250098E-003   7.7233550579610356E-003   0.0000000000000000     
   0.0000000000000000        0.0000000000000000        0.0000000000000000     
  -2.3400526118435572E-003   1.4586045923590846E-003   0.0000000000000000     
  -4.7199608720933624E-003   3.2990911843578732E-003   0.0000000000000000     
  -7.1397247807494174E-003   5.5214597759963655E-003   0.0000000000000000     
  -9.5993443378117205E-003   8.1257103672745627E-003   0.0000000000000000     
   0.0000000000000000        0.0000000000000000        0.0000000000000000     
  -2.6103496419983179E-003   1.5884850913220954E-003   0.0000000000000000     
  -5.2897122168680472E-003   3.5558148274158169E-003   0.0000000000000000     
  -8.0380877246091897E-003   5.9019892082811647E-003   0.0000000000000000     
  -1.0855476165221744E-002   8.6270082339181386E-003   0.0000000000000000     
   0.0000000000000000        0.0000000000000000        0.0000000000000000     
  -2.8802002370397046E-003   1.7443282039715086E-003   0.0000000000000000     
  -5.8728984927621190E-003   3.8636457149439727E-003   0.0000000000000000     
  -8.9780947671672436E-003   6.3579525329173926E-003   0.0000000000000000     
  -1.2195789060255081E-002   9.2272486578917658E-003   0.0000000000000000     
  -7.3396238858616115E-003   7.4199423059775624E-003   0.0000000000000000     
  -9.2282057847255863E-003   1.0186343301638933E-002   0.0000000000000000     
  -1.1126041604329406E-002   1.3233564092961943E-002   0.0000000000000000     
  -1.3033131344673066E-002   1.6561604679946589E-002   0.0000000000000000     
  -1.4949475005756576E-002   2.0170465062592881E-002   0.0000000000000000     
  -8.4273935780250098E-003   7.7233550579610356E-003   0.0000000000000000     
  -1.0588541111027252E-002   1.0557116575550170E-002   0.0000000000000000     
  -1.2758182259872590E-002   1.3660318112916302E-002   0.0000000000000000     
  -1.4936317024561033E-002   1.7032959670059428E-002   0.0000000000000000     
  -1.7122945405092571E-002   2.0675041246979553E-002   0.0000000000000000     
  -9.5993443378117205E-003   8.1257103672745627E-003   0.0000000000000000     
  -1.2075324918919562E-002   1.1044559243782295E-002   0.0000000000000000     
  -1.4544171899712228E-002   1.4210722691109401E-002   0.0000000000000000     
  -1.7005885280189720E-002   1.7624200709255886E-002   0.0000000000000000     
  -1.9460465060352046E-002   2.1284993298221734E-002   0.0000000000000000     
  -1.0855476165221744E-002   8.6270082339181386E-003   0.0000000000000000     
  -1.3688557208402516E-002   1.1648671306335307E-002   0.0000000000000000     
  -1.6484010523848316E-002   1.4884777827541249E-002   0.0000000000000000     
  -1.9241836111559146E-002   1.8335327797535956E-002   0.0000000000000000     
  -2.1962033971534994E-002   2.2000321216319434E-002   0.0000000000000000     
  -1.2195789060255081E-002   9.2272486578917658E-003   0.0000000000000000     
  -1.5428237979476121E-002   1.2369452763209211E-002   0.0000000000000000     
  -1.8577698132280857E-002   1.5682483522211837E-002   0.0000000000000000     
  -2.1644169518669293E-002   1.9166340934899648E-002   0.0000000000000000     
  -2.4627652138641428E-002   2.2821025001272640E-002   0.0000000000000000     
  -1.4949475005756576E-002   2.0170465062592881E-002   0.0000000000000000     
  -1.6849361199202651E-002   2.4031470935031822E-002   0.0000000000000000     
  -1.8707078536634020E-002   2.8115947991394420E-002   0.0000000000000000     
  -2.0522627018050684E-002   3.2423896231680675E-002   0.0000000000000000     
  -2.2296006643452645E-002   3.6955315655890601E-002   0.0000000000000000     
  -1.7122945405092571E-002   2.0675041246979553E-002   0.0000000000000000     
  -1.9286437203522626E-002   2.4558713192455457E-002   0.0000000000000000     
  -2.1395162221906606E-002   2.8656125855265929E-002   0.0000000000000000     
  -2.3449120460244516E-002   3.2967279235410971E-002   0.0000000000000000     
  -2.5448311918536352E-002   3.7492173332890594E-002   0.0000000000000000     
  -1.9460465060352046E-002   2.1284993298221734E-002   0.0000000000000000     
  -2.1879284883811578E-002   2.5174124976387602E-002   0.0000000000000000     
  -2.4233718394180703E-002   2.9272620262134137E-002   0.0000000000000000     
  -2.6523765591459421E-002   3.3580479155461328E-002   0.0000000000000000     
  -2.8749426475647738E-002   3.8097701656369179E-002   0.0000000000000000     
  -2.1962033971534994E-002   2.2000321216319434E-002   0.0000000000000000     
  -2.4627904240069508E-002   2.5877706286828259E-002   0.0000000000000000     
  -2.7222747053456318E-002   2.9965431211999027E-002   0.0000000000000000     
  -2.9746562411695418E-002   3.4263495991831733E-002   0.0000000000000000     
  -3.2199350314786809E-002   3.8771900626326392E-002   0.0000000000000000     
  -2.4627652138641428E-002   2.2821025001272640E-002   0.0000000000000000     
  -2.7532295272296430E-002   2.6669457123777426E-002   0.0000000000000000     
  -3.0362248199733446E-002   3.0734558704860616E-002   0.0000000000000000     
  -3.3117510920952484E-002   3.5016329744522214E-002   0.0000000000000000     
  -3.5798083435953552E-002   3.9514770242762204E-002   0.0000000000000000     
  -2.2296006643452645E-002   3.6955315655890601E-002   0.0000000000000000     
  -2.4025259108418916E-002   4.1701570386045869E-002   0.0000000000000000     
  -2.5708426108528516E-002   4.6654024544168157E-002   0.0000000000000000     
  -2.7345507643781443E-002   5.1812678130257479E-002   0.0000000000000000     
  -2.8936503714177695E-002   5.7177531144313828E-002   0.0000000000000000     
  -2.5448311918536352E-002   3.7492173332890594E-002   0.0000000000000000     
  -2.7394960132653398E-002   4.2227957556884223E-002   0.0000000000000000     
  -2.9291288638466924E-002   4.7171781316571307E-002   0.0000000000000000     
  -3.1137297435976926E-002   5.2323644611951867E-002   0.0000000000000000     
  -3.2932986525183415E-002   5.7683547443025888E-002   0.0000000000000000     
  -2.8749426475647738E-002   3.8097701656369179E-002   0.0000000000000000     
  -3.0914660888602192E-002   4.2823383667043517E-002   0.0000000000000000     
  -3.3023428672179320E-002   4.7756621089670125E-002   0.0000000000000000     
  -3.5075729826379111E-002   5.2897413924249022E-002   0.0000000000000000     
  -3.7071564351201583E-002   5.8245762170780209E-002   0.0000000000000000     
  -3.2199350314786809E-002   3.8771900626326392E-002   0.0000000000000000     
  -3.4584361376265291E-002   4.3487848716523753E-002   0.0000000000000000     
  -3.6904846209665700E-002   4.8408543863464611E-002   0.0000000000000000     
  -3.9160804814988001E-002   5.3533986067148966E-002   0.0000000000000000     
  -4.1352237192232209E-002   5.8864175327576818E-002   0.0000000000000000     
  -3.5798083435953552E-002   3.9514770242762204E-002   0.0000000000000000     
  -3.8404061595642719E-002   4.4221352705324950E-002   0.0000000000000000     
  -4.0935541250926057E-002   4.9127549637954772E-002   0.0000000000000000     
  -4.3392522401803586E-002   5.4233361040651698E-002   0.0000000000000000     
  -4.5775005048275280E-002   5.9538786913415694E-002   0.0000000000000000     
  -2.8936503714177695E-002   5.7177531144313828E-002   0.0000000000000000     
  -3.0479923937576654E-002   6.2736015340144113E-002   0.0000000000000000     
  -3.1974277931837693E-002   6.8475562471555285E-002   0.0000000000000000     
  -3.3419565696960800E-002   7.4396172538547273E-002   0.0000000000000000     
  -3.4815787232945983E-002   8.0497845541120147E-002   0.0000000000000000     
  -3.2932986525183415E-002   5.7683547443025888E-002   0.0000000000000000     
  -3.4675176282753586E-002   6.3236569560794223E-002   0.0000000000000000     
  -3.6360687085354663E-002   6.8967790716257749E-002   0.0000000000000000     
  -3.7989518932986632E-002   7.4877210909416472E-002   0.0000000000000000     
  -3.9561671825649500E-002   8.0964830140270366E-002   0.0000000000000000     
  -3.7071564351201583E-002   5.8245762170780209E-002   0.0000000000000000     
  -3.9007502015121147E-002   6.3786255522640681E-002   0.0000000000000000     
  -4.0880112586612227E-002   6.9503483673207481E-002   0.0000000000000000     
  -4.2689396065674790E-002   7.5397446622480588E-002   0.0000000000000000     
  -4.4435352452308868E-002   8.1468144370460002E-002   0.0000000000000000     
  -4.1352237192232209E-002   5.8864175327576818E-002   0.0000000000000000     
  -4.3476901134679315E-002   6.4385073225683528E-002   0.0000000000000000     
  -4.5532554435610335E-002   7.0082641342404467E-002   0.0000000000000000     
  -4.7519197095025265E-002   7.5956879677739661E-002   0.0000000000000000     
  -4.9436829112924081E-002   8.2007788231689083E-002   0.0000000000000000     
  -4.5775005048275280E-002   5.9538786913415694E-002   0.0000000000000000     
  -4.8083373641428118E-002   6.5033022669922710E-002   0.0000000000000000     
  -5.0318012632349036E-002   7.0705263723848721E-002   0.0000000000000000     
  -5.2478922021038051E-002   7.6555510075193664E-002   0.0000000000000000     
  -5.4566101807495132E-002   8.2583761723957594E-002   0.0000000000000000     
  -3.4815787232945983E-002   8.0497845541120147E-002   0.0000000000000000     
  -3.6162385862081273E-002   8.6769085390313375E-002   0.0000000000000000     
  -3.7458804906654694E-002   9.3198395997166492E-002   0.0000000000000000     
  -3.8705044366666226E-002   9.9785777361679456E-002   0.0000000000000000     
  -3.9901104242115897E-002  0.10653122948385231        0.0000000000000000     
  -3.9561671825649500E-002   8.0964830140270366E-002   0.0000000000000000     
  -4.1077654530511806E-002   8.7221203577306422E-002   0.0000000000000000     
  -4.2537975814742085E-002   9.3636886389011589E-002   0.0000000000000000     
  -4.3942635678340336E-002  0.10021187857538591        0.0000000000000000     
  -4.5291634121306538E-002  0.10694618013642936        0.0000000000000000     
  -4.4435352452308868E-002   8.1468144370460002E-002   0.0000000000000000     
  -4.6119014764737475E-002   8.7707216295420040E-002   0.0000000000000000     
  -4.7741416021183640E-002   9.4106301775634990E-002   0.0000000000000000     
  -4.9302556221647365E-002  0.10066540081110487        0.0000000000000000     
  -5.0802435366128634E-002  0.10738451340182965        0.0000000000000000     
  -4.9436829112924081E-002   8.2007788231689083E-002   0.0000000000000000     
  -5.1286466564758298E-002   8.8227123544654257E-002   0.0000000000000000     
  -5.3069125525979380E-002   9.4606642157036666E-002   0.0000000000000000     
  -5.4784805996587339E-002  0.10114634406883631        0.0000000000000000     
  -5.6433507976582177E-002  0.10784622928005323        0.0000000000000000     
  -5.4566101807495132E-002   8.2583761723957594E-002   0.0000000000000000     
  -5.6580009930574243E-002   8.8780925325009030E-002   0.0000000000000000     
  -5.8521104329129284E-002   9.5137907533216617E-002   0.0000000000000000     
  -6.0389385003160247E-002  0.10165470834858027        0.0000000000000000     
  -6.2184851952667153E-002  0.10833132777110005        0.0000000000000000     
  -3.9901104242115897E-002  0.10653122948385231        0.0000000000000000     
  -4.1045652287241371E-002  0.11342188041149931        0.0000000000000000     
  -4.2137356256280345E-002  0.12044485819243479        0.0000000000000000     
  -4.3176216149232817E-002  0.12760016282665870        0.0000000000000000     
  -4.4162231966098767E-002  0.13488779431417111        0.0000000000000000     
  -4.5291634121306538E-002  0.10694618013642936        0.0000000000000000     
  -4.6584112223892804E-002  0.11382728006655810        0.0000000000000000     
  -4.7819211066351189E-002  0.12084266736018837        0.0000000000000000     
  -4.8996930648681693E-002  0.12799234201732007        0.0000000000000000     
  -5.0117270970884302E-002  0.13527630403795329        0.0000000000000000     
  -5.0802435366128634E-002  0.10738451340182965        0.0000000000000000     
  -5.2240396880982545E-002  0.11425123419198398        0.0000000000000000     
  -5.3615784192564186E-002  0.12125315782574238        0.0000000000000000     
  -5.4928597300873523E-002  0.12839028430310484        0.0000000000000000     
  -5.6178836205910590E-002  0.13566261362407145        0.0000000000000000     
  -5.6433507976582177E-002  0.10784622928005323        0.0000000000000000     
  -5.8014506258510602E-002  0.11469374278777690        0.0000000000000000     
  -5.9527075634919310E-002  0.12167632958909684        0.0000000000000000     
  -6.0971216105808336E-002  0.12879398968401309        0.0000000000000000     
  -6.2346927671177638E-002  0.13604672307252560        0.0000000000000000     
  -6.2184851952667153E-002  0.10833132777110005        0.0000000000000000     
  -6.3906440356476954E-002  0.11515480585393689        0.0000000000000000     
  -6.5553085393416588E-002  0.12211218265025178        0.0000000000000000     
  -6.7124787063486097E-002  0.12920345816004475        0.0000000000000000     
  -6.8621545366685438E-002  0.13642863238331571        0.0000000000000000     
  -4.4162231966098767E-002  0.13488779431417111        0.0000000000000000     
  -4.5096008347110327E-002  0.14228366426707545        0.0000000000000000     
  -4.5978149932499580E-002  0.14976368429747522        0.0000000000000000     
  -4.6808656722266549E-002  0.15732785440537042        0.0000000000000000     
  -4.7587528716411212E-002  0.16497617459076103        0.0000000000000000     
  -5.0117270970884302E-002  0.13527630403795329        0.0000000000000000     
  -5.1181813557364148E-002  0.14268907286907201        0.0000000000000000     
  -5.2192139932526298E-002  0.15022516795766011        0.0000000000000000     
  -5.3148250096370780E-002  0.15788458930371771        0.0000000000000000     
  -5.4050144048897568E-002  0.16566733690724472        0.0000000000000000     
  -5.6178836205910590E-002  0.13566261362407145        0.0000000000000000     
  -5.7366827107626805E-002  0.14307267778688629        0.0000000000000000     
  -5.8492896205973581E-002  0.15062300878979359        0.0000000000000000     
  -5.9557043500950924E-002  0.15831360663279337        0.0000000000000000     
  -6.0559268992558812E-002  0.16614447131588561        0.0000000000000000     
  -6.2346927671177638E-002  0.13604672307252560        0.0000000000000000     
  -6.3651048997898307E-002  0.14343447902051848        0.0000000000000000     
  -6.4880418752841437E-002  0.15095720679387575        0.0000000000000000     
  -6.6035036936006986E-002  0.15861490639259751        0.0000000000000000     
  -6.7114903547394952E-002  0.16640757781668369        0.0000000000000000     
  -6.8621545366685438E-002  0.13642863238331571        0.0000000000000000     
  -7.0034479228178681E-002  0.14377447656996842        0.0000000000000000     
  -7.1354707573129866E-002  0.15122776196990653        0.0000000000000000     
  -7.2582230401538966E-002  0.15878848858313005        0.0000000000000000     
  -7.3717047713405995E-002  0.16645665640963897        0.0000000000000000     
   0.0000000000000000        0.0000000000000000        0.0000000000000000     
  -2.8802002370397046E-003   1.7443282039715086E-003   0.0000000000000000     
  -5.8728984927621190E-003   3.8636457149439727E-003   0.0000000000000000     
  -8.9780947671672436E-003   6.3579525329173926E-003   0.0000000000000000     
  -1.2195789060255081E-002   9.2272486578917658E-003   0.0000000000000000     
   0.0000000000000000        0.0000000000000000        0.0000000000000000     
  -3.2834205259898953E-003   1.9988210784328483E-003   0.0000000000000000     
  -6.6774245635412002E-003   4.3299191447393661E-003   0.0000000000000000     
  -1.0182012112653909E-002   6.9932941989195533E-003   0.0000000000000000     
  -1.3797183173328032E-002   9.9889462409734099E-003   0.0000000000000000     
   0.0000000000000000        0.0000000000000000        0.0000000000000000     
  -3.9538266378710673E-003   2.4246508628316395E-003   0.0000000000000000     
  -7.9111952929709073E-003   5.0619704145990242E-003   0.0000000000000000     
  -1.1872105965299518E-002   7.9119586553021565E-003   0.0000000000000000     
  -1.5836558654856905E-002   1.0974615584941035E-002   0.0000000000000000     
   0.0000000000000000        0.0000000000000000        0.0000000000000000     
  -4.8914185726832201E-003   3.0218175571678800E-003   0.0000000000000000     
  -9.5742106810512411E-003   6.0597995245229462E-003   0.0000000000000000     
  -1.4048376325104068E-002   9.1139459020651969E-003   0.0000000000000000     
  -1.8313915504841700E-002   1.2184256689794639E-002   0.0000000000000000     
   0.0000000000000000        0.0000000000000000        0.0000000000000000     
  -6.0961963304263529E-003   3.7903211614415712E-003   0.0000000000000000     
  -1.1666470727782206E-002   7.3234064745111328E-003   0.0000000000000000     
  -1.6710823192067556E-002   1.0599255939208683E-002   0.0000000000000000     
  -2.1229253723282410E-002   1.3617869555534224E-002   0.0000000000000000     
  -1.2195789060255081E-002   9.2272486578917658E-003   0.0000000000000000     
  -1.5428237979476121E-002   1.2369452763209211E-002   0.0000000000000000     
  -1.8577698132280857E-002   1.5682483522211837E-002   0.0000000000000000     
  -2.1644169518669293E-002   1.9166340934899648E-002   0.0000000000000000     
  -2.4627652138641428E-002   2.2821025001272640E-002   0.0000000000000000     
  -1.3797183173328032E-002   9.9889462409734099E-003   0.0000000000000000     
  -1.7405834396576461E-002   1.3218833042463039E-002   0.0000000000000000     
  -2.0890862433412104E-002   1.6584912374950533E-002   0.0000000000000000     
  -2.4252267283834953E-002   2.0087184238435900E-002   0.0000000000000000     
  -2.7490048947845024E-002   2.3725648632919143E-002   0.0000000000000000     
  -1.5836558654856905E-002   1.0974615584941035E-002   0.0000000000000000     
  -1.9732813624139641E-002   1.4208741572155830E-002   0.0000000000000000     
  -2.3489131135644315E-002   1.7573136985586702E-002   0.0000000000000000     
  -2.7105511189370917E-002   2.1067801825233670E-002   0.0000000000000000     
  -3.0581953785319461E-002   2.4692736091096717E-002   0.0000000000000000     
  -1.8313915504841700E-002   1.2184256689794639E-002   0.0000000000000000     
  -2.2409175662165659E-002   1.5339178352287585E-002   0.0000000000000000     
  -2.6372504238977485E-002   1.8647157354120349E-002   0.0000000000000000     
  -3.0203901235277181E-002   2.2108193695292943E-002   0.0000000000000000     
  -3.3903366651064741E-002   2.5722287375805352E-002   0.0000000000000000     
  -2.1229253723282410E-002   1.3617869555534224E-002   0.0000000000000000     
  -2.5434920510654508E-002   1.6610143382858305E-002   0.0000000000000000     
  -2.9540981743411621E-002   1.9806973480551465E-002   0.0000000000000000     
  -3.3547437421553736E-002   2.3208359848613722E-002   0.0000000000000000     
  -3.7454287545080865E-002   2.6814302487045062E-002   0.0000000000000000     
  -2.4627652138641428E-002   2.2821025001272640E-002   0.0000000000000000     
  -2.7532295272296430E-002   2.6669457123777426E-002   0.0000000000000000     
  -3.0362248199733446E-002   3.0734558704860616E-002   0.0000000000000000     
  -3.3117510920952484E-002   3.5016329744522214E-002   0.0000000000000000     
  -3.5798083435953552E-002   3.9514770242762204E-002   0.0000000000000000     
  -2.7490048947845024E-002   2.3725648632919143E-002   0.0000000000000000     
  -3.0627332660732854E-002   2.7543238246358428E-002   0.0000000000000000     
  -3.3687243657789016E-002   3.1582885766711928E-002   0.0000000000000000     
  -3.6669781939013497E-002   3.5844591193979647E-002   0.0000000000000000     
  -3.9574947504406301E-002   4.0328354528161581E-002   0.0000000000000000     
  -3.0581953785319461E-002   2.4692736091096717E-002   0.0000000000000000     
  -3.3947891085619332E-002   2.8492910413694578E-002   0.0000000000000000     
  -3.7232755252399954E-002   3.2513295423545995E-002   0.0000000000000000     
  -4.0436546285661297E-002   3.6753891120650958E-002   0.0000000000000000     
  -4.3559264185403374E-002   4.1214697505009466E-002   0.0000000000000000     
  -3.3903366651064741E-002   2.5722287375805352E-002   0.0000000000000000     
  -3.7493970546955871E-002   2.9518473625785878E-002   0.0000000000000000     
  -4.0998782983566247E-002   3.3525787675362809E-002   0.0000000000000000     
  -4.4417803960895882E-002   3.7744229524536141E-002   0.0000000000000000     
  -4.7751033478944785E-002   4.2173799173305875E-002   0.0000000000000000     
  -3.7454287545080865E-002   2.6814302487045062E-002   0.0000000000000000     
  -4.1265571044742440E-002   3.0619927882632327E-002   0.0000000000000000     
  -4.4985326851287907E-002   3.4620362522162371E-002   0.0000000000000000     
  -4.8613554964717261E-002   3.8815606405635195E-002   0.0000000000000000     
  -5.2150255385030514E-002   4.3205659533050791E-002   0.0000000000000000     
  -3.5798083435953552E-002   3.9514770242762204E-002   0.0000000000000000     
  -3.8404061595642719E-002   4.4221352705324950E-002   0.0000000000000000     
  -4.0935541250926057E-002   4.9127549637954772E-002   0.0000000000000000     
  -4.3392522401803586E-002   5.4233361040651698E-002   0.0000000000000000     
  -4.5775005048275280E-002   5.9538786913415694E-002   0.0000000000000000     
  -3.9574947504406301E-002   4.0328354528161581E-002   0.0000000000000000     
  -4.2399530425694054E-002   4.5020846834173851E-002   0.0000000000000000     
  -4.5140320774603379E-002   4.9908739176932601E-002   0.0000000000000000     
  -4.7797318551134255E-002   5.4992031556437823E-002   0.0000000000000000     
  -5.0370523755286709E-002   6.0270723972689511E-002   0.0000000000000000     
  -4.3559264185403374E-002   4.1214697505009466E-002   0.0000000000000000     
  -4.6596536745378905E-002   4.5883282303797276E-002   0.0000000000000000     
  -4.9543991759340586E-002   5.0747213244190133E-002   0.0000000000000000     
  -5.2401629227288415E-002   5.5806490326188000E-002   0.0000000000000000     
  -5.5169449149222387E-002   6.1061113549790928E-002   0.0000000000000000     
  -4.7751033478944785E-002   4.2173799173305875E-002   0.0000000000000000     
  -5.0995080554697279E-002   4.6808659114195204E-002   0.0000000000000000     
  -5.4146554205137684E-002   5.1642971839727325E-002   0.0000000000000000     
  -5.7205454430266055E-002   5.6676737349902244E-002   0.0000000000000000     
  -6.0171781230082315E-002   6.1909955644719947E-002   0.0000000000000000     
  -5.2150255385030514E-002   4.3205659533050791E-002   0.0000000000000000     
  -5.5595161853649162E-002   4.7796977265367635E-002   0.0000000000000000     
  -5.8948008111994708E-002   5.2596014963544220E-002   0.0000000000000000     
  -6.2208794160067152E-002   5.7602772627580526E-002   0.0000000000000000     
  -6.5377519997866493E-002   6.2817250257476573E-002   0.0000000000000000     
  -4.5775005048275280E-002   5.9538786913415694E-002   0.0000000000000000     
  -4.8083373641428118E-002   6.5033022669922710E-002   0.0000000000000000     
  -5.0318012632349036E-002   7.0705263723848721E-002   0.0000000000000000     
  -5.2478922021038051E-002   7.6555510075193664E-002   0.0000000000000000     
  -5.4566101807495132E-002   8.2583761723957594E-002   0.0000000000000000     
  -5.0370523755286709E-002   6.0270723972689511E-002   0.0000000000000000     
  -5.2862633473815895E-002   6.5736702447051612E-002   0.0000000000000000     
  -5.5276344793476935E-002   7.1381853000888090E-002   0.0000000000000000     
  -5.7611657714269876E-002   7.7206175634198917E-002   0.0000000000000000     
  -5.9868572236194691E-002   8.3209670346984121E-002   0.0000000000000000     
  -5.5169449149222387E-002   6.1061113549790928E-002   0.0000000000000000     
  -5.7850394570290987E-002   6.6502711148763535E-002   0.0000000000000000     
  -6.0447408535642691E-002   7.2122911356870448E-002   0.0000000000000000     
  -6.2960491045277484E-002   7.7921714174111686E-002   0.0000000000000000     
  -6.5389642099195386E-002   8.3899119600487237E-002   0.0000000000000000     
  -6.0171781230082315E-002   6.1909955644719947E-002   0.0000000000000000     
  -6.3046656930853429E-002   6.7331048775058466E-002   0.0000000000000000     
  -6.5831203858846277E-002   7.2928438791795808E-002   0.0000000000000000     
  -6.8525422014060866E-002   7.8702125694931971E-002   0.0000000000000000     
  -7.1129311396497225E-002   8.4652109484466942E-002   0.0000000000000000     
  -6.5377519997866493E-002   6.2817250257476573E-002   0.0000000000000000     
  -6.8451420555503198E-002   6.8221715325936433E-002   0.0000000000000000     
  -7.1427730763087713E-002   7.3798435305664156E-002   0.0000000000000000     
  -7.4306450620620038E-002   7.9547410196659771E-002   0.0000000000000000     
  -7.7087580128100186E-002   8.5468639998923249E-002   0.0000000000000000     
  -5.4566101807495132E-002   8.2583761723957594E-002   0.0000000000000000     
  -5.6580009930574243E-002   8.8780925325009030E-002   0.0000000000000000     
  -5.8521104329129284E-002   9.5137907533216617E-002   0.0000000000000000     
  -6.0389385003160247E-002  0.10165470834858027        0.0000000000000000     
  -6.2184851952667153E-002  0.10833132777110005        0.0000000000000000     
  -5.9868572236194691E-002   8.3209670346984121E-002   0.0000000000000000     
  -6.2047001835378993E-002   8.9382624416318779E-002   0.0000000000000000     
  -6.4146859987950403E-002   9.5715325119277953E-002   0.0000000000000000     
  -6.6168146693908941E-002  0.10220777245586167        0.0000000000000000     
  -6.8110861953254567E-002  0.10885996642606990        0.0000000000000000     
  -6.5389642099195386E-002   8.3899119600487237E-002   0.0000000000000000     
  -6.7734799252366210E-002   9.0046223598417727E-002   0.0000000000000000     
  -6.9995900059759850E-002   9.6354122130323766E-002   0.0000000000000000     
  -7.2172944521376250E-002  0.10282281519620537        0.0000000000000000     
  -7.4265932637215426E-002  0.10945230279606252        0.0000000000000000     
  -7.1129311396497225E-002   8.4652109484466942E-002   0.0000000000000000     
  -7.3643402181535894E-002   9.0771722871305943E-002   0.0000000000000000     
  -7.6068224544557542E-002   9.7054298566354086E-002   0.0000000000000000     
  -7.8403778485562167E-002  0.10349983656961141        0.0000000000000000     
  -8.0650064004549715E-002  0.11010833688107793        0.0000000000000000     
  -7.7087580128100186E-002   8.5468639998923249E-002   0.0000000000000000     
  -7.9772810622888046E-002   9.1559122234983359E-002   0.0000000000000000     
  -8.2363833442343548E-002   9.7815854427368870E-002   0.0000000000000000     
  -8.4860648586466678E-002  0.10423883657607981        0.0000000000000000     
  -8.7263256055257421E-002  0.11082806868111611        0.0000000000000000     
  -6.2184851952667153E-002  0.10833132777110005        0.0000000000000000     
  -6.3906440356476954E-002  0.11515480585393689        0.0000000000000000     
  -6.5553085393416588E-002  0.12211218265025178        0.0000000000000000     
  -6.7124787063486097E-002  0.12920345816004475        0.0000000000000000     
  -6.8621545366685438E-002  0.13642863238331571        0.0000000000000000     
  -6.8110861953254567E-002  0.10885996642606990        0.0000000000000000     
  -6.9973769193540439E-002  0.11565802302121236        0.0000000000000000     
  -7.1755631842319659E-002  0.12258805823259876        0.0000000000000000     
  -7.3456449899592213E-002  0.12965007206022908        0.0000000000000000     
  -7.5076223365358144E-002  0.13684406450410330        0.0000000000000000     
  -7.4265932637215426E-002  0.10945230279606252        0.0000000000000000     
  -7.6274062788359895E-002  0.11622699392035168        0.0000000000000000     
  -7.8196533355892120E-002  0.12313129755952930        0.0000000000000000     
  -8.0033344339812129E-002  0.13016521371359535        0.0000000000000000     
  -8.1784495740119909E-002  0.13732874238254988        0.0000000000000000     
  -8.0650064004549715E-002  0.11010833688107793        0.0000000000000000     
  -8.2807321140935294E-002  0.11686171855135485        0.0000000000000000     
  -8.4875789934133999E-002  0.12374190063104339        0.0000000000000000     
  -8.6855470384145816E-002  0.13074888312014363        0.0000000000000000     
  -8.8746362490970773E-002  0.13788266601865543        0.0000000000000000     
  -8.7263256055257421E-002  0.11082806868111611        0.0000000000000000     
  -8.9573544251266665E-002  0.11756219691422186        0.0000000000000000     
  -9.1793401577045283E-002  0.12441986744714108        0.0000000000000000     
  -9.3922828032593275E-002  0.13140108027987377        0.0000000000000000     
  -9.5961823617910641E-002  0.13850583541241995        0.0000000000000000     
  -6.8621545366685438E-002  0.13642863238331571        0.0000000000000000     
  -7.0034479228178681E-002  0.14377447656996842        0.0000000000000000     
  -7.1354707573129866E-002  0.15122776196990653        0.0000000000000000     
  -7.2582230401538966E-002  0.15878848858313005        0.0000000000000000     
  -7.3717047713405995E-002  0.16645665640963897        0.0000000000000000     
  -7.5076223365358144E-002  0.13684406450410330        0.0000000000000000     
  -7.6603918885526728E-002  0.14414752019345098        0.0000000000000000     
  -7.8028503106007258E-002  0.15153792375750164        0.0000000000000000     
  -7.9349976026799746E-002  0.15901527519625519        0.0000000000000000     
  -8.0568337647904179E-002  0.16657957450971170        0.0000000000000000     
  -8.1784495740119909E-002  0.13732874238254988        0.0000000000000000     
  -8.3446169057001307E-002  0.14460845964918095        0.0000000000000000     
  -8.5014545790642063E-002  0.15199094159627669        0.0000000000000000     
  -8.6489625941042189E-002  0.15947618822383705        0.0000000000000000     
  -8.7871409508201728E-002  0.16706419953186213        0.0000000000000000     
  -8.8746362490970773E-002  0.13788266601865543        0.0000000000000000     
  -9.0561229742602348E-002  0.14515729493715834        0.0000000000000000     
  -9.2312835627034212E-002  0.15258681548623176        0.0000000000000000     
  -9.4001180144266311E-002  0.16017122766587574        0.0000000000000000     
  -9.5626263294298658E-002  0.16791053147609017        0.0000000000000000     
  -9.5961823617910641E-002  0.13850583541241995        0.0000000000000000     
  -9.7949100942329947E-002  0.14579402605738312        0.0000000000000000     
  -9.9923372615183775E-002  0.15332554542736684        0.0000000000000000     
 -0.10188463863647211       0.16110039352237113        0.0000000000000000     
 -0.10383289900619498       0.16911857034239594        0.0000000000000000     
 </DataArray>
 <DataArray  type="Float64" Name="stress" NumberOfComponents="3" format="ascii">
   13417123087.674677        4025136926.3024030        2893985786.2585506     
   11766822848.556152        1890036500.8920920        1715691742.5321064     
   10313912269.994148        412901610.67018127        810524317.16114008     
   9058391351.9886608       -406267744.36332989        178483510.14565036     
   8000260094.5396976       -567471564.20844030       -180430678.51436275     
   10540445126.344120        3162133537.9032359        2225527644.5888743     
   9668054074.1750412        1589372735.6512594        1446435630.2575898     
   8944380062.3766861        512335401.30167818        862837997.57232714     
   8369423090.9490433       -68978465.145510674        474734746.53308529     
   7943183159.8921232       -154568863.69030285        282125877.13986671     
   8338403085.6106968        2501520925.6832089        1711987582.7994413     
   8022114829.7926254        1424557829.4100358        1275312874.3132141     
   7805870994.1594715        681076133.75325012        956500310.76355338     
   7689671578.7112331        271075838.71285248        755549892.15045881     
   7673516583.4479103        194556944.28884220        672461618.47393095     
   6810996965.4744139        2043299089.6423242        1353365600.8902524     
   6829005115.4089041        1395591782.1684198        1202323474.6989803     
   6898385065.3425074        919123808.02489686        1091511256.7348194     
   7019136815.2752275        613895167.21175647        1020928946.9977691     
   7191260365.2070608        479905859.72899652        990576545.48783064     
   5958226765.9352684        1787468029.7805805        1149661698.8613069     
   6088724931.0238752        1502474593.9264123        1227467431.4148881     
   6221922275.9257946        1226478424.1166191        1267870835.4861248     
   6357818800.6410275        959479520.35120177        1270871911.0750170     
   6496414505.1695700        701477882.63015866        1236470658.1815648     
   8000260094.5396976       -567471564.20844030       -180430678.51436275     
   7919462533.2171984       -199321219.08314896       -78191476.592044890     
   7796981282.4145298        29883494.441564083       -8803548.6622438859     
   7632816342.1316872        120142576.36571264        27733105.275045201     
   7426967712.3686724        71456026.689274788        31418485.219814692     
   7943183159.8921232       -154568863.69030285        282125877.13986671     
   7741364245.0360928        17063535.332436085        280908471.78381771     
   7516034768.5174284        110327395.47973776        264799286.80277047     
   7267194730.3361349        125222716.75159979        233798322.19672573     
   6994844130.4922123        61749499.148029804        187905577.96568361     
   7673516583.4479103        194556944.28884220        672461618.47393095     
   7401989156.1083937        185065249.52404451        588989588.29331362     
   7125124294.9237881        157782108.60894632        508585272.85521644     
   6842921999.8940907        112707521.54354787        431248672.15963674     
   6555382271.0193062        49841488.327849388        356979786.20657802     
   7191260365.2070608        479905859.72899652        990576545.48783064     
   6901337266.4341106        304683923.49167633        846051872.93644273     
   6624249861.6336107        172247633.82919264        722554409.49509251     
   6359998150.8055630        82596990.741546392        620084155.16377711     
   6108582133.9499674        35731994.228738785        538641109.94250071     
   6496414505.1695700        701477882.63015866        1236470658.1815648     
   6239408576.0132380        375919557.23533177        1052095325.7132053     
   6013411468.6468954        153723971.14047909        906706696.72239864     
   5818423183.0705452        34891124.345599651        800304771.20914698     
   5654443719.2841873        19421016.850695610        732889549.17344797     
   7426967712.3686724        71456026.689274788        31418485.219814692     
   7223630177.0681601       -20558522.991647720        13786339.590649223     
   7032911719.1533699       -70509481.386821747        766024.92372687894     
   6854812338.6243076       -78396848.496243000       -7642458.7809627512     
   6689332035.4809713       -44220624.319907188       -11439111.523413422     
   6994844130.4922123        61749499.148029804        187905577.96568361     
   6812108404.5058775        1695751.2804088593        179379817.89714703     
   6637411816.6076765       -31560869.626764774        174714202.84344009     
   6470754366.7976074       -38020363.573498249        173908732.80456609     
   6312136055.0756760       -17682730.559782267        176963407.78052267     
   6555382271.0193062        49841488.327849388        356979786.20657802     
   6391100680.2117052        21104240.032902241        352217149.18480903     
   6230278288.1946449        3897654.3730919361        350562971.23046517     
   6072915094.9681263       -1778268.6515874863        352017252.34354371     
   5919011100.5321493        4076470.9588725567        356579992.52404779     
   6108582133.9499674        35731994.228738785        538641109.94250071     
   5960607004.1856508        37666943.265832424        532298333.45364141     
   5811511133.9142799        35866090.612749577        528312330.08480197     
   5661294523.1358585        30329436.269489288        526683099.83597535     
   5509957171.8503819        21056980.236048698        527410642.70716679     
   5654443719.2841873        19421016.850695610        732889549.17344797     
   5520627376.4277077        51383860.979195356        719623370.70364249     
   5381110353.7665768        64344439.092205048        707962279.40644455     
   5235892651.3008032        58302751.189728498        697906275.28185737     
   5084974269.0303812        33258797.271761417        689455358.32987869     
   6689332035.4809713       -44220624.319907188       -11439111.523413422     
   6525762920.7628860       -265661.82750082016       -4188796.7638942329     
   6355644211.1569824        21857317.705527306        1475478.2705730726     
   6178975906.6632586        22148314.279143810        5553713.5799993845     
   5995758007.2817259        607327.89339900017        8045909.1643827818     
   6312136055.0756760       -17682730.559782267        176963407.78052267     
   6141270053.8203125        5233852.7107851505        173740636.44463375     
   5966487941.1472855        15096731.255811930        171345925.77938390     
   5787789717.0565996        11905905.075306177        169779275.78477252     
   5605175381.5482492       -4338625.8307471275        169040686.46079889     
   5919011100.5321493        4076470.9588725567        356579992.52404779     
   5747745642.4414520        8023903.9181747437        345956532.47460258     
   5575197556.4032478        7695910.3857941628        338575233.49148309     
   5401366842.4175463        3092490.3617300987        334436095.57467628     
   5226253500.4843264       -5786356.1540274620        333539118.72419840     
   5509957171.8503819        21056980.236048698        527410642.70716679     
   5345189686.6263075        8104491.7946863174        512458891.32601434     
   5181773056.9248791       -345144.90451908112        503163401.40686470     
   5019707282.7461023       -4291929.8615589142        499524172.94971907     
   4858992364.0899706       -3735863.0764374733        501541205.95457530     
   5084974269.0303812        33258797.271761417        689455358.32987869     
   4933602186.3748751        5475616.3403091431        673247712.99886405     
   4786214442.7121725       -9026434.6151332855        665110429.52553582     
   4642811038.0422745       -10247355.594558954        665043507.90989351     
   4503391972.3651800        1812853.4020249844        673046948.15193939     
   5995758007.2817259        607327.89339900017        8045909.1643827818     
   5799151288.7097979       -30170159.183136940       -13603740.609411897     
   5605652502.4320450       -50587871.945767879       -29571883.339499868     
   5415261648.4484854       -60645810.394414425       -39858519.025884330     
   5227978726.7590952       -60343974.529164076       -44463647.668562084     
   5605175381.5482492       -4338625.8307471275        169040686.46079889     
   5426343430.8018341       -22340981.938177347        154138029.07294258     
   5249520421.8269577       -33646865.473833799        144278655.82198927     
   5074706354.6236105       -38256276.437711477        139462566.70793334     
   4901901229.1918011       -36169214.829816103        139689761.73076916     
   5226253500.4843264       -5786356.1540274620        333539118.72419840     
   5063372823.5439882       -11560629.498164892        324101298.11252755     
   4901402097.8525295       -14301732.012699127        319068538.73094761     
   4740341323.4099541       -14009663.697625875        318440840.57945698     
   4580190500.2162609       -10684424.552942276        322218203.65805215     
   4858992364.0899706       -3735863.0764374733        501541205.95457530     
   4710239466.9362497        2170898.1368744373        496286066.50933093     
   4561297530.5087566        7447528.4376275539        494797765.38737094     
   4412166554.8074961        12094027.825820684        497076302.58868814     
   4262846539.8324671        16110396.301449299        503121678.11328715     
   4503391972.3651800        1812853.4020249844        673046948.15193939     
   4366943360.9786177        18853600.966945648        670692334.26336062     
   4229206719.7956429        31600915.877158403        671466335.79125834     
   4090182048.8162413        40054798.132618427        675368952.73562658     
   3949869348.0404267        44215247.733362913        682400185.09646177     
   5227978726.7590952       -60343974.529164076       -44463647.668562084     
   5048169144.8345146       -56780121.093617678       -48889094.376523510     
   4865924168.4009018       -61334249.354844570       -49767826.948888130     
   4681243797.4582653       -74006359.312818050       -47099845.385646977     
   4494128032.0065937       -94796450.967573881       -40885149.686814129     
   4901901229.1918011       -36169214.829816103        139689761.73076916     
   4731474521.8154945       -32940335.484506130        134465616.97276354     
   4559321263.2088432       -35466626.907016039        132989655.59865637     
   4385441453.3718195       -43748089.097433805        135261877.60844541     
   4209835092.3044434       -57784722.055687428        141282283.00213352     
   4580190500.2162609       -10684424.552942276        322218203.65805215     
   4419722293.8119526       -7617831.3707058430        317022344.67511457     
   4258236379.4559598       -7943598.0274415016        315776138.32437897     
   4095732757.1482759       -11661724.523146152        318479584.60583210     
   3932211426.8889055       -18772210.857800484        325132683.51948434     
   4262846539.8324671        16110396.301449299        503121678.11328715     
   4112912460.8238769        19187391.247714758        498781088.73052686     
   3962669517.1422558        21234837.283886433        498591621.22827119     
   3812117708.7876177        22252734.410010815        502553275.60650319     
   3661257035.7599568        22241082.626048088        510666051.86523265     
   3949869348.0404267        44215247.733362913        682400185.09646177     
   3811045022.8512530        47475332.370764494        679741849.13900077     
   3672620676.2677269        52068679.026981592        681436104.31033468     
   3534596308.2898455        57995287.702012300        687482950.61046183     
   3396971918.9176102        65255158.395874143        697882388.03938282     
   4494128032.0065937       -94796450.967573881       -40885149.686814129     
   4314864925.9366446       -113582559.20991945       -64102969.888286844     
   4137805248.8358583       -125023904.22171116       -86656609.369649947     
   3962949000.7042451       -129120486.00292587       -108546068.13092522     
   3790296181.5417886       -125872304.55362821       -129771346.17211138     
   4209835092.3044434       -57784722.055687428        141282283.00213352     
   4035338929.8994770       -71193194.671696663        123353460.26930213     
   3862763890.6436501       -78197923.457238197        107186343.72181739     
   3692109974.5369873       -78798908.412233591        92780933.359692737     
   3523377181.5794630       -72996149.536758423        80137229.182926267     
   3932211426.8889055       -18772210.857800484        325132683.51948434     
   3765617995.1925092       -25862311.734450102        312163501.46525985     
   3600663380.8252625       -27489688.180612326        302053551.06165743     
   3437347583.7871509       -23654340.196314812        294802832.30866140     
   3275670604.0781837       -14356267.781551600        290411345.20630288     
   3661257035.7599568        22241082.626048088        510666051.86523265     
   3505702121.8157563        22410089.601885557        502327153.69960994     
   3351503719.3806825        27100801.608145714        497945012.64986241     
   3198661828.4547396        36313218.644837856        497519628.71599871     
   3047176449.0379214        50047340.711955667        501051001.89801705     
   3396971918.9176102        65255158.395874143        697882388.03938282     
   3255591309.7692113        73624009.337278843        693844416.97233903     
   3115284906.3099236        85573545.909055233        694860728.48643816     
   2976052708.5397496        101103768.11121523        700931322.58168352     
   2837894716.4586897        120214675.94375527        712056199.25807047     
   3790296181.5417886       -125872304.55362821       -129771346.17211138     
   3748369120.7228384       -182393009.56717992       -84495840.662874177     
   3638972731.6165371       -463811475.53857970       -83798280.080686301     
   3462107014.2228560       -970127702.46788955       -127678664.42552473     
   3217771968.5418410       -1701341690.3550119       -216136993.69742274     
   3523377181.5794630       -72996149.536758423        80137229.182926267     
   3387220963.4842005       -121977456.40531707        74295719.941613019     
   3206578542.1061044       -319246107.55000234        38808327.381349385     
   2981449917.4451809       -664802102.97077620       -26324948.497888997     
   2711835089.5014048       -1158645442.6676812       -121104107.69608803     
   3275670604.0781837       -14356267.781551600        290411345.20630288     
   3087948261.8725324       -42999266.555359721        260266467.05306461     
   2878722841.3885851       -143319192.92351639        215407767.18894127     
   2647994342.6263199       -315316046.88602805        155835245.61393011     
   2395762765.5857601       -558989828.44289911        81548902.328036740     
   3047176449.0379214        50047340.711955667        501051001.89801705     
   2850551015.8878317        54541559.982692838        473416400.67146170     
   2655405629.4639692        63969268.340843320        446000039.34210336     
   2461740289.7663321        78330465.786386728        418801917.90993243     
   2269554996.7948985        97625152.319324136        391822036.37494516     
   2837894716.4586897        120214675.94375527        712056199.25807047     
   2675029225.5301013        170645023.20882642        713745520.79680979     
   2536626906.3322549        302619276.24305439        730585143.84082437     
   2422687758.8651547        516137435.04643822        762575068.39010298     
   2333211783.1288037        811199499.61896396        809715294.44465637     
   5958226765.9352684        1787468029.7805805        1149661698.8613069     
   6088724931.0238752        1502474593.9264123        1227467431.4148881     
   6221922275.9257946        1226478424.1166191        1267870835.4861248     
   6357818800.6410275        959479520.35120177        1270871911.0750170     
   6496414505.1695700        701477882.63015866        1236470658.1815648     
   5434746040.5926857        1630423812.1778057        1033154044.8220091     
   5489928931.7486773        1372684012.4165878        1113477120.8769469     
   5547293246.5082264        1122215624.6672225        1166978398.6753838     
   5606838984.8713303        879018648.92970908        1193657878.2173197     
   5668566146.8379917        643093085.20404840        1193515559.5027542     
   4895208343.0460873        1468562502.9138262        936120806.88176227     
   4905306046.6290197        1247145365.1534252        1018357177.5266738     
   4917067417.6057501        1031273785.3723531        1084352280.1409276     
   4930492455.9762793        820947763.57061005        1134106114.7245240     
   4945581161.7406082        616167299.74819624        1167618681.2774630     
   4339613673.2954769        1301884101.9886429        858561985.04056668     
   4334856275.6648998        1125858652.1369243        942107601.36406875     
   4331244789.2183666        953652906.23201168        1019992479.8827564     
   4328779213.9558735        785266864.27390468        1092216620.5966306     
   4327459549.8774214        620700526.26260364        1158780023.5056903     
   3767962031.3408532        1130388609.4022560        800477579.29842174     
   3778579618.8563213        1008823873.3670852        884728392.38913155     
   3789825361.3460741        889352987.24619746        973898997.90087056     
   3801699258.8101120        771975951.03959250        1067989395.8336388     
   3814201311.2484345        656692764.74727058        1166999586.1874368     
   6496414505.1695700        701477882.63015866        1236470658.1815648     
   6239408576.0132380        375919557.23533177        1052095325.7132053     
   6013411468.6468954        153723971.14047909        906706696.72239864     
   5818423183.0705452        34891124.345599651        800304771.20914698     
   5654443719.2841873        19421016.850695610        732889549.17344797     
   5668566146.8379917        643093085.20404840        1193515559.5027542     
   5518487527.9516850        383648479.91896486        1072562412.2079126     
   5392616074.0528984        204894424.59229136        979617326.23328984     
   5290951785.1416378        106830919.22402525        914680301.57888377     
   5213494661.2178984        89457963.814167500        877751338.24469721     
   4945581161.7406082        616167299.74819624        1167618681.2774630     
   4871062304.1033697        413426149.86657000        1102152452.8865917     
   4813948954.6511831        268703360.60178661        1053715643.6586031     
   4774241113.3840494        181998931.95384550        1022308253.5934960     
   4751938780.3019686        153312863.92274833        1007930282.6912719     
   4327459549.8774214        620700526.26260364        1158780023.5056903     
   4297132904.4682932        465252567.07814670        1140865447.7492409     
   4277410110.4417458        345150779.16896713        1129001648.9983387     
   4268291167.7977829        260395162.53506351        1123188627.2529829     
   4269776076.5364008        210985717.17643738        1123426382.5131738     
   3814201311.2484345        656692764.74727058        1166999586.1874368     
   3796699329.0464530        539127731.55369353        1188701396.7958612     
   3782999541.4245863        434236680.29382944        1205475342.2524972     
   3773101948.3828325        342019610.96767521        1217321422.5573447     
   3767006549.9211926        262476523.57523406        1224239637.7104025     
   5654443719.2841873        19421016.850695610        732889549.17344797     
   5520627376.4277077        51383860.979195356        719623370.70364249     
   5381110353.7665768        64344439.092205048        707962279.40644455     
   5235892651.3008032        58302751.189728498        697906275.28185737     
   5084974269.0303812        33258797.271761417        689455358.32987869     
   5213494661.2178984        89457963.814167500        877751338.24469721     
   5076515274.3737755        87435721.285110235        853698316.33506942     
   4937223706.1181192        77706207.384272575        833449808.79869831     
   4795619956.4509277        60269422.111653328        817005815.63558519     
   4651704025.3722029        35125365.467252016        804366336.84573078     
   4751938780.3019686        153312863.92274833        1007930282.6912719     
   4618080427.1863441        119190758.05097699        977043665.46712017     
   4485298391.0523005        88656375.451132059        952160989.81687319     
   4353592671.8998346        61709716.123212814        933282255.74053383     
   4222963269.7289448        38350780.067218304        920407463.23810005     
   4269776076.5364008        210985717.17643738        1123426382.5131738     
   4145322834.8654156        146648971.27679324        1089659418.0997946     
   4025334408.5691209        97194943.292783976        1064095822.4609709     
   3909810797.6475172        62623633.224406958        1046735595.5967032     
   3798752002.1006012        42935041.071660995        1037578737.5069888     
   3767006549.9211926        262476523.57523406        1224239637.7104025     
   3658242497.4109859        169810360.96255946        1191545574.2330949     
   3557331758.6685801        103321910.90922594        1169254306.7309902     
   3464274333.6939759        63011173.415230274        1157365835.2040892     
   3379070222.4871750        48878148.480576277        1155880159.6523912     
   5084974269.0303812        33258797.271761417        689455358.32987869     
   4933602186.3748751        5475616.3403091431        673247712.99886405     
   4786214442.7121725       -9026434.6151332855        665110429.52553582     
   4642811038.0422745       -10247355.594558954        665043507.90989351     
   4503391972.3651800        1812853.4020249844        673046948.15193939     
   4651704025.3722029        35125365.467252016        804366336.84573078     
   4521605466.9325485        14431364.103055716        792828010.63433003     
   4394020085.6111221        2114619.7996177673        787947607.44653571     
   4268947881.4079232       -1824867.4430632591        789725127.28234017     
   4146388854.3229499        2612902.3750131130        798160570.14175081     
   4222963269.7289448        38350780.067218304        920407463.23810005     
   4110102695.9791908        23535296.412495852        911822100.62597632     
   3998284137.4730868        12193196.903273344        908482222.20337188     
   3887507594.2106333        4324481.5395536423        910387827.97028434     
   3777773066.1918311       -70849.678665399551        917538917.92671955     
   3798752002.1006012        42935041.071660995        1037578737.5069888     
   3699093873.5147948        32787413.268624783        1030229982.9737997     
   3599006598.2980614        21209296.695832729        1026714273.7960454     
   3498490176.4504042        8200691.3532886505        1027031609.9737285     
   3397544607.9718175       -6238402.7590138912        1031181991.5068460     
   3379070222.4871750        48878148.480576277        1155880159.6523912     
   3288578999.5393658        42187714.671441436        1148051657.6777978     
   3196187468.0860515        29162919.177296519        1142643762.2245569     
   3101895628.1272359        9803761.9981411695        1139656473.2926693     
   3005703479.6629157       -15889756.866024256        1139089790.8821340     
   4503391972.3651800        1812853.4020249844        673046948.15193939     
   4366943360.9786177        18853600.966945648        670692334.26336062     
   4229206719.7956429        31600915.877158403        671466335.79125834     
   4090182048.8162413        40054798.132618427        675368952.73562658     
   3949869348.0404267        44215247.733362913        682400185.09646177     
   4146388854.3229499        2612902.3750131130        798160570.14175081     
   4015423751.4040623        7730662.0453021526        791111773.08170617     
   3884056556.5992942        11508115.429321527        787903902.78677797     
   3752287269.9086428        13945262.527069807        788536959.25696445     
   3620115891.3321085        15042103.338536978        793010942.49226856     
   3777773066.1918311       -70849.678665399551        917538917.92671955     
   3654326647.0224514       -6265525.3184626102        906829531.92416966     
   3531364073.8777280       -10847380.876073837        900673384.03537762     
   3408885346.7576599       -13816416.351504087        899070474.26034427     
   3286890465.6622472       -15172631.744750500        902020802.59907007     
   3397544607.9718175       -6238402.7590138912        1031181991.5068460     
   3283652047.8337841       -23134961.124345541        1017845610.7907497     
   3171129271.6309471       -35465573.039033651        1009774779.5370566     
   3059976279.3632965       -43230238.503093958        1006969497.7457597     
   2950193071.0308409       -46428957.516507149        1009429765.4168690     
   3005703479.6629157       -15889756.866024256        1139089790.8821340     
   2903399953.8380671       -42877645.372342587        1124160009.6814530     
   2803352149.8589444       -62346461.059567213        1115208089.2918129     
   2705560067.7255530       -74296203.927689433        1112234029.7132163     
   2610023707.4378896       -78726873.976720572        1115237830.9456644     
   3949869348.0404267        44215247.733362913        682400185.09646177     
   3811045022.8512530        47475332.370764494        679741849.13900077     
   3672620676.2677269        52068679.026981592        681436104.31033468     
   3534596308.2898455        57995287.702012300        687482950.61046183     
   3396971918.9176102        65255158.395874143        697882388.03938282     
   3620115891.3321085        15042103.338536978        793010942.49226856     
   3492061930.9107776        16857905.466726780        789363233.56545901     
   3364069668.4435587        18879367.441960812        789981125.44878197     
   3236139103.9304585        21106489.264256835        794864618.14223492     
   3108270237.3714757        23539270.933607817        804013711.64581382     
   3286890465.6622472       -15172631.744750500        902020802.59907007     
   3169358326.2411370       -14875675.256060958        896989059.94279659     
   3051549604.1226130       -15500661.092083335        896135927.77798879     
   2933464299.3066788       -17047589.252813220        899461406.10464621     
   2815102411.7933302       -19516459.738260269        906965494.92276597     
   2950193071.0308409       -46428957.516507149        1009429765.4168690     
   2842934208.8423395       -47725409.797590852        1002619328.2710112     
   2735060483.3048940       -51071406.575160980        999900511.29795444     
   2626571894.4185081       -56466947.849206448        1001273314.4977028     
   2517468442.1831737       -63912033.619738936        1006737737.8702421     
   2610023707.4378896       -78726873.976720572        1115237830.9456644     
   2512789578.7143807       -81691298.157875299        1106254038.5501063     
   2414602305.9903970       -87832869.007276177        1101274876.0086854     
   2315461889.2659416       -97151586.524917364        1100300343.3213949     
   2215368328.5410113       -109647450.71080935        1103330440.4882421     
   3396971918.9176102        65255158.395874143        697882388.03938282     
   3255591309.7692113        73624009.337278843        693844416.97233903     
   3115284906.3099236        85573545.909055233        694860728.48643816     
   2976052708.5397496        101103768.11121523        700931322.58168352     
   2837894716.4586897        120214675.94375527        712056199.25807047     
   3108270237.3714757        23539270.933607817        804013711.64581382     
   2977578370.8461685        25844710.824380636        799036369.46373761     
   2847299240.3522348        29525937.486400127        798626103.11458552     
   2717432845.8896661        34582950.919639230        802782912.59834790     
   2587979187.4584699        41015751.124114871        811506797.91503215     
   2815102411.7933302       -19516459.738260269        906965494.92276597     
   2693707268.6104789       -23692036.682302713        900277067.02495837     
   2572063391.8012528       -28696725.714255214        897668508.21184349     
   2450170781.3656597       -34530526.834110379        899139818.48342884     
   2328029437.3036871       -41193440.041893125        904690997.83971000     
   2517468442.1831737       -63912033.619738936        1006737737.8702421     
   2403978003.0621409       -74986233.182785034        997566509.65599573     
   2289577360.6569905       -89094443.692890406        991987943.77822733     
   2174266514.9677219       -106236665.15005100        990002040.23693001     
   2058045465.9943402       -126412897.55426419        991608799.03210902     
   2215368328.5410113       -109647450.71080935        1103330440.4882421     
   2108390574.2011545       -128037878.67706025        1090904697.3568630     
   1999841146.9194369       -151667216.44951630        1081584409.8137326     
   1889720046.6958654       -180535464.02815211        1075369577.8588512     
   1778027273.5304217       -214642621.41302347        1072260201.4922183     
   2837894716.4586897        120214675.94375527        712056199.25807047     
   2675029225.5301013        170645023.20882642        713745520.79680979     
   2536626906.3322549        302619276.24305439        730585143.84082437     
   2422687758.8651547        516137435.04643822        762575068.39010298     
   2333211783.1288037        811199499.61896396        809715294.44465637     
   2587979187.4584699        41015751.124114871        811506797.91503215     
   2450586148.5149040        61449023.050449610        828122438.46989083     
   2323581880.7106595        116511532.10785758        856104373.35536444     
   2206966384.0457492        206203278.29639137        895452602.57145727     
   2100739658.5201693        330524261.61600041        946167126.11814702     
   2328029437.3036871       -41193440.041893125        904690997.83971000     
   2205297401.2746935       -54000678.175439358        919812823.38736963     
   2078879735.7936103       -79093347.815952659        942516936.09097910     
   1948776440.8604414       -116471448.96342647        972803335.95055985     
   1814987516.4751782       -166134981.61786377        1010672022.9660791     
   2058045465.9943402       -126412897.55426419        991608799.03210902     
   1939162983.8094742       -175704080.46882677        988816675.54923975     
   1802520471.5811050       -284195363.52840447        989822832.04767728     
   1648117929.3092234       -451886746.73301709        994627268.52741015     
   1475955356.9938416       -678778230.08263505        1003229984.9884411     
   1778027273.5304217       -214642621.41302347        1072260201.4922183     
   1652182896.1192398       -303661183.82973206        1035133994.9555134     
   1494504088.0731354       -498794515.02951300        998022061.22544813     
   1304990849.3921032       -800042615.01237631        960924400.30203009     
   1083643180.0761528       -1207405483.7783117        923841012.18525243     
   3767962031.3408532        1130388609.4022560        800477579.29842174     
   3778579618.8563213        1008823873.3670852        884728392.38913155     
   3789825361.3460741        889352987.24619746        973898997.90087056     
   3801699258.8101120        771975951.03959250        1067989395.8336388     
   3814201311.2484345        656692764.74727058        1166999586.1874368     
   3207422603.6455746        962226781.09367239        756713561.30580950     
   3235225481.5853705        868293176.48971510        853075520.02876008     
   3262761795.7283840        773471025.89647973        951360725.55757666     
   3290031546.0746126        677760329.31396627        1051569177.8922596     
   3317034732.6240597        581161086.74217522        1153700877.0328083     
   2685164576.6730013        805549373.00190032        722115902.71321070     
   2721591186.1366591        736678432.15901673        829545168.50215590     
   2756856513.0324659        663936549.42329407        935901135.48180437     
   2790960557.3604207        587323724.79473233        1041183803.6521553     
   2823903319.1205225        506839958.27333099        1145393173.0132093     
   2201187950.4231334        660356385.12694001        696684603.52062535     
   2237676732.5101871        613979640.37499011        814137337.80931902     
   2272109513.2583203        560749557.82664013        927520227.67355216     
   2304486292.6675334        500666137.48188972        1036833273.1133254     
   2334807070.7378278        433729379.34073967        1142076474.1286380     
   1755492724.8959701        526647817.46879101        680419663.72805381     
   1783482120.7059529        500196801.13763487        806852027.95024931     
   1808520796.4059470        463910051.10651755        926218002.13282132     
   1830608751.9959531        417787567.37543881        1038517586.2757695     
   1849745987.4759710        361829349.94439960        1143750780.3790944     
   3814201311.2484345        656692764.74727058        1166999586.1874368     
   3796699329.0464530        539127731.55369353        1188701396.7958612     
   3782999541.4245863        434236680.29382944        1205475342.2524972     
   3773101948.3828325        342019610.96767521        1217321422.5573447     
   3767006549.9211926        262476523.57523406        1224239637.7104025     
   3317034732.6240597        581161086.74217522        1153700877.0328083     
   3292264869.9621639        474242019.20253766        1182097233.6024010     
   3271198113.8193974        379666640.05999589        1207374016.7421689     
   3253834464.1957593        297434949.31455004        1229531226.4521146     
   3240173921.0912504        227546946.96619940        1248568862.7322354     
   2823903319.1205225        506839958.27333099        1145393173.0132093     
   2797032123.7757559        412116820.72074503        1180368472.8061538     
   2773764946.8891339        329407078.02864051        1214032490.8912396     
   2754101788.4606557        258710730.19701529        1246385227.2684665     
   2738042648.4903207        200027777.22586906        1277426681.9378357     
   2334807070.7378278        433729379.34073967        1142076474.1286380     
   2311001090.4872322        352752136.10831887        1183515114.4071183     
   2290700040.6337967        283457994.19976342        1225450764.6997063     
   2273903921.1775208        225846953.61507070        1267883425.0064003     
   2260612732.1184034        179919014.35424209        1310813095.3272011     
   1849745987.4759710        361829349.94439960        1143750780.3790944     
   1834171770.0965905        296147965.36525619        1191537158.4052970     
   1822003395.0533855        241819388.57336247        1241628838.1675708     
   1813240862.3463542        198843619.56871724        1294025819.6659157     
   1807884171.9754975        167220658.35131872        1348728102.9003332     
   3767006549.9211926        262476523.57523406        1224239637.7104025     
   3658242497.4109859        169810360.96255946        1191545574.2330949     
   3557331758.6685801        103321910.90922594        1169254306.7309902     
   3464274333.6939759        63011173.415230274        1157365835.2040892     
   3379070222.4871750        48878148.480576277        1155880159.6523912     
   3240173921.0912504        227546946.96619940        1248568862.7322354     
   3160875310.5011330        152935410.98772883        1231544947.7826519     
   3087742529.6219273        98876640.712300420        1222617509.1115792     
   3020775578.4536324        65370636.139911056        1221786546.7190168     
   2959974456.9962521        52417397.270563960        1229052060.6049652     
   2738042648.4903207        200027777.22586906        1277426681.9378357     
   2681619994.9725971        141494022.42729390        1274104184.1162717     
   2629675687.1088963        97888086.475460291        1276571842.8765254     
   2582209724.8992171        69209969.370368719        1284829658.2185957     
   2539222108.3435631        55459671.112021685        1298877630.1424825     
   2260612732.1184034        179919014.35424209        1310813095.3272011     
   2220476550.8253798        135486195.28125441        1319223283.2339523     
   2183131231.1294880        100356248.19870746        1331117308.0258284     
   2148576773.0307302        74529173.106604934        1346495169.7028277     
   2116813176.5291049        58004970.004946947        1365356868.2649515     
   1807884171.9754975        167220658.35131872        1348728102.9003332     
   1777444978.0594792        134911929.54960984        1366902245.1356959     
   1748109161.6837025        106281125.88204080        1386253904.5594890     
   1719876722.8481700        81328247.348620594        1406783081.1717124     
   1692747661.5528812        60053293.949344337        1428489774.9723668     
   3379070222.4871750        48878148.480576277        1155880159.6523912     
   3288578999.5393658        42187714.671441436        1148051657.6777978     
   3196187468.0860515        29162919.177296519        1142643762.2245569     
   3101895628.1272359        9803761.9981411695        1139656473.2926693     
   3005703479.6629157       -15889756.866024256        1139089790.8821340     
   2959974456.9962521        52417397.270563960        1229052060.6049652     
   2875528485.6656427        40715235.309734344        1219630709.1453328     
   2790418573.7694950        26799938.130452156        1213595497.3664346     
   2704644721.3078079        10671505.732703447        1210946425.2682617     
   2618206928.2805872       -7670061.8834960461        1211683492.8508227     
   2539222108.3435631        55459671.112021685        1298877630.1424825     
   2463580054.7998004        39573380.850393414        1289305858.4611099     
   2388510428.6304665        25595181.836859226        1284085759.6198432     
   2314013229.8355613        13525074.071422100        1283217333.6186843     
   2240088458.4150848        3363057.5540841818        1286700580.4576299     
   2116813176.5291049        58004970.004946947        1365356868.2649515     
   2052733706.9418397        38762151.293414116        1357077105.6251283     
   1990463032.6689689        25548650.296529174        1354114548.9847891     
   1930001153.7104914        18364467.014293551        1356469198.3439341     
   1871348070.0664124        17209601.446710348        1364141053.7025623     
   1692747661.5528812        60053293.949344337        1428489774.9723668     
   1642989442.0917611        38281546.638801277        1422944450.6373887     
   1596276385.8849998        26660343.509457052        1423681865.4612699     
   1552608492.9326005        25189684.561317801        1430702019.4440134     
   1511985763.2345629        33869569.794385135        1444004912.5856173     
   3005703479.6629157       -15889756.866024256        1139089790.8821340     
   2903399953.8380671       -42877645.372342587        1124160009.6814530     
   2803352149.8589444       -62346461.059567213        1115208089.2918129     
   2705560067.7255530       -74296203.927689433        1112234029.7132163     
   2610023707.4378896       -78726873.976720572        1115237830.9456644     
   2618206928.2805872       -7670061.8834960461        1211683492.8508227     
   2533803063.1111021       -24050384.291357756        1201941491.8061109     
   2450953951.8155141       -35248193.786225200        1197542699.8163779     
   2369659594.3938265       -41263490.368088961        1198487116.8816187     
   2289919990.8460364       -42096274.036960483        1204774743.0018392     
   2240088458.4150848        3363057.5540841818        1286700580.4576299     
   2171770963.1693444       -2953685.9748128653        1281328563.6017585     
   2104307253.8256726       -6424476.4968060255        1280665104.0447962     
   2037697330.3840716       -7049314.0119018555        1284710201.7867448     
   1971941192.8445418       -4828198.5200915337        1293463856.8276050     
   1871348070.0664124        17209601.446710348        1364141053.7025623     
   1817303654.0127962        20412449.577299237        1362321225.0683944     
   1763412055.8894215        24124690.808691382        1364575301.9770689     
   1709673275.6962867        28346325.140880525        1370903284.4285886     
   1656087313.4333959        33077352.573886573        1381305172.4229515     
   1511985763.2345629        33869569.794385135        1444004912.5856173     
   1470401135.6414535        46048022.364964783        1444919476.2060201     
   1428268358.0067592        56399308.130260706        1449273293.6131992     
   1385587430.3304734        64923427.090251982        1457066364.8071570     
   1342358352.6126027        71620379.244963706        1468298689.7878933     
   2610023707.4378896       -78726873.976720572        1115237830.9456644     
   2512789578.7143807       -81691298.157875299        1106254038.5501063     
   2414602305.9903970       -87832869.007276177        1101274876.0086854     
   2315461889.2659416       -97151586.524917364        1100300343.3213949     
   2215368328.5410113       -109647450.71080935        1103330440.4882421     
   2289919990.8460364       -42096274.036960483        1204774743.0018392     
   2203733857.4632416       -43313219.567824244        1195710774.4605708     
   2117014814.4407272       -46306530.564407587        1190737369.7156470     
   2029762861.7784941       -51076207.026724458        1189854528.7670715     
   1941977999.4765432       -57622248.954765439        1193062251.6148443     
   1971941192.8445418       -4828198.5200915337        1293463856.8276050     
   1897048580.3516378       -4224007.7359141111        1284809985.5614996     
   1822043292.5797746       -3995401.2149331570        1280332612.0339618     
   1746925329.5289500       -4142378.9571570158        1280031736.2449839     
   1671694691.1991637       -4664940.9625866413        1283907358.1945646     
   1656087313.4333959        33077352.573886573        1381305172.4229515     
   1592733747.3795719        35576337.337864697        1373551671.8529019     
   1529687740.4075413        39100519.041161656        1370060602.9636276     
   1466949292.5173094        43649897.683786631        1370831965.7551274     
   1404518403.7088726        49224473.265717924        1375865760.2274058     
   1342358352.6126027        71620379.244963706        1468298689.7878933     
   1290789358.5470376        76087815.653491497        1461935833.3347762     
   1239948157.9240286        82981230.203873575        1459921342.5046463     
   1189834750.7435696        92300622.896087170        1462255217.2975097     
   1140449137.0056615        104045993.73014307        1468937457.7133625     
   2215368328.5410113       -109647450.71080935        1103330440.4882421     
   2108390574.2011545       -128037878.67706025        1090904697.3568630     
   1999841146.9194369       -151667216.44951630        1081584409.8137326     
   1889720046.6958654       -180535464.02815211        1075369577.8588512     
   1778027273.5304217       -214642621.41302347        1072260201.4922183     
   1941977999.4765432       -57622248.954765439        1193062251.6148443     
   1846775045.0733957       -68249217.477775335        1180931896.8876944     
   1750881594.3992243       -81177840.237522006        1172962057.4213250     
   1654297647.4540393       -96408117.233987570        1169152733.2157359     
   1557023204.2378345       -113940048.46718407        1169503924.2709196     
   1671694691.1991637       -4664940.9625866413        1283907358.1945646     
   1591280992.9399445       -6624113.1802026033        1273100431.3209667     
   1511057975.0805471       -7947684.0650737882        1267509079.3806732     
   1431025637.6209772       -8635653.6171868443        1267133302.3736861     
   1351183980.5612288       -8688021.8365619779        1271973100.3000093     
   1404518403.7088726        49224473.265717924        1375865760.2274058     
   1341908417.8008037        56837434.215660453        1367410300.6566710     
   1280370288.9634075        68023252.067842424        1365225475.6917698     
   1219904017.1966770        82781926.822238922        1369311285.3327045     
   1160509602.5006106        101113458.47885555        1379667729.5794768     
   1140449137.0056615        104045993.73014307        1468937457.7133625     
   1098657319.6559763        122135424.70982429        1463861504.8948069     
   1058818536.0478029        146734968.16121238        1466111246.3546176     
   1020932786.1811407        177844624.08430395        1475686682.0927949     
   985000070.05598307        215464392.47908026        1492587812.1093323     
   1778027273.5304217       -214642621.41302347        1072260201.4922183     
   1652182896.1192398       -303661183.82973206        1035133994.9555134     
   1494504088.0731354       -498794515.02951300        998022061.22544813     
   1304990849.3921032       -800042615.01237631        960924400.30203009     
   1083643180.0761528       -1207405483.7783117        923841012.18525243     
   1557023204.2378345       -113940048.46718407        1169503924.2709196     
   1444826694.5113816       -162862467.39802313        1109775060.0377152     
   1315575273.7518525       -268634589.77245522        1051277326.5663048     
   1169268941.9592314       -431256415.59051871        994010723.85668576     
   1005907699.1335263       -650727944.85220098        937975251.90887356     
   1351183980.5612288       -8688021.8365619779        1271973100.3000093     
   1256112075.5342343       -16471276.177097440        1206884351.2391119     
   1158764779.0759931       -31839168.621783435        1144243590.8951690     
   1059142091.1865057       -54791699.170630634        1084050819.2681668     
   957244011.86576998       -85328867.823622763        1026306036.3581131     
   1160509602.5006106        101113458.47885555        1379667729.5794768     
   1086039039.1877954        135512389.83304238        1326461868.5597110     
   1024072604.0455656        211591748.42251456        1276920854.2120399     
   974610297.07392824        329351534.24730855        1231044686.5364735     
   937652118.27289248        488791747.30741918        1188833365.5330021     
   985000070.05598307        215464392.47908026        1492587812.1093323     
   934607585.47206211        293088530.63238728        1468507611.9995012     
   911498748.66056943        461658161.36045599        1449309116.5169215     
   915673559.62150693        721173284.66329312        1434992325.6615980     
   947132018.35488045        1071633900.5409141        1425557239.4335136     
   1755492724.8959701        526647817.46879101        680419663.72805381     
   1783482120.7059529        500196801.13763487        806852027.95024931     
   1808520796.4059470        463910051.10651755        926218002.13282132     
   1830608751.9959531        417787567.37543881        1038517586.2757695     
   1849745987.4759710        361829349.94439960        1143750780.3790944     
   1325858535.7255652        397757560.71766961        670198123.64519143     
   1339110385.6648707        375597239.38462543        792365552.59294319     
   1350149195.5220087        346060117.77769071        909272637.44946384     
   1358974965.2969797        309146195.89686537        1020919378.2147536     
   1365587694.9897833        264855473.74214965        1127305774.8888116     
   890065018.54597235        267019505.56379172        662897023.58173394     
   893739453.89572144        250697918.61319584        781660143.95416665     
   895938529.19112456        229458464.81478006        896968966.18376100     
   896662244.43218148        203301144.16854441        1008823490.2705164     
   895910599.61889267        172225956.67448917        1117223716.2144332     
   448112173.35719126        134433652.00715739        658516363.53768170     
   447369325.39850521        125498838.82334606        774735802.03392041     
   445888797.41329432        114105092.21778570        889306988.33571279     
   443670589.40155876        100252412.19047612        1002229922.4430590     
   440714701.36329848        83940798.741417557        1113504604.3559582     
  0.15922193737464738        4.7766581212394209E-002   657056143.51303434     
  0.17322201365607051        1.5076321601393571E-002   771592526.83220339     
  0.18851845450995972       -1.3292549295705905E-002   886286703.90531886     
  0.20511141434576730       -3.7339776989251422E-002   1001138674.7323802     
  0.22300091032009897       -5.7065044082035568E-002   1116148439.3133879     
   1849745987.4759710        361829349.94439960        1143750780.3790944     
   1834171770.0965905        296147965.36525619        1191537158.4052970     
   1822003395.0533855        241819388.57336247        1241628838.1675708     
   1813240862.3463542        198843619.56871724        1294025819.6659157     
   1807884171.9754975        167220658.35131872        1348728102.9003332     
   1365587694.9897833        264855473.74214965        1127305774.8888116     
   1359697966.5812805        217331715.68995681        1182961760.2514217     
   1356362619.9249985        178322563.47850111        1239571829.2724149     
   1355581655.0209370        147828017.10778064        1297135981.9517922     
   1357355071.8690975        125848076.57779825        1355654218.2895534     
   895910599.61889267        172225956.67448917        1117223716.2144332     
   895844737.10215926        141701638.22551504        1179755938.2321708     
   897481795.75369263        116853723.67076421        1241891025.8306043     
   900821775.57349372        97682213.010239393        1303628979.0097346     
   905864676.56156206        84187106.243938088        1364969797.7695596     
   440714701.36329848        83940798.741417557        1113504604.3559582     
   442612081.65922624        69257732.971929505        1181919692.3475451     
   445360922.53946698        57412869.150151357        1248586427.8421402     
   448961224.00402230        48406207.276088759        1313504810.8397429     
   453412986.05289072        42237747.349735454        1376674841.3403547     
  0.22300091032009897       -5.7065044082035568E-002   1116148439.3133879     
  0.25248182093574956       -7.0800105133002111E-002   1189453022.5975440     
  0.28232221677229519       -8.3336708641970889E-002   1259658035.3070207     
  0.31252346678390747       -9.4670638373065039E-002   1326763477.4418180     
  0.34308421488386920      -0.10480606767064687        1390769349.0019350     
   1807884171.9754975        167220658.35131872        1348728102.9003332     
   1777444978.0594792        134911929.54960984        1366902245.1356959     
   1748109161.6837025        106281125.88204080        1386253904.5594890     
   1719876722.8481700        81328247.348620594        1406783081.1717124     
   1692747661.5528812        60053293.949344337        1428489774.9723668     
   1357355071.8690975        125848076.57779825        1355654218.2895534     
   1332774221.1106081        101091093.37434107        1374822608.2334235     
   1309020903.5066142        79092554.019202530        1395577188.2796745     
   1286095119.0571153        59852458.512382507        1417917958.4283047     
   1263996867.7621131        43370806.853880823        1441844918.6793141     
   905864676.56156206        84187106.243938088        1364969797.7695596     
   888309805.85759926        67332159.707833380        1384810616.9718997     
   871306623.92238367        52316175.734219879        1406646299.1905682     
   854855130.75591648        39139154.323101223        1430476844.4255643     
   838955326.35819674        27801095.474472076        1456302252.6768909     
   453412986.05289072        42237747.349735454        1376674841.3403547     
   444051732.30045146        33635128.550082430        1396866271.3511238     
   434966322.93101156        25951991.027093545        1419461237.2921703     
   426156757.94457304        19188334.780776054        1444459739.1634943     
   417623037.34113264        13344159.811118588        1471861776.9650974     
  0.34308421488386920      -0.10480606767064687        1390769349.0019350     
  0.43916588543402429       -9.8908227075622190E-002   1410989571.3710940     
  0.53249950236801358      -0.10217021825645475        1434022002.5844808     
  0.62308546600663928      -0.11459140069986121        1459866642.6420934     
  0.71092220937990447      -0.13617630374977446        1488523491.5439324     
   1692747661.5528812        60053293.949344337        1428489774.9723668     
   1642989442.0917611        38281546.638801277        1422944450.6373887     
   1596276385.8849998        26660343.509457052        1423681865.4612699     
   1552608492.9326005        25189684.561317801        1430702019.4440134     
   1511985763.2345629        33869569.794385135        1444004912.5856173     
   1263996867.7621131        43370806.853880823        1441844918.6793141     
   1231234616.3574116        28408920.329399705        1440174855.3051012     
   1200756237.4027858        21059941.971836507        1443724368.0186419     
   1172561730.8982339        21323871.781185031        1452493456.8199408     
   1146651096.8437574        29200709.757453680        1466482121.7089930     
   838955326.35819674        27801095.474472076        1456302252.6768909     
   820151434.23532796        18737787.103677899        1457619277.6584435     
   802870123.75824773        14749750.885514021        1463092715.6566458     
   787111394.92695546        15836986.819976240        1472722566.6714973     
   772875247.74145305        21999494.907070965        1486508830.7029996     
   417623037.34113264        13344159.811118588        1471861776.9650974     
   409739895.72550845        9268146.9616361707        1475277717.6974144     
   402618044.95138693        7729770.2504954189        1481786908.3752759     
   396257485.01876724        8729029.6776940823        1491389348.9986820     
   390658215.92765099        12265925.243238062        1504085039.5676308     
  0.71092220937990447      -0.13617630374977446        1488523491.5439324     
  0.82795439460480802       -9.6726370045409460E-002   1493150175.4220154     
  0.98220417605071308        6.6782911618350649E-002   1499806946.1745372     
   1.1736675447907292       0.35433748426248179        1508493803.8014958     
   1.4023512662464133       0.76595920540278128        1519210748.3028946     
   1511985763.2345629        33869569.794385135        1444004912.5856173     
   1470401135.6414535        46048022.364964783        1444919476.2060201     
   1428268358.0067592        56399308.130260706        1449273293.6131992     
   1385587430.3304734        64923427.090251982        1457066364.8071570     
   1342358352.6126027        71620379.244963706        1468298689.7878933     
   1146651096.8437574        29200709.757453680        1466482121.7089930     
   1113511405.5330300        37749183.106175065        1464110343.9343307     
   1079960601.6948602        44927281.363422394        1465633104.7182255     
   1045998685.3292501        50735004.529202878        1471050404.0606852     
   1011625656.4362022        55172352.603520632        1480362241.9617019     
   772875247.74145305        21999494.907070965        1486508830.7029996     
   749481306.34677041        27308233.124025196        1481010588.6331079     
   725813289.93879473        31703387.963337511        1479862169.8935590     
   701871198.51752567        35184959.425003439        1483063574.4843540     
   677655032.08296275        37752947.509024203        1490614802.4054937     
   390658215.92765099        12265925.243238062        1504085039.5676308     
   378310838.08268017        14725172.418533295        1495620210.3023512     
   365826422.73856103        16727627.930000514        1491960489.1391959     
   353204969.89529705        18273291.777651027        1493105876.0781674     
   340446479.55288517        19362163.961475506        1499056371.1192651     
   1.4023512662464133       0.76595920540278128        1519210748.3028946     
  0.74075480182024245       0.98968420455206929        1507939208.9420612     
   9.4159089865756718E-002   1.2634113649956125        1501928062.4551377     
 -0.53743447421310497        1.5871456850245693        1501177308.8421245     
  -1.1540294361148760        1.9608756925885236        1505686948.1030176     
   1342358352.6126027        71620379.244963706        1468298689.7878933     
   1290789358.5470376        76087815.653491497        1461935833.3347762     
   1239948157.9240286        82981230.203873575        1459921342.5046463     
   1189834750.7435696        92300622.896087170        1462255217.2975097     
   1140449137.0056615        104045993.73014307        1468937457.7133625     
   1011625656.4362022        55172352.603520632        1480362241.9617019     
   971365211.17411137        58047820.117134154        1473793831.3864405     
   931650610.97793615        62742771.183798492        1471943316.3204577     
   892481855.84766793        69257205.803483874        1474810696.7637546     
   853858945.78331482        77591123.976222903        1482395972.7163277     
   677655032.08296275        37752947.509024203        1490614802.4054937     
   649758935.29946017        39353186.030261725        1483628564.6020072     
   622226735.20522678        42166413.515731335        1481729752.1940856     
   595058431.80026722        46192629.965444028        1484918365.1817324     
   568254025.08457494        51431835.379383102        1493194403.5649495     
   340446479.55288517        19362163.961475506        1499056371.1192651     
   325970530.92308033        20003913.392867789        1491440032.9814687     
   311676530.60590434        21252157.199688733        1489280650.1255312     
   297564478.60135823        23106895.381941780        1492578222.5514517     
   283634374.90944058        25568127.939625785        1501332750.2592256     
  -1.1540294361148760        1.9608756925885236        1505686948.1030176     
  -1.9550246037443211        2.2049580110479363        1497228236.5248344     
  -2.8200347734641653        2.2356569892060216        1494596010.1147962     
  -3.7490530940698221        2.0529952909390490        1497790268.8729038     
  -4.7420863938904025        1.6569506755670247        1506811012.7991560     
   1140449137.0056615        104045993.73014307        1468937457.7133625     
   1098657319.6559763        122135424.70982429        1463861504.8948069     
   1058818536.0478029        146734968.16121238        1466111246.3546176     
   1020932786.1811407        177844624.08430395        1475686682.0927949     
   985000070.05598307        215464392.47908026        1492587812.1093323     
   853858945.78331482        77591123.976222903        1482395972.7163277     
   828483882.27648163        92948836.962121725        1478962226.5507054     
   804573594.04169822        113189134.18819073        1481461454.7536294     
   782128081.07896161        138312015.65441489        1489893657.3251011     
   761147343.38827765        168317481.36081171        1504258834.2651205     
   568254025.08457494        51431835.379383102        1493194403.5649495     
   555316515.67825675        62864070.448795125        1490833229.1712193     
   543355523.07452917        77551361.526839763        1493012309.2362206     
   532371047.27339190        95493708.613518611        1499731643.7599549     
   522363088.27484298        116691111.70882604        1510991232.7424200     
   283634374.90944058        25568127.939625785        1501332750.2592256     
   279155219.86130536        31881125.169846386        1499474512.7563515     
   275164323.14630038        39821650.177169196        1500763809.8023961     
   271661684.76442719        49389702.961598806        1505200641.3973563     
   268647304.71568024        60585283.523114428        1512785007.5412254     
  -4.7420863938904025        1.6569506755670247        1506811012.7991560     
  -5.1743685801276884        1.1252958958424937        1504886077.3061070     
  -5.7429872213110826       0.13918765407638212        1504715956.4521537     
  -6.4479308797033799       -1.3013373117194100        1506300650.2372992     
  -7.2892056859317229       -3.1963008247474671        1509640158.6615405     
   985000070.05598307        215464392.47908026        1492587812.1093323     
   934607585.47206211        293088530.63238728        1468507611.9995012     
   911498748.66056943        461658161.36045599        1449309116.5169215     
   915673559.62150693        721173284.66329312        1434992325.6615980     
   947132018.35488045        1071633900.5409141        1425557239.4335136     
   761147343.38827765        168317481.36081171        1504258834.2651205     
   718632513.18531954        225119444.28324288        1503355377.3459494     
   696580418.67935133        350130526.19563657        1508435067.2996974     
   694991059.87037349        543350727.09800088        1519497904.1263726     
   713864436.75838792        804780046.99034047        1536543887.8259575     
   522363088.27484298        116691111.70882604        1510991232.7424200     
   490872890.29761946        153614992.75381467        1525306788.2592232     
   473024515.94194573        236011619.20396709        1546706932.8946233     
   468817965.20782161        363880991.05928630        1575191666.6486056     
   478253238.09524512        537223108.31976509        1610760989.5211911     
   268647304.71568024        60585283.523114428        1512785007.5412254     
   251328716.80896327        78575176.044101268        1534361844.7393303     
   240831040.44834900        119301440.38543054        1564124713.3016915     
   237154275.63385022        182764076.54714426        1602073613.2283196     
   240298422.36545342        268963084.52920175        1648208544.5191979     
  -7.2892056859317229       -3.1963008247474671        1509640158.6615405     
  -7.2806522257937489       -5.8459032715351515        1530520546.7862608     
  -7.8014309755881381       -10.259944336429209        1560688408.5209072     
  -8.8515416150582489       -16.438426421354453        1600143743.8654854     
  -10.430988490544220       -24.381363320221951        1648886552.8199973     
  0.15922193737464738        4.7766581212394209E-002   657056143.51303434     
  0.17322201365607051        1.5076321601393571E-002   771592526.83220339     
  0.18851845450995972       -1.3292549295705905E-002   886286703.90531886     
  0.20511141434576730       -3.7339776989251422E-002   1001138674.7323802     
  0.22300091032009897       -5.7065044082035568E-002   1116148439.3133879     
  -448112173.04493695       -134433651.91348109        658516363.50963151     
  -447369325.05703437       -125498838.78511949        774735802.00388467     
  -445888797.04001397       -114105092.22636515        889306988.30233538     
  -443670588.99387580       -100252412.23721820        1002229922.4049840     
  -440714700.91861939       -83940798.817677692        1113504604.3118300     
  -890065018.25228703       -267019505.47568610        662897023.52931285     
  -893739453.57547724       -250697918.57177141        781660143.89777493     
  -895938528.84172857       -229458464.81139258        896968966.12068605     
  -896662244.05104041       -203301144.19454974        1008823490.1980466     
  -895910599.20341301       -172225956.72124282        1117223716.1298566     
  -1325858535.4628279       -397757560.63884836        670198123.57207823     
  -1339110385.3821068       -375597239.34487927        792365552.51387370     
  -1350149195.2166247       -346060117.76837468        909272637.36037076     
  -1358974964.9663823       -309146195.90933460        1020919378.1115682     
  -1365587694.6313798       -264855473.76775941        1127305774.7674670     
  -1755492724.6765599       -526647817.40296799        680419663.63792765     
  -1783482120.4769228       -500196801.10444301        806852027.85218215     
  -1808520796.1647034       -463910051.09731120        926218002.02138937     
  -1830608751.7399023       -417787567.38157284        1038517586.1455487     
  -1849745987.2025192       -361829349.95722830        1143750780.2246606     
  0.22300091032009897       -5.7065044082035568E-002   1116148439.3133879     
  0.25248182093574956       -7.0800105133002111E-002   1189453022.5975440     
  0.28232221677229519       -8.3336708641970889E-002   1259658035.3070207     
  0.31252346678390747       -9.4670638373065039E-002   1326763477.4418180     
  0.34308421488386920      -0.10480606767064687        1390769349.0019350     
  -440714700.91861939       -83940798.817677692        1113504604.3118300     
  -442612081.15591544       -69257733.066105902        1181919692.2933037     
  -445360921.97674870       -57412869.259658068        1248586427.7753270     
  -448961223.38111907       -48406207.398334116        1313504810.7578998     
  -453412985.36902618       -42237747.482132316        1376674841.2410223     
  -895910599.20341301       -172225956.72124282        1117223716.1298566     
  -895844736.63540208       -141701638.28273809        1179755938.1274340     
  -897481795.23482597       -116853723.73568174        1241891025.7007906     
  -900821775.00168407       -97682213.080072641        1303628978.8499258     
  -905864675.93597615       -84187106.315910876        1364969797.5748401     
  -1365587694.6313798       -264855473.76775941        1127305774.7674670     
  -1359697966.1859787       -217331715.72069728        1182961760.0999351     
  -1356362619.4919097       -178322563.51140690        1239571829.0834112     
  -1355581654.5491714       -147828017.13988775        1297135981.7178957     
  -1357355071.3577654       -125848076.60614103        1355654218.0033877     
  -1849745987.2025192       -361829349.95722830        1143750780.2246606     
  -1834171769.8076448       -296147965.37998378        1191537158.2108061     
  -1822003394.7479994       -241819388.58683425        1241628837.9231887     
  -1813240862.0235829       -198843619.57778245        1294025819.3618085     
  -1807884171.6343939       -167220658.35282207        1348728102.5266654     
  0.34308421488386920      -0.10480606767064687        1390769349.0019350     
  0.43916588543402429       -9.8908227075622190E-002   1410989571.3710940     
  0.53249950236801358      -0.10217021825645475        1434022002.5844808     
  0.62308546600663928      -0.11459140069986121        1459866642.6420934     
  0.71092220937990447      -0.13617630374977446        1488523491.5439324     
  -453412985.36902618       -42237747.482132316        1376674841.2410223     
  -444051731.42955106       -33635128.659515917        1396866271.2234695     
  -434966321.87695557       -25951991.126497507        1419461237.1296735     
  -426156756.71123964       -19188334.883078083        1444459738.9596343     
  -417623035.93240368       -13344159.929257751        1471861776.7133505     
  -905864675.93597615       -84187106.315910876        1364969797.5748401     
  -888309805.06873703       -67332159.751265168        1384810616.7224224     
  -871306622.97250915       -52316175.756655991        1406646298.8732908     
  -854855129.64729178       -39139154.332082868        1430476844.0274463     
  -838955325.09308589       -27801095.477546513        1456302252.1848867     
  -1357355071.3577654       -125848076.60614103        1355654218.0033877     
  -1332774220.4783921       -101091093.37415594        1374822607.8679521     
  -1309020902.7541604       -79092553.992644250        1395577187.8153322     
  -1286095118.1850717       -59852458.461606860        1417917957.8455279     
  -1263996866.7711227       -43370806.781038105        1441844917.9585402     
  -1807884171.6343939       -167220658.35282207        1348728102.5266654     
  -1777444977.6585152       -134911929.52818513        1366902244.6600590     
  -1748109161.2219090       -106281125.83445954        1386253903.9557972     
  -1719876722.3245771       -81328247.271646559        1406783080.4138820     
  -1692747660.9665182       -60053293.839743137        1428489774.0343118     
  0.71092220937990447      -0.13617630374977446        1488523491.5439324     
  0.82795439460480802       -9.6726370045409460E-002   1493150175.4220154     
  0.98220417605071308        6.6782911618350649E-002   1499806946.1745372     
   1.1736675447907292       0.35433748426248179        1508493803.8014958     
   1.4023512662464133       0.76595920540278128        1519210748.3028946     
  -417623035.93240368       -13344159.929257751        1471861776.7133505     
  -409739894.09239447       -9268146.9944167435        1475277717.4744763     
  -402618043.03297341       -7729769.9948684722        1481786908.1722088     
  -396257482.75414485       -8729028.9306295514        1491389348.8065503     
  -390658213.25590658       -12265923.801690862        1504085039.3774974     
  -838955325.09308589       -27801095.477546513        1456302252.1848867     
  -820151432.78104258       -18737787.022593379        1457619277.2082791     
  -802870122.06739604       -14749750.562296838        1463092715.2304485     
  -787111392.95214808       -15836986.096660525        1472722566.2513964     
  -772875245.43529546       -21999493.625676930        1486508830.2711208     
  -1263996866.7711227       -43370806.781038105        1441844917.9585402     
  -1231234615.2379909       -28408920.181260169        1440174854.6234252     
  -1200756236.1210628       -21059941.635497510        1443724367.3492582     
  -1172561729.4203377       -21323871.143740773        1452493456.1360378     
  -1146651095.1358171       -29200708.706002831        1466482120.9837635     
  -1692747660.9665182       -60053293.839743137        1428489774.0343118     
  -1642989441.4632404       -38281546.470420182        1422944449.7199159     
  -1596276385.1939740       -26660343.214470148        1423681864.5286362     
  -1552608492.1587188       -25189684.071887612        1430702018.4604731     
  -1511985762.3574719       -33869569.042670310        1444004911.5154266     
   1.4023512662464133       0.76595920540278128        1519210748.3028946     
  0.74075480182024245       0.98968420455206929        1507939208.9420612     
   9.4159089865756718E-002   1.2634113649956125        1501928062.4551377     
 -0.53743447421310497        1.5871456850245693        1501177308.8421245     
  -1.1540294361148760        1.9608756925885236        1505686948.1030176     
  -390658213.25590658       -12265923.801690862        1504085039.3774974     
  -378310836.73357368       -14725170.681972131        1495620210.0765107     
  -365826422.69424731       -16727625.838941783        1491960488.9132535     
  -353204971.13792568       -18273289.272592902        1493105875.8877273     
  -340446482.06460667       -19362160.982921466        1499056370.9999318     
  -772875245.43529546       -21999493.625676930        1486508830.2711208     
  -749481305.26097393       -27308231.669554174        1481010588.1156399     
  -725813290.06766236       -31703386.316797495        1479862169.3617105     
  -701871199.85536194       -35184957.567410022        1483063574.0093353     
  -677655034.62407100       -37752945.421389759        1490614802.0585110     
  -1146651095.1358171       -29200708.706002831        1466482120.9837635     
  -1113511404.8414440       -37749181.973055065        1464110343.0594485     
  -1079960602.0260873       -44927280.170161188        1465633103.8005092     
  -1045998686.6897447       -50735003.297311962        1471050403.2069409     
  -1011625658.8324164       -55172351.354514897        1480362241.2787490     
  -1511985762.3574719       -33869569.042670310        1444004911.5154266     
  -1470401135.4749856       -46048021.592479050        1444919474.9079392     
  -1428268358.5695176       -56399307.399015307        1449273292.2296467     
  -1385587431.6410754       -64923426.462302029        1457066363.4805515     
  -1342358354.6896505       -71620378.782316506        1468298688.6606503     
  -1.1540294361148760        1.9608756925885236        1505686948.1030176     
  -1.9550246037443211        2.2049580110479363        1497228236.5248344     
  -2.8200347734641653        2.2356569892060216        1494596010.1147962     
  -3.7490530940698221        2.0529952909390490        1497790268.8729038     
  -4.7420863938904025        1.6569506755670247        1506811012.7991560     
  -340446482.06460667       -19362160.982921466        1499056370.9999318     
  -325970535.04867929       -20003910.172884494        1491440032.8124671     
  -311676536.44803929       -21252154.080471933        1489280649.9546554     
  -297564486.26268917       -23106892.705693871        1492578222.4264927     
  -283634384.49262834       -25568126.048543692        1501332750.2279840     
  -677655034.62407100       -37752945.421389759        1490614802.0585110     
  -649758939.32976973       -39353183.906950235        1483628564.1852727     
  -622226740.80203736       -42166411.614405155        1481729751.8031945     
  -595058439.04086852       -46192628.543739259        1484918364.9122739     
  -568254034.04626632       -51431834.694960237        1493194403.5125105     
  -1011625658.8324164       -55172351.354514897        1480362241.2787490     
  -971365214.79829907       -58047818.997251362        1473793830.6432502     
  -931650615.88202310       -62742770.366121531        1471943315.6604180     
  -892481862.08359265       -69257205.461148143        1474810696.3302474     
  -853858953.40300584       -77591124.282315522        1482395972.6527438     
  -1342358354.6896505       -71620378.782316506        1468298688.6606503     
  -1290789361.4542677       -76087815.443785965        1461935832.1863997     
  -1239948161.6880047       -82981230.335652590        1459921341.5263212     
  -1189834755.3908615       -92300623.457917690        1462255216.6804130     
  -1140449142.5628393       -104045994.81058905        1468937457.6486759     
  -4.7420863938904025        1.6569506755670247        1506811012.7991560     
  -5.1743685801276884        1.1252958958424937        1504886077.3061070     
  -5.7429872213110826       0.13918765407638212        1504715956.4521537     
  -6.4479308797033799       -1.3013373117194100        1506300650.2372992     
  -7.2892056859317229       -3.1963008247474671        1509640158.6615405     
  -283634384.49262834       -25568126.048543692        1501332750.2279840     
  -279155230.25805181       -31881124.224087656        1499474512.6946428     
  -275164334.57878178       -39821650.917318404        1500763809.7222242     
  -271661697.45480937       -49389706.128208734        1505200641.3107243     
  -268647318.88613677       -60585289.856766373        1512785007.4601529     
  -568254034.04626632       -51431834.694960237        1493194403.5125105     
  -555316525.36819291       -62864070.581409425        1490833229.1167481     
  -543355533.66439307       -77551363.048766166        1493012309.2037320     
  -532371058.93486387       -95493712.097026289        1499731643.7734616     
  -522363101.17960447       -116691117.72618625        1510991232.8259380     
  -853858953.40300584       -77591124.282315522        1482395972.6527438     
  -828483890.50479198       -92948837.946664780        1478962226.5724258     
  -804573602.99982309       -113189136.25516120        1481461454.8966768     
  -782128090.88809538       -138312019.20779362        1489893657.6254969     
  -761147354.16961074       -168317486.80457431        1504258834.7588882     
  -1140449142.5628393       -104045994.81058905        1468937457.6486759     
  -1098657325.6678503       -122135426.31986296        1463861505.0616693     
  -1058818542.5850708       -146734970.53649905        1466111246.8010604     
  -1020932793.3145074       -177844627.46052450        1475686682.8668427     
  -985000077.85615337       -215464397.09191337        1492587813.2590203     
  -7.2892056859317229       -3.1963008247474671        1509640158.6615405     
  -7.2806522257937489       -5.8459032715351515        1530520546.7862608     
  -7.8014309755881381       -10.259944336429209        1560688408.5209072     
  -8.8515416150582489       -16.438426421354453        1600143743.8654854     
  -10.430988490544220       -24.381363320221951        1648886552.8199973     
  -268647318.88613677       -60585289.856766373        1512785007.4601529     
  -251328730.65857556       -78575186.480150551        1534361843.8816807     
  -240831054.72790930       -119301457.42651954        1564124711.6249230     
  -237154291.09413552       -182764102.69586533        1602073610.6898837     
  -240298439.75726128       -268963122.28820693        1648208541.0765712     
  -522363101.17960447       -116691117.72618625        1510991232.8259380     
  -490872902.69935220       -153615001.71324879        1525306787.1487813     
  -473024528.28355974       -236011632.58184639        1546706930.5051348     
  -468817977.93221974       -363881010.33195138        1575191662.8949912     
  -478253251.64533764       -537223134.96358502        1610760984.3183618     
  -761147354.16961074       -168317486.80457431        1504258834.7588882     
  -718632523.40298104       -225119451.54519859        1503355376.5875640     
  -696580428.46837831       -350130535.72591370        1508435065.1615360     
  -694991069.36579168       -543350739.34668708        1519497900.4808002     
  -713864446.09522188       -804780062.40750885        1536543882.5453708     
  -985000077.85615337       -215464397.09191337        1492587813.2590203     
  -934607592.76946545       -293088535.97600824        1468507612.1980333     
  -911498755.28237247       -461658166.85874945        1449309115.5941315     
  -915673565.39484835       -721173289.74005711        1434992323.4473152     
  -947132023.10690832       -1071633904.6199732        1425557235.7575872     
  -1755492724.6765599       -526647817.40296799        680419663.63792765     
  -1783482120.4769228       -500196801.10444301        806852027.85218215     
  -1808520796.1647034       -463910051.09731120        926218002.02138937     
  -1830608751.7399023       -417787567.38157284        1038517586.1455487     
  -1849745987.2025192       -361829349.95722830        1143750780.2246606     
  -2201187950.2544632       -660356385.07633901        696684603.41821134     
  -2237676732.3413877       -613979640.34487891        814137337.70150030     
  -2272109513.0868087       -560749557.80840921        927520227.55565083     
  -2304486292.4907265       -500666137.46693027        1036833272.9806631     
  -2334807070.5531421       -433729379.32044131        1142076473.9765368     
  -2685164576.5575180       -805549372.96725547        722115902.60427988     
  -2721591186.0284066       -736678432.13208115        829545168.39034426     
  -2756856512.9288702       -663936549.39549422        935901135.36317933     
  -2790960557.2589097       -587323724.75749481        1041183803.5227855     
  -2823903319.0185266       -506839958.21808338        1145393172.8691621     
  -3207422603.5857244       -962226781.07571733        756713561.19613314     
  -3235225481.5379777       -868293176.46604896        853075519.91871381     
  -3262761795.6908865       -773471025.85856545        951360725.44397461     
  -3290031546.0444522       -677760329.25326729        1051569177.7719147     
  -3317034732.5986714       -581161086.65015328        1153700876.9025352     
  -3767962031.3390822       -1130388609.4017246        800477579.19377100     
  -3778579618.8701038       -1008823873.3467836        884728392.28660917     
  -3789825361.3728609       -889352987.19762456        973898997.79803634     
  -3801699258.8473516       -771975950.95424712        1067989395.7280527     
  -3814201311.2935772       -656692764.61665154        1166999586.0766578     
  -1849745987.2025192       -361829349.95722830        1143750780.2246606     
  -1834171769.8076448       -296147965.37998378        1191537158.2108061     
  -1822003394.7479994       -241819388.58683425        1241628837.9231887     
  -1813240862.0235829       -198843619.57778245        1294025819.3618085     
  -1807884171.6343939       -167220658.35282207        1348728102.5266654     
  -2334807070.5531421       -433729379.32044131        1142076473.9765368     
  -2311001090.3084068       -352752136.08040875        1183515114.2191181     
  -2290700040.4591947       -283457994.15878892        1225450764.4670198     
  -2273903921.0055094       -225846953.55559099        1267883424.7202418     
  -2260612731.9473476       -179919014.27080524        1310813094.9787841     
  -2823903319.0185266       -506839958.21808338        1145393172.8691621     
  -2797032123.6979756       -412116820.64747459        1180368472.6311667     
  -2773764946.8332477       -329407077.92960346        1214032490.6775749     
  -2754101788.4243417       -258710730.06447113        1246385227.0083864     
  -2738042648.4712548       -200027777.05207396        1277426681.6236026     
  -3317034732.5986714       -581161086.65015328        1153700876.9025352     
  -3292264869.9763556       -474242019.08118474        1182097233.4469514     
  -3271198113.8701568       -379666639.89927423        1207374016.5548539     
  -3253834464.2800765       -297434949.10442150        1229531226.2262435     
  -3240173921.2061114       -227546946.69662607        1248568862.4611204     
  -3814201311.2935772       -656692764.61665154        1166999586.0766578     
  -3796699329.1435428       -539127731.38153625        1188701396.6664722     
  -3782999541.5699229       -434236680.06780100        1205475342.0988569     
  -3773101948.5727158       -342019610.67544472        1217321422.3738120     
  -3767006550.1519227       -262476523.20446754        1224239637.4913375     
  -1807884171.6343939       -167220658.35282207        1348728102.5266654     
  -1777444977.6585152       -134911929.52818513        1366902244.6600590     
  -1748109161.2219090       -106281125.83445954        1386253903.9557972     
  -1719876722.3245771       -81328247.271646559        1406783080.4138820     
  -1692747660.9665182       -60053293.839743137        1428489774.0343118     
  -2260612731.9473476       -179919014.27080524        1310813094.9787841     
  -2220476550.6580348       -135486195.16908205        1319223282.7926202     
  -2183131230.9637952       -100356248.05093551        1331117307.4674244     
  -2148576772.8646274       -74529172.916365981        1346495169.0031972     
  -2116813176.3605337       -58004969.765374064        1365356867.3999372     
  -2738042648.4712548       -200027777.05207396        1277426681.6236026     
  -2681619995.0153003       -141494022.21730173        1274104183.7194481     
  -2629675687.2102175       -97888086.218772292        1276571842.3748844     
  -2582209725.0560083       -69209969.056486964        1284829657.5899122     
  -2539222108.5526710       -55459670.730440140        1298877629.3645306     
  -3240173921.2061114       -227546946.69662607        1248568862.4611204     
  -3160875310.7303090       -152935410.67284620        1231544947.4405427     
  -3087742529.9611769       -98876640.337971091        1222617508.6781790     
  -3020775578.8987179       -65370635.692003727        1221786546.1740294     
  -2959974457.5429311       -52417396.734943748        1229052059.9280927     
  -3767006550.1519227       -262476523.20446754        1224239637.4913375     
  -3658242497.8030624       -169810360.53571105        1191545573.9559035     
  -3557331759.2166724       -103321910.40852928        1169254306.3773074     
  -3464274334.3927565       -63011172.822923064        1157365834.7555459     
  -3379070223.3313112       -48878147.778884172        1155880159.0906212     
  -1692747660.9665182       -60053293.839743137        1428489774.0343118     
  -1642989441.4632404       -38281546.470420182        1422944449.7199159     
  -1596276385.1939740       -26660343.214470148        1423681864.5286362     
  -1552608492.1587188       -25189684.071887612        1430702018.4604731     
  -1511985762.3574719       -33869569.042670310        1444004911.5154266     
  -2116813176.3605337       -58004969.765374064        1365356867.3999372     
  -2052733706.8228617       -38762151.005062699        1357077104.8128076     
  -1990463032.5917149       -25548649.933173299        1354114548.1926358     
  -1930001153.6670923       -18364466.549692869        1356469197.5394242     
  -1871348070.0489938       -17209600.854630470        1364141052.8531694     
  -2539222108.5526710       -55459670.730440140        1298877629.3645306     
  -2463580055.1410551       -39573380.427276254        1289305857.7534013     
  -2388510429.1084800       -25595181.387578487        1284085758.9530716     
  -2314013230.4549422       -13525073.611342072        1283217332.9635434     
  -2240088459.1804447       -3363057.0985683203        1286700579.7848165     
  -2959974457.5429311       -52417396.734943748        1229052059.9280927     
  -2875528486.4178214       -40715234.737061858        1219630708.5416956     
  -2790418574.7442665       -26799937.577693343        1213595496.8099411     
  -2704644722.5222645       -10671505.256834030        1210946424.7328317     
  -2618206929.7518158        7670062.2255163193        1211683492.3103623     
  -3379070223.3313112       -48878147.778884172        1155880159.0906212     
  -3288579000.6531601       -42187713.934418201        1148051657.1776915     
  -3196187469.4990778       -29162918.503512859        1142643761.7632458     
  -3101895629.8690619       -9803761.4861639738        1139656472.8472874     
  -3005703481.7631145        15889757.117624402        1139089790.4298117     
  -1511985762.3574719       -33869569.042670310        1444004911.5154266     
  -1470401135.4749856       -46048021.592479050        1444919474.9079392     
  -1428268358.5695176       -56399307.399015307        1449273292.2296467     
  -1385587431.6410754       -64923426.462302029        1457066363.4805515     
  -1342358354.6896505       -71620378.782316506        1468298688.6606503     
  -1871348070.0489938       -17209600.854630470        1364141052.8531694     
  -1817303654.3499215       -20412448.992543697        1362321223.9864223     
  -1763412056.6128521       -24124690.337129951        1364575300.8004937     
  -1709673276.8377881       -28346324.888405144        1370903283.2953835     
  -1656087315.0247240       -33077352.646348059        1381305171.4710913     
  -2240088459.1804447       -3363057.0985683203        1286700579.7848165     
  -2171770963.9458637        2953686.3910906315        1281328562.6763294     
  -2104307254.6582680        6424476.7241330147        1280665103.0002830     
  -2037697331.3176599        7049313.9005475044        1284710200.7566783     
  -1971941193.9240365        4828197.9203486443        1293463855.9455125     
  -2618206929.7518158        7670062.2255163193        1211683492.3103623     
  -2533803064.2628031        24050384.558431029        1201941490.9776564     
  -2450953952.7057633        35248193.784772754        1197542698.8290133     
  -2369659595.0806913        41263489.904554009        1198487115.8644347     
  -2289919991.3875885        42096272.917771935        1204774742.0839164     
  -3005703481.7631145        15889757.117624402        1139089790.4298117     
  -2903399955.3007536        42877645.509458303        1124160008.8904049     
  -2803352150.7553420        62346460.844787359        1115208088.2866859     
  -2705560068.1268864        74296203.123606205        1112234028.6186512     
  -2610023707.4153781        78726872.345923901        1115237829.8863018     
  -1342358354.6896505       -71620378.782316506        1468298688.6606503     
  -1290789361.4542677       -76087815.443785965        1461935832.1863997     
  -1239948161.6880047       -82981230.335652590        1459921341.5263212     
  -1189834755.3908615       -92300623.457917690        1462255216.6804130     
  -1140449142.5628393       -104045994.81058905        1468937457.6486759     
  -1656087315.0247240       -33077352.646348059        1381305171.4710913     
  -1592733749.3592615       -35576337.775694072        1373551670.8611584     
  -1529687742.7826495       -39100519.867873788        1370060602.1066296     
  -1466949295.2948797       -43649898.922866225        1370831965.2074993     
  -1404518406.8959613       -49224474.940693617        1375865760.1637754     
  -1971941193.9240365        4828197.9203486443        1293463855.9455125     
  -1897048581.4249780        4224006.6441754103        1284809984.6435506     
  -1822043293.6344945        3995399.6727510691        1280332611.2382183     
  -1746925330.5525870        4142377.0060750246        1280031735.7295215     
  -1671694692.1792536        4664938.6441507339        1283907358.1174529     
  -2289919991.3875885        42096272.917771935        1204774742.0839164     
  -2203733857.6514173        43313217.815829158        1195710773.5335734     
  -2117014814.2435479        46306528.286215425        1190737368.9210937     
  -2029762861.1639824        51076204.328914762        1189854528.2464755     
  -1941977998.4127209        57622245.943942547        1193062251.5097229     
  -2610023707.4153781        78726872.345923901        1115237829.8863018     
  -2512789578.0385761        81691295.739271998        1106254037.5312304     
  -2414602304.6098075        87832865.972507000        1101274875.1552489     
  -2315461887.1290646        97151583.045651913        1100300342.7583644     
  -2215368325.5963564        109647446.95868719        1103330440.3405719     
  -1140449142.5628393       -104045994.81058905        1468937457.6486759     
  -1098657325.6678503       -122135426.31986296        1463861505.0616693     
  -1058818542.5850708       -146734970.53649905        1466111246.8010604     
  -1020932793.3145074       -177844627.46052450        1475686682.8668427     
  -985000077.85615337       -215464397.09191337        1492587813.2590203     
  -1404518406.8959613       -49224474.940693617        1375865760.1637754     
  -1341908421.2892566       -56837436.311290145        1367410300.7221386     
  -1280370292.7575011       -68023254.598390043        1365225475.9311187     
  -1219904021.3007021       -82781929.802007794        1369311285.7907155     
  -1160509606.9188597       -101113461.92214698        1379667730.3009315     
  -1671694692.1792536        4664938.6441507339        1283907358.1174529     
  -1591280994.0773387        6624110.5472824574        1273100431.3479881     
  -1511057976.3131163        7947681.3247704506        1267509079.5533640     
  -1431025638.8865969        8635650.9765822887        1267133302.7335770     
  -1351183981.7977712        8688019.5027493834        1271973100.8886287     
  -1941977998.4127209        57622245.943942547        1193062251.5097229     
  -1846775044.0321026        68249214.255852580        1180931896.9392276     
  -1750881593.2519219        81177837.232967019        1172962057.6677961     
  -1654297646.0721843        96408114.875272989        1169152733.6954241     
  -1557023202.4928825        113940047.18279338        1169503925.0221155     
  -2215368325.5963564        109647446.95868719        1103330440.3405719     
  -2108390571.1535451        128037874.81440902        1090904697.4958520     
  -1999841143.5739133        151667213.12621129        1081584410.2744136     
  -1889720042.8574665        180535461.89405262        1075369578.6762607     
  -1778027269.0042017        214642621.11796510        1072260202.7013896     
  -985000077.85615337       -215464397.09191337        1492587813.2590203     
  -934607592.76946545       -293088535.97600824        1468507612.1980333     
  -911498755.28237247       -461658166.85874945        1449309115.5941315     
  -915673565.39484835       -721173289.74005711        1434992323.4473152     
  -947132023.10690832       -1071633904.6199732        1425557235.7575872     
  -1160509606.9188597       -101113461.92214698        1379667730.3009315     
  -1086039043.3850043       -135512393.46233913        1326461868.4071870     
  -1024072607.9403547       -211591751.96655530        1276920853.0132773     
  -974610300.58491576       -329351537.43480623        1231044684.1192024     
  -937652121.31868899       -488791749.86709476        1188833361.7249708     
  -1351183981.7977712        8688019.5027493834        1271973100.8886287     
  -1256112076.8374472        16471274.200287163        1206884350.9242253     
  -1158764780.4559667        31839166.968349397        1144243589.5024104     
  -1059142092.6533289        54791697.806939185        1084050816.6231792     
  -957244013.42952681        85328866.716066480        1026306032.2865353     
  -1557023202.4928825        113940047.18279338        1169503925.0221155     
  -1444826693.1268134        162862467.01182562        1109775059.7491488     
  -1315575272.8292158        268634589.94595325        1051277325.0615246     
  -1169268941.6000893        431256415.98517466        994010720.95922768     
  -1005907699.4394304        650727945.12950468        937975247.44227171     
  -1778027269.0042017        214642621.11796510        1072260202.7013896     
  -1652182892.2530930        303661184.97229660        1035133994.8819644     
  -1494504085.0600910        498794516.96627676        998022059.69062197     
  -1304990847.4251866        800042617.09992075        960924397.12736893     
  -1083643179.3483891        1207405485.3732328        923841007.19219518     
  -3767962031.3390822       -1130388609.4017246        800477579.19377100     
  -3778579618.8701038       -1008823873.3467836        884728392.28660917     
  -3789825361.3728609       -889352987.19762456        973898997.79803634     
  -3801699258.8473516       -771975950.95424712        1067989395.7280527     
  -3814201311.2935772       -656692764.61665154        1166999586.0766578     
  -4339613673.3506384       -1301884102.0051916        858561984.94514394     
  -4334856275.7394514       -1125858652.1296945        942107601.27526152     
  -4331244789.3108711       -953652906.19621992        1019992479.7991300     
  -4328779214.0648966       -785266864.20476806        1092216620.5167499     
  -4327459550.0015297       -620700526.15533948        1158780023.4281216     
  -4895208343.1534405       -1468562502.9460320        936120806.79820263     
  -4905306046.7567225       -1247145365.1569827        1018357177.4529151     
  -4917067417.7534847       -1031273785.3461971        1084352280.0765412     
  -4930492456.1437254       -820947763.51367462        1134106114.6690805     
  -4945581161.9274464       -616167299.65941560        1167618681.2305341     
  -5434746040.7474880       -1630423812.2242465        1033154044.7529467     
  -5489928931.9219198       -1372684012.4286489        1113477120.8195703     
  -5547293246.7007036       -1122215624.6475556        1166978398.6302693     
  -5606838985.0838375       -879018648.88096607        1193657878.1850441     
  -5668566147.0713234       -643093085.12888122        1193515559.4838948     
  -5958226766.1327820       -1787468029.8398345        1149661698.8093765     
  -6088724931.2350416       -1502474593.9446924        1227467431.3752265     
  -6221922276.1525278       -1226478424.1002955        1267870835.4603145     
  -6357818800.8852339       -959479520.30664241        1270871911.0646405     
  -6496414505.4331656       -701477882.56373501        1236470658.1882045     
  -3814201311.2935772       -656692764.61665154        1166999586.0766578     
  -3796699329.1435428       -539127731.38153625        1188701396.6664722     
  -3782999541.5699229       -434236680.06780100        1205475342.0988569     
  -3773101948.5727158       -342019610.67544472        1217321422.3738120     
  -3767006550.1519227       -262476523.20446754        1224239637.4913375     
  -4327459550.0015297       -620700526.15533948        1158780023.4281216     
  -4297132904.6553726       -465252566.93898141        1140865447.6657069     
  -4277410110.6878691       -345150778.98479772        1129001648.9082217     
  -4268291168.0990152       -260395162.29278588        1123188627.1556652     
  -4269776076.8888149       -210985716.86294770        1123426382.4080386     
  -4945581161.9274464       -616167299.65941560        1167618681.2305341     
  -4871062304.3498535       -413426149.75122213        1102152452.8466125     
  -4813948954.9531536       -268703360.44599628        1053715643.6299794     
  -4774241113.7373447       -181998931.74373579        1022308253.5806335     
  -4751938780.7024250       -153312863.64444304        1007930282.6985769     
  -5668566147.0713234       -643093085.12888122        1193515559.4838948     
  -5518487528.2269878       -383648479.81825829        1072562412.2091885     
  -5392616074.3657818       -204894424.45139766        979617326.26412952     
  -5290951785.4877014       -106830919.02829361        914680301.64871788     
  -5213494661.5927505       -89457963.548952579        877751338.36295450     
  -6496414505.4331656       -701477882.56373501        1236470658.1882045     
  -6239408576.2867737       -375919557.14009047        1052095325.7534359     
  -6013411468.9257488       -153723971.00100064        906706696.81067407     
  -5818423183.3500872       -34891124.146461010        800304771.35991764     
  -5654443719.5597963       -19421016.576479912        732889549.40116811     
  -3767006550.1519227       -262476523.20446754        1224239637.4913375     
  -3658242497.8030624       -169810360.53571105        1191545573.9559035     
  -3557331759.2166724       -103321910.40852928        1169254306.3773074     
  -3464274334.3927565       -63011172.822923064        1157365834.7555459     
  -3379070223.3313112       -48878147.778884172        1155880159.0906212     
  -4269776076.8888149       -210985716.86294770        1123426382.4080386     
  -4145322835.4186893       -146648970.92405677        1089659417.9732137     
  -4025334409.3186555       -97194942.885472775        1064095822.3048016     
  -3909810798.5887175       -62623632.747195005        1046735595.4028008     
  -3798752003.2288656       -42935040.509221077        1037578737.2672126     
  -4751938780.7024250       -153312863.64444304        1007930282.6985769     
  -4618080427.7979612       -119190757.74149728        977043665.48880446     
  -4485298391.8712091       -88656375.097588062        952160989.85502076     
  -4353592672.9221678       -61709715.712717056        933282255.79722440     
  -4222963270.9508395       -38350779.586883068        920407463.31541824     
  -5213494661.5927505       -89457963.548952579        877751338.36295450     
  -5076515274.9408760       -87435720.988028526        853698316.50267684     
  -4937223706.8743286       -77706207.044871569        833449809.02796543     
  -4795619957.3931160       -60269421.719488621        817005815.93881774     
  -4651704026.4972296       -35125365.011868477        804366337.23523545     
  -5654443719.5597963       -19421016.576479912        732889549.40116811     
  -5520627376.8474331       -51383860.663654804        719623371.01483107     
  -5381110354.3280163       -64344438.727327108        707962279.82363486     
  -5235892652.0015545       -58302750.767506838        697906275.82758117     
  -5084974269.8680401       -33258796.784183741        689455359.02666688     
  -3379070223.3313112       -48878147.778884172        1155880159.0906212     
  -3288579000.6531601       -42187713.934418201        1148051657.1776915     
  -3196187469.4990778       -29162918.503512859        1142643761.7632458     
  -3101895629.8690619       -9803761.4861639738        1139656472.8472874     
  -3005703481.7631145        15889757.117624402        1139089790.4298117     
  -3798752003.2288656       -42935040.509221077        1037578737.2672126     
  -3699093874.9516735       -32787412.727761030        1030229982.8298278     
  -3599006600.0945296       -21209296.346466541        1026714273.7539128     
  -3498490178.6574373       -8200691.3653435707        1027031610.0394716     
  -3397544610.6403975        6238402.2156062126        1031181991.6865004     
  -4222963270.9508395       -38350779.586883068        920407463.31541824     
  -4110102697.4660683       -23535295.985861540        911822100.80826318     
  -3998284139.2973323       -12193196.771623850        908482222.52556562     
  -3887507596.4446316       -4324481.9441671371        910387828.46732724     
  -3777773068.9079657        70848.496505498886        917538918.63354743     
  -4651704026.4972296       -35125365.011868477        804366337.23523545     
  -4521605468.1963520       -14431363.708733559        792828011.11299658     
  -4394020087.1074886       -2114619.7789864540        787947608.07820129     
  -4268947883.2306476        1824866.7773599625        789725128.13085222     
  -4146388856.5658207       -2612904.0396802425        798160571.27094734     
  -5084974269.8680401       -33258796.784183741        689455359.02666688     
  -4933602187.1425180       -5475615.8963670731        673247713.74402761     
  -4786214443.5249987        9026434.6314432621        665110430.41182268     
  -4642811039.0154791        10247354.799249172        665043509.03004777     
  -4503391973.6139641       -1812855.3929572105        673046949.59870458     
  -3005703481.7631145        15889757.117624402        1139089790.4298117     
  -2903399955.3007536        42877645.509458303        1124160008.8904049     
  -2803352150.7553420        62346460.844787359        1115208088.2866859     
  -2705560068.1268864        74296203.123606205        1112234028.6186512     
  -2610023707.4153781        78726872.345923901        1115237829.8863018     
  -3397544610.6403975        6238402.2156062126        1031181991.6865004     
  -3283652049.6762533        23134960.293828726        1017845610.7153367     
  -3171129272.6899862        35465571.779127479        1009774779.2668456     
  -3059976279.6816010        43230236.671485066        1006969497.3410263     
  -2950193070.6510901        46428954.970927238        1009429764.9378827     
  -3777773068.9079657        70848.496505498886        917538918.63354743     
  -3654326648.9077897        6265523.6213920116        906829532.49287593     
  -3531364074.9464207        10847378.616925001        900673384.46186483     
  -3408885347.0238533        13816413.483112574        899070474.54051375     
  -3286890465.1400971        15172628.219943762        902020802.72882175     
  -4146388856.5658207       -2612904.0396802425        798160571.27094734     
  -4015423752.9953651       -7730664.5078563690        791111774.22302341     
  -3884056557.5246434       -11508118.641811848        787903903.87174499     
  -3752287270.1536503       -13945266.441528082        788536960.21711528     
  -3620115890.8823895       -15042107.907028198        793010943.25912952     
  -4503391973.6139641       -1812855.3929572105        673046949.59870458     
  -4366943361.9389782       -18853604.093921423        670692335.90577960     
  -4229206720.4246569       -31600919.997086048        671466337.49648559     
  -4090182049.0709896       -40054803.102433920        675368954.37082851     
  -3949869347.8779821       -44215253.409986496        682400186.52880442     
  -2610023707.4153781        78726872.345923901        1115237829.8863018     
  -2512789578.0385761        81691295.739271998        1106254037.5312304     
  -2414602304.6098075        87832865.972507000        1101274875.1552489     
  -2315461887.1290646        97151583.045651913        1100300342.7583644     
  -2215368325.5963564        109647446.95868719        1103330440.3405719     
  -2950193070.6510901        46428954.970927238        1009429764.9378827     
  -2842934207.5364404        47725406.641447663        1002619327.7852421     
  -2735060481.0070896        51071403.027630806        999900510.84943116     
  -2626571891.0630436        56466944.129465580        1001273314.1304468     
  -2517468437.7043023        63912029.946965456        1006737737.6282865     
  -3286890465.1400971        15172628.219943762        902020802.72882175     
  -3169358324.7512169        14875671.228553891        896989060.03513777     
  -3051549601.5849109        15500656.828586817        896135927.79601216     
  -2933464295.6411791        17047585.020036221        899461406.01144576     
  -2815102406.9200201        19516455.802910686        906965494.68143785     
  -3620115890.8823895       -15042107.907028198        793010943.25912952     
  -3492061929.6829071       -16857910.499414682        789363234.28091526     
  -3364069666.3432684       -18879372.624618530        789981125.99499011     
  -3236139100.8634725       -21106494.282640815        794864618.40135837     
  -3108270233.2435241       -23539275.473477840        804013711.50001478     
  -3949869347.8779821       -44215253.409986496        682400186.52880442     
  -3811045022.3315148       -47475338.542461634        679741850.52257288     
  -3672620675.2821579       -52068685.331977606        681436105.44636953     
  -3534596306.7299237       -57995293.778567314        687482951.30018830     
  -3396971916.6748047       -65255163.882202148        697882388.08402777     
  -2215368325.5963564        109647446.95868719        1103330440.3405719     
  -2108390571.1535451        128037874.81440902        1090904697.4958520     
  -1999841143.5739133        151667213.12621129        1081584410.2744136     
  -1889720042.8574665        180535461.89405262        1075369578.6762607     
  -1778027269.0042017        214642621.11796510        1072260202.7013896     
  -2517468437.7043023        63912029.946965456        1006737737.6282865     
  -2403977998.3112950        74986229.771874428        997566509.54504347     
  -2289577355.3898292        89094441.358318925        991987943.80731428     
  -2174266508.9398937        106236664.70632672        990002040.41510141     
  -2058045458.9614968        126412899.81587160        991608799.36840498     
  -2815102406.9200201        19516455.802910686        906965494.68143785     
  -2693707263.3704481        23692033.358900189        900277066.81658506     
  -2572063385.9007607        28696723.981932282        897668508.01948714     
  -2450170774.5109625        34530527.671998501        899139818.29013419     
  -2328029429.2010617        41193444.429085493        904690997.62853146     
  -3108270233.2435241       -23539275.473477840        804013711.50001478     
  -2977578366.3309956       -25844714.424477935        799036369.31048191     
  -2847299235.1067133       -29525939.002961040        798626102.91092944     
  -2717432839.5706744       -34582949.208924294        802782912.30135894     
  -2587979179.7228804       -41015745.042367339        811506797.48177266     
  -3396971916.6748047       -65255163.882202148        697882388.08402777     
  -3255591307.1929455       -73624013.578286767        693844417.02673137     
  -3115284903.0076900       -85573547.596370339        694860728.48164463     
  -2976052704.1190224       -101103765.93642604        700931322.44877601     
  -2837894710.5269666       -120214668.59851050        712056198.92811906     
  -1778027269.0042017        214642621.11796510        1072260202.7013896     
  -1652182892.2530930        303661184.97229660        1035133994.8819644     
  -1494504085.0600910        498794516.96627676        998022059.69062197     
  -1304990847.4251866        800042617.09992075        960924397.12736893     
  -1083643179.3483891        1207405485.3732328        923841007.19219518     
  -2058045458.9614968        126412899.81587160        991608799.36840498     
  -1939162977.4404254        175704085.78629386        988816674.16258776     
  -1802520465.5589721        284195372.95797765        989822828.74032450     
  -1648117923.3171442        451886761.33091235        994627263.10162377     
  -1475955350.7149396        678778250.90509939        1003229977.2464892     
  -2328029429.2010617        41193444.429085493        904690997.62853146     
  -2205297393.8943696        54000687.220314145        919812821.60787523     
  -2078879728.3088315        79093364.274381280        942516932.52625275     
  -1948776432.4444287        116471475.59129250        972803330.38367057     
  -1814987506.3011835        166135021.17105782        1010672015.1801188     
  -2587979179.7228804       -41015745.042367339        811506797.48177266     
  -2450586141.6149392       -61449010.725653291        828122437.21783793     
  -2323581873.3096628       -116511509.08450484        856104371.04841232     
  -2206966374.8070583       -206203240.11891770        895452598.97348666     
  -2100739646.1071157       -330524203.82889038        946167120.99309087     
  -2837894710.5269666       -120214668.59851050        712056198.92811906     
  -2675029220.6021242       -170645008.05161512        713745520.99246228     
  -2536626900.5614696       -302619247.11867774        730585144.30679011     
  -2422687750.4050078       -516137385.79973555        762575068.87110031     
  -2333211770.1327434       -811199424.09474707        809715294.68539715     
  -5958226766.1327820       -1787468029.8398345        1149661698.8093765     
  -6088724931.2350416       -1502474593.9446924        1227467431.3752265     
  -6221922276.1525278       -1226478424.1002955        1267870835.4603145     
  -6357818800.8852339       -959479520.30664241        1270871911.0646405     
  -6496414505.4331656       -701477882.56373501        1236470658.1882045     
  -6810996965.7160959       -2043299089.7148287        1353365600.8585947     
  -6829005115.6569614       -1395591782.1913633        1202323474.6737244     
  -6898385065.6008797       -919123808.01141429        1091511256.7180004     
  -7019136815.5478544       -613895167.17498302        1020928946.9914224     
  -7191260365.4978828       -479905859.68206811        990576545.49399078     
  -8338403085.9042063       -2501520925.7712617        1711987582.7917037     
  -8022114830.0839367       -1424557829.4395509        1275312874.3036430     
  -7805870994.4545527       -681076133.74412918        956500310.75463665     
  -7689671579.0160561       -271075838.68499660        755549892.14468479     
  -7673516583.7684479       -194556944.26215506        672461618.47378647     
  -10540445126.697111       -3162133538.0091338        2225527644.6087036     
  -9668054074.5159683       -1589372735.6892557        1446435630.2649820     
  -8944380062.7135487       -512335401.29844189        862837997.57022274     
  -8369423091.2898436        68978465.163312912        474734746.52442682     
  -7943183160.2448578        154568863.69600487        282125877.12759209     
  -13417123088.094812       -4025136926.4284434        2893985786.3095946     
  -11766822848.953060       -1890036500.9404786        1715691742.5577416     
  -10313912270.377861       -412901610.67434740        810524317.16475940     
  -9058391352.3692074        406267744.36994934        178483510.13064745     
  -8000260094.9271088        567471564.19241190       -180430678.54459292     
  -6496414505.4331656       -701477882.56373501        1236470658.1882045     
  -6239408576.2867737       -375919557.14009047        1052095325.7534359     
  -6013411468.9257488       -153723971.00100064        906706696.81067407     
  -5818423183.3500872       -34891124.146461010        800304771.35991764     
  -5654443719.5597963       -19421016.576479912        732889549.40116811     
  -7191260365.4978828       -479905859.68206811        990576545.49399078     
  -6901337266.7077827       -304683923.42358065        846051872.97732985     
  -6624249861.8859262       -172247633.72590470        722554409.57885981     
  -6359998151.0323124       -82596990.589032888        620084155.29857898     
  -6108582134.1469402       -35731994.012971878        538641110.13648880     
  -7673516583.7684479       -194556944.26215506        672461618.47378647     
  -7401989156.4026861       -185065249.48924112        588989588.32854545     
  -7125124295.1880445       -157782108.55339241        508585272.92767650     
  -6842922000.1245193       -112707521.45460057        431248672.27118248     
  -6555382271.2121162       -49841488.192872524        356979786.35906273     
  -7943183160.2448578        154568863.69600487        282125877.12759209     
  -7741364245.3714809       -17063535.337067604        280908471.80707932     
  -7516034768.8320990       -110327395.48345661        264799286.85712621     
  -7267194730.6267128       -125222716.74316263        233798322.27772802     
  -6994844130.7553186       -61749499.116184235        187905578.06888887     
  -8000260094.9271088        567471564.19241190       -180430678.54459292     
  -7919462533.6141653        199321219.03293896       -78191476.587062970     
  -7796981282.8180914       -29883494.516107082       -8803548.6327938456     
  -7632816342.5388880       -120142576.45472002        27733105.318218231     
  -7426967712.7765570       -71456026.782903194        31418485.265970077     
  -5654443719.5597963       -19421016.576479912        732889549.40116811     
  -5520627376.8474331       -51383860.663654804        719623371.01483107     
  -5381110354.3280163       -64344438.727327108        707962279.82363486     
  -5235892652.0015545       -58302750.767506838        697906275.82758117     
  -5084974269.8680401       -33258796.784183741        689455359.02666688     
  -6108582134.1469402       -35731994.012971878        538641110.13648880     
  -5960607004.4506493       -37666943.014730692        532298333.71195489     
  -5811511134.2505789       -35866090.337214231        528312330.44481909     
  -5661294523.5467234       -30329435.980420113        526683100.33508140     
  -5509957172.3390827       -21056979.944349527        527410643.38274145     
  -6555382271.2121162       -49841488.192872524        356979786.35906273     
  -6391100680.3540249       -21104239.855858803        352217149.37585372     
  -6230278288.2954159       -3897654.1837823391        350562971.51230109     
  -6072915095.0362902        1778268.8233456612        352017252.76840264     
  -5919011100.5766478       -4076470.8344724178        356579993.14415848     
  -6994844130.7553186       -61749499.116184235        187905578.06888887     
  -6812108404.5575504       -1695751.1870236397        179379818.00653145     
  -6637411816.4625311        31560869.732966423        174714203.02607989     
  -6470754366.4702587        38020363.643791914        173908733.12754408     
  -6312136054.5807428        17682730.545442581        176963408.31091699     
  -7426967712.7765570       -71456026.782903194        31418485.265970077     
  -7223630177.0612316        20558522.991756439        13786339.603979586     
  -7032911718.7519226        70509481.413027287        766024.98615434603     
  -6854812337.8486290        78396848.480914593       -7642458.5874965545     
  -6689332034.3513546        44220624.195405960       -11439111.116980841     
  -5084974269.8680401       -33258796.784183741        689455359.02666688     
  -4933602187.1425180       -5475615.8963670731        673247713.74402761     
  -4786214443.5249987        9026434.6314432621        665110430.41182268     
  -4642811039.0154791        10247354.799249172        665043509.03004777     
  -4503391973.6139641       -1812855.3929572105        673046949.59870458     
  -5509957172.3390827       -21056979.944349527        527410643.38274145     
  -5345189686.8452272       -8104491.5201263428        512458891.95132345     
  -5181773056.9525433        345144.90017557144        503163402.03671753     
  -5019707282.6610394        4291929.3165504932        499524173.63892049     
  -4858992363.9707108        3735861.7290103436        501541206.75793427     
  -5919011100.5766478       -4076470.8344724178        356579993.14415848     
  -5747745642.1248016       -8023903.8169517517        345956532.98859066     
  -5575197555.7673025       -7695910.4472579956        338575233.91621190     
  -5401366841.5041533       -3092490.7254056931        334436095.92702347     
  -5226253499.3353558        5786355.3486168385        333539119.02102542     
  -6312136054.5807428        17682730.545442581        176963408.31091699     
  -6141270052.9812450       -5233852.7868349552        173740636.85582530     
  -5966487939.9692726       -15096731.410853148        171345926.05030838     
  -5787789715.5448246       -11905905.326629162        169779275.89435700     
  -5605175379.7079029        4338625.4658522606        169040686.38797629     
  -6689332034.3513546        44220624.195405960       -11439111.116980841     
  -6525762919.4145565        265661.57022237778       -4188796.4469631361     
  -6355644209.5584517       -21857317.990607262        1475478.4390059684     
  -6178975904.7830534       -22148314.487122297        5553713.5409219097     
  -5995758005.0883503       -607327.91929316521        8045908.8587900512     
  -4503391973.6139641       -1812855.3929572105        673046949.59870458     
  -4366943361.9389782       -18853604.093921423        670692335.90577960     
  -4229206720.4246569       -31600919.997086048        671466337.49648559     
  -4090182049.0709896       -40054803.102433920        675368954.37082851     
  -3949869347.8779821       -44215253.409986496        682400186.52880442     
  -4858992363.9707108        3735861.7290103436        501541206.75793427     
  -4710239466.7653503       -2170900.3424274921        496286067.44702846     
  -4561297530.2478800       -7447531.3734993935        494797766.34596503     
  -4412166554.4182949       -12094031.364198923        497076303.45474333     
  -4262846539.2766056       -16110400.314517260        503121678.77336270     
  -5226253499.3353558        5786355.3486168385        333539119.02102542     
  -5063372822.5247412        11560628.129158497        324101298.47703934     
  -4901402096.9292469        14301730.192637205        319068539.06910449     
  -4740341322.5488644        14009661.539067745        318440840.79721850     
  -4580190499.3836040        10684422.168432951        322218203.66137964     
  -5605175379.7079029        4338625.4658522606        169040686.38797629     
  -5426343429.2171535        22340981.320839167        154138028.99580973     
  -5249520420.4687519        33646864.701334476        144278655.66589683     
  -5074706353.4626923        38256275.607347727        139462566.39825153     
  -4901901228.1989832        36169214.038875818        139689761.19285569     
  -5995758005.0883503       -607327.91929316521        8045908.8587900512     
  -5799151286.8425856        30170159.232607365       -13603740.996660464     
  -5605652500.8663979        50587872.152582169       -29571883.863641817     
  -5415261647.1597786        60645810.840662956       -39858519.742158085     
  -5227978725.7227421        60343975.296797514       -44463648.632210478     
  -3949869347.8779821       -44215253.409986496        682400186.52880442     
  -3811045022.3315148       -47475338.542461634        679741850.52257288     
  -3672620675.2821579       -52068685.331977606        681436105.44636953     
  -3534596306.7299237       -57995293.778567314        687482951.30018830     
  -3396971916.6748047       -65255163.882202148        697882388.08402777     
  -4262846539.2766056       -16110400.314517260        503121678.77336270     
  -4112912460.3777986       -19187395.641002655        498781089.41606992     
  -3962669516.7273388       -21234841.795328140        498591621.75224769     
  -3812117708.3252292       -22252738.777469397        502553275.78189480     
  -3661257035.1714764       -22241086.587468863        510666051.50501180     
  -4580190499.3836040        10684422.168432951        322218203.66137964     
  -4419722293.5226088        7617828.7308886051        317022344.74324757     
  -4258236379.6612024        7943595.2947235107        315776138.28203332     
  -4095732757.7993746        11661721.859960079        318479584.27773565     
  -3932211427.9371319        18772208.426568985        325132682.73035759     
  -4901901228.1989832        36169214.038875818        139689761.19285569     
  -4731474521.7659492        32940334.573232174        134465616.50411302     
  -4559321264.0837374        35466625.938193321        132989655.03573555     
  -4385441455.1523476        43748088.133742571        135261876.78771985     
  -4209835094.9717731        57784721.159911633        141282281.76007098     
  -5227978725.7227421        60343975.296797514       -44463648.632210478     
  -5048169145.1078253        56780121.885998487       -48889095.301336303     
  -4865924169.9949694        61334250.135013103       -49767827.986656398     
  -4681243800.3841429        74006360.043906689       -47099846.688161403     
  -4494128036.2753954        94796451.612559795       -40885151.405851863     
  -3396971916.6748047       -65255163.882202148        697882388.08402777     
  -3255591307.1929455       -73624013.578286767        693844417.02673137     
  -3115284903.0076900       -85573547.596370339        694860728.48164463     
  -2976052704.1190224       -101103765.93642604        700931322.44877601     
  -2837894710.5269666       -120214668.59851050        712056198.92811906     
  -3661257035.1714764       -22241086.587468863        510666051.50501180     
  -3505702121.2912288       -22410092.629173279        502327153.71541524     
  -3351503718.6129570       -27100802.677475929        497945012.87674630     
  -3198661827.1366792       -36313216.732407689        497519628.98899281     
  -3047176446.8623662       -50047334.793899298        501051002.05215740     
  -3932211427.9371319        18772208.426568985        325132682.73035759     
  -3765617996.9764786        25862309.843837023        312163501.31885737     
  -3600663383.1231880        27489687.569899082        302053551.29698616     
  -3437347586.3772535        23654341.604758263        294802832.66474217     
  -3275670606.7386827        14356271.948431969        290411345.42212033     
  -4209835094.9717731        57784721.159911633        141282281.76007098     
  -4035338934.2486935        71193193.840770960        123353459.83705230     
  -3862763896.5383625        78197923.145792484        107186343.74236901     
  -3692109981.8407669        78798909.075034857        92780933.476016700     
  -3523377190.1559124        72996151.628474951        80137229.038002849     
  -4494128036.2753954        94796451.612559795       -40885151.405851863     
  -4314864933.1078691        113582559.36160684       -64102970.729995601     
  -4137805258.8584776        125023904.05022597       -86656609.787108332     
  -3962949013.5271988        129120485.67844748       -108546068.57717019     
  -3790296197.1140461        125872304.24627328       -129771347.10019720     
  -2837894710.5269666       -120214668.59851050        712056198.92811906     
  -2675029220.6021242       -170645008.05161512        713745520.99246228     
  -2536626900.5614696       -302619247.11867774        730585144.30679011     
  -2422687750.4050078       -516137385.79973555        762575068.87110031     
  -2333211770.1327434       -811199424.09474707        809715294.68539715     
  -3047176446.8623662       -50047334.793899298        501051002.05215740     
  -2850551015.6153116       -54541548.640554309        473416402.92025870     
  -2655405629.9203181       -63969247.660747886        446000043.80012614     
  -2461740289.7773762       -78330431.854468107        418801924.69176614     
  -2269554995.1865110       -97625101.221742272        391822045.59517103     
  -3275670606.7386827        14356271.948431969        290411345.42212033     
  -3087948266.2785993        42999274.075475216        260266470.14812919     
  -2878722847.0384445        143319205.46941233        215407773.64769164     
  -2647994349.0182228        315316066.13025117        155835255.92080525     
  -2395762772.2179370        558989856.05795825        81548916.967472553     
  -3523377190.1559124        72996151.628474951        80137229.038002849     
  -3387220972.5919852        121977460.09646583        74295722.676065907     
  -3206578551.9158664        319246112.27176714        38808333.849471219     
  -2981449928.1275477        664802108.15441239       -26324937.441789951     
  -2711835101.2270374        1158645447.7443461       -121104091.19771260     
  -3790296197.1140461        125872304.24627328       -129771347.10019720     
  -3748369134.5554771        182393009.42243791       -84495839.495923012     
  -3638972744.5525751        463811472.74636078       -83798275.594520375     
  -3462107027.1053472        970127694.21804595       -127678655.39600161     
  -3217771982.2138000        1701341673.8374627       -216136978.90036684     
 </DataArray>
 <DataArray  type="Float64" Name="VM" NumberOfComponents="1" format="ascii">
   12936020363.061884     
   11341138730.607431     
   10210753746.456083     
   9273360161.1394062     
   8304442868.4674425     
   10130582254.986650     
   9322433256.3523521     
   8826968219.3366890     
   8444254265.5719118     
   8036454695.4475279     
   7982517623.2373447     
   7735308244.9681253     
   7669665753.7093487     
   7670242098.1826487     
   7667097697.7965698     
   6491736461.3286190     
   6587050104.7679100     
   6757679010.1687679     
   6961538801.4027719     
   7171968555.6834593     
   5657785287.4591208     
   5890829785.2126989     
   6116208144.8361864     
   6331477723.3689585     
   6536433325.3429995     
   8304442868.4674425     
   8022124058.5674601     
   7782097506.5952301     
   7573612130.7129869     
   7391699068.8800430     
   8036454695.4475279     
   7748138176.6721611     
   7475565679.0830402     
   7216769850.5984201     
   6971775584.9956770     
   7667097697.7965698     
   7382043609.2542791     
   7102397568.1351452     
   6828247356.0234699     
   6559809035.9009428     
   7171968555.6834593     
   6911293161.0320110     
   6658498234.3014355     
   6409726601.9079876     
   6161832793.6603804     
   6536433325.3429995     
   6328248802.4568892     
   6142205968.6352787     
   5964370677.7442503     
   5785730479.1665983     
   7391699068.8800430     
   7233970759.1663456     
   7068430345.8907766     
   6894357777.8876657     
   6711580852.7676029     
   6971775584.9956770     
   6818343164.2862644     
   6660126827.5284052     
   6496834675.3733912     
   6328423042.1918573     
   6559809035.9009428     
   6409672747.5948315     
   6257857657.3007355     
   6104330317.5131960     
   5949119953.5886869     
   6161832793.6603804     
   6012966103.2221050     
   5865479827.3882427     
   5719410541.6475163     
   5574812492.8911600     
   5785730479.1665983     
   5634702225.3081417     
   5487975590.8747158     
   5345458224.2751198     
   5207206103.9813433     
   6711580852.7676029     
   6525899788.7447157     
   6344744303.5564775     
   6167939075.0760508     
   5995470562.8176546     
   6328423042.1918573     
   6146026374.0486870     
   5966339755.4116564     
   5789319277.0767679     
   5614984675.0745745     
   5949119953.5886869     
   5774909762.1991711     
   5602131769.7270985     
   5430802165.5215626     
   5260964277.4405136     
   5574812492.8911600     
   5414392003.6089420     
   5254719861.2971325     
   5095841152.8208570     
   4937874444.0224857     
   5207206103.9813433     
   5066876103.8931627     
   4927296243.4037313     
   4788551396.9433718     
   4650952067.8021145     
   5995470562.8176546     
   5814342818.4647675     
   5631349805.3867054     
   5446275394.3644972     
   5258974332.1037579     
   5614984675.0745745     
   5444098418.0190525     
   5272350108.7984715     
   5099666353.7946396     
   4926031006.8130779     
   5260964277.4405136     
   5100150853.6411905     
   4939580933.7316675     
   4779294553.3524866     
   4619379783.8392582     
   4937874444.0224857     
   4786965080.0933895     
   4637455630.0121269     
   4489460285.9999352     
   4343136918.0425634     
   4650952067.8021145     
   4509734115.2678175     
   4371057356.1979647     
   4235059837.8274097     
   4101924967.7245998     
   5258974332.1037579     
   5077503499.0635195     
   4897638024.4824181     
   4719387399.7873783     
   4542820193.3607674     
   4926031006.8130779     
   4753739115.7718773     
   4582950005.6680355     
   4413700561.4662848     
   4246080166.4218483     
   4619379783.8392582     
   4457485993.9188490     
   4297162970.0048876     
   4138503818.8169732     
   3981656588.5792975     
   4343136918.0425634     
   4193309996.7991171     
   4045347301.8115125     
   3899434055.2695603     
   3755823062.5248442     
   4101924967.7245998     
   3966299835.9498663     
   3833104585.6690798     
   3702653509.0799823     
   3575349772.4814854     
   4542820193.3607674     
   4374172070.2337971     
   4204392456.0965166     
   4033445367.1500497     
   3861321548.7754126     
   4246080166.4218483     
   4077004494.5540175     
   3906864041.9124880     
   3735591582.6759210     
   3563141043.4680185     
   3981656588.5792975     
   3817102760.7717843     
   3652153148.7167110     
   3486825527.3972335     
   3321184526.8633385     
   3755823062.5248442     
   3601233703.6609974     
   3447655856.3683624     
   3295326960.8928504     
   3144589367.3798280     
   3575349772.4814854     
   3436403033.8273687     
   3300641028.5382581     
   3168617318.3157406     
   3041054667.2199726     
   3861321548.7754126     
   3845599204.4534202     
   3894368677.1566920     
   4041648696.3219810     
   4343189517.9859829     
   3563141043.4680185     
   3452226602.4627419     
   3378205144.8697262     
   3363801217.3890557     
   3447109339.2704244     
   3321184526.8633385     
   3142175809.3658857     
   2976468266.4807458     
   2831802822.8718514     
   2722371492.8361902     
   3144589367.3798280     
   2940325091.2104750     
   2735352787.9042420     
   2529754294.7728615     
   2323664869.5863833     
   3041054667.2199726     
   2873450654.2628794     
   2712874167.1873479     
   2574866246.5889034     
   2485183734.9191675     
   5657785287.4591208     
   5890829785.2126989     
   6116208144.8361864     
   6331477723.3689585     
   6536433325.3429995     
   5151313309.8588705     
   5311039191.7053146     
   5467365623.7794647     
   5617406745.8999243     
   5759707749.3209000     
   4643251837.3953209     
   4755094457.0288744     
   4868027781.6926479     
   4979420083.9336472     
   5087349991.2166128     
   4133867564.9926562     
   4223837282.5168638     
   4319697337.3035975     
   4419789371.7629108     
   4522657659.8020840     
   3624685914.9287887     
   3719099514.8677540     
   3824744471.6618738     
   3941553979.2540822     
   4069432728.0469003     
   6536433325.3429995     
   6328248802.4568892     
   6142205968.6352787     
   5964370677.7442503     
   5785730479.1665983     
   5759707749.3209000     
   5651097396.5235968     
   5558446113.5637426     
   5472683670.5137968     
   5388272722.1680040     
   5087349991.2166128     
   5052580004.9001179     
   5028293124.4288330     
   5009285131.8854895     
   4992360566.5743551     
   4522657659.8020840     
   4537320899.4473047     
   4556637910.9107332     
   4578136175.1872196     
   4600097983.7068815     
   4069432728.0469003     
   4110682624.7820530     
   4149270088.2018118     
   4184305821.0533137     
   4215064597.4519477     
   5785730479.1665983     
   5634702225.3081417     
   5487975590.8747158     
   5345458224.2751198     
   5207206103.9813433     
   5388272722.1680040     
   5246063858.5149860     
   5107100841.0908031     
   4971425292.0924768     
   4839132870.5232239     
   4992360566.5743551     
   4863566976.4688072     
   4737926019.1674728     
   4615405245.5472775     
   4496041071.8069973     
   4600097983.7068815     
   4489919034.7990379     
   4383882020.1248007     
   4281665780.5973353     
   4183176965.8435082     
   4215064597.4519477     
   4129129304.8297110     
   4049592725.8045611     
   3975596320.7751188     
   3906855356.4563284     
   5207206103.9813433     
   5066876103.8931627     
   4927296243.4037313     
   4788551396.9433718     
   4650952067.8021145     
   4839132870.5232239     
   4718643882.6615934     
   4600077129.6512060     
   4483604235.2449684     
   4369541639.1669998     
   4496041071.8069973     
   4392154849.9576921     
   4291117884.2388978     
   4193130159.3569984     
   4098471665.9264979     
   4183176965.8435082     
   4092335303.1548815     
   4004921039.1910820     
   3921121333.4421005     
   3841165504.2848225     
   3906855356.4563284     
   3825161674.1078658     
   3747020009.5876265     
   3672586688.7544799     
   3602060860.7587323     
   4650952067.8021145     
   4509734115.2678175     
   4371057356.1979647     
   4235059837.8274097     
   4101924967.7245998     
   4369541639.1669998     
   4239129544.4949770     
   4111411835.4253020     
   3986589921.6689196     
   3864920469.9386301     
   4098471665.9264979     
   3980459543.3170958     
   3865565103.9915018     
   3754034087.8853774     
   3646186296.0634198     
   3841165504.2848225     
   3737231893.0405865     
   3637130723.1432014     
   3541125512.6483169     
   3449581793.0791993     
   3602060860.7587323     
   3513867942.8964491     
   3430527173.8085012     
   3352280068.7108188     
   3279507118.4985800     
   4101924967.7245998     
   3966299835.9498663     
   3833104585.6690798     
   3702653509.0799823     
   3575349772.4814854     
   3864920469.9386301     
   3742351508.3290257     
   3622984983.8195620     
   3507159467.7381506     
   3395297585.7936950     
   3646186296.0634198     
   3536377801.0883946     
   3430550261.4446421     
   3329054576.4952202     
   3232318446.7044206     
   3449581793.0791993     
   3352009752.8137951     
   3259179439.5733747     
   3171439370.6814899     
   3089205602.0438824     
   3279507118.4985800     
   3193344950.2360897     
   3112638657.8918452     
   3037718802.6588340     
   2968973402.8589573     
   3575349772.4814854     
   3436403033.8273687     
   3300641028.5382581     
   3168617318.3157406     
   3041054667.2199726     
   3395297585.7936950     
   3271859350.7109137     
   3152352537.9384704     
   3037275361.2336769     
   2927251356.7301011     
   3232318446.7044206     
   3122808986.3486004     
   3017875021.1184874     
   2917960270.9089079     
   2823599636.3176150     
   3089205602.0438824     
   2991724461.4167299     
   2899346680.4391665     
   2812475786.5356874     
   2731585415.5373564     
   2968973402.8589573     
   2881297892.3474102     
   2799134224.0429330     
   2722876343.3403645     
   2652982980.4188151     
   3041054667.2199726     
   2873450654.2628794     
   2712874167.1873479     
   2574866246.5889034     
   2485183734.9191675     
   2927251356.7301011     
   2813524950.7142668     
   2709359279.0207601     
   2619855492.0384388     
   2552196048.0253925     
   2823599636.3176150     
   2742901228.0363331     
   2675338632.0291653     
   2622462777.9929972     
   2586056311.9899764     
   2731585415.5373564     
   2658047987.5563650     
   2604104977.2113733     
   2575481935.4804773     
   2580783151.4317355     
   2652982980.4188151     
   2556976615.7456970     
   2493177286.7946997     
   2481379596.8846231     
   2549696826.9684196     
   3624685914.9287887     
   3719099514.8677540     
   3824744471.6618738     
   3941553979.2540822     
   4069432728.0469003     
   3137677238.1348982     
   3254951040.4288235     
   3381638942.9636784     
   3517272662.4070563     
   3661394987.8704958     
   2694501825.1749897     
   2830062142.1869650     
   2972948802.2467055     
   3122083243.4621205     
   3276557068.1688504     
   2298660205.6170869     
   2449232332.1718822     
   2604557279.1127520     
   2762718789.8858705     
   2922291366.1497674     
   1955376939.3704913     
   2119420639.7280207     
   2284865071.2651095     
   2448760014.3822265     
   2609154240.6127148     
   4069432728.0469003     
   4110682624.7820530     
   4149270088.2018118     
   4184305821.0533137     
   4215064597.4519477     
   3661394987.8704958     
   3700627613.8183904     
   3738472296.2057619     
   3774035411.9944839     
   3806571368.5103917     
   3276557068.1688504     
   3319688868.5288606     
   3363065248.2775288     
   3405865620.1692533     
   3447413647.1950660     
   2922291366.1497674     
   2975243455.0191712     
   3030433401.6627626     
   3087179417.2043657     
   3144949359.5901470     
   2609154240.6127148     
   2677309444.4509873     
   2750000683.0205898     
   2826718645.2834358     
   2907111080.2750044     
   4215064597.4519477     
   4129129304.8297110     
   4049592725.8045611     
   3975596320.7751188     
   3906855356.4563284     
   3806571368.5103917     
   3752495313.6551800     
   3704457535.3700113     
   3661990646.0124297     
   3625017119.3548474     
   3447413647.1950660     
   3420774411.1614738     
   3399451336.0039215     
   3383229844.2716742     
   3372113515.5663323     
   3144949359.5901470     
   3141509018.8274641     
   3142079303.9612603     
   3146577954.3974757     
   3155007931.7200928     
   2907111080.2750044     
   2922837421.1331720     
   2940491450.8857331     
   2960039117.7313447     
   2981458549.5202551     
   3906855356.4563284     
   3825161674.1078658     
   3747020009.5876265     
   3672586688.7544799     
   3602060860.7587323     
   3625017119.3548474     
   3551864465.7979550     
   3482931682.0848989     
   3418410164.4615989     
   3358523309.2612271     
   3372113515.5663323     
   3310623708.1706691     
   3254401870.7659841     
   3203667137.9912744     
   3158681563.0130711     
   3155007931.7200928     
   3108154534.9789376     
   3067999480.0065937     
   3034769237.1274605     
   3008766700.5701089     
   2981458549.5202551     
   2951659928.8337369     
   2930334786.2311287     
   2917677627.7844810     
   2914015846.1065822     
   3602060860.7587323     
   3513867942.8964491     
   3430527173.8085012     
   3352280068.7108188     
   3279507118.4985800     
   3358523309.2612271     
   3288717891.5464163     
   3224458863.5289617     
   3166051768.8096375     
   3113896161.4586506     
   3158681563.0130711     
   3106190791.6073022     
   3059735068.7682209     
   3019613448.6305227     
   2986175237.6317658     
   3008766700.5701089     
   2972149219.1001077     
   2941744307.9308486     
   2917781814.1514244     
   2900508964.8363376     
   2914015846.1065822     
   2891343586.2654495     
   2874675160.0774517     
   2864129478.2746377     
   2859828375.7165895     
   3279507118.4985800     
   3193344950.2360897     
   3112638657.8918452     
   3037718802.6588340     
   2968973402.8589573     
   3113896161.4586506     
   3040220802.2510138     
   2972455900.6748333     
   2910924258.8918977     
   2855992405.8829155     
   2986175237.6317658     
   2925582745.9379697     
   2871392050.8289652     
   2823906059.0538535     
   2783457844.5843229     
   2900508964.8363376     
   2853302545.9077559     
   2812980628.5327950     
   2779811898.1088195     
   2754083892.5147223     
   2859828375.7165895     
   2825859572.4899912     
   2799209866.0646157     
   2780103345.5554018     
   2768776336.7903161     
   2968973402.8589573     
   2881297892.3474102     
   2799134224.0429330     
   2722876343.3403645     
   2652982980.4188151     
   2855992405.8829155     
   2779402347.5805402     
   2709580954.7136178     
   2646929786.3248487     
   2591896830.3523173     
   2783457844.5843229     
   2721233916.3429136     
   2667415711.8949037     
   2622431545.2875142     
   2586746885.6920462     
   2754083892.5147223     
   2708710182.9650555     
   2673649581.9776473     
   2649353287.4869242     
   2636306594.7654657     
   2768776336.7903161     
   2741614762.5431676     
   2726849592.3036680     
   2724943780.6603780     
   2736397765.5527673     
   2652982980.4188151     
   2556976615.7456970     
   2493177286.7946997     
   2481379596.8846231     
   2549696826.9684196     
   2591896830.3523173     
   2458487025.0899138     
   2339201556.0369701     
   2240892376.8926024     
   2174686673.2328095     
   2586746885.6920462     
   2443048941.3732367     
   2304023402.4405127     
   2169865164.1814346     
   2040879688.3931413     
   2636306594.7654657     
   2515785349.1533518     
   2401747500.7419872     
   2298643366.9423618     
   2213541633.4223189     
   2736397765.5527673     
   2674885657.5875750     
   2631472617.3815084     
   2622174401.0941448     
   2669666613.3674059     
   1955376939.3704913     
   2119420639.7280207     
   2284865071.2651095     
   2448760014.3822265     
   2609154240.6127148     
   1654157867.8137448     
   1820673846.1211619     
   1988908709.1438229     
   2156175205.3912482     
   2320721812.0831952     
   1394327014.7420824     
   1571794763.6100600     
   1750267503.7199311     
   1927749096.5240676     
   2102994298.3193543     
   1208125396.5836046     
   1400139860.8175726     
   1591715856.5174844     
   1782080117.0444384     
   1970776261.6307628     
   1138054623.9898434     
   1336437459.2138283     
   1535093601.2367661     
   1734023050.0586545     
   1933225805.6794953     
   2609154240.6127148     
   2677309444.4509873     
   2750000683.0205898     
   2826718645.2834358     
   2907111080.2750044     
   2320721812.0831952     
   2408049360.3172216     
   2497851755.7615767     
   2589738802.4671550     
   2683435313.7681613     
   2102994298.3193543     
   2207067443.8740106     
   2311089404.7613616     
   2414823589.0561481     
   2518103215.0808692     
   1970776261.6307628     
   2088264891.3684700     
   2202947421.9494429     
   2314748689.5538845     
   2423616528.3334451     
   1933225805.6794953     
   2060193068.3553181     
   2181791717.3141503     
   2298021752.5559931     
   2408883174.0808434     
   2907111080.2750044     
   2922837421.1331720     
   2940491450.8857331     
   2960039117.7313447     
   2981458549.5202551     
   2683435313.7681613     
   2705953906.2431684     
   2731147124.6960492     
   2759007254.0311747     
   2789533805.7008815     
   2518103215.0808692     
   2546942764.9301291     
   2579203407.5967188     
   2614888691.3992062     
   2654005240.5492396     
   2423616528.3334451     
   2457047754.0837445     
   2494632553.7717290     
   2536373858.5204210     
   2582275258.5347238     
   2408883174.0808434     
   2443905626.5645676     
   2483798967.6479888     
   2528563197.3311033     
   2578198315.6139131     
   2981458549.5202551     
   2951659928.8337369     
   2930334786.2311287     
   2917677627.7844810     
   2914015846.1065822     
   2789533805.7008815     
   2775622190.1958079     
   2769474924.7046828     
   2771202607.2778997     
   2780986845.2309618     
   2654005240.5492396     
   2651715205.7830224     
   2656105558.9487643     
   2667220455.9313297     
   2685133660.0893979     
   2582275258.5347238     
   2587181513.5647326     
   2597330595.0493670     
   2612731103.2645350     
   2633398551.0885181     
   2578198315.6139131     
   2586211967.1613126     
   2597741832.3190188     
   2612787911.0870285     
   2631350203.4653468     
   2914015846.1065822     
   2891343586.2654495     
   2874675160.0774517     
   2864129478.2746377     
   2859828375.7165895     
   2780986845.2309618     
   2762273665.4404030     
   2750282687.4610600     
   2745102259.7015748     
   2746822490.0982862     
   2685133660.0893979     
   2668740910.7768321     
   2659844999.6167960     
   2658495542.3930426     
   2664743068.3179631     
   2633398551.0885181     
   2616945675.5900679     
   2608798129.4612908     
   2608970854.1906652     
   2617479117.3294573     
   2631350203.4653468     
   2611827324.6128712     
   2601415713.4857802     
   2600115370.0840755     
   2607926294.4077497     
   2859828375.7165895     
   2825859572.4899912     
   2799209866.0646157     
   2780103345.5554018     
   2768776336.7903161     
   2746822490.0982862     
   2721532484.1257310     
   2704312584.4740934     
   2695312486.1271763     
   2694686821.5565181     
   2664743068.3179631     
   2646058656.9661665     
   2636147989.4397368     
   2635087975.0273457     
   2642956697.2912264     
   2617479117.3294573     
   2602559581.1145968     
   2597083109.9152870     
   2601071319.2005363     
   2614545901.0722370     
   2607926294.4077497     
   2593275376.1877656     
   2588716226.3085546     
   2594248844.7701187     
   2609873231.5724559     
   2768776336.7903161     
   2741614762.5431676     
   2726849592.3036680     
   2724943780.6603780     
   2736397765.5527673     
   2694686821.5565181     
   2679553361.8266535     
   2674558951.6010685     
   2679930254.2986808     
   2695912752.7590852     
   2642956697.2912264     
   2635369047.9662824     
   2635596468.3758631     
   2643725572.8577318     
   2659851198.5317526     
   2614545901.0722370     
   2610615962.4941750     
   2612129343.9597573     
   2619104624.9434476     
   2631562523.4660816     
   2609873231.5724559     
   2606539145.4972024     
   2606244487.5347285     
   2608989257.6850390     
   2614773455.9481292     
   2736397765.5527673     
   2674885657.5875750     
   2631472617.3815084     
   2622174401.0941448     
   2669666613.3674059     
   2695912752.7590852     
   2680590508.2601185     
   2681426980.7902813     
   2706887572.5016379     
   2768694793.7230139     
   2659851198.5317526     
   2677467221.0637388     
   2710114647.7489910     
   2761393140.1354837     
   2836205040.6868820     
   2631562523.4660816     
   2666906596.7503700     
   2717160151.7006240     
   2783203399.4211512     
   2866221779.0014358     
   2614773455.9481292     
   2650939349.0619030     
   2703191618.3420234     
   2771530263.7885008     
   2855955285.4013386     
   1138054623.9898434     
   1336437459.2138283     
   1535093601.2367661     
   1734023050.0586545     
   1933225805.6794953     
   1208125396.4462388     
   1400139860.6765921     
   1591715856.3697650     
   1782080116.8869796     
   1970776261.4607146     
   1394327014.5192115     
   1571794763.3745434     
   1750267503.4674325     
   1927749096.2498040     
   2102994298.0184410     
   1654157867.5585096     
   1820673845.8455379     
   1988908708.8424325     
   2156175205.0578699     
   2320721811.7113075     
   1955376939.1207912     
   2119420639.4564502     
   2284865070.9649110     
   2448760014.0457282     
   2609154240.2319517     
   1933225805.6794953     
   2060193068.3553181     
   2181791717.3141503     
   2298021752.5559931     
   2408883174.0808434     
   1970776261.4607146     
   2088264891.1711824     
   2202947421.7211924     
   2314748689.2909570     
   2423616528.0321188     
   2102994298.0184410     
   2207067443.5236425     
   2311089404.3543911     
   2414823588.5853906     
   2518103214.5390878     
   2320721811.7113075     
   2408049359.8826947     
   2497851755.2538962     
   2589738801.8756480     
   2683435313.0819597     
   2609154240.2319517     
   2677309444.0059266     
   2750000682.4973903     
   2826718644.6678262     
   2907111079.5522275     
   2408883174.0808434     
   2443905626.5645676     
   2483798967.6479888     
   2528563197.3311033     
   2578198315.6139131     
   2423616528.0321188     
   2457047753.7062011     
   2494632553.3084087     
   2536373857.9617500     
   2582275257.8711152     
   2518103214.5390878     
   2546942764.2520614     
   2579203406.7630210     
   2614888690.3903670     
   2654005239.3455834     
   2683435313.0819597     
   2705953905.3865700     
   2731147123.6400771     
   2759007252.7463608     
   2789533804.1572638     
   2907111079.5522275     
   2922837420.2368031     
   2940491449.7781615     
   2960039116.3740654     
   2981458547.8738184     
   2578198315.6139131     
   2586211967.1613126     
   2597741832.3190188     
   2612787911.0870285     
   2631350203.4653468     
   2582275257.8711152     
   2587181512.9251628     
   2597330594.4263444     
   2612731102.6499958     
   2633398550.4728160     
   2654005239.3455834     
   2651715204.6079783     
   2656105557.7851133     
   2667220454.7609644     
   2685133658.8916955     
   2789533804.1572638     
   2775622188.6752200     
   2769474923.1773505     
   2771202605.7128272     
   2780986843.5941463     
   2981458547.8738184     
   2951659927.2057438     
   2930334784.5761633     
   2917677626.0551505     
   2914015844.2519088     
   2631350203.4653468     
   2611827324.6128712     
   2601415713.4857802     
   2600115370.0840755     
   2607926294.4077497     
   2633398550.4728160     
   2616945675.1273699     
   2608798129.2007771     
   2608970854.1796002     
   2617479117.6135001     
   2685133658.8916955     
   2668740909.8053045     
   2659844998.9685040     
   2658495542.1630402     
   2664743068.5997572     
   2780986843.5941463     
   2762273663.9880810     
   2750282686.3360462     
   2745102259.0468230     
   2746822490.0574274     
   2914015844.2519088     
   2891343584.4201317     
   2874675158.4262838     
   2864129477.0068259     
   2859828375.0262537     
   2607926294.4077497     
   2593275376.1877656     
   2588716226.3085546     
   2594248844.7701187     
   2609873231.5724559     
   2617479117.6135001     
   2602559581.5018272     
   2597083110.4601808     
   2601071319.9571595     
   2614545902.0952573     
   2664743068.5997572     
   2646058657.4540052     
   2636147990.2508664     
   2635087976.2790322     
   2642956699.1022344     
   2746822490.0574274     
   2721532484.3492060     
   2704312585.1507964     
   2695312487.4481883     
   2694686823.7166324     
   2859828375.0262537     
   2825859572.0387473     
   2799209866.1201200     
   2780103346.3919144     
   2768776338.6900129     
   2609873231.5724559     
   2606539145.4972024     
   2606244487.5347285     
   2608989257.6850390     
   2614773455.9481292     
   2614545902.0952573     
   2610615963.4751077     
   2612129344.9110374     
   2619104625.8862057     
   2631562524.4322853     
   2642956699.1022344     
   2635369049.7892909     
   2635596470.2359610     
   2643725574.7934828     
   2659851200.5984731     
   2694686823.7166324     
   2679553364.1459432     
   2674558954.1206207     
   2679930257.0741963     
   2695912755.8643904     
   2768776338.6900129     
   2741614764.8348284     
   2726849595.0529213     
   2724943783.9456286     
   2736397769.4677501     
   2614773455.9481292     
   2650939349.0619030     
   2703191618.3420234     
   2771530263.7885008     
   2855955285.4013386     
   2631562524.4322853     
   2666906596.1869564     
   2717160149.7501187     
   2783203396.4504023     
   2866221775.6649566     
   2659851200.5984731     
   2677467220.7765894     
   2710114645.2720814     
   2761393135.9374676     
   2836205035.6243248     
   2695912755.8643904     
   2680590508.9307718     
   2681426979.0922418     
   2706887568.7335501     
   2768694788.4754767     
   2736397769.4677501     
   2674885659.7164559     
   2631472617.5819755     
   2622174399.1908269     
   2669666609.1247058     
   1955376939.1207912     
   2119420639.4564502     
   2284865070.9649110     
   2448760014.0457282     
   2609154240.2319517     
   2298660205.3963680     
   2449232331.9375091     
   2604557278.8596630     
   2762718789.6085753     
   2922291365.8426814     
   2694501824.9964948     
   2830062142.0045686     
   2972948802.0568571     
   3122083243.2611322     
   3276557067.9530306     
   3137677238.0072136     
   3254951040.3069630     
   3381638942.8455272     
   3517272662.2905035     
   3661394987.7534409     
   3624685914.8580008     
   3719099514.8115277     
   3824744471.6195173     
   3941553979.2249694     
   4069432728.0303998     
   2609154240.2319517     
   2677309444.0059266     
   2750000682.4973903     
   2826718644.6678262     
   2907111079.5522275     
   2922291365.8426814     
   2975243454.6740489     
   3030433401.2683187     
   3087179416.7489443     
   3144949359.0616384     
   3276557067.9530306     
   3319688868.3032670     
   3363065248.0339203     
   3405865619.8992586     
   3447413646.8900952     
   3661394987.7534409     
   3700627613.7195697     
   3738472296.1201081     
   3774035411.9171214     
   3806571368.4365659     
   4069432728.0303998     
   4110682624.8100371     
   4149270088.2721872     
   4184305821.1644626     
   4215064597.6026783     
   2907111079.5522275     
   2922837420.2368031     
   2940491449.7781615     
   2960039116.3740654     
   2981458547.8738184     
   3144949359.0616384     
   3141509018.1916056     
   3142079303.1857085     
   3146577953.4483018     
   3155007930.5614786     
   3447413646.8900952     
   3420774410.8242855     
   3399451335.6075974     
   3383229843.7868471     
   3372113514.9605036     
   3806571368.4365659     
   3752495313.6265054     
   3704457535.3651519     
   3661990646.0068631     
   3625017119.3197384     
   4215064597.6026783     
   4129129305.1005764     
   4049592726.1798177     
   3975596321.2354269     
   3906855356.9772043     
   2981458547.8738184     
   2951659927.2057438     
   2930334784.5761633     
   2917677626.0551505     
   2914015844.2519088     
   3155007930.5614786     
   3108154533.9287028     
   3067999479.0227466     
   3034769236.1661243     
   3008766699.5847492     
   3372113514.9605036     
   3310623707.7481036     
   3254401870.4870090     
   3203667137.8143196     
   3158681562.8942637     
   3625017119.3197384     
   3551864466.0060167     
   3482931682.4975638     
   3418410165.0383329     
   3358523309.9589696     
   3906855356.9772043     
   3825161674.9176745     
   3747020010.6475272     
   3672586690.0235329     
   3602060862.1928196     
   2914015844.2519088     
   2891343584.4201317     
   2874675158.4262838     
   2864129477.0068259     
   2859828375.0262537     
   3008766699.5847492     
   2972149217.9920344     
   2941744306.8616891     
   2917781813.2889681     
   2900508964.3560863     
   3158681562.8942637     
   3106190791.1512742     
   3059735068.1087976     
   3019613447.9090433     
   2986175237.0002613     
   3358523309.9589696     
   3288717891.6344595     
   3224458863.1098480     
   3166051767.9935498     
   3113896160.3684726     
   3602060862.1928196     
   3513867943.4130478     
   3430527173.4772520     
   3352280067.6073952     
   3279507116.7115550     
   2859828375.0262537     
   2825859572.0387473     
   2799209866.1201200     
   2780103346.3919144     
   2768776338.6900129     
   2900508964.3560863     
   2853302545.4515033     
   2812980628.3423710     
   2779811898.4351249     
   2754083893.6190548     
   2986175237.0002613     
   2925582745.0698085     
   2871392049.9430814     
   2823906058.3805423     
   2783457844.3669710     
   3113896160.3684726     
   3040220800.6350627     
   2972455898.7312255     
   2910924256.8317070     
   2855992403.9327054     
   3279507116.7115550     
   3193344947.6233230     
   3112638654.6327963     
   3037718798.9467607     
   2968973398.9042921     
   2768776338.6900129     
   2741614764.8348284     
   2726849595.0529213     
   2724943783.9456286     
   2736397769.4677501     
   2754083893.6190548     
   2708710184.2806811     
   2673649583.5714293     
   2649353289.4297681     
   2636306597.1325383     
   2783457844.3669710     
   2721233916.2711029     
   2667415712.0568156     
   2622431545.7727504     
   2586746886.5909786     
   2855992403.9327054     
   2779402345.7920361     
   2709580953.2143941     
   2646929785.2486839     
   2591896829.8403301     
   2968973398.9042921     
   2881297888.6225820     
   2799134220.7288728     
   2722876340.6356378     
   2652982978.5456376     
   2736397769.4677501     
   2674885659.7164559     
   2631472617.5819755     
   2622174399.1908269     
   2669666609.1247058     
   2636306597.1325383     
   2515785350.0230722     
   2401747499.8757558     
   2298643364.0767093     
   2213541628.2637434     
   2586746886.5909786     
   2443048941.0594940     
   2304023400.6303983     
   2169865160.5844212     
   2040879682.7107642     
   2591896829.8403301     
   2458487023.7005100     
   2339201553.5049887     
   2240892372.9938159     
   2174686667.7876458     
   2652982978.5456376     
   2556976613.4335275     
   2493177283.8119497     
   2481379593.0669050     
   2549696822.1535401     
   3624685914.8580008     
   3719099514.8115277     
   3824744471.6195173     
   3941553979.2249694     
   4069432728.0303998     
   4133867564.9789476     
   4223837282.5257974     
   4319697337.3369408     
   4419789371.8223572     
   4522657659.8892927     
   4643251837.4341927     
   4755094457.0955734     
   4868027781.7908649     
   4979420084.0665617     
   5087349991.3870182     
   5151313309.9463396     
   5311039191.8227997     
   5467365623.9320545     
   5617406746.0915289     
   5759707749.5543852     
   5657785287.5917854     
   5890829785.3744526     
   6116208145.0330830     
   6331477723.6050482     
   6536433325.6204853     
   4069432728.0303998     
   4110682624.8100371     
   4149270088.2721872     
   4184305821.1644626     
   4215064597.6026783     
   4522657659.8892927     
   4537320899.6035070     
   4556637911.1379595     
   4578136175.4870310     
   4600097984.0799913     
   5087349991.3870182     
   5052580005.1476631     
   5028293124.7581167     
   5009285132.3004055     
   4992360567.0777063     
   5759707749.5543852     
   5651097396.8261547     
   5558446113.9409819     
   5472683670.9708023     
   5388272722.7092810     
   6536433325.6204853     
   6328248802.7798195     
   6142205969.0086756     
   5964370678.1727943     
   5785730479.6551046     
   4215064597.6026783     
   4129129305.1005764     
   4049592726.1798177     
   3975596321.2354269     
   3906855356.9772043     
   4600097984.0799913     
   4489919035.3599644     
   4383882020.8689718     
   4281665781.5186057     
   4183176966.9334817     
   4992360567.0777063     
   4863566977.1944723     
   4737926020.1187859     
   4615405246.7272911     
   4496041073.2184343     
   5388272722.7092810     
   5246063859.2796459     
   5107100842.0872421     
   4971425293.3295298     
   4839132872.0103922     
   5785730479.6551046     
   5634702225.9883823     
   5487975591.7579947     
   5345458225.3736143     
   5207206105.3083897     
   3906855356.9772043     
   3825161674.9176745     
   3747020010.6475272     
   3672586690.0235329     
   3602060862.1928196     
   4183176966.9334817     
   4092335304.5793099     
   4004921040.9234385     
   3921121335.4552512     
   3841165506.5508523     
   4496041073.2184343     
   4392154851.6559639     
   4291117886.2016573     
   4193130161.5636182     
   4098471668.3599935     
   4839132872.0103922     
   4718643884.2996912     
   4600077131.4146376     
   4483604237.1119738     
   4369541641.1246185     
   5207206105.3083897     
   5066876105.1528873     
   4927296244.5608864     
   4788551397.9674511     
   4650952068.6760197     
   3602060862.1928196     
   3513867943.4130478     
   3430527173.4772520     
   3352280067.6073952     
   3279507116.7115550     
   3841165506.5508523     
   3737231894.2335243     
   3637130723.2851338     
   3541125511.7663097     
   3449581791.2085876     
   4098471668.3599935     
   3980459544.6564512     
   3865565104.2291570     
   3754034087.0159922     
   3646186294.0845299     
   4369541641.1246185     
   4239129545.4780254     
   4111411835.4135194     
   3986589920.6403403     
   3864920467.8685288     
   4650952068.6760197     
   4509734115.4276390     
   4371057355.6268167     
   4235059836.5016432     
   4101924965.6120019     
   3279507116.7115550     
   3193344947.6233230     
   3112638654.6327963     
   3037718798.9467607     
   2968973398.9042921     
   3449581791.2085876     
   3352009749.8776894     
   3259179435.6701598     
   3171439365.9182262     
   3089205596.5385571     
   3646186294.0845299     
   3536377797.9985366     
   3430550257.2801909     
   3329054571.2937865     
   3232318440.5048270     
   3864920467.8685288     
   3742351505.3133893     
   3622984979.8530045     
   3507159462.8084922     
   3395297579.8788724     
   4101924965.6120019     
   3966299833.2737455     
   3833104582.4024863     
   3702653505.1820731     
   3575349767.8910146     
   2968973398.9042921     
   2881297888.6225820     
   2799134220.7288728     
   2722876340.6356378     
   2652982978.5456376     
   3089205596.5385571     
   2991724455.9727969     
   2899346675.2351537     
   2812475781.7617259     
   2731585411.3987823     
   3232318440.5048270     
   3122808980.1699200     
   3017875015.1352530     
   2917960265.2955670     
   2823599631.2475934     
   3395297579.8788724     
   3271859344.8976908     
   3152352532.3996425     
   3037275356.1263990     
   2927251352.1881571     
   3575349767.8910146     
   3436403029.5291352     
   3300641024.7087159     
   3168617315.0979161     
   3041054664.7069016     
   2652982978.5456376     
   2556976613.4335275     
   2493177283.8119497     
   2481379593.0669050     
   2549696822.1535401     
   2731585411.3987823     
   2658047983.4429803     
   2604104973.2355394     
   2575481932.0662394     
   2580783149.4172711     
   2823599631.2475934     
   2742901224.0537848     
   2675338629.2160268     
   2622462776.4333029     
   2586056311.8149953     
   2927251352.1881571     
   2813524948.7724395     
   2709359279.5283303     
   2619855494.0055280     
   2552196049.2106977     
   3041054664.7069016     
   2873450656.1224594     
   2712874172.8571167     
   2574866253.2005167     
   2485183735.8749213     
   5657785287.5917854     
   5890829785.3744526     
   6116208145.0330830     
   6331477723.6050482     
   6536433325.6204853     
   6491736461.5091391     
   6587050104.9779377     
   6757679010.4118462     
   6961538801.6781387     
   7171968555.9882727     
   7982517623.4745760     
   7735308245.2288094     
   7669665753.9970646     
   7670242098.4941292     
   7667097698.1259480     
   10130582255.289864     
   9322433256.6670723     
   8826968219.6690903     
   8444254265.9185915     
   8036454695.8011961     
   12936020363.440393     
   11341138730.980761     
   10210753746.834841     
   9273360161.5221252     
   8304442868.8470545     
   6536433325.6204853     
   6328248802.7798195     
   6142205969.0086756     
   5964370678.1727943     
   5785730479.6551046     
   7171968555.9882727     
   6911293161.3452692     
   6658498234.6251650     
   6409726602.2443399     
   6161832794.0116539     
   7667097698.1259480     
   7382043609.5706873     
   7102397568.4395103     
   6828247356.3167267     
   6559809036.1842012     
   8036454695.8011961     
   7748138177.0071135     
   7475565679.4010534     
   7216769850.9004822     
   6971775585.2825270     
   8304442868.8470545     
   8022124058.9381018     
   7782097506.9616327     
   7573612131.0771751     
   7391699069.2423582     
   5785730479.6551046     
   5634702225.9883823     
   5487975591.7579947     
   5345458225.3736143     
   5207206105.3083897     
   6161832794.0116539     
   6012966103.6754513     
   5865479827.9525156     
   5719410542.3325329     
   5574812493.7080441     
   6559809036.1842012     
   6409672747.8556805     
   6257857657.5425148     
   6104330317.7400064     
   5949119953.8062506     
   6971775585.2825270     
   6818343164.3931437     
   6660126827.4512072     
   6496834675.1077528     
   6328423041.7348108     
   7391699069.2423582     
   7233970759.1595488     
   7068430345.5026627     
   6894357777.1035891     
   6711580851.5730658     
   5207206105.3083897     
   5066876105.1528873     
   4927296244.5608864     
   4788551397.9674511     
   4650952068.6760197     
   5574812493.7080441     
   5414392004.1375656     
   5254719861.5032053     
   5095841152.6708155     
   4937874443.4859076     
   5949119953.8062506     
   5774909762.0268364     
   5602131769.1411552     
   5430802164.4978285     
   5260964275.9540148     
   6328423041.7348108     
   6146026373.2075672     
   5966339754.1813164     
   5789319275.4514761     
   5614984673.0477448     
   6711580851.5730658     
   6525899787.2671289     
   6344744301.8162689     
   6167939073.0923223     
   5995470560.6101103     
   4650952068.6760197     
   4509734115.4276390     
   4371057355.6268167     
   4235059836.5016432     
   4101924965.6120019     
   4937874443.4859076     
   4786965079.1328135     
   4637455628.6234646     
   4489460284.1764326     
   4343136915.7728510     
   5260964275.9540148     
   5100150852.0149593     
   4939580931.9714470     
   4779294551.4638710     
   4619379781.8257446     
   5614984673.0477448     
   5444098416.1195402     
   5272350107.0394907     
   5099666352.1902637     
   4926031005.3763771     
   5995470560.6101103     
   5814342816.6252346     
   5631349803.9342213     
   5446275393.3185034     
   5258974331.4823732     
   4101924965.6120019     
   3966299833.2737455     
   3833104582.4024863     
   3702653505.1820731     
   3575349767.8910146     
   4343136915.7728510     
   4193309994.4728160     
   4045347299.4139686     
   3899434052.7767501     
   3755823059.8986087     
   4619379781.8257446     
   4457485992.3330088     
   4297162968.8400917     
   4138503818.0611787     
   3981656588.2116804     
   4926031005.3763771     
   4753739115.2228060     
   4582950006.0033884     
   4413700562.6804686     
   4246080168.5043201     
   5258974331.4823732     
   5077503499.7662554     
   4897638026.5051088     
   4719387403.1255999     
   4542820198.0072622     
   3575349767.8910146     
   3436403029.5291352     
   3300641024.7087159     
   3168617315.0979161     
   3041054664.7069016     
   3755823059.8986087     
   3601233701.7039776     
   3447655855.2120247     
   3295326960.6514544     
   3144589368.1358361     
   3981656588.2116804     
   3817102761.5564508     
   3652153150.7436280     
   3486825530.7534690     
   3321184531.6226425     
   4246080168.5043201     
   4077004498.4317985     
   3906864047.6411476     
   3735591590.3219113     
   3563141053.1038675     
   4542820198.0072622     
   4374172077.5166559     
   4204392466.0457501     
   4033445379.8203683     
   3861321564.2477508     
   3041054664.7069016     
   2873450656.1224594     
   2712874172.8571167     
   2574866253.2005167     
   2485183735.8749213     
   3144589368.1358361     
   2940325097.3225560     
   2735352800.0767708     
   2529754313.6108069     
   2323664895.5205135     
   3321184531.6226425     
   3142175818.2932291     
   2976468280.1543965     
   2831802842.0466647     
   2722371518.4904308     
   3563141053.1038675     
   3452226613.6777158     
   3378205157.5547009     
   3363801230.9749022     
   3447109352.4299836     
   3861321564.2477508     
   3845599218.1100287     
   3894368688.0880055     
   4041648702.5339108     
   4343189515.9948568     
 </DataArray>
 <DataArray  type="Float64" Name="strain" NumberOfComponents="3" format="ascii">
  0.20349303349639927        0.0000000000000000       0.12540605073787053     
  0.18666353163814209       -2.7333505894579231E-002   7.4346642176391281E-002
  0.16983402977988488       -4.4687867838801042E-002   3.5122720410316069E-002
  0.15300452792162766       -5.2063085832665473E-002   7.7342854396448488E-003
  0.13617502606337051       -4.9459159876172498E-002  -7.8186627356223865E-003
  0.15986341774955248        0.0000000000000000        9.6439531265517880E-002
  0.15318737089132772       -2.1850724776687550E-002   6.2678877311162229E-002
  0.14651132403310302       -3.6182976956855455E-002   3.7389646561467510E-002
  0.13983527717487826       -4.2996756540503722E-002   2.0571839016433696E-002
  0.13315923031665355       -4.2292063527632325E-002   1.2225454676060891E-002
  0.12646578013176224        0.0000000000000000        7.4186128587975797E-002
  0.12657912468282692       -1.6367943658795868E-002   5.5263557886905942E-002
  0.12669246923389160       -2.7678086074909850E-002   4.1448346799753982E-002
  0.12680581378495628       -3.3930427248341957E-002   3.2740495326519882E-002
  0.12691915833602097       -3.5124967179092179E-002   2.9140003467203676E-002
  0.10330012064302861        0.0000000000000000        5.8645842705244269E-002
  0.10683879301263963       -1.0885162540904186E-002   5.2100683903622484E-002
  0.11037746538225064       -1.9173195192964253E-002   4.7298821125175514E-002
  0.11391613775186167       -2.4864097956180196E-002   4.4240254369903330E-002
  0.11745481012147270       -2.7957870830552026E-002   4.2924983637805995E-002
   9.0366439283351571E-002   0.0000000000000000        4.9818673617323304E-002
   9.3966375880765868E-002  -5.4023814230125065E-003   5.3190255361311820E-002
   9.7566312478180151E-002  -1.0668304311018652E-002   5.4941069537732069E-002
  0.10116624907559445       -1.5797768664018441E-002   5.5071116146584075E-002
  0.10476618567300872       -2.0790774482011876E-002   5.3580395187867808E-002
  0.13617502606337051       -4.9459159876172498E-002  -7.8186627356223865E-003
  0.13298764831570239       -4.2919332984138477E-002  -3.3882973189886118E-003
  0.12980027056803434       -3.8486848171379907E-002  -3.8148710869723504E-004
  0.12661289282036622       -3.6161705437896562E-002   1.2017678952519588E-003
  0.12342551507269817       -3.5943904783688779E-002   1.3614676928586367E-003
  0.13315923031665355       -4.2292063527632325E-002   1.2225454676060891E-002
  0.12893741974060602       -3.8422428969639856E-002   1.2172700443965435E-002
  0.12471560916455846       -3.5741383917924849E-002   1.1474635761453387E-002
  0.12049379858851091       -3.4248928372487338E-002   1.0131260628524782E-002
  0.11627198801246338       -3.3945062333327225E-002   8.1425750451796231E-003
  0.12691915833602097       -3.5124967179092179E-002   2.9140003467203676E-002
  0.12244115968751967       -3.3925524955141229E-002   2.5522882159376925E-002
  0.11796316103901841       -3.2995919664469839E-002   2.2038695157059380E-002
  0.11348516239051712       -3.2336151307077995E-002   1.8687442460250926E-002
  0.10900716374201587       -3.1946219882965712E-002   1.5469124068951713E-002
  0.11745481012147270       -2.7957870830552026E-002   4.2924983637805995E-002
  0.11349886815644346       -2.9428620940642615E-002   3.6662247827245850E-002
  0.10954292619141422       -3.0250455411014843E-002   3.1310691078120678E-002
  0.10558698422638499       -3.0423374241668709E-002   2.6870313390430344E-002
  0.10163104226135576       -2.9947377432604193E-002   2.3341114764175032E-002
  0.10476618567300872       -2.0790774482011876E-002   5.3580395187867808E-002
  0.10211054514737730       -2.4931716926143991E-002   4.5590797447572232E-002
   9.9454904621745860E-002  -2.7504991157559826E-002   3.9290623524637275E-002
   9.6799264096114418E-002  -2.8510597176259398E-002   3.4679873419063034E-002
   9.4143623570482976E-002  -2.7948534982242673E-002   3.1758547130849413E-002
  0.12342551507269817       -3.5943904783688779E-002   1.3614676928586367E-003
  0.12049662889942758       -3.6460792935201602E-002   5.9740804892813304E-004
  0.11756774272615694       -3.6339716618880545E-002   3.3194413361498087E-005
  0.11463885655288635       -3.5580675834725593E-002  -3.3117321384171922E-004
  0.11170997037961572       -3.4183670582736636E-002  -4.9569483268124825E-004
  0.11627198801246338       -3.3945062333327225E-002   8.1425750451796231E-003
  0.11352666131869592       -3.4032279501189241E-002   7.7731254422097051E-003
  0.11078133462492844       -3.3713073576817798E-002   7.5709487898824035E-003
  0.10803600793116094       -3.2987444560213006E-002   7.5360450881978638E-003
  0.10529068123739352       -3.1855392451374753E-002   7.6684143371559821E-003
  0.10900716374201587       -3.1946219882965712E-002   1.5469124068951713E-002
  0.10641282347003059       -3.1603766067176825E-002   1.5262743131341724E-002
  0.10381848319804529       -3.1086430534755027E-002   1.5191062086653492E-002
  0.10122414292606004       -3.0394213285700421E-002   1.5254080934886895E-002
   9.8629802654074797E-002  -2.9527114320012871E-002   1.5451799676042072E-002
  0.10163104226135576       -2.9947377432604193E-002   2.3341114764175032E-002
   9.9155115353431689E-002  -2.9175252633164381E-002   2.3066261116324462E-002
   9.6679188445507588E-002  -2.8459787492692241E-002   2.2893534303674752E-002
   9.4203261537583530E-002  -2.7800982011187806E-002   2.2822934326225598E-002
   9.1727334629659457E-002  -2.7198836188651099E-002   2.2854461183977229E-002
   9.4143623570482976E-002  -2.7948534982242673E-002   3.1758547130849413E-002
   9.1753536968899152E-002  -2.6746739199151950E-002   3.1183679397157840E-002
   8.9363450367315259E-002  -2.5833144450629467E-002   3.0678365440945932E-002
   8.6973363765731421E-002  -2.5207750736675211E-002   3.0242605262213819E-002
   8.4583277164147541E-002  -2.4870558057289216E-002   2.9876398860961412E-002
  0.11170997037961572       -3.4183670582736636E-002  -4.9569483268124825E-004
  0.10876404365518560       -3.2633242300939447E-002  -1.8151452643541677E-004
  0.10581811693075541       -3.1413932427359459E-002   6.3937391724833148E-005
  0.10287219020632525       -3.0525740961997228E-002   2.4066092179997334E-004
   9.9926263481895095E-002  -2.9968667904851976E-002   3.4865606378992053E-004
  0.10529068123739352       -3.1855392451374753E-002   7.6684143371559821E-003
  0.10232833163345129       -3.0619119390588478E-002   7.5287609126007959E-003
   9.9365982029509040E-002  -2.9580827518139563E-002   7.4249901171066363E-003
   9.6403632425566793E-002  -2.8740516834027896E-002   7.3571019506734753E-003
   9.3441282821624561E-002  -2.8098187338253700E-002   7.3250964133012852E-003
   9.8629802654074797E-002  -2.9527114320012871E-002   1.5451799676042072E-002
   9.5755641187766652E-002  -2.8604996480237677E-002   1.4991449740566112E-002
   9.2881479721458493E-002  -2.7747722608919667E-002   1.4671593451297600E-002
   9.0007318255150459E-002  -2.6955292706058898E-002   1.4492230808235973E-002
   8.7133156788842245E-002  -2.6227706771655424E-002   1.4453361811381932E-002
   9.1727334629659457E-002  -2.7198836188651099E-002   2.2854461183977229E-002
   8.9045972318131689E-002  -2.6590873569886764E-002   2.2206551957460623E-002
   8.6364610006603920E-002  -2.5914617699699716E-002   2.1803747394297471E-002
   8.3683247695076166E-002  -2.5170068578089830E-002   2.1646047494487827E-002
   8.1001885383548369E-002  -2.4357226205057148E-002   2.1733452258031596E-002
   8.4583277164147541E-002  -2.4870558057289216E-002   2.9876398860961412E-002
   8.2199325024546382E-002  -2.4576750659535893E-002   2.9174067563284112E-002
   7.9815372884945210E-002  -2.4081512790479750E-002   2.8821451946106552E-002
   7.7431420745344037E-002  -2.3384844450120689E-002   2.8818552009428719E-002
   7.5047468605742879E-002  -2.2486745638458816E-002   2.9165367753250709E-002
   9.9926263481895095E-002  -2.9968667904851976E-002   3.4865606378992053E-004
   9.6803372274412325E-002  -2.9498592429934606E-002  -5.8949542640784891E-004
   9.3680481066929583E-002  -2.8871393711256355E-002  -1.2814482780449943E-003
   9.0557589859446827E-002  -2.8087071748816000E-002  -1.7272024911216544E-003
   8.7434698651964071E-002  -2.7145626542614876E-002  -1.9267580656376904E-003
   9.3441282821624561E-002  -2.8098187338253700E-002   7.3250964133012852E-003
   9.0550762089721459E-002  -2.7504066852978792E-002   6.6793145931608455E-003
   8.7660241357818469E-002  -2.6808383200365354E-002   6.2520750856195351E-003
   8.4769720625915396E-002  -2.6011136380413240E-002   6.0433778906771110E-003
   8.1879199894012433E-002  -2.5112326393122608E-002   6.0532230083333305E-003
   8.7133156788842245E-002  -2.6227706771655424E-002   1.4453361811381932E-002
   8.4447350206557290E-002  -2.5509541276022688E-002   1.4044389584876193E-002
   8.1761543624272320E-002  -2.4745372689474299E-002   1.3826303345007729E-002
   7.9075737041987365E-002  -2.3935201012010202E-002   1.3799103091776468E-002
   7.6389930459702382E-002  -2.3079026243630341E-002   1.3962788825182260E-002
   8.1001885383548369E-002  -2.4357226205057148E-002   2.1733452258031596E-002
   7.8493136624919788E-002  -2.3515015699066673E-002   2.1505729548737675E-002
   7.5984387866291150E-002  -2.2682362178583326E-002   2.1441236500119407E-002
   7.3475639107662499E-002  -2.1859265643607136E-002   2.1539973112176487E-002
   7.0966890349033876E-002  -2.1045726094138184E-002   2.1801939384909111E-002
   7.5047468605742879E-002  -2.2486745638458816E-002   2.9165367753250709E-002
   7.2688121344808898E-002  -2.1520490122110658E-002   2.9063334484745629E-002
   7.0328774083874931E-002  -2.0619351667692243E-002   2.9096874550954527E-002
   6.7969426822940937E-002  -1.9783330275204236E-002   2.9265987951877154E-002
   6.5610079562006957E-002  -1.9012425944646083E-002   2.9570674687513343E-002
   8.7434698651964071E-002  -2.7145626542614876E-002  -1.9267580656376904E-003
   8.4420053019376662E-002  -2.6187181075732868E-002  -2.1185274229826856E-003
   8.1405407386789252E-002  -2.5351858331251920E-002  -2.1566058344518191E-003
   7.8390761754201843E-002  -2.4639658309171628E-002  -2.0409933000447023E-003
   7.5376116121614434E-002  -2.4050581009492533E-002  -1.7716898197619457E-003
   8.1879199894012433E-002  -2.5112326393122608E-002   6.0532230083333305E-003
   7.9022610374347435E-002  -2.4206378200485906E-002   5.8268434021530868E-003
   7.6166020854682465E-002  -2.3387716764494484E-002   5.7628850759417760E-003
   7.3309431335017508E-002  -2.2656342085149665E-002   5.8613480296993009E-003
   7.0452841815352496E-002  -2.2012254162450340E-002   6.1222322634257864E-003
   7.6389930459702382E-002  -2.3079026243630341E-002   1.3962788825182260E-002
   7.3700127387052741E-002  -2.2225575325238195E-002   1.3737634935921630E-002
   7.1010324314403211E-002  -2.1423575197737160E-002   1.3683632660723088E-002
   6.8320521241753654E-002  -2.0673025861127146E-002   1.3800781999586058E-002
   6.5630718169104096E-002  -1.9973927315407869E-002   1.4089082952510990E-002
   7.0966890349033876E-002  -2.1045726094138184E-002   2.1801939384909111E-002
   6.8452604057492705E-002  -2.0244772449990803E-002   2.1613847178322831E-002
   6.5938317765951493E-002  -1.9459433630979836E-002   2.1605636919891751E-002
   6.3424031474410239E-002  -1.8689709637104573E-002   2.1777308609615138E-002
   6.0909745182869041E-002  -1.7935600468365648E-002   2.2128862247493414E-002
   6.5610079562006957E-002  -1.9012425944646083E-002   2.9570674687513343E-002
   6.3280040385667063E-002  -1.8263969574743522E-002   2.9455480129356698E-002
   6.0950001209327212E-002  -1.7495292064222276E-002   2.9528897853447839E-002
   5.8619962032987367E-002  -1.6706393413082356E-002   2.9790927859786681E-002
   5.6289922856647467E-002  -1.5897273621323482E-002   3.0241570148373254E-002
   7.5376116121614434E-002  -2.4050581009492533E-002  -1.7716898197619457E-003
   7.2482328228327009E-002  -2.3467367283181884E-002  -2.7777953618257634E-003
   6.9588540335039528E-002  -2.2772757981207814E-002  -3.7551197393514979E-003
   6.6694752441752048E-002  -2.1966753103569991E-002  -4.7036629523400930E-003
   6.3800964548464623E-002  -2.1049352650269415E-002  -5.6234250007914932E-003
   7.0452841815352496E-002  -2.2012254162450340E-002   6.1222322634257864E-003
   6.7611614805016429E-002  -2.1363247894025661E-002   5.3453166116697592E-003
   6.4770387794680362E-002  -2.0617118177505556E-002   4.6447415612787535E-003
   6.1929160784344295E-002  -1.9773865012888830E-002   4.0205071122533520E-003
   5.9087933774008172E-002  -1.8833488400176623E-002   3.4726132645934715E-003
   6.5630718169104096E-002  -1.9973927315407869E-002   1.4089082952510990E-002
   6.2889611478547408E-002  -1.9259128504870049E-002   1.3527085063494593E-002
   6.0148504787990775E-002  -1.8461478373803186E-002   1.3088987212671821E-002
   5.7407398097434087E-002  -1.7580976922207669E-002   1.2774789400041994E-002
   5.4666291406877482E-002  -1.6617624150083443E-002   1.2584491625606459E-002
   6.0909745182869041E-002  -1.7935600468365648E-002   2.2128862247493414E-002
   5.8316318248919849E-002  -1.7155009115714021E-002   2.1767509993649764E-002
   5.5722891314970643E-002  -1.6305838570100983E-002   2.1577617214827371E-002
   5.3129464381021466E-002  -1.5388088831526398E-002   2.1559183911026611E-002
   5.0536037447072246E-002  -1.4401759899990346E-002   2.1712210082247406E-002
   5.6289922856647467E-002  -1.5897273621323482E-002   3.0241570148373254E-002
   5.3891735116133793E-002  -1.5050889726558075E-002   3.0066591402134690E-002
   5.1493547375620119E-002  -1.4150198766398697E-002   3.0110631567745655E-002
   4.9095359635106417E-002  -1.3195200740845160E-002   3.0373690645206286E-002
   4.6697171894592715E-002  -1.2185895649897527E-002   3.0855768634516390E-002
   6.3800964548464623E-002  -2.1049352650269415E-002  -5.6234250007914932E-003
   6.3384783726549876E-002  -2.1781729096400526E-002  -3.6614864287245474E-003
   6.2968602904635185E-002  -2.5925054917059015E-002  -3.6312588034964066E-003
   6.2552422082720383E-002  -3.3479330112245777E-002  -5.5327421251060716E-003
   6.2136241260805747E-002  -4.4444554681959403E-002  -9.3659363935549855E-003
   5.9087933774008172E-002  -1.8833488400176623E-002   3.4726132645934715E-003
   5.7063570006763265E-002  -1.8969062424176286E-002   3.2194811974698978E-003
   5.5039206239518412E-002  -2.1353661169697224E-002   1.6816941865251400E-003
   5.3014842472273560E-002  -2.5987284636738842E-002  -1.1407477682418565E-003
   5.0990478705028486E-002  -3.2869932825301706E-002  -5.2478446668304812E-003
   5.4666291406877482E-002  -1.6617624150083443E-002   1.2584491625606459E-002
   5.1680800697319007E-002  -1.6156395751951991E-002   1.1278213572299467E-002
   4.8695309987760671E-002  -1.6782267422334865E-002   9.3343365781874549E-003
   4.5709819278202141E-002  -1.8495239161232069E-002   6.7528606432703045E-003
   4.2724328568643832E-002  -2.1295310968643788E-002   3.5337857675482587E-003
   5.0536037447072246E-002  -1.4401759899990346E-002   2.1712210082247406E-002
   4.7236475798217069E-002  -1.3343729079727612E-002   2.0514710695763341E-002
   4.3936914149361933E-002  -1.2210873674972457E-002   1.9326668371491145E-002
   4.0637352500506936E-002  -1.1003193685725216E-002   1.8148083109430405E-002
   3.7337790851651689E-002  -9.7206891119857586E-003   1.6978954909580957E-002
   4.6697171894592715E-002  -1.2185895649897527E-002   3.0855768634516390E-002
   4.3730595309457554E-002  -1.0531062407503400E-002   3.0928972567861757E-002
   4.0764018724322310E-002  -7.6394799276103681E-003   3.1658689566435722E-002
   3.7797442139187051E-002  -3.5111482102184698E-003   3.3044919630237798E-002
   3.4830865554051904E-002   1.8539327446720488E-003   3.5087662759268445E-002
   9.0366439283351571E-002   0.0000000000000000        4.9818673617323304E-002
   9.3966375880765868E-002  -5.4023814230125065E-003   5.3190255361311820E-002
   9.7566312478180151E-002  -1.0668304311018652E-002   5.4941069537732069E-002
  0.10116624907559445       -1.5797768664018441E-002   5.5071116146584075E-002
  0.10476618567300872       -2.0790774482011876E-002   5.3580395187867808E-002
   8.2426981615655731E-002   0.0000000000000000        4.4770008608953728E-002
   8.4635395467061683E-002  -4.5715777851335912E-003   4.8250675238001035E-002
   8.6843809318467677E-002  -9.0328724880874272E-003   5.0569063942599968E-002
   8.9052223169873629E-002  -1.3383884108861502E-002   5.1725174722750525E-002
   9.1260637021279623E-002  -1.7624612647455819E-002   5.1719007578452686E-002
   7.4243993202865663E-002   0.0000000000000000        4.0565234964876365E-002
   7.5519373951383209E-002  -3.7407741472546786E-003   4.4128811026155866E-002
   7.6794754699900741E-002  -7.3974406651561991E-003   4.6988598806106861E-002
   7.8070135448418274E-002  -1.0969999553704562E-002   4.9144598304729378E-002
   7.9345516196935820E-002  -1.4458450812899771E-002   5.0596809522023396E-002
   6.5817474044981394E-002   0.0000000000000000        3.7204352685091223E-002
   6.6618311333730390E-002  -2.9099705093757647E-003   4.0824662725776312E-002
   6.7419148622479386E-002  -5.7620088422249728E-003   4.4199674128252778E-002
   6.8219985911228367E-002  -8.5561149985476231E-003   4.7329386892520656E-002
   6.9020823199977349E-002  -1.1292288978343716E-002   5.0213801018579918E-002
   5.7147424142002939E-002   0.0000000000000000        3.4687361769598274E-002
   5.7932207614103261E-002  -2.0791668714968507E-003   3.8338230336862365E-002
   5.8716991086203582E-002  -4.1265770192937465E-003   4.2202289909037724E-002
   5.9501774558303903E-002  -6.1422304433906838E-003   4.6279540486124350E-002
   6.0286558030404225E-002  -8.1261271437876662E-003   5.0569982068122264E-002
  0.10476618567300872       -2.0790774482011876E-002   5.3580395187867808E-002
  0.10211054514737730       -2.4931716926143991E-002   4.5590797447572232E-002
   9.9454904621745860E-002  -2.7504991157559826E-002   3.9290623524637275E-002
   9.6799264096114418E-002  -2.8510597176259398E-002   3.4679873419063034E-002
   9.4143623570482976E-002  -2.7948534982242673E-002   3.1758547130849413E-002
   9.1260637021279623E-002  -1.7624612647455819E-002   5.1719007578452686E-002
   9.0056549732933255E-002  -2.1198296307775675E-002   4.6477704529009546E-002
   8.8852462444586860E-002  -2.3548173293726306E-002   4.2450084136775895E-002
   8.7648375156240493E-002  -2.4674243605307764E-002   3.9636146401751629E-002
   8.6444287867894126E-002  -2.4576507242520029E-002   3.8035891323936880E-002
   7.9345516196935820E-002  -1.4458450812899771E-002   5.0596809522023396E-002
   7.9117240985723314E-002  -1.7464875689407348E-002   4.7759939625085644E-002
   7.8888965774510780E-002  -1.9591355429892803E-002   4.5661011225206133E-002
   7.8660690563298261E-002  -2.0837890034356155E-002   4.4300024322384828E-002
   7.8432415352085727E-002  -2.1204479502797371E-002   4.3676978916621784E-002
   6.9020823199977349E-002  -1.1292288978343716E-002   5.0213801018579918E-002
   6.9292618905747491E-002  -1.3731455071039022E-002   4.9437502735800443E-002
   6.9564414611517592E-002  -1.5634537566059276E-002   4.8923404789928016E-002
   6.9836210317287734E-002  -1.7001536463404524E-002   4.8671507180962595E-002
   7.0108006023057820E-002  -1.7832451763074714E-002   4.8681809908904194E-002
   6.0286558030404225E-002  -8.1261271437876662E-003   5.0569982068122264E-002
   6.0582683493005753E-002  -9.9980344526707076E-003   5.1510393861153990E-002
   6.0878808955607294E-002  -1.1677719702225775E-002   5.2237264830941543E-002
   6.1174934418208836E-002  -1.3165182892452909E-002   5.2750594977484938E-002
   6.1471059880810378E-002  -1.4460424023352063E-002   5.3050384300784105E-002
   9.4143623570482976E-002  -2.7948534982242673E-002   3.1758547130849413E-002
   9.1753536968899152E-002  -2.6746739199151950E-002   3.1183679397157840E-002
   8.9363450367315259E-002  -2.5833144450629467E-002   3.0678365440945932E-002
   8.6973363765731421E-002  -2.5207750736675211E-002   3.0242605262213819E-002
   8.4583277164147541E-002  -2.4870558057289216E-002   2.9876398860961412E-002
   8.6444287867894126E-002  -2.4576507242520029E-002   3.8035891323936880E-002
   8.4171409299804045E-002  -2.3925314350450373E-002   3.6993593707853011E-002
   8.1898530731713964E-002  -2.3391015074186058E-002   3.6116158381276929E-002
   7.9625652163623870E-002  -2.2973609413727086E-002   3.5403585344208691E-002
   7.7352773595533789E-002  -2.2673097369073483E-002   3.4855874596648337E-002
   7.8432415352085727E-002  -2.1204479502797371E-002   4.3676978916621784E-002
   7.6372053329517534E-002  -2.1103889501748775E-002   4.2338558836908541E-002
   7.4311691306949354E-002  -2.0948885697742635E-002   4.1260309558731174E-002
   7.2251329284381174E-002  -2.0739468090778958E-002   4.0442231082089802E-002
   7.0190967261812981E-002  -2.0475636680857751E-002   3.9884323406984334E-002
   7.0108006023057820E-002  -1.7832451763074714E-002   4.8681809908904194E-002
   6.8355469058039631E-002  -1.8282464653047194E-002   4.7218574784324438E-002
   6.6602932093021427E-002  -1.8506756321299205E-002   4.6110818973308737E-002
   6.4850395128003252E-002  -1.8505326767830805E-002   4.5358542475857140E-002
   6.3097858162985049E-002  -1.8278175992641990E-002   4.4961745291969515E-002
   6.1471059880810378E-002  -1.4460424023352063E-002   5.3050384300784105E-002
   6.0121656485370295E-002  -1.5461039804345603E-002   5.1633641550100785E-002
   5.8772253089930206E-002  -1.6064626944855803E-002   5.0667686625009575E-002
   5.7422849694490116E-002  -1.6271185444882708E-002   5.0152519525510530E-002
   5.6073446299050034E-002  -1.6080715304426271E-002   5.0088140251603616E-002
   8.4583277164147541E-002  -2.4870558057289216E-002   2.9876398860961412E-002
   8.2199325024546382E-002  -2.4576750659535893E-002   2.9174067563284112E-002
   7.9815372884945210E-002  -2.4081512790479750E-002   2.8821451946106552E-002
   7.7431420745344037E-002  -2.3384844450120689E-002   2.8818552009428719E-002
   7.5047468605742879E-002  -2.2486745638458816E-002   2.9165367753250709E-002
   7.7352773595533789E-002  -2.2673097369073483E-002   3.4855874596648337E-002
   7.5287934295027198E-002  -2.2367504599611815E-002   3.4355880460820970E-002
   7.3223094994520621E-002  -2.1934856764728648E-002   3.4144396322683214E-002
   7.1158255694014044E-002  -2.1375153864424006E-002   3.4221422182234743E-002
   6.9093416393507426E-002  -2.0688395898697864E-002   3.4586958039475868E-002
   7.0190967261812981E-002  -2.0475636680857751E-002   3.9884323406984334E-002
   6.8384035117590697E-002  -2.0158258539687689E-002   3.9512291027125640E-002
   6.6577102973368413E-002  -1.9788200738977545E-002   3.9367562962146115E-002
   6.4770170829146115E-002  -1.9365463278727270E-002   3.9450139212045654E-002
   6.2963238684923845E-002  -1.8890046158936913E-002   3.9760019776824515E-002
   6.3097858162985049E-002  -1.8278175992641990E-002   4.4961745291969515E-002
   6.1487627492236789E-002  -1.7949012479763559E-002   4.4643299262197990E-002
   5.9877396821488529E-002  -1.7641544713226428E-002   4.4490951864495303E-002
   5.8267166150740297E-002  -1.7355772693030545E-002   4.4504703098861571E-002
   5.6656935479992031E-002  -1.7091696419175989E-002   4.4684552965296657E-002
   5.6073446299050034E-002  -1.6080715304426271E-002   5.0088140251603616E-002
   5.4598711418965551E-002  -1.5739766419839471E-002   4.9748905166037902E-002
   5.3123976538881040E-002  -1.5494888687475315E-002   4.9514563029730806E-002
   5.1649241658796557E-002  -1.5346082107333826E-002   4.9385113842682335E-002
   5.0174506778712047E-002  -1.5293346679414982E-002   4.9360557604892469E-002
   7.5047468605742879E-002  -2.2486745638458816E-002   2.9165367753250709E-002
   7.2688121344808898E-002  -2.1520490122110658E-002   2.9063334484745629E-002
   7.0328774083874931E-002  -2.0619351667692243E-002   2.9096874550954527E-002
   6.7969426822940937E-002  -1.9783330275204236E-002   2.9265987951877154E-002
   6.5610079562006957E-002  -1.9012425944646083E-002   2.9570674687513343E-002
   6.9093416393507426E-002  -2.0688395898697864E-002   3.4586958039475868E-002
   6.6885075879841188E-002  -1.9948274389598605E-002   3.4281510166873932E-002
   6.4676735366174964E-002  -1.9228480859174446E-002   3.4142502454093712E-002
   6.2468394852508699E-002  -1.8529015307425387E-002   3.4169934901135124E-002
   6.0260054338842461E-002  -1.7849877734351594E-002   3.4363807507998306E-002
   6.2963238684923845E-002  -1.8890046158936913E-002   3.9760019776824515E-002
   6.0936771743633170E-002  -1.8376058657086636E-002   3.9295946383380687E-002
   5.8910304802342509E-002  -1.7837610050656538E-002   3.9029179974866365E-002
   5.6883837861051854E-002  -1.7274700339646704E-002   3.8959720551281586E-002
   5.4857370919761207E-002  -1.6687329524057076E-002   3.9087568112626370E-002
   5.6656935479992031E-002  -1.7091696419175989E-002   4.4684552965296657E-002
   5.4843208936184801E-002  -1.6803842924574680E-002   4.4106643134265822E-002
   5.3029482392377619E-002  -1.6446739242138630E-002   4.3756907113272452E-002
   5.1215755848570410E-002  -1.6020385371868048E-002   4.3635344902316256E-002
   4.9402029304763215E-002  -1.5524781313762656E-002   4.3741956501397658E-002
   5.0174506778712047E-002  -1.5293346679414982E-002   4.9360557604892469E-002
   4.8604387457496165E-002  -1.5231627192062711E-002   4.8713600419529629E-002
   4.7034268136280241E-002  -1.5055868433620841E-002   4.8325683869311895E-002
   4.5464148815064331E-002  -1.4766070404089256E-002   4.8196807954239369E-002
   4.3894029493848435E-002  -1.4362233103468125E-002   4.8326972674312130E-002
   6.5610079562006957E-002  -1.9012425944646083E-002   2.9570674687513343E-002
   6.3280040385667063E-002  -1.8263969574743522E-002   2.9455480129356698E-002
   6.0950001209327212E-002  -1.7495292064222276E-002   2.9528897853447839E-002
   5.8619962032987367E-002  -1.6706393413082356E-002   2.9790927859786681E-002
   5.6289922856647467E-002  -1.5897273621323482E-002   3.0241570148373254E-002
   6.0260054338842461E-002  -1.7849877734351594E-002   3.4363807507998306E-002
   5.8116742654512665E-002  -1.7179344563441779E-002   3.4205740121169892E-002
   5.5973430970182841E-002  -1.6505692218185111E-002   3.4232515436113886E-002
   5.3830119285853024E-002  -1.5828920698581345E-002   3.4444133452830178E-002
   5.1686807601523221E-002  -1.5149030004630581E-002   3.4840594171318601E-002
   5.4857370919761207E-002  -1.6687329524057076E-002   3.9087568112626370E-002
   5.2897017146965923E-002  -1.6094719552140035E-002   3.8869525930854520E-002
   5.0936663374170632E-002  -1.5516092372147787E-002   3.8832556870379516E-002
   4.8976309601375376E-002  -1.4951447984080280E-002   3.8976660931201335E-002
   4.7015955828580133E-002  -1.4400786387937653E-002   3.9301838113319859E-002
   4.9402029304763215E-002  -1.5524781313762656E-002   4.3741956501397658E-002
   4.7620863863026941E-002  -1.5010094540838209E-002   4.3446837558410487E-002
   4.5839698421290709E-002  -1.4526492526110487E-002   4.3329022156244693E-002
   4.4058532979554497E-002  -1.4073975269579313E-002   4.3388510294900456E-002
   4.2277367537818251E-002  -1.3652542771244849E-002   4.3625301974377161E-002
   4.3894029493848435E-002  -1.4362233103468125E-002   4.8326972674312130E-002
   4.2288282802695726E-002  -1.3925469529536494E-002   4.7937675003837943E-002
   4.0682536111543002E-002  -1.3536892680073256E-002   4.7721911293709701E-002
   3.9076789420390286E-002  -1.3196502555078333E-002   4.7679681543927113E-002
   3.7471042729237569E-002  -1.2904299154551879E-002   4.7810985754490498E-002
   5.6289922856647467E-002  -1.5897273621323482E-002   3.0241570148373254E-002
   5.3891735116133793E-002  -1.5050889726558075E-002   3.0066591402134690E-002
   5.1493547375620119E-002  -1.4150198766398697E-002   3.0110631567745655E-002
   4.9095359635106417E-002  -1.3195200740845160E-002   3.0373690645206286E-002
   4.6697171894592715E-002  -1.2185895649897527E-002   3.0855768634516390E-002
   5.1686807601523221E-002  -1.5149030004630581E-002   3.4840594171318601E-002
   4.9497082626647579E-002  -1.4457146673824500E-002   3.4624909343428628E-002
   4.7307357651771909E-002  -1.3744397243654505E-002   3.4607131134965372E-002
   4.5117632676896238E-002  -1.3010781714121011E-002   3.4787259545928408E-002
   4.2927907702020596E-002  -1.2256300085223770E-002   3.5165294576318062E-002
   4.7015955828580133E-002  -1.4400786387937653E-002   3.9301838113319859E-002
   4.5013581326919495E-002  -1.3863403621090772E-002   3.9012006237748198E-002
   4.3011206825258830E-002  -1.3338595720910520E-002   3.8898968689179886E-002
   4.1008832323598213E-002  -1.2826362687396804E-002   3.8962725467615249E-002
   3.9006457821937582E-002  -1.2326704520549986E-002   3.9203276573054099E-002
   4.2277367537818251E-002  -1.3652542771244849E-002   4.3625301974377161E-002
   4.0441231216949605E-002  -1.3269660568357121E-002   4.3227882085093150E-002
   3.8605094896080966E-002  -1.2932794198166460E-002   4.2986144230389850E-002
   3.6768958575212285E-002  -1.2641943660672792E-002   4.2900088410266969E-002
   3.4932822254343660E-002  -1.2397108955876104E-002   4.2969714624724722E-002
   3.7471042729237569E-002  -1.2904299154551879E-002   4.7810985754490498E-002
   3.5780032296737874E-002  -1.2675917515623442E-002   4.7272536885464067E-002
   3.4089021864238192E-002  -1.2526992675422455E-002   4.6868657758595084E-002
   3.2398011431738517E-002  -1.2457524633948530E-002   4.6599348373883548E-002
   3.0707000999238815E-002  -1.2467513391202500E-002   4.6464608731329460E-002
   4.6697171894592715E-002  -1.2185895649897527E-002   3.0855768634516390E-002
   4.3730595309457554E-002  -1.0531062407503400E-002   3.0928972567861757E-002
   4.0764018724322310E-002  -7.6394799276103681E-003   3.1658689566435722E-002
   3.7797442139187051E-002  -3.5111482102184698E-003   3.3044919630237798E-002
   3.4830865554051904E-002   1.8539327446720488E-003   3.5087662759268445E-002
   4.2927907702020596E-002  -1.2256300085223770E-002   3.5165294576318062E-002
   4.0535857359996152E-002  -1.1228780358400359E-002   3.5885305667028605E-002
   3.8143807017971709E-002  -9.6760505350890064E-003   3.7097856178732458E-002
   3.5751756675947197E-002  -7.5981106152888910E-003   3.8802946111429815E-002
   3.3359706333922823E-002  -4.9949605990008417E-003   4.1000575465119704E-002
   3.9006457821937582E-002  -1.2326704520549986E-002   3.9203276573054099E-002
   3.7024960078788749E-002  -1.1926498309297456E-002   3.9858555680119354E-002
   3.5043462335639937E-002  -1.1712621142567263E-002   4.0842400563942428E-002
   3.3061964592491153E-002  -1.1685073020359314E-002   4.2154811224524261E-002
   3.1080466849342292E-002  -1.1843853942673621E-002   4.3795787661863428E-002
   3.4932822254343660E-002  -1.2397108955876104E-002   4.2969714624724722E-002
   3.3197903465835371E-002  -1.2624216260194485E-002   4.2848722607133724E-002
   3.1462984677327104E-002  -1.3749191750045599E-002   4.2892322722066015E-002
   2.9728065888818812E-002  -1.5772035425429737E-002   4.3100514969521109E-002
   2.7993147100310534E-002  -1.8692747286346456E-002   4.3473299349499117E-002
   3.0707000999238815E-002  -1.2467513391202500E-002   4.6464608731329460E-002
   2.9054687521135991E-002  -1.3321934211091735E-002   4.4855806448072244E-002
   2.7402374043033154E-002  -1.5785762357524227E-002   4.3247622653102752E-002
   2.5750060564930267E-002  -1.9858997830500120E-002   4.1640057346421303E-002
   2.4097747086827437E-002  -2.5541640630019291E-002   4.0033110528027605E-002
   5.7147424142002939E-002   0.0000000000000000        3.4687361769598274E-002
   5.7932207614103261E-002  -2.0791668714968507E-003   3.8338230336862365E-002
   5.8716991086203582E-002  -4.1265770192937465E-003   4.2202289909037724E-002
   5.9501774558303903E-002  -6.1422304433906838E-003   4.6279540486124350E-002
   6.0286558030404225E-002  -8.1261271437876662E-003   5.0569982068122264E-002
   4.8645909488624552E-002   0.0000000000000000        3.2790920989918412E-002
   4.9578958810640936E-002  -1.7045744664316003E-003   3.6966605867912936E-002
   5.0512008132657334E-002  -3.4226252137005905E-003   4.1225631440828324E-002
   5.1445057454673718E-002  -5.1541522418069603E-003   4.5567997708664584E-002
   5.2378106776690116E-002  -6.8991555507507112E-003   4.9993704671421689E-002
   4.0724996079540519E-002   0.0000000000000000        3.1291689117572463E-002
   4.1676460941482571E-002  -1.3299820613663499E-003   3.5946957301760091E-002
   4.2627925803424629E-002  -2.7186734081074276E-003   4.0555715870878188E-002
   4.3579390665366688E-002  -4.1660740402232332E-003   4.5117964824926728E-002
   4.4530855527308726E-002  -5.6721839577137632E-003   4.9633704163905737E-002
   3.3384683914750857E-002   0.0000000000000000        3.0189666152560433E-002
   3.4224714006628167E-002  -9.5538965630109947E-004   3.5279284638403824E-002
   3.5064744098505476E-002  -2.0147216025142673E-003   4.0192543199187261E-002
   3.5904774190382779E-002  -3.1779958386395054E-003   4.4929441834910766E-002
   3.6744804282260103E-002  -4.4452123646768135E-003   4.9489980545574311E-002
   2.6624972994255546E-002   0.0000000000000000        2.9484852094882330E-002
   2.7223718006077705E-002  -5.8079725123584905E-004   3.4963587877844135E-002
   2.7822463017899864E-002  -1.3107697969211088E-003   4.0136113425755592E-002
   2.8421208029722023E-002  -2.1899176370557844E-003   4.5002428738616679E-002
   2.9019953041544186E-002  -3.2182407716398621E-003   4.9562533816427425E-002
   6.0286558030404225E-002  -8.1261271437876662E-003   5.0569982068122264E-002
   6.0582683493005753E-002  -9.9980344526707076E-003   5.1510393861153990E-002
   6.0878808955607294E-002  -1.1677719702225775E-002   5.2237264830941543E-002
   6.1174934418208836E-002  -1.3165182892452909E-002   5.2750594977484938E-002
   6.1471059880810378E-002  -1.4460424023352063E-002   5.3050384300784105E-002
   5.2378106776690116E-002  -6.8991555507507112E-003   4.9993704671421689E-002
   5.2499871070023379E-002  -8.5572906964351929E-003   5.1224213456104041E-002
   5.2621635363356650E-002  -1.0028213234763723E-002   5.2319540725493989E-002
   5.2743399656689907E-002  -1.1311923165736298E-002   5.3279686479591630E-002
   5.2865163950023178E-002  -1.2408420489352930E-002   5.4104650718396874E-002
   4.4530855527308726E-002  -5.6721839577137632E-003   4.9633704163905737E-002
   4.4556617959325542E-002  -7.1165469401996964E-003   5.1149300488266665E-002
   4.4582380391342366E-002  -8.3787067673016628E-003   5.2608074605287054E-002
   4.4608142823359190E-002  -9.4586634390196930E-003   5.4010026514966884E-002
   4.4633905255376000E-002  -1.0356416955353786E-002   5.5355156217306217E-002
   3.6744804282260103E-002  -4.4452123646768135E-003   4.9489980545574311E-002
   3.6752924160912276E-002  -5.6758031839641791E-003   5.1285654957641799E-002
   3.6761044039564462E-002  -6.7292002998395935E-003   5.3102866470320607E-002
   3.6769163918216656E-002  -7.6054037123030908E-003   5.4941615083610687E-002
   3.6777283796868843E-002  -8.3044134213546474E-003   5.6801900797512045E-002
   2.9019953041544186E-002  -3.2182407716398621E-003   4.9562533816427425E-002
   2.9088789674783563E-002  -4.2350594277286834E-003   5.1633276864229534E-002
   2.9157626308022946E-002  -5.0796938323775537E-003   5.3803916320594732E-002
   2.9226462941262316E-002  -5.7521439855864826E-003   5.6074452185523017E-002
   2.9295299574501700E-002  -6.2524098873555090E-003   5.8444884459014440E-002
   6.1471059880810378E-002  -1.4460424023352063E-002   5.3050384300784105E-002
   6.0121656485370295E-002  -1.5461039804345603E-002   5.1633641550100785E-002
   5.8772253089930206E-002  -1.6064626944855803E-002   5.0667686625009575E-002
   5.7422849694490116E-002  -1.6271185444882708E-002   5.0152519525510530E-002
   5.6073446299050034E-002  -1.6080715304426271E-002   5.0088140251603616E-002
   5.2865163950023178E-002  -1.2408420489352930E-002   5.4104650718396874E-002
   5.1916578120080242E-002  -1.3255453036043519E-002   5.3366947737248246E-002
   5.0967992290137286E-002  -1.3790768636237962E-002   5.2980092061501768E-002
   5.0019406460194316E-002  -1.4014367289936311E-002   5.2944083691157398E-002
   4.9070820630251380E-002  -1.3926248997138527E-002   5.3258922626215163E-002
   4.4633905255376000E-002  -1.0356416955353786E-002   5.5355156217306217E-002
   4.3986196470740146E-002  -1.1049866267741420E-002   5.5211181311705104E-002
   4.3338487686104307E-002  -1.1516910327620145E-002   5.5318113191316097E-002
   4.2690778901468447E-002  -1.1757549134989942E-002   5.5675951856139147E-002
   4.2043070116832615E-002  -1.1771782689850789E-002   5.6284697306174247E-002
   3.6777283796868843E-002  -8.3044134213546474E-003   5.6801900797512045E-002
   3.6330511537350063E-002  -8.8442794994393267E-003   5.7166342273471268E-002
   3.5883739277831263E-002  -9.2430520190023152E-003   5.7681750014452561E-002
   3.5436967018312476E-002  -9.5007309800435695E-003   5.8348124020455867E-002
   3.4990194758793683E-002  -9.6173163825630757E-003   5.9165464291481236E-002
   2.9295299574501700E-002  -6.2524098873555090E-003   5.8444884459014440E-002
   2.8949523319909937E-002  -6.6386927311372322E-003   5.9232430622546822E-002
   2.8603747065318170E-002  -6.9691937103844998E-003   6.0071002530911188E-002
   2.8257970810726396E-002  -7.2439128250971728E-003   6.0960600184107538E-002
   2.7912194556134633E-002  -7.4628500752753346E-003   6.1901223582135900E-002
   5.6073446299050034E-002  -1.6080715304426271E-002   5.0088140251603616E-002
   5.4598711418965551E-002  -1.5739766419839471E-002   4.9748905166037902E-002
   5.3123976538881040E-002  -1.5494888687475315E-002   4.9514563029730806E-002
   5.1649241658796557E-002  -1.5346082107333826E-002   4.9385113842682335E-002
   5.0174506778712047E-002  -1.5293346679414982E-002   4.9360557604892469E-002
   4.9070820630251380E-002  -1.3926248997138527E-002   5.3258922626215163E-002
   4.7721898584545376E-002  -1.3699055173165976E-002   5.2850664062964424E-002
   4.6372976538839331E-002  -1.3505427233339942E-002   5.2589138219212163E-002
   4.5024054493133278E-002  -1.3345365177660648E-002   5.2474345094958005E-002
   4.3675132447427267E-002  -1.3218869006127870E-002   5.2506284690202312E-002
   4.2043070116832615E-002  -1.1771782689850789E-002   5.6284697306174247E-002
   4.0861800675744707E-002  -1.1658343926492447E-002   5.5869920533314757E-002
   3.9680531234656813E-002  -1.1515965779204678E-002   5.5643716250193209E-002
   3.8499261793568912E-002  -1.1344648247987438E-002   5.5606084456809653E-002
   3.7317992352480997E-002  -1.1144391332840689E-002   5.5757025153163962E-002
   3.4990194758793683E-002  -9.6173163825630757E-003   5.9165464291481236E-002
   3.4018417692563592E-002  -9.6176326798189625E-003   5.8806674577088894E-002
   3.3046640626333501E-002  -9.5265043250693585E-003   5.8678297122674201E-002
   3.2074863560103389E-002  -9.3439313183142306E-003   5.8780331928237145E-002
   3.1103086493873323E-002  -9.0699136595535565E-003   5.9112778993777704E-002
   2.7912194556134633E-002  -7.4628500752753346E-003   6.1901223582135900E-002
   2.7191749635002010E-002  -7.5769214331454504E-003   6.1660926194286841E-002
   2.6471304713869378E-002  -7.5370428709340478E-003   6.1692880836655029E-002
   2.5750859792736752E-002  -7.3432143886410384E-003   6.1997087509240580E-002
   2.5030414871604123E-002  -6.9954359862663962E-003   6.2573546212043418E-002
   5.0174506778712047E-002  -1.5293346679414982E-002   4.9360557604892469E-002
   4.8604387457496165E-002  -1.5231627192062711E-002   4.8713600419529629E-002
   4.7034268136280241E-002  -1.5055868433620841E-002   4.8325683869311895E-002
   4.5464148815064331E-002  -1.4766070404089256E-002   4.8196807954239369E-002
   4.3894029493848435E-002  -1.4362233103468125E-002   4.8326972674312130E-002
   4.3675132447427267E-002  -1.3218869006127870E-002   5.2506284690202312E-002
   4.2350302973308489E-002  -1.3069855053744805E-002   5.2084131311598142E-002
   4.1025473499189689E-002  -1.2842239655514655E-002   5.1893516992043039E-002
   3.9700644025070883E-002  -1.2536022811437281E-002   5.1934441731536815E-002
   3.8375814550952084E-002  -1.2151204521512859E-002   5.2206905530079700E-002
   3.7317992352480997E-002  -1.1144391332840689E-002   5.5757025153163962E-002
   3.6210951149363138E-002  -1.0908082915426935E-002   5.5524237756076199E-002
   3.5103909946245244E-002  -1.0628610877408465E-002   5.5495487841941166E-002
   3.3996868743127365E-002  -1.0305975218785388E-002   5.5670775410758946E-002
   3.2889827540009485E-002  -9.9401759395575662E-003   5.6050100462529548E-002
   3.1103086493873323E-002  -9.0699136595535565E-003   5.9112778993777704E-002
   3.0186331985660106E-002  -8.7463107771089919E-003   5.9033919752963758E-002
   2.9269577477446899E-002  -8.4149820993022501E-003   5.9131596419006324E-002
   2.8352822969233710E-002  -8.0759276261334265E-003   5.9405808991905507E-002
   2.7436068461020501E-002  -7.7291473576022035E-003   5.9856557471661229E-002
   2.5030414871604123E-002  -6.9954359862663962E-003   6.2573546212043418E-002
   2.4276445482199399E-002  -6.5845386387911875E-003   6.2613177302260875E-002
   2.3522476092794682E-002  -6.2013533211961180E-003   6.2801842723238632E-002
   2.2768506703389962E-002  -5.8458800334815000E-003   6.3139542474976801E-002
   2.2014537313985227E-002  -5.5181187756469519E-003   6.3626276557475381E-002
   4.3894029493848435E-002  -1.4362233103468125E-002   4.8326972674312130E-002
   4.2288282802695726E-002  -1.3925469529536494E-002   4.7937675003837943E-002
   4.0682536111543002E-002  -1.3536892680073256E-002   4.7721911293709701E-002
   3.9076789420390286E-002  -1.3196502555078333E-002   4.7679681543927113E-002
   3.7471042729237569E-002  -1.2904299154551879E-002   4.7810985754490498E-002
   3.8375814550952084E-002  -1.2151204521512859E-002   5.2206905530079700E-002
   3.6945463722226485E-002  -1.1740556280113279E-002   5.1814133559958064E-002
   3.5515112893500823E-002  -1.1356849581610429E-002   5.1598619354344705E-002
   3.4084762064775190E-002  -1.1000084426004544E-002   5.1560362913239760E-002
   3.2654411236049549E-002  -1.0670260813295473E-002   5.1699364236643258E-002
   3.2889827540009485E-002  -9.9401759395575662E-003   5.6050100462529548E-002
   3.1638596377873536E-002  -9.5556430306900919E-003   5.5675099374331655E-002
   3.0387365215737577E-002  -9.1768064831477605E-003   5.5481079854805014E-002
   2.9136134053601617E-002  -8.8036662969306987E-003   5.5468041903949300E-002
   2.7884902891465661E-002  -8.4362224720389289E-003   5.5635985521764464E-002
   2.7436068461020501E-002  -7.7291473576022035E-003   5.9856557471661229E-002
   2.6367680769636873E-002  -7.3707297812667799E-003   5.9520572446959089E-002
   2.5299293078253213E-002  -6.9967633846850126E-003   5.9369292795090532E-002
   2.4230905386869558E-002  -6.6072481678567706E-003   5.9402718516055518E-002
   2.3162517695485954E-002  -6.2021841307823983E-003   5.9620849609854254E-002
   2.2014537313985227E-002  -5.5181187756469519E-003   6.3626276557475381E-002
   2.1132716897516501E-002  -5.1858165318436622E-003   6.3350552777840297E-002
   2.0250896481047775E-002  -4.8167202862222508E-003   6.3263258175201342E-002
   1.9369076064579056E-002  -4.4108300387830611E-003   6.3364392749558754E-002
   1.8487255648110310E-002  -3.9681457895259231E-003   6.3653956500912379E-002
   3.7471042729237569E-002  -1.2904299154551879E-002   4.7810985754490498E-002
   3.5780032296737874E-002  -1.2675917515623442E-002   4.7272536885464067E-002
   3.4089021864238192E-002  -1.2526992675422455E-002   4.6868657758595084E-002
   3.2398011431738517E-002  -1.2457524633948530E-002   4.6599348373883548E-002
   3.0707000999238815E-002  -1.2467513391202500E-002   4.6464608731329460E-002
   3.2654411236049549E-002  -1.0670260813295473E-002   5.1699364236643258E-002
   3.1120830171945474E-002  -1.0371362183329902E-002   5.1173715531800085E-002
   2.9587249107841350E-002  -1.0107371975954821E-002   5.0828355821590746E-002
   2.8053668043737257E-002  -9.8782901911699875E-003   5.0663285106015220E-002
   2.6520086979633165E-002  -9.6841168289755752E-003   5.0678503385073181E-002
   2.7884902891465661E-002  -8.4362224720389289E-003   5.5635985521764464E-002
   2.6554470448233419E-002  -8.0668068510364316E-003   5.5167685357241897E-002
   2.5224038005001153E-002  -7.6877512764872979E-003   5.4925393439829176E-002
   2.3893605561768887E-002  -7.2990557483913338E-003   5.4909109769526399E-002
   2.2563173118536624E-002  -6.9007202667488443E-003   5.5118834346333731E-002
   2.3162517695485954E-002  -6.2021841307823983E-003   5.9620849609854254E-002
   2.2080953125601759E-002  -5.7622515187430098E-003   5.9254446361789080E-002
   2.0999388555717580E-002  -5.2681305770196640E-003   5.9159770613310028E-002
   1.9917823985833420E-002  -4.7198213056127356E-003   5.9336822364417195E-002
   1.8836259415949234E-002  -4.1173237045221273E-003   5.9785601615110665E-002
   1.8487255648110310E-002  -3.9681457895259231E-003   6.3653956500912379E-002
   1.7700278204050485E-002  -3.4576961864494771E-003   6.3433998545441628E-002
   1.6913300759990653E-002  -2.8485098775521411E-003   6.3531487342033427E-002
   1.6126323315930825E-002  -2.1405868628339708E-003   6.3946422890687776E-002
   1.5339345871870982E-002  -1.3339271422952437E-003   6.4678805191404398E-002
   3.0707000999238815E-002  -1.2467513391202500E-002   4.6464608731329460E-002
   2.9054687521135991E-002  -1.3321934211091735E-002   4.4855806448072244E-002
   2.7402374043033154E-002  -1.5785762357524227E-002   4.3247622653102752E-002
   2.5750060564930267E-002  -1.9858997830500120E-002   4.1640057346421303E-002
   2.4097747086827437E-002  -2.5541640630019291E-002   4.0033110528027605E-002
   2.6520086979633165E-002  -9.6841168289755752E-003   5.0678503385073181E-002
   2.4894757245513141E-002  -9.9385079291906264E-003   4.8090252601634326E-002
   2.3269427511393152E-002  -1.1055119531633517E-002   4.5555350817873208E-002
   2.1644097777273118E-002  -1.3033951636304802E-002   4.3073798033789717E-002
   2.0018768043153112E-002  -1.5875004243204316E-002   4.0645594249384520E-002
   2.2563173118536624E-002  -6.9007202667488443E-003   5.5118834346333731E-002
   2.1017557639789394E-002  -6.5550816472894624E-003   5.2298321887028182E-002
   1.9471942161042134E-002  -6.3244767057430221E-003   4.9583888938790656E-002
   1.7926326682294914E-002  -6.2089054421097054E-003   4.6975535501620563E-002
   1.6380711203547615E-002  -6.2083678563892297E-003   4.4473261575518230E-002
   1.8836259415949234E-002  -4.1173237045221273E-003   5.9785601615110665E-002
   1.7423088703964713E-002  -3.1716553653882706E-003   5.7480014304254146E-002
   1.6009917991980187E-002  -1.5938338798525860E-003   5.5333237015855068E-002
   1.4596747279995595E-002   6.1614075208550178E-004   5.3345269749913854E-002
   1.3183576568011113E-002   3.4582685304258565E-003   5.1516112506430095E-002
   1.5339345871870982E-002  -1.3339271422952437E-003   6.4678805191404398E-002
   1.4111350438039100E-002   2.1177091651281010E-004   6.3635329853311717E-002
   1.2883355004207210E-002   3.1368089460380860E-003   6.2803395049066596E-002
   1.1655359570375317E-002   7.4411869462806847E-003   6.2183000778669242E-002
   1.0427364136543438E-002   1.3124904917240832E-002   6.1774147042118921E-002
   2.6624972994255546E-002   0.0000000000000000        2.9484852094882330E-002
   2.7223718006077705E-002  -5.8079725123584905E-004   3.4963587877844135E-002
   2.7822463017899864E-002  -1.3107697969211088E-003   4.0136113425755592E-002
   2.8421208029722023E-002  -2.1899176370557844E-003   4.5002428738616679E-002
   2.9019953041544186E-002  -3.2182407716398621E-003   4.9562533816427425E-002
   2.0108854458504407E-002   0.0000000000000000        2.9041918691291628E-002
   2.0440520230824717E-002  -4.3559793858059630E-004   3.4335840612360870E-002
   2.0772186003145024E-002  -9.8307734798186528E-004   3.9401814289476769E-002
   2.1103851775465334E-002  -1.6424382282038096E-003   4.4239839722639326E-002
   2.1435517547785641E-002  -2.4136805792464230E-003   4.8849916911848507E-002
   1.3499319447947248E-002   0.0000000000000000        2.8725537688541806E-002
   1.3642167971862712E-002  -2.9039862592534355E-004   3.3871939571347223E-002
   1.3785016495778174E-002  -6.5538489904262177E-004   3.8868655201296308E-002
   1.3927865019693637E-002  -1.0949588193518338E-003   4.3715684578389043E-002
   1.4070713543609097E-002  -1.6091203868529762E-003   4.8413027702625434E-002
   6.7963679625840673E-003   0.0000000000000000        2.8535709086632874E-002
   6.8286612291916897E-003  -1.4519931327009166E-004   3.3571884754803216E-002
   6.8609544957993103E-003  -3.2769245010337653E-004   3.8536636161214222E-002
   6.8932477624069326E-003  -5.4747941049985852E-004   4.3429963305865890E-002
   6.9255410290145541E-003  -8.0456019445953328E-004   4.8251866188758187E-002
   2.4148660501821517E-012   0.0000000000000000        2.8472432885564822E-002
   2.8116519529275408E-012  -6.1483804159045974E-013   3.3435676162728814E-002
   3.2084369883111918E-012  -1.1641347608115638E-012   3.8405757169230482E-002
   3.6052224573757119E-012  -1.6478866882163601E-012   4.3382675905069806E-002
   4.0020070590784940E-012  -2.0660886196344208E-012   4.8366432370246806E-002
   2.9019953041544186E-002  -3.2182407716398621E-003   4.9562533816427425E-002
   2.9088789674783563E-002  -4.2350594277286834E-003   5.1633276864229534E-002
   2.9157626308022946E-002  -5.0796938323775537E-003   5.3803916320594732E-002
   2.9226462941262316E-002  -5.7521439855864826E-003   5.6074452185523017E-002
   2.9295299574501700E-002  -6.2524098873555090E-003   5.8444884459014440E-002
   2.1435517547785641E-002  -2.4136805792464230E-003   4.8849916911848507E-002
   2.1574974197904887E-002  -3.1762945714071209E-003   5.1261676277561605E-002
   2.1714430848024137E-002  -3.8097703749833071E-003   5.3714779268471312E-002
   2.1853887498143380E-002  -4.3141079899750075E-003   5.6209225884577670E-002
   2.1993344148262633E-002  -4.6893074163821824E-003   5.8745016125880650E-002
   1.4070713543609097E-002  -1.6091203868529762E-003   4.8413027702625434E-002
   1.4222237427241744E-002  -2.1175297150855454E-003   5.1122757323394073E-002
   1.4373761310874389E-002  -2.5398469175890595E-003   5.3815277785992856E-002
   1.4525285194507031E-002  -2.8760719943634783E-003   5.6490589090421837E-002
   1.4676809078139676E-002  -3.1262049454088420E-003   5.9148691236680914E-002
   6.9255410290145541E-003  -8.0456019445953328E-004   4.8251866188758187E-002
   7.0305793627941232E-003  -1.0587648587639729E-003   5.1216520001726953E-002
   7.1356176965736932E-003  -1.2699234601948124E-003   5.4105411873159412E-002
   7.2406560303532614E-003  -1.4380359987519657E-003   5.6918541803055528E-002
   7.3456943641328348E-003  -1.5631024744355293E-003   5.9655909791415371E-002
   4.0020070590784940E-012  -2.0660886196344208E-012   4.8366432370246806E-002
   4.5620308745941696E-012  -2.4424108568954495E-012   5.1542964312560238E-002
   5.1220538227481072E-012  -2.8005562278943241E-012   5.4585181529970897E-002
   5.6820776382637828E-012  -3.1404613068039544E-012   5.7493084022478776E-002
   6.2421005864177204E-012  -3.4621888689301272E-012   6.0266671790083853E-002
   2.9295299574501700E-002  -6.2524098873555090E-003   5.8444884459014440E-002
   2.8949523319909937E-002  -6.6386927311372322E-003   5.9232430622546822E-002
   2.8603747065318170E-002  -6.9691937103844998E-003   6.0071002530911188E-002
   2.8257970810726396E-002  -7.2439128250971728E-003   6.0960600184107538E-002
   2.7912194556134633E-002  -7.4628500752753346E-003   6.1901223582135900E-002
   2.1993344148262633E-002  -4.6893074163821824E-003   5.8745016125880650E-002
   2.1707448218305097E-002  -4.9790195493140225E-003   5.9575646356781684E-002
   2.1421552288347558E-002  -5.2268952838796963E-003   6.0475011492119229E-002
   2.1135656358390008E-002  -5.4329346200792010E-003   6.1443111531893205E-002
   2.0849760428432479E-002  -5.5971375579125515E-003   6.2479946476103609E-002
   1.4676809078139676E-002  -3.1262049454088420E-003   5.9148691236680914E-002
   1.4468502632420820E-002  -3.3193463674907730E-003   6.0008460068782327E-002
   1.4260196186701962E-002  -3.4845968573749206E-003   6.0954672964924621E-002
   1.4051889740983103E-002  -3.6219564150612293E-003   6.1987329925107790E-002
   1.3843583295264252E-002  -3.7314250405497823E-003   6.3106430949331938E-002
   7.3456943641328348E-003  -1.5631024744355293E-003   5.9655909791415371E-002
   7.2326865622571127E-003  -1.6596731856675503E-003   6.0530871758548703E-002
   7.1196787603813923E-003  -1.7422984308701657E-003   6.1509986949327383E-002
   7.0066709585056711E-003  -1.8109782100432644E-003   6.2593255363751418E-002
   6.8936631566299516E-003  -1.8657125231870200E-003   6.3780677001820885E-002
   6.2421005864177204E-012  -3.4621888689301272E-012   6.0266671790083853E-002
   7.8139725592785148E-012  -3.8442998784304905E-012   6.1142881426080743E-002
   9.3858427974158332E-012  -4.3653344827809804E-012   6.2140953445327496E-002
   1.0957714770276628E-011  -5.0252840083642170E-012   6.3260887847824049E-002
   1.2529585008413946E-011  -5.8242161093957634E-012   6.4502684633570409E-002
   2.7912194556134633E-002  -7.4628500752753346E-003   6.1901223582135900E-002
   2.7191749635002010E-002  -7.5769214331454504E-003   6.1660926194286841E-002
   2.6471304713869378E-002  -7.5370428709340478E-003   6.1692880836655029E-002
   2.5750859792736752E-002  -7.3432143886410384E-003   6.1997087509240580E-002
   2.5030414871604123E-002  -6.9954359862663962E-003   6.2573546212043418E-002
   2.0849760428432479E-002  -5.5971375579125515E-003   6.2479946476103609E-002
   2.0378532337643196E-002  -5.6826910762970625E-003   6.2407577063221052E-002
   1.9907304246853913E-002  -5.6527821541499865E-003   6.2561389280807816E-002
   1.9436076156064640E-002  -5.5074107914714187E-003   6.2941383128864103E-002
   1.8964848065275354E-002  -5.2465769882612256E-003   6.3547558607389698E-002
   1.3843583295264252E-002  -3.7314250405497823E-003   6.3106430949331938E-002
   1.3575501635070410E-002  -3.7884607194486747E-003   6.3163502031865881E-002
   1.3307419974876559E-002  -3.7685214373660049E-003   6.3400684345121319E-002
   1.3039338314682710E-002  -3.6716071943018397E-003   6.3817977889098224E-002
   1.2771256654488864E-002  -3.4977179902560829E-003   6.4415382663796650E-002
   6.8936631566299516E-003  -1.8657125231870200E-003   6.3780677001820885E-002
   6.7826575272836274E-003  -1.8942303626002729E-003   6.3928701100221294E-002
   6.6716518979373059E-003  -1.8842607205820112E-003   6.4210766029595287E-002
   6.5606462685909835E-003  -1.8358035971322681E-003   6.4626871789942891E-002
   6.4496406392446594E-003  -1.7488589922509540E-003   6.5177018381263996E-002
   1.2529585008413946E-011  -5.8242161093957634E-012   6.4502684633570409E-002
   1.4282871760307181E-011  -5.7518781404475305E-012   6.4703174268287339E-002
   1.6036155042753464E-011  -3.7979723532810539E-012   6.4991634334229942E-002
   1.7789438325199747E-011   3.7287013754383480E-014   6.5368064831398148E-002
   1.9542725077092982E-011   5.7542304254809551E-012   6.5832465759792097E-002
   2.5030414871604123E-002  -6.9954359862663962E-003   6.2573546212043418E-002
   2.4276445482199399E-002  -6.5845386387911875E-003   6.2613177302260875E-002
   2.3522476092794682E-002  -6.2013533211961180E-003   6.2801842723238632E-002
   2.2768506703389962E-002  -5.8458800334815000E-003   6.3139542474976801E-002
   2.2014537313985227E-002  -5.5181187756469519E-003   6.3626276557475381E-002
   1.8964848065275354E-002  -5.2465769882612256E-003   6.3547558607389698E-002
   1.8369777510019628E-002  -4.9384039758955667E-003   6.3444781570487663E-002
   1.7774706954763891E-002  -4.6510149857505942E-003   6.3510767871123100E-002
   1.7179636399508154E-002  -4.3844100178262024E-003   6.3745517509296357E-002
   1.6584565844252434E-002  -4.1385890721223340E-003   6.4149030485007086E-002
   1.2771256654488864E-002  -3.4977179902560829E-003   6.4415382663796650E-002
   1.2354813940159380E-002  -3.2922693130000985E-003   6.4177125507434679E-002
   1.1938371225829891E-002  -3.1006766503050148E-003   6.4127360695387561E-002
   1.1521928511500412E-002  -2.9229400021709047E-003   6.4266088227655338E-002
   1.1105485797170925E-002  -2.7590593685977438E-003   6.4593308104238065E-002
   6.4496406392446594E-003  -1.7488589922509540E-003   6.5177018381263996E-002
   6.2315547726186690E-003  -1.6461346501045124E-003   6.4810209113101883E-002
   6.0134689059926812E-003  -1.5503383148594632E-003   6.4651621196031822E-002
   5.7953830393666960E-003  -1.4614699865156348E-003   6.4701254630053925E-002
   5.5772971727407090E-003  -1.3795296650731675E-003   6.4959109415168151E-002
   1.9542725077092982E-011   5.7542304254809551E-012   6.5832465759792097E-002
   7.3974923409103610E-012   1.2790962733433275E-011   6.5344032387489315E-002
  -4.7477386605487837E-012   2.0586060633931424E-011   6.5083549373055966E-002
  -1.6892969662007928E-011   2.9139600454808345E-011   6.5051016716492063E-002
  -2.9038202398190549E-011   3.8451408723716440E-011   6.5246434417797428E-002
   2.2014537313985227E-002  -5.5181187756469519E-003   6.3626276557475381E-002
   2.1132716897516501E-002  -5.1858165318436622E-003   6.3350552777840297E-002
   2.0250896481047775E-002  -4.8167202862222508E-003   6.3263258175201342E-002
   1.9369076064579056E-002  -4.4108300387830611E-003   6.3364392749558754E-002
   1.8487255648110310E-002  -3.9681457895259231E-003   6.3653956500912379E-002
   1.6584565844252434E-002  -4.1385890721223340E-003   6.4149030485007086E-002
   1.5899181085649521E-002  -3.8893623872516547E-003   6.3864399360079094E-002
   1.5213796327046610E-002  -3.6125402018263725E-003   6.3784210373886499E-002
   1.4528411568443712E-002  -3.3081225158469417E-003   6.3908463526429371E-002
   1.3843026809840800E-002  -2.9761093293128593E-003   6.4237158817707529E-002
   1.1105485797170925E-002  -2.7590593685977438E-003   6.4593308104238065E-002
   1.0632549658173028E-002  -2.5929082426596056E-003   6.4290571132753646E-002
   1.0159613519175124E-002  -2.4083601174306121E-003   6.4208289261743712E-002
   9.6866773801772329E-003  -2.2054149929106020E-003   6.4346462491208400E-002
   9.2137412411793344E-003  -1.9840728690998233E-003   6.4705090821147809E-002
   5.5772971727407090E-003  -1.3795296650731675E-003   6.4959109415168151E-002
   5.3328226150869996E-003  -1.2964540980676051E-003   6.4629068095863648E-002
   5.0883480574332954E-003  -1.2041800330347095E-003   6.4535494838773022E-002
   4.8438734997795947E-003  -1.1027074699744279E-003   6.4678389643896245E-002
   4.5993989421258810E-003  -9.9203640888677336E-004   6.5057752511233108E-002
  -2.9038202398190549E-011   3.8451408723716440E-011   6.5246434417797428E-002
  -4.3608533450978371E-011   4.6524423202853882E-011   6.4879890249409489E-002
  -5.8178864503766192E-011   5.1361123687421184E-011   6.4765827104974499E-002
  -7.2749194689192276E-011   5.2961853652666591E-011   6.4904244984492501E-002
  -8.7319526609341835E-011   5.1326276562235762E-011   6.5295143887963425E-002
   1.8487255648110310E-002  -3.9681457895259231E-003   6.3653956500912379E-002
   1.7700278204050485E-002  -3.4576961864494771E-003   6.3433998545441628E-002
   1.6913300759990653E-002  -2.8485098775521411E-003   6.3531487342033427E-002
   1.6126323315930825E-002  -2.1405868628339708E-003   6.3946422890687776E-002
   1.5339345871870982E-002  -1.3339271422952437E-003   6.4678805191404398E-002
   1.3843026809840800E-002  -2.9761093293128593E-003   6.4237158817707529E-002
   1.3343320519797419E-002  -2.5932721286803795E-003   6.4088363150530570E-002
   1.2843614229754018E-002  -2.1363824004053122E-003   6.4196663039323948E-002
   1.2343907939710620E-002  -1.6054401444878935E-003   6.4562058484087720E-002
   1.1844201649667235E-002  -1.0004453609278596E-003   6.5184549484821885E-002
   9.2137412411793344E-003  -1.9840728690998233E-003   6.4705090821147809E-002
   8.9409549090603037E-003  -1.7288480709113652E-003   6.4602773264086172E-002
   8.6681685769412885E-003  -1.4242549232586499E-003   6.4697200066902896E-002
   8.3953822448222734E-003  -1.0702934261416497E-003   6.4988371229598052E-002
   8.1225959127032531E-003  -6.6696357956044783E-004   6.5476286752171528E-002
   4.5993989421258810E-003  -9.9203640888677336E-004   6.5057752511233108E-002
   4.4931813718391903E-003  -8.6442401314242023E-004   6.4977228886108560E-002
   4.3869638015524934E-003  -7.1212744611201528E-004   6.5033098424770494E-002
   4.2807462312657923E-003  -5.3514670779548912E-004   6.5225361127218773E-002
   4.1745286609790990E-003  -3.3348179819316093E-004   6.5554016993453104E-002
  -8.7319526609341835E-011   5.1326276562235762E-011   6.5295143887963425E-002
  -9.1865955814673939E-011   4.4626774498013333E-011   6.5211730016597969E-002
  -9.6412391958899946E-011   3.1034730341161776E-011   6.5204358112926658E-002
  -1.0095882810312595E-010   1.0550699203193403E-011   6.5273028176949632E-002
  -1.0550525730845806E-010  -1.6825651982799172E-011   6.5417740208666753E-002
   1.5339345871870982E-002  -1.3339271422952437E-003   6.4678805191404398E-002
   1.4111350438039100E-002   2.1177091651281010E-004   6.3635329853311717E-002
   1.2883355004207210E-002   3.1368089460380860E-003   6.2803395049066596E-002
   1.1655359570375317E-002   7.4411869462806847E-003   6.2183000778669242E-002
   1.0427364136543438E-002   1.3124904917240832E-002   6.1774147042118921E-002
   1.1844201649667235E-002  -1.0004453609278596E-003   6.5184549484821885E-002
   1.0851611331672444E-002   1.5882817212745093E-004   6.5145399684991140E-002
   9.8590210136776726E-003   2.3526066765305192E-003   6.5365519582986892E-002
   8.8664306956828878E-003   5.5808901522814806E-003   6.5844909178809474E-002
   7.8738403776880961E-003   9.8436785993804010E-003   6.6583568472458166E-002
   8.1225959127032531E-003  -6.6696357956044783E-004   6.5476286752171528E-002
   7.4131398745245838E-003   1.0588542774214726E-004   6.6096627491233004E-002
   6.7036838363459268E-003   1.5684044070230566E-003   6.7023967092100345E-002
   5.9942277981672619E-003   3.7205933582823304E-003   6.8258305554772913E-002
   5.2847717599885935E-003   6.5624522815198594E-003   6.9799642879251611E-002
   4.1745286609790990E-003  -3.3348179819316093E-004   6.5554016993453104E-002
   3.7959360665955483E-003   5.2942683356871356E-005   6.6489013272037642E-002
   3.4173434722119971E-003   7.8420213751543080E-004   6.7778737576406636E-002
   3.0387508778284495E-003   1.8602965642831532E-003   6.9423189906560517E-002
   2.6601582834448814E-003   3.2812259636594288E-003   7.1422370262498577E-002
  -1.0550525730845806E-010  -1.6825651982799172E-011   6.5417740208666753E-002
  -9.2114687405553397E-011  -6.1028460063283774E-011   6.6322557027404638E-002
  -7.8724127910989594E-011  -1.3199191739587945E-010   6.7629831035905974E-002
  -6.5333561477531887E-011  -2.2971606561394964E-010   6.9339562234171037E-002
  -5.1942991574627229E-011  -3.5420111288431144E-010   7.1451750622199883E-002
   2.4148660501821517E-012   0.0000000000000000        2.8472432885564822E-002
   2.8116519529275408E-012  -6.1483804159045974E-013   3.3435676162728814E-002
   3.2084369883111918E-012  -1.1641347608115638E-012   3.8405757169230482E-002
   3.6052224573757119E-012  -1.6478866882163601E-012   4.3382675905069806E-002
   4.0020070590784940E-012  -2.0660886196344208E-012   4.8366432370246806E-002
  -6.7963679578482107E-003   0.0000000000000000        2.8535709085417364E-002
  -6.8286612236916422E-003   1.4519931219984707E-004   3.3571884753501667E-002
  -6.8609544895350738E-003   3.2769244809398388E-004   3.8536636159767865E-002
  -6.8932477553785053E-003   5.4747940768240869E-004   4.3429963304215974E-002
  -6.9255410212219343E-003   8.0456019096513537E-004   4.8251866186845974E-002
  -1.3499319443493019E-002   0.0000000000000000        2.8725537686270224E-002
  -1.3642167966732430E-002   2.9039862501452959E-004   3.3871939568903581E-002
  -1.3785016489971845E-002   6.5538489735209905E-004   3.8868655198563064E-002
  -1.3927865013211258E-002   1.0949588170127058E-003   4.3715684575248687E-002
  -1.4070713536450669E-002   1.6091203839963516E-003   4.8413027698960449E-002
  -2.0108854454519556E-002   0.0000000000000000        2.9041918688123388E-002
  -2.0440520226310717E-002   4.3559793782921297E-004   3.4335840608934527E-002
  -2.0772185998101874E-002   9.8307734661021336E-004   3.9401814285616066E-002
  -2.1103851769893035E-002   1.6424382263430020E-003   4.4239839718167959E-002
  -2.1435517541684199E-002   2.4136805770275751E-003   4.8849916906590234E-002
  -2.6624972990927826E-002   0.0000000000000000        2.9484852090976864E-002
  -2.7223718002426497E-002   5.8079725064389721E-004   3.4963587873594562E-002
  -2.7822463013925169E-002   1.3107697958683311E-003   4.0136113420926871E-002
  -2.8421208025423840E-002   2.1899176356732965E-003   4.5002428732973776E-002
  -2.9019953036922511E-002   3.2182407700587900E-003   4.9562533809735292E-002
   4.0020070590784940E-012  -2.0660886196344208E-012   4.8366432370246806E-002
   4.5620308745941696E-012  -2.4424108568954495E-012   5.1542964312560238E-002
   5.1220538227481072E-012  -2.8005562278943241E-012   5.4585181529970897E-002
   5.6820776382637828E-012  -3.1404613068039544E-012   5.7493084022478776E-002
   6.2421005864177204E-012  -3.4621888689301272E-012   6.0266671790083853E-002
  -6.9255410212219343E-003   8.0456019096513537E-004   4.8251866186845974E-002
  -7.0305793539347274E-003   1.0587648546778118E-003   5.1216519999376500E-002
  -7.1356176866475222E-003   1.2699234555561094E-003   5.4105411870264165E-002
  -7.2406560193603135E-003   1.4380359936000267E-003   5.6918541799508990E-002
  -7.3456943520731083E-003   1.5631024688095921E-003   5.9655909787110967E-002
  -1.4070713536450669E-002   1.6091203839963516E-003   4.8413027698960449E-002
  -1.4222237419176345E-002   2.1175297117980423E-003   5.1122757318855475E-002
  -1.4373761301902025E-002   2.5398469139127676E-003   5.3815277780367592E-002
  -1.4525285184627704E-002   2.8760719903405427E-003   5.6490589083496780E-002
  -1.4676809067353382E-002   3.1262049410813661E-003   5.9148691228243074E-002
  -2.1435517541684199E-002   2.4136805770275751E-003   4.8849916906590234E-002
  -2.1574974191162825E-002   3.1762945689182724E-003   5.1261676270997182E-002
  -2.1714430840641459E-002   3.8097703722694332E-003   5.3714779260281155E-002
  -2.1853887490120086E-002   4.3141079870810620E-003   5.6209225874442145E-002
  -2.1993344139598719E-002   4.6893074133531436E-003   5.8745016113480132E-002
  -2.9019953036922511E-002   3.2182407700587900E-003   4.9562533809735292E-002
  -2.9088789669894165E-002   4.2350594260384946E-003   5.1633276855801602E-002
  -2.9157626302865818E-002   5.0796938306260919E-003   5.3803916310004841E-002
  -2.9226462935837468E-002   5.7521439838215394E-003   5.6074452172345038E-002
  -2.9295299568809122E-002   6.2524098856249349E-003   5.8444884442822170E-002
   6.2421005864177204E-012  -3.4621888689301272E-012   6.0266671790083853E-002
   7.8139725592785148E-012  -3.8442998784304905E-012   6.1142881426080743E-002
   9.3858427974158332E-012  -4.3653344827809804E-012   6.2140953445327496E-002
   1.0957714770276628E-011  -5.0252840083642170E-012   6.3260887847824049E-002
   1.2529585008413946E-011  -5.8242161093957634E-012   6.4502684633570409E-002
  -7.3456943520731083E-003   1.5631024688095921E-003   5.9655909787110967E-002
  -7.2326865471949381E-003   1.6596731794891566E-003   6.0530871753017010E-002
  -7.1196787423167722E-003   1.7422984239431529E-003   6.1509986942285856E-002
  -7.0066709374386029E-003   1.8109782021715633E-003   6.2593255354917485E-002
  -6.8936631325604396E-003   1.8657125141743891E-003   6.3780676990911861E-002
  -1.4676809067353382E-002   3.1262049410813661E-003   5.9148691228243074E-002
  -1.4468502619055959E-002   3.3193463628225992E-003   6.0008460057971634E-002
  -1.4260196170758539E-002   3.4845968522516126E-003   6.0954672951175931E-002
  -1.4051889722461115E-002   3.6219564093684107E-003   6.1987329907856006E-002
  -1.3843583274163698E-002   3.7314250341729874E-003   6.3106430928011756E-002
  -2.1993344139598719E-002   4.6893074133531436E-003   5.8745016113480132E-002
  -2.1707448207769087E-002   4.9790195461560278E-003   5.9575646340944588E-002
  -2.1421552275939455E-002   5.2268952805600653E-003   6.0475011471997728E-002
  -2.1135656344109827E-002   5.4329346165652437E-003   6.1443111506639538E-002
  -2.0849760412280188E-002   5.5971375541716446E-003   6.2479946444870080E-002
  -2.9295299568809122E-002   6.2524098856249349E-003   5.8444884442822170E-002
  -2.8949523313334329E-002   6.6386927294894912E-003   5.9232430601935886E-002
  -2.8603747057859522E-002   6.9691937088685527E-003   6.0071002504751211E-002
  -2.8257970802384721E-002   7.2439128237621105E-003   6.0960600151268217E-002
  -2.7912194546909921E-002   7.4628500741702047E-003   6.1901223541486847E-002
   1.2529585008413946E-011  -5.8242161093957634E-012   6.4502684633570409E-002
   1.4282871760307181E-011  -5.7518781404475305E-012   6.4703174268287339E-002
   1.6036155042753464E-011  -3.7979723532810539E-012   6.4991634334229942E-002
   1.7789438325199747E-011   3.7287013754383480E-014   6.5368064831398148E-002
   1.9542725077092982E-011   5.7542304254809551E-012   6.5832465759792097E-002
  -6.8936631325604396E-003   1.8657125141743891E-003   6.3780676990911861E-002
  -6.7826574999011570E-003   1.8942303538883598E-003   6.3928701090560647E-002
  -6.6716518672418805E-003   1.8842607152503923E-003   6.4210766020795715E-002
  -6.5606462345825997E-003   1.8358035982602317E-003   6.4626871781617176E-002
  -6.4496406019233215E-003   1.7488590029180184E-003   6.5177018373024892E-002
  -1.3843583274163698E-002   3.7314250341729874E-003   6.3106430928011756E-002
  -1.3575501611237741E-002   3.7884607135286567E-003   6.3163502012358763E-002
  -1.3307419948311784E-002   3.7685214342986998E-003   6.3400684326652773E-002
  -1.3039338285385832E-002   3.6716071964830650E-003   6.3817977870893841E-002
  -1.2771256622459874E-002   3.4977180000818620E-003   6.4415382645081898E-002
  -2.0849760412280188E-002   5.5971375541716446E-003   6.2479946444870080E-002
  -2.0378532319726882E-002   5.6826910731689519E-003   6.2407577033681758E-002
  -1.9907304227173558E-002   5.6527821533470220E-003   6.2561389251801186E-002
  -1.9436076134620259E-002   5.5074107947060092E-003   6.2941383099228310E-002
  -1.8964848042066940E-002   5.2465769972457055E-003   6.3547558575963087E-002
  -2.7912194546909921E-002   7.4628500741702047E-003   6.1901223541486847E-002
  -2.7191749625368571E-002   7.5769214328091986E-003   6.1660926154529686E-002
  -2.6471304703827220E-002   7.5370428723953685E-003   6.1692880796240905E-002
  -2.5750859782285876E-002   7.3432143929288004E-003   6.1997087466620499E-002
  -2.5030414860744515E-002   6.9954359944095212E-003   6.2573546165668487E-002
   1.9542725077092982E-011   5.7542304254809551E-012   6.5832465759792097E-002
   7.3974923409103610E-012   1.2790962733433275E-011   6.5344032387489315E-002
  -4.7477386605487837E-012   2.0586060633931424E-011   6.5083549373055966E-002
  -1.6892969662007928E-011   2.9139600454808345E-011   6.5051016716492063E-002
  -2.9038202398190549E-011   3.8451408723716440E-011   6.5246434417797428E-002
  -6.4496406019233215E-003   1.7488590029180184E-003   6.5177018373024892E-002
  -6.2315547588163676E-003   1.6461346723016662E-003   6.4810209103315461E-002
  -6.0134689157094129E-003   1.5503383494888737E-003   6.4651621186240987E-002
  -5.7953830726024634E-003   1.4614700344797466E-003   6.4701254621801513E-002
  -5.5772972294955044E-003   1.3795297272743423E-003   6.4959109409997051E-002
  -1.2771256622459874E-002   3.4977180000818620E-003   6.4415382645081898E-002
  -1.2354813929335129E-002   3.2922693318123003E-003   6.4177125485011061E-002
  -1.1938371236210384E-002   3.1006766783916867E-003   6.4127360672340789E-002
  -1.1521928543085648E-002   2.9229400398199760E-003   6.4266088207071193E-002
  -1.1105485849960902E-002   2.7590594160971926E-003   6.4593308089202148E-002
  -1.8964848042066940E-002   5.2465769972457055E-003   6.3547558575963087E-002
  -1.8369777504158791E-002   4.9384039913229691E-003   6.3444781532576100E-002
  -1.7774706966250650E-002   4.6510150072944165E-003   6.3510767831355397E-002
  -1.7179636428342519E-002   4.3844100451601916E-003   6.3745517472300769E-002
  -1.6584565890434368E-002   4.1385891049201678E-003   6.4149030455412454E-002
  -2.5030414860744515E-002   6.9954359944095212E-003   6.2573546165668487E-002
  -2.4276445483287366E-002   6.5845386508336101E-003   6.2613177246010704E-002
  -2.3522476105830220E-002   6.2013533361973336E-003   6.2801842663284688E-002
  -2.2768506728373078E-002   5.8458800505003430E-003   6.3139542417490563E-002
  -2.2014537350915925E-002   5.5181187937429765E-003   6.3626276508628177E-002
  -2.9038202398190549E-011   3.8451408723716440E-011   6.5246434417797428E-002
  -4.3608533450978371E-011   4.6524423202853882E-011   6.4879890249409489E-002
  -5.8178864503766192E-011   5.1361123687421184E-011   6.4765827104974499E-002
  -7.2749194689192276E-011   5.2961853652666591E-011   6.4904244984492501E-002
  -8.7319526609341835E-011   5.1326276562235762E-011   6.5295143887963425E-002
  -5.5772972294955044E-003   1.3795297272743423E-003   6.4959109409997051E-002
  -5.3328226999468991E-003   1.2964541723619882E-003   6.4629068088540242E-002
  -5.0883481703982957E-003   1.2041801142323311E-003   6.4535494831368403E-002
  -4.8438736408496835E-003   1.1027075528852147E-003   6.4678389638481354E-002
  -4.5993991113010869E-003   9.9203648832074665E-004   6.5057752509879302E-002
  -1.1105485849960902E-002   2.7590594160971926E-003   6.4593308089202148E-002
  -1.0632549735961411E-002   2.5929082981996782E-003   6.4290571114695147E-002
  -1.0159613621961930E-002   2.4083601771034344E-003   6.4208289244805095E-002
  -9.6866775079624459E-003   2.2054150528086885E-003   6.4346462479531866E-002
  -9.2137413939629709E-003   1.9840729253153278E-003   6.4705090818875460E-002
  -1.6584565890434368E-002   4.1385891049201678E-003   6.4149030455412454E-002
  -1.5899181151652061E-002   3.8893624240373056E-003   6.3864399327874175E-002
  -1.5213796412869776E-002   3.6125402399747562E-003   6.3784210345284781E-002
  -1.4528411674087471E-002   3.3081225527321614E-003   6.3908463507644050E-002
  -1.3843026935305185E-002   2.9761093623097701E-003   6.4237158814952233E-002
  -2.2014537350915925E-002   5.5181187937429765E-003   6.3626276508628177E-002
  -2.1132716947018865E-002   5.1858165498749054E-003   6.3350552728077325E-002
  -2.0250896543121816E-002   4.8167203028458144E-003   6.3263258132807254E-002
  -1.9369076139224770E-002   4.4108300526556794E-003   6.3364392722817894E-002
  -1.8487255735327709E-002   3.9681457993043789E-003   6.3653956498109288E-002
  -8.7319526609341835E-011   5.1326276562235762E-011   6.5295143887963425E-002
  -9.1865955814673939E-011   4.4626774498013333E-011   6.5211730016597969E-002
  -9.6412391958899946E-011   3.1034730341161776E-011   6.5204358112926658E-002
  -1.0095882810312595E-010   1.0550699203193403E-011   6.5273028176949632E-002
  -1.0550525730845806E-010  -1.6825651982799172E-011   6.5417740208666753E-002
  -4.5993991113010869E-003   9.9203648832074665E-004   6.5057752509879302E-002
  -4.4931815498470921E-003   8.6442408088879819E-004   6.4977228883434518E-002
  -4.3869639883931041E-003   7.1212749093860217E-004   6.5033098421296384E-002
  -4.2807464269391127E-003   5.3514671847056799E-004   6.5225361123464720E-002
  -4.1745288654851144E-003   3.3348176348457770E-004   6.5554016989939956E-002
  -9.2137413939629709E-003   1.9840729253153278E-003   6.4705090818875460E-002
  -8.9409550698961691E-003   1.7288481171508080E-003   6.4602773261725754E-002
  -8.6681687458293882E-003   1.4242549508425295E-003   6.4697200065495050E-002
  -8.3953824217626004E-003   1.0702934263905478E-003   6.4988371230183334E-002
  -8.1225960976958108E-003   6.6696354379491840E-004   6.5476286755790647E-002
  -1.3843026935305185E-002   2.9761093623097701E-003   6.4237158814952233E-002
  -1.3343320652013210E-002   2.5932721534128803E-003   6.4088363151471789E-002
  -1.2843614368721246E-002   2.1363824107464291E-003   6.4196663045522656E-002
  -1.2343908085429288E-002   1.6054401343105831E-003   6.4562058497104863E-002
  -1.1844201802137307E-002   1.0004453241051481E-003   6.5184549506218492E-002
  -1.8487255735327709E-002   3.9681457993043789E-003   6.3653956498109288E-002
  -1.7700278296198191E-002   3.4576961896748692E-003   6.3433998552672344E-002
  -1.6913300857068686E-002   2.8485098706503703E-003   6.3531487361379285E-002
  -1.6126323417939167E-002   2.1405868422304623E-003   6.3946422924229848E-002
  -1.5339345978809656E-002   1.3339271044155443E-003   6.4678805241224213E-002
  -1.0550525730845806E-010  -1.6825651982799172E-011   6.5417740208666753E-002
  -9.2114687405553397E-011  -6.1028460063283774E-011   6.6322557027404638E-002
  -7.8724127910989594E-011  -1.3199191739587945E-010   6.7629831035905974E-002
  -6.5333561477531887E-011  -2.2971606561394964E-010   6.9339562234171037E-002
  -5.1942991574627229E-011  -3.5420111288431144E-010   7.1451750622199883E-002
  -4.1745288654851144E-003   3.3348176348457770E-004   6.5554016989939956E-002
  -3.7959362452421735E-003  -5.2942788042964484E-005   6.6489013234872829E-002
  -3.4173436249992240E-003  -7.8420235013577921E-004   6.7778737503746661E-002
  -3.0387510047562650E-003  -1.8602969227937451E-003   6.9423189796561632E-002
  -2.6601583845133198E-003  -3.2812265060171431E-003   7.1422370113318090E-002
  -8.1225960976958108E-003   6.6696354379491840E-004   6.5476286755790647E-002
  -7.4131400364229588E-003  -1.0588551505738564E-004   6.6096627443113856E-002
  -6.7036839751500972E-003  -1.5684045682796410E-003   6.7023966988555839E-002
  -5.9942279138772382E-003  -3.7205936158714245E-003   6.8258305392116289E-002
  -5.2847718526043697E-003  -6.5624526578330622E-003   6.9799642653795679E-002
  -1.1844201802137307E-002   1.0004453241051481E-003   6.5184549506218492E-002
  -1.0851611465657026E-002  -1.5882824207173740E-004   6.5145399652127775E-002
  -9.8590211291767378E-003  -2.3526067864233363E-003   6.5365519490333229E-002
  -8.8664307926964257E-003  -5.5808903089491595E-003   6.5844909020834674E-002
  -7.8738404562161551E-003  -9.8436788096490369E-003   6.6583568243632735E-002
  -1.5339345978809656E-002   1.3339271044155443E-003   6.4678805241224213E-002
  -1.4111350532944381E-002  -2.1177096908614468E-004   6.3635329861914780E-002
  -1.2883355087079128E-002  -3.1368090045672953E-003   6.2803395009079027E-002
  -1.1655359641213853E-002  -7.4411870020267105E-003   6.2183000682716996E-002
  -1.0427364195348607E-002  -1.3124904961465012E-002   6.1774146882828784E-002
  -2.6624972990927826E-002   0.0000000000000000        2.9484852090976864E-002
  -2.7223718002426497E-002   5.8079725064389721E-004   3.4963587873594562E-002
  -2.7822463013925169E-002   1.3107697958683311E-003   4.0136113420926871E-002
  -2.8421208025423840E-002   2.1899176356732965E-003   4.5002428732973776E-002
  -2.9019953036922511E-002   3.2182407700587900E-003   4.9562533809735292E-002
  -3.3384683912192695E-002   0.0000000000000000        3.0189666148122490E-002
  -3.4224714003965394E-002   9.5538965595895389E-004   3.5279284633731679E-002
  -3.5064744095738093E-002   2.0147216019605549E-003   4.0192543194078202E-002
  -3.5904774187510792E-002   3.1779958380047952E-003   4.4929441829162066E-002
  -3.6744804279283498E-002   4.4452123640916896E-003   4.9489980538983264E-002
  -4.0724996077789025E-002   0.0000000000000000        3.1291689112852128E-002
  -4.1676460939813031E-002   1.3299820612740123E-003   3.5946957296914918E-002
  -4.2627925801837031E-002   2.7186734080527795E-003   4.0555715865737772E-002
  -4.3579390663861024E-002   4.1660740403363017E-003   4.5117964819320705E-002
  -4.4530855525885024E-002   5.6721839581245761E-003   4.9633704157663688E-002
  -4.8645909487716819E-002   0.0000000000000000        3.2790920985165770E-002
  -4.9578958809969383E-002   1.7045744665890720E-003   3.6966605863144264E-002
  -5.0512008132221953E-002   3.4226252141450089E-003   4.1225631435905567E-002
  -5.1445057454474530E-002   5.1541522426678029E-003   4.5567997703449638E-002
  -5.2378106776727093E-002   6.8991555521574696E-003   4.9993704665776524E-002
  -5.7147424141976079E-002   0.0000000000000000        3.4687361765063408E-002
  -5.7932207614434482E-002   2.0791668719041282E-003   3.8338230332419732E-002
  -5.8716991086892892E-002   4.1265770202372296E-003   4.2202289904581573E-002
  -5.9501774559351288E-002   6.1422304449993068E-003   4.6279540481548954E-002
  -6.0286558031809698E-002   8.1261271461903622E-003   5.0569982063321840E-002
  -2.9019953036922511E-002   3.2182407700587900E-003   4.9562533809735292E-002
  -2.9088789669894165E-002   4.2350594260384946E-003   5.1633276855801602E-002
  -2.9157626302865818E-002   5.0796938306260919E-003   5.3803916310004841E-002
  -2.9226462935837468E-002   5.7521439838215394E-003   5.6074452172345038E-002
  -2.9295299568809122E-002   6.2524098856249349E-003   5.8444884442822170E-002
  -3.6744804279283498E-002   4.4452123640916896E-003   4.9489980538983264E-002
  -3.6752924158071403E-002   5.6758031835352210E-003   5.1285654949495114E-002
  -3.6761044036859300E-002   6.7292002996494904E-003   5.3102866460237520E-002
  -3.6769163915647204E-002   7.6054037124343651E-003   5.4941615071210474E-002
  -3.6777283794435102E-002   8.3044134218899848E-003   5.6801900782413976E-002
  -4.4530855525885024E-002   5.6721839581245761E-003   4.9633704157663688E-002
  -4.4556617958395557E-002   7.1165469410319690E-003   5.1149300480683890E-002
  -4.4582380390906111E-002   8.3787067686728472E-003   5.2608074596028245E-002
  -4.4608142823416672E-002   9.4586634410471909E-003   5.4010026503696740E-002
  -4.4633905255927211E-002   1.0356416958155042E-002   5.5355156203689450E-002
  -5.2378106776727093E-002   6.8991555521574696E-003   4.9993704665776524E-002
  -5.2499871070866670E-002   8.5572906985286988E-003   5.1224213449367895E-002
  -5.2621635365006247E-002   1.0028213237696215E-002   5.2319540717377003E-002
  -5.2743399659145832E-002   1.1311923169660024E-002   5.3279686469803890E-002
  -5.2865163953285395E-002   1.2408420494420123E-002   5.4104650706648549E-002
  -6.0286558031809698E-002   8.1261271461903622E-003   5.0569982063321840E-002
  -6.0582683495484700E-002   9.9980344560254425E-003   5.1510393855547128E-002
  -6.0878808959159716E-002   1.1677719706719601E-002   5.2237264824283799E-002
  -6.1174934422834705E-002   1.3165182898272832E-002   5.2750594969531855E-002
  -6.1471059886509707E-002   1.4460424030685155E-002   5.3050384291291296E-002
  -2.9295299568809122E-002   6.2524098856249349E-003   5.8444884442822170E-002
  -2.8949523313334329E-002   6.6386927294894912E-003   5.9232430601935886E-002
  -2.8603747057859522E-002   6.9691937088685527E-003   6.0071002504751211E-002
  -2.8257970802384721E-002   7.2439128237621105E-003   6.0960600151268217E-002
  -2.7912194546909921E-002   7.4628500741702047E-003   6.1901223541486847E-002
  -3.6777283794435102E-002   8.3044134218899848E-003   5.6801900782413976E-002
  -3.6330511535121839E-002   8.8442795004721395E-003   5.7166342254346879E-002
  -3.5883739275808575E-002   9.2430520206367179E-003   5.7681749990255063E-002
  -3.5436967016495291E-002   9.5007309823837045E-003   5.8348123990138542E-002
  -3.4990194757182028E-002   9.6173163857131011E-003   5.9165464253997276E-002
  -4.4633905255927211E-002   1.0356416958155042E-002   5.5355156203689450E-002
  -4.3986196472501828E-002   1.1049866271454805E-002   5.5211181294509415E-002
  -4.3338487689076430E-002   1.1516910332404883E-002   5.5318113169578326E-002
  -4.2690778905651039E-002   1.1757549141005259E-002   5.5675951828896196E-002
  -4.2043070122225648E-002   1.1771782697256018E-002   5.6284697272462991E-002
  -5.2865163953285395E-002   1.2408420494420123E-002   5.4104650706648549E-002
  -5.1916578125474254E-002   1.3255453042437441E-002   5.3366947722423522E-002
  -5.0967992297663099E-002   1.3790768644173034E-002   5.2980092042721090E-002
  -5.0019406469851944E-002   1.4014367299626860E-002   5.2944083667541275E-002
  -4.9070820642040797E-002   1.3926249008798925E-002   5.3258922596884022E-002
  -6.1471059886509707E-002   1.4460424030685155E-002   5.3050384291291296E-002
  -6.0121656494039152E-002   1.5461039813420126E-002   5.1633641538089151E-002
  -5.8772253101568563E-002   1.6064626955941207E-002   5.0667686609683321E-002
  -5.7422849709098001E-002   1.6271185458248402E-002   5.0152519506073655E-002
  -5.6073446316627432E-002   1.6080715320341818E-002   5.0088140227260255E-002
  -2.7912194546909921E-002   7.4628500741702047E-003   6.1901223541486847E-002
  -2.7191749625368571E-002   7.5769214328091986E-003   6.1660926154529686E-002
  -2.6471304703827220E-002   7.5370428723953685E-003   6.1692880796240905E-002
  -2.5750859782285876E-002   7.3432143929288004E-003   6.1997087466620499E-002
  -2.5030414860744515E-002   6.9954359944095212E-003   6.2573546165668487E-002
  -3.4990194757182028E-002   9.6173163857131011E-003   5.9165464253997276E-002
  -3.4018417692022379E-002   9.6176326840299309E-003   5.8806674541888329E-002
  -3.3046640626862717E-002   9.5265043307390211E-003   5.8678297088347556E-002
  -3.2074863561703075E-002   9.3439313258405800E-003   5.8780331893375053E-002
  -3.1103086496543413E-002   9.0699136693344617E-003   5.9112778956970674E-002
  -4.2043070122225648E-002   1.1771782697256018E-002   5.6284697272462991E-002
  -4.0861800683547875E-002   1.1658343935250674E-002   5.5869920502647386E-002
  -3.9680531244870108E-002   1.1515965789082759E-002   5.5643716221299766E-002
  -3.8499261806192328E-002   1.1344648258752345E-002   5.5606084428420216E-002
  -3.7317992367514569E-002   1.1144391344259416E-002   5.5757025124008715E-002
  -4.9070820642040797E-002   1.3926249008798925E-002   5.3258922596884022E-002
  -4.7721898599945051E-002   1.3699055186471411E-002   5.2850664036806806E-002
  -4.6372976557849305E-002   1.3505427247426441E-002   5.2589138195097446E-002
  -4.5024054515753573E-002   1.3345365191664089E-002   5.2474345071756044E-002
  -4.3675132473657841E-002   1.3218869019184350E-002   5.2506284666782373E-002
  -5.6073446316627432E-002   1.6080715320341818E-002   5.0088140227260255E-002
  -5.4598711441213914E-002   1.5739766437692163E-002   4.9748905144366626E-002
  -5.3123976565800396E-002   1.5494888705770173E-002   4.9514563009740657E-002
  -5.1649241690386878E-002   1.5346082124575909E-002   4.9385113823382454E-002
  -5.0174506814973360E-002   1.5293346694109311E-002   4.9360557585291842E-002
  -2.5030414860744515E-002   6.9954359944095212E-003   6.2573546165668487E-002
  -2.4276445483287366E-002   6.5845386508336101E-003   6.2613177246010704E-002
  -2.3522476105830220E-002   6.2013533361973336E-003   6.2801842663284688E-002
  -2.2768506728373078E-002   5.8458800505003430E-003   6.3139542417490563E-002
  -2.2014537350915925E-002   5.5181187937429765E-003   6.3626276508628177E-002
  -3.1103086496543413E-002   9.0699136693344617E-003   5.9112778956970674E-002
  -3.0186331994202637E-002   8.7463107885405456E-003   5.9033919706078297E-002
  -2.9269577491861886E-002   8.4149821107787626E-003   5.9131596368021400E-002
  -2.8352822989521111E-002   8.0759276360488561E-003   5.9405808942799947E-002
  -2.7436068487180328E-002   7.7291473643511521E-003   5.9856557430413959E-002
  -3.7317992367514569E-002   1.1144391344259416E-002   5.5757025124008715E-002
  -3.6210951164386516E-002   1.0908082926247495E-002   5.5524237715974270E-002
  -3.5103909961258464E-002   1.0628610885360223E-002   5.5495487796678927E-002
  -3.3996868758130405E-002   1.0305975221597426E-002   5.5670775366122728E-002
  -3.2889827555002353E-002   9.9401759349593277E-003   5.6050100424305541E-002
  -4.3675132473657841E-002   1.3218869019184350E-002   5.2506284666782373E-002
  -4.2350302993838879E-002   1.3069855063954534E-002   5.2084131275698442E-002
  -4.1025473514019917E-002   1.2842239659941695E-002   5.1893516949257250E-002
  -3.9700644034200962E-002   1.2536022807146023E-002   5.1934441687458838E-002
  -3.8375814554382000E-002   1.2151204505567476E-002   5.2206905490303046E-002
  -5.0174506814973360E-002   1.5293346694109311E-002   4.9360557585291842E-002
  -4.8604387482559852E-002   1.5231627201661407E-002   4.8713600385250883E-002
  -4.7034268150146309E-002   1.5055868434523167E-002   4.8325683825756388E-002
  -4.5464148817732808E-002   1.4766070392694536E-002   4.8196807906808220E-002
  -4.3894029485319258E-002   1.4362233076175623E-002   4.8326972628406406E-002
  -2.2014537350915925E-002   5.5181187937429765E-003   6.3626276508628177E-002
  -2.1132716947018865E-002   5.1858165498749054E-003   6.3350552728077325E-002
  -2.0250896543121816E-002   4.8167203028458144E-003   6.3263258132807254E-002
  -1.9369076139224770E-002   4.4108300526556794E-003   6.3364392722817894E-002
  -1.8487255735327709E-002   3.9681457993043789E-003   6.3653956498109288E-002
  -2.7436068487180328E-002   7.7291473643511521E-003   5.9856557430413959E-002
  -2.6367680800442557E-002   7.3707297838680741E-003   5.9520572403983535E-002
  -2.5299293113704789E-002   6.9967633827820175E-003   5.9369292757953954E-002
  -2.4230905426966997E-002   6.6072481610932945E-003   5.9402718492324973E-002
  -2.3162517740229219E-002   6.2021841188015792E-003   5.9620849607096932E-002
  -3.2889827555002353E-002   9.9401759349593277E-003   5.6050100424305541E-002
  -3.1638596390303843E-002   9.5556430178611457E-003   5.5675099334553863E-002
  -3.0387365225605333E-002   9.1768064627183246E-003   5.5481079820322791E-002
  -2.9136134060906826E-002   8.8036662695308524E-003   5.5468041881612598E-002
  -2.7884902896208312E-002   8.4362224382987794E-003   5.5635985518422956E-002
  -3.8375814554382000E-002   1.2151204505567476E-002   5.2206905490303046E-002
  -3.6945463716602768E-002   1.1740556251854238E-002   5.1814133519788176E-002
  -3.5515112878823543E-002   1.1356849542654663E-002   5.1598619319914066E-002
  -3.4084762041044284E-002   1.1000084377968494E-002   5.1560362890680604E-002
  -3.2654411203265059E-002   1.0670260757795980E-002   5.1699364232087999E-002
  -4.3894029485319258E-002   1.4362233076175623E-002   4.8326972628406406E-002
  -4.2288282779339298E-002   1.3925469485847414E-002   4.7937674959686649E-002
  -4.0682536073359324E-002   1.3536892622590821E-002   4.7721911256727451E-002
  -3.9076789367379336E-002   1.3196502486406188E-002   4.7679681519529130E-002
  -3.7471042661399376E-002   1.2904299077293235E-002   4.7810985748091450E-002
  -1.8487255735327709E-002   3.9681457993043789E-003   6.3653956498109288E-002
  -1.7700278296198191E-002   3.4576961896748692E-003   6.3433998552672344E-002
  -1.6913300857068686E-002   2.8485098706503703E-003   6.3531487361379285E-002
  -1.6126323417939167E-002   2.1405868422304623E-003   6.3946422924229848E-002
  -1.5339345978809656E-002   1.3339271044155443E-003   6.4678805241224213E-002
  -2.3162517740229219E-002   6.2021841188015792E-003   5.9620849607096932E-002
  -2.2080953173264493E-002   5.7622515012581144E-003   5.9254446364626012E-002
  -2.0999388606299733E-002   5.2681305538143375E-003   5.9159770623681815E-002
  -1.9917824039334998E-002   4.7198212764700473E-003   5.9336822384264333E-002
  -1.8836259472370259E-002   4.1173236692251813E-003   5.9785601646373698E-002
  -2.7884902896208312E-002   8.4362224382987794E-003   5.5635985518422956E-002
  -2.6554470454025390E-002   8.0668068128414011E-003   5.5167685358412821E-002
  -2.5224038011842458E-002   7.6877512369784226E-003   5.4925393447312447E-002
  -2.3893605569659526E-002   7.2990557107093564E-003   5.4909109785121674E-002
  -2.2563173127476601E-002   6.9007202340346796E-003   5.5118834371840578E-002
  -3.2654411203265059E-002   1.0670260757795980E-002   5.1699364232087999E-002
  -3.1120830138480972E-002   1.0371362124424723E-002   5.1173715534033194E-002
  -2.9587249073696868E-002   1.0107371920142393E-002   5.0828355832271167E-002
  -2.8053668008912770E-002   9.8782901449488043E-003   5.0663285126801710E-002
  -2.6520086944128676E-002   9.6841167988443028E-003   5.0678503417625004E-002
  -3.7471042661399376E-002   1.2904299077293235E-002   4.7810985748091450E-002
  -3.5780032226631134E-002   1.2675917436007877E-002   4.7272536891486916E-002
  -3.4089021791862940E-002   1.2526992603306419E-002   4.6868657778557921E-002
  -3.2398011357094705E-002   1.2457524579188209E-002   4.6599348409304631E-002
  -3.0707000922326519E-002   1.2467513363653759E-002   4.6464608783726880E-002
  -1.5339345978809656E-002   1.3339271044155443E-003   6.4678805241224213E-002
  -1.4111350532944381E-002  -2.1177096908614468E-004   6.3635329861914780E-002
  -1.2883355087079128E-002  -3.1368090045672953E-003   6.2803395009079027E-002
  -1.1655359641213853E-002  -7.4411870020267105E-003   6.2183000682716996E-002
  -1.0427364195348607E-002  -1.3124904961465012E-002   6.1774146882828784E-002
  -1.8836259472370259E-002   4.1173236692251813E-003   5.9785601646373698E-002
  -1.7423088755771709E-002   3.1716553258860358E-003   5.7480014297644766E-002
  -1.6009918039173135E-002   1.5938338402591845E-003   5.5333236963908683E-002
  -1.4596747322574564E-002  -6.1614078765552527E-004   5.3345269645165436E-002
  -1.3183576605976008E-002  -3.4582685578581351E-003   5.1516112341415399E-002
  -2.2563173127476601E-002   6.9007202340346796E-003   5.5118834371840578E-002
  -2.1017557651625555E-002   6.5550816208586882E-003   5.2298321873383097E-002
  -1.9471942175774526E-002   6.3244766850856574E-003   4.9583888878437780E-002
  -1.7926326699923511E-002   6.2089054267156305E-003   4.6975535387004427E-002
  -1.6380711224072444E-002   6.2083678457487412E-003   4.4473261399083197E-002
  -2.6520086944128676E-002   9.6841167988443028E-003   5.0678503417625004E-002
  -2.4894757220506020E-002   9.9385079158311601E-003   4.8090252589129787E-002
  -2.3269427496883363E-002   1.1055119529911967E-002   4.5555350752666070E-002
  -2.1644097773260693E-002   1.3033951641086689E-002   4.3073797908233201E-002
  -2.0018768049638029E-002   1.5875004249355562E-002   4.0645594055831777E-002
  -3.0707000922326519E-002   1.2467513363653759E-002   4.6464608783726880E-002
  -2.9054687462413034E-002   1.3321934210803743E-002   4.4855806444885127E-002
  -2.7402374002499570E-002   1.5785762374738402E-002   4.3247622586593620E-002
  -2.5750060542586047E-002   1.9858997855457947E-002   4.1640057208852652E-002
  -2.4097747082672649E-002   2.5541640652962494E-002   4.0033110311661790E-002
  -5.7147424141976079E-002   0.0000000000000000        3.4687361765063408E-002
  -5.7932207614434482E-002   2.0791668719041282E-003   3.8338230332419732E-002
  -5.8716991086892892E-002   4.1265770202372296E-003   4.2202289904581573E-002
  -5.9501774559351288E-002   6.1422304449993068E-003   4.6279540481548954E-002
  -6.0286558031809698E-002   8.1261271461903622E-003   5.0569982063321840E-002
  -6.5817474045818017E-002   0.0000000000000000        3.7204352680956239E-002
  -6.6618311335009048E-002   2.9099705098690146E-003   4.0824662721928001E-002
  -6.7419148624200079E-002   5.7620088432840215E-003   4.4199674124628968E-002
  -6.8219985913391110E-002   8.5561150002450171E-003   4.7329386889059161E-002
  -6.9020823202582141E-002   1.1292288980751991E-002   5.0213801015218600E-002
  -7.4243993204493847E-002   0.0000000000000000        4.0565234961255449E-002
  -7.5519373953493799E-002   3.7407741478338997E-003   4.4128811022959652E-002
  -7.6794754702493764E-002   7.3974406663308064E-003   4.6988598803316788E-002
  -7.8070135451493716E-002   1.0969999555490717E-002   4.9144598302326821E-002
  -7.9345516200493682E-002   1.4458450815313634E-002   5.0596809519989808E-002
  -8.2426981618003575E-002   0.0000000000000000        4.4770008605961024E-002
  -8.4635395469888755E-002   4.5715777857987822E-003   4.8250675235514712E-002
  -8.6843809321773949E-002   9.0328724893775914E-003   5.0569063940645004E-002
  -8.9052223173659142E-002   1.3383884110736424E-002   5.1725174721351914E-002
  -9.1260637025544322E-002   1.7624612649875266E-002   5.1719007577635444E-002
  -9.0366439286347189E-002   0.0000000000000000        4.9818673615072986E-002
  -9.3966375884193903E-002   5.4023814237636712E-003   5.3190255359593153E-002
  -9.7566312482040646E-002   1.0668304312424381E-002   5.4941069536613631E-002
 -0.10116624907988735        1.5797768665982127E-002   5.5071116146134427E-002
 -0.10476618567773409        2.0790774484436912E-002   5.3580395188155529E-002
  -6.0286558031809698E-002   8.1261271461903622E-003   5.0569982063321840E-002
  -6.0582683495484700E-002   9.9980344560254425E-003   5.1510393855547128E-002
  -6.0878808959159716E-002   1.1677719706719601E-002   5.2237264824283799E-002
  -6.1174934422834705E-002   1.3165182898272832E-002   5.2750594969531855E-002
  -6.1471059886509707E-002   1.4460424030685155E-002   5.3050384291291296E-002
  -6.9020823202582141E-002   1.1292288980751991E-002   5.0213801015218600E-002
  -6.9292618909561315E-002   1.3731455074293842E-002   4.9437502732180630E-002
  -6.9564414616540504E-002   1.5634537570359385E-002   4.8923404786022938E-002
  -6.9836210323519651E-002   1.7001536468948641E-002   4.8671507176745489E-002
  -7.0108006030498840E-002   1.7832451770061611E-002   4.8681809904348346E-002
  -7.9345516200493682E-002   1.4458450815313634E-002   5.0596809519989808E-002
  -7.9117240990408122E-002   1.7464875692562234E-002   4.7759939623353211E-002
  -7.8888965780322590E-002   1.9591355433999168E-002   4.5661011223965771E-002
  -7.8660690570237071E-002   2.0837890039624461E-002   4.4300024321827454E-002
  -7.8432415360151539E-002   2.1204479509438077E-002   4.3676978916938336E-002
  -9.1260637025544322E-002   1.7624612649875266E-002   5.1719007577635444E-002
  -9.0056549738025182E-002   2.1198296310830637E-002   4.6477704529064835E-002
  -8.8852462450506042E-002   2.3548173297638950E-002   4.2450084138112278E-002
  -8.7648375162986888E-002   2.4674243610300281E-002   3.9636146404777778E-002
  -8.6444287875467749E-002   2.4576507248814543E-002   3.8035891329061364E-002
 -0.10476618567773409        2.0790774484436912E-002   5.3580395188155529E-002
 -0.10211054515241244        2.4931716929099026E-002   4.5590797449315552E-002
  -9.9454904627090807E-002   2.7504991161278729E-002   3.9290623528462541E-002
  -9.6799264101769145E-002   2.8510597180976083E-002   3.4679873425596433E-002
  -9.4143623576447538E-002   2.7948534988190984E-002   3.1758547140717283E-002
  -6.1471059886509707E-002   1.4460424030685155E-002   5.3050384291291296E-002
  -6.0121656494039152E-002   1.5461039813420126E-002   5.1633641538089151E-002
  -5.8772253101568563E-002   1.6064626955941207E-002   5.0667686609683321E-002
  -5.7422849709098001E-002   1.6271185458248402E-002   5.0152519506073655E-002
  -5.6073446316627432E-002   1.6080715320341818E-002   5.0088140227260255E-002
  -7.0108006030498840E-002   1.7832451770061611E-002   4.8681809904348346E-002
  -6.8355469069024538E-002   1.8282464661692498E-002   4.7218574778839263E-002
  -6.6602932107550236E-002   1.8506756331835399E-002   4.6110818966541400E-002
  -6.4850395146075976E-002   1.8505326780490335E-002   4.5358542467454702E-002
  -6.3097858184601660E-002   1.8278176007657312E-002   4.4961745281579216E-002
  -7.8432415360151539E-002   2.1204479509438077E-002   4.3676978916938336E-002
  -7.6372053341258545E-002   2.1103889509964852E-002   4.2338558837848192E-002
  -7.4311691322365550E-002   2.0948885707729580E-002   4.1260309560384234E-002
  -7.2251329303472556E-002   2.0739468102732223E-002   4.0442231084546393E-002
  -7.0190967284579575E-002   2.0475636694972814E-002   3.9884323410334793E-002
  -8.6444287875467749E-002   2.4576507248814543E-002   3.8035891329061364E-002
  -8.4171409310741116E-002   2.3925314358237235E-002   3.6993593715115999E-002
  -8.1898530746014442E-002   2.3391015083623779E-002   3.6116158391211836E-002
  -7.9625652181287823E-002   2.2973609424974104E-002   3.5403585357348770E-002
  -7.7352773616561149E-002   2.2673097382288340E-002   3.4855874613526870E-002
  -9.4143623576447538E-002   2.7948534988190984E-002   3.1758547140717283E-002
  -9.1753536977472266E-002   2.6746739206509582E-002   3.1183679410642678E-002
  -8.9363450378496981E-002   2.5833144459517964E-002   3.0678365459024179E-002
  -8.6973363779521709E-002   2.5207750747215995E-002   3.0242605285861850E-002
  -8.4583277180546423E-002   2.4870558069603810E-002   2.9876398891155564E-002
  -5.6073446316627432E-002   1.6080715320341818E-002   5.0088140227260255E-002
  -5.4598711441213914E-002   1.5739766437692163E-002   4.9748905144366626E-002
  -5.3123976565800396E-002   1.5494888705770173E-002   4.9514563009740657E-002
  -5.1649241690386878E-002   1.5346082124575909E-002   4.9385113823382454E-002
  -5.0174506814973360E-002   1.5293346694109311E-002   4.9360557585291842E-002
  -6.3097858184601660E-002   1.8278176007657312E-002   4.4961745281579216E-002
  -6.1487627518889088E-002   1.7949012495962348E-002   4.4643299255959203E-002
  -5.9877396853176494E-002   1.7641544728031536E-002   4.4490951862669555E-002
  -5.8267166187463901E-002   1.7355772703864791E-002   4.4504703101710438E-002
  -5.6656935521751321E-002   1.7091696423462088E-002   4.4684552973081687E-002
  -7.0190967284579575E-002   2.0475636694972814E-002   3.9884323410334793E-002
  -6.8384035144505168E-002   2.0158258554232651E-002   3.9512291035024738E-002
  -6.6577103004430746E-002   1.9788200750292931E-002   3.9367562976107842E-002
  -6.4770170864356352E-002   1.9365463283153705E-002   3.9450139233584182E-002
  -6.2963238724281959E-002   1.8890046152814921E-002   3.9760019807453723E-002
  -7.7352773616561149E-002   2.2673097382288340E-002   3.4855874613526870E-002
  -7.5287934318062202E-002   2.2367504612502868E-002   3.4355880481563184E-002
  -7.3223095019563214E-002   2.1934856772554336E-002   3.4144396350055388E-002
  -7.1158255721064267E-002   2.1375153862442573E-002   3.4221422219003594E-002
  -6.9093416422565279E-002   2.0688395882167768E-002   3.4586958088407720E-002
  -8.4583277180546423E-002   2.4870558069603810E-002   2.9876398891155564E-002
  -8.2199325039560137E-002   2.4576750670773140E-002   2.9174067595574532E-002
  -7.9815372898573850E-002   2.4081512794815713E-002   2.8821451984512317E-002
  -7.7431420757587563E-002   2.3384844441731549E-002   2.8818552057968738E-002
  -7.5047468616601276E-002   2.2486745611520531E-002   2.9165367815943866E-002
  -5.0174506814973360E-002   1.5293346694109311E-002   4.9360557585291842E-002
  -4.8604387482559852E-002   1.5231627201661407E-002   4.8713600385250883E-002
  -4.7034268150146309E-002   1.5055868434523167E-002   4.8325683825756388E-002
  -4.5464148817732808E-002   1.4766070392694536E-002   4.8196807906808220E-002
  -4.3894029485319258E-002   1.4362233076175623E-002   4.8326972628406406E-002
  -5.6656935521751321E-002   1.7091696423462088E-002   4.4684552973081687E-002
  -5.4843208962740031E-002   1.6803842919945078E-002   4.4106643130997922E-002
  -5.3029482403728734E-002   1.6446739226435386E-002   4.3756907101563311E-002
  -5.1215755844717444E-002   1.6020385342932757E-002   4.3635344884777806E-002
  -4.9402029285706139E-002   1.5524781269437571E-002   4.3741956480641581E-002
  -6.2963238724281959E-002   1.8890046152814921E-002   3.9760019807453723E-002
  -6.0936771766570121E-002   1.8376058638228818E-002   3.9295946408024626E-002
  -5.8910304808858303E-002   1.7837610018347522E-002   3.9029179993347478E-002
  -5.6883837851146452E-002   1.7274700293171144E-002   3.8959720563422263E-002
  -5.4857370893434669E-002   1.6687329462699546E-002   3.9087568118248942E-002
  -6.9093416422565279E-002   2.0688395882167768E-002   3.4586958088407720E-002
  -6.6885075894050128E-002   1.9948274356512551E-002   3.4281510216331017E-002
  -6.4676735365535004E-002   1.9228480810259685E-002   3.4142502501108951E-002
  -6.2468394837019860E-002   1.8529015243409448E-002   3.4169934942741662E-002
  -6.0260054308504687E-002   1.7849877655961480E-002   3.4363807541228947E-002
  -7.5047468616601276E-002   2.2486745611520531E-002   2.9165367815943866E-002
  -7.2688121345180032E-002   2.1520490074796200E-002   2.9063334555917114E-002
  -7.0328774073758843E-002   2.0619351602171848E-002   2.9096874624847710E-002
  -6.7969426802337654E-002   1.9783330193647718E-002   2.9265988022735903E-002
  -6.5610079530916438E-002   1.9012425849223469E-002   2.9570674749581527E-002
  -4.3894029485319258E-002   1.4362233076175623E-002   4.8326972628406406E-002
  -4.2288282779339298E-002   1.3925469485847414E-002   4.7937674959686649E-002
  -4.0682536073359324E-002   1.3536892622590821E-002   4.7721911256727451E-002
  -3.9076789367379336E-002   1.3196502486406188E-002   4.7679681519529130E-002
  -3.7471042661399376E-002   1.2904299077293235E-002   4.7810985748091450E-002
  -4.9402029285706139E-002   1.5524781269437571E-002   4.3741956480641581E-002
  -4.7620863825481245E-002   1.5010094481706329E-002   4.3446837537360491E-002
  -4.5839698365256316E-002   1.4526492455495962E-002   4.3329022136808684E-002
  -4.4058532905031395E-002   1.4073975190806314E-002   4.3388510278986027E-002
  -4.2277367444806535E-002   1.3652542687637603E-002   4.3625301963892416E-002
  -5.4857370893434669E-002   1.6687329462699546E-002   3.9087568118248942E-002
  -5.2897017101996381E-002   1.6094719477565314E-002   3.8869525934855972E-002
  -5.0936663310558114E-002   1.5516092288401000E-002   3.8832556871160530E-002
  -4.8976309519119826E-002   1.4951447895206497E-002   3.8976660927162649E-002
  -4.7015955727681552E-002   1.4400786297981943E-002   3.9301838102862308E-002
  -6.0260054308504687E-002   1.7849877655961480E-002   3.4363807541228947E-002
  -5.8116742608884712E-002   1.7179344473424292E-002   3.4205740152172995E-002
  -5.5973430909264710E-002   1.6505692121306034E-002   3.4232515459782904E-002
  -5.3830119209644665E-002   1.5828920599606680E-002   3.4444133464058863E-002
  -5.1686807510024683E-002   1.5149029908326325E-002   3.4840594165000641E-002
  -6.5610079530916438E-002   1.9012425849223469E-002   2.9570674749581527E-002
  -6.3280040346146274E-002   1.8263969469283214E-002   2.9455480189311489E-002
  -6.0950001161376083E-002   1.7495291954211165E-002   2.9528897902676016E-002
  -5.8619961976605892E-002   1.6706393304006830E-002   2.9790927889674829E-002
  -5.6289922791835728E-002   1.5897273518670652E-002   3.0241570150307873E-002
  -3.7471042661399376E-002   1.2904299077293235E-002   4.7810985748091450E-002
  -3.5780032226631134E-002   1.2675917436007877E-002   4.7272536891486916E-002
  -3.4089021791862940E-002   1.2526992603306419E-002   4.6868657778557921E-002
  -3.2398011357094705E-002   1.2457524579188209E-002   4.6599348409304631E-002
  -3.0707000922326519E-002   1.2467513363653759E-002   4.6464608783726880E-002
  -4.2277367444806535E-002   1.3652542687637603E-002   4.3625301963892416E-002
  -4.0441231120714287E-002   1.3269660487754381E-002   4.3227882080285218E-002
  -3.8605094796622087E-002   1.2932794132921130E-002   4.2986144231650286E-002
  -3.6768958472529867E-002   1.2641943623138249E-002   4.2900088417987731E-002
  -3.4932822148437639E-002   1.2397108958405345E-002   4.2969714639297552E-002
  -4.7015955727681552E-002   1.4400786297981943E-002   3.9301838102862308E-002
  -4.5013581222968641E-002   1.3863403539500579E-002   3.9012006228718685E-002
  -4.3011206718255673E-002   1.3338595662536007E-002   3.8898968680844442E-002
  -4.1008832213542699E-002   1.2826362667088122E-002   3.8962725459239150E-002
  -3.9006457708829795E-002   1.2326704553156737E-002   3.9203276563903031E-002
  -5.1686807510024683E-002   1.5149029908326325E-002   3.4840594165000641E-002
  -4.9497082533394209E-002   1.4457146591247014E-002   3.4624909336787552E-002
  -4.7307357556763754E-002   1.3744397192150884E-002   3.4607131126140278E-002
  -4.5117632580133286E-002   1.3010781711037967E-002   3.4787259533058890E-002
  -4.2927907603502839E-002   1.2256300147908281E-002   3.5165294557543483E-002
  -5.6289922791835728E-002   1.5897273518670652E-002   3.0241570150307873E-002
  -5.3891735051990991E-002   1.5050889642993281E-002   3.0066591404491694E-002
  -5.1493547312146309E-002   1.4150198721765608E-002   3.0110631567537932E-002
  -4.9095359572301572E-002   1.3195200754988010E-002   3.0373690639446962E-002
  -4.6697171832456891E-002   1.2185895742659658E-002   3.0855768620218493E-002
  -3.0707000922326519E-002   1.2467513363653759E-002   4.6464608783726880E-002
  -2.9054687462413034E-002   1.3321934210803743E-002   4.4855806444885127E-002
  -2.7402374002499570E-002   1.5785762374738402E-002   4.3247622586593620E-002
  -2.5750060542586047E-002   1.9858997855457947E-002   4.1640057208852652E-002
  -2.4097747082672649E-002   2.5541640652962494E-002   4.0033110311661790E-002
  -3.4932822148437639E-002   1.2397108958405345E-002   4.2969714639297552E-002
  -3.3197903386271890E-002   1.2624216316973691E-002   4.2848722547045470E-002
  -3.1462984624106093E-002   1.3749191877094488E-002   4.2892322578747394E-002
  -2.9728065861940298E-002   1.5772035638767595E-002   4.3100514734403697E-002
  -2.7993147099774490E-002   1.8692747601993021E-002   4.3473299014014533E-002
  -3.9006457708829795E-002   1.2326704553156737E-002   3.9203276563903031E-002
  -3.7024960001007731E-002   1.1926498423143750E-002   3.9858555603007925E-002
  -3.5043462293185765E-002   1.1712621379450512E-002   4.0842400409470951E-002
  -3.3061964585363604E-002   1.1685073422077018E-002   4.2154810983292393E-002
  -3.1080466877541679E-002   1.1843854551023547E-002   4.3795787324471813E-002
  -4.2927907603502839E-002   1.2256300147908281E-002   3.5165294557543483E-002
  -4.0535857306620723E-002   1.1228780529313809E-002   3.5885305612772977E-002
  -3.8143807009738524E-002   9.6760508818065673E-003   3.7097856078764535E-002
  -3.5751756712856388E-002   7.5981112053866645E-003   3.8802945955517754E-002
  -3.3359706415974147E-002   4.9949615000540737E-003   4.1000575243033938E-002
  -4.6697171832456891E-002   1.2185895742659658E-002   3.0855768620218493E-002
  -4.3730595303110659E-002   1.0531062635483701E-002   3.0928972576340030E-002
  -4.0764018773764440E-002   7.6394803841627196E-003   3.1658689586627570E-002
  -3.7797442244418118E-002   3.5111489886961132E-003   3.3044919651081014E-002
  -3.4830865715071990E-002  -1.8539315509153997E-003   3.5087662769700545E-002
  -9.0366439286347189E-002   0.0000000000000000        4.9818673615072986E-002
  -9.3966375884193903E-002   5.4023814237636712E-003   5.3190255359593153E-002
  -9.7566312482040646E-002   1.0668304312424381E-002   5.4941069536613631E-002
 -0.10116624907988735        1.5797768665982127E-002   5.5071116146134427E-002
 -0.10476618567773409        2.0790774484436912E-002   5.3580395188155529E-002
 -0.10330012064669412        0.0000000000000000        5.8645842703872436E-002
 -0.10683879301665920        1.0885162541762083E-002   5.2100683902528061E-002
 -0.11037746538662425        1.9173195194480824E-002   4.7298821124446680E-002
 -0.11391613775658932        2.4864097958156223E-002   4.4240254369628307E-002
 -0.11745481012655438        2.7957870832788285E-002   4.2924983638072935E-002
 -0.12646578013621379        0.0000000000000000        7.4186128587640496E-002
 -0.12657912468753452        1.6367943659760499E-002   5.5263557886491198E-002
 -0.12669246923885524        2.7678086076537281E-002   4.1448346799367590E-002
 -0.12680581379017594        3.3930427250330332E-002   3.2740495326269672E-002
 -0.12691915834149670        3.5124967181139652E-002   2.9140003467197414E-002
 -0.15986341775490620        0.0000000000000000        9.6439531266377165E-002
 -0.15318737089681986        2.1850724777758908E-002   6.2678877311482556E-002
 -0.14651132403873360        3.6182976958593717E-002   3.7389646561376319E-002
 -0.13983527718064728        4.2996756542504434E-002   2.0571839016058496E-002
 -0.13315923032256097        4.2292063529491025E-002   1.2225454675528991E-002
 -0.20349303350277131        0.0000000000000000       0.12540605074008243     
 -0.18666353164451530        2.7333505895757330E-002   7.4346642177502142E-002
 -0.16983402978625928        4.4687867840650181E-002   3.5122720410472909E-002
 -0.15300452792800323        5.2063085834678537E-002   7.7342854389947230E-003
 -0.13617502606974721        4.9459159877842412E-002  -7.8186627369323594E-003
 -0.10476618567773409        2.0790774484436912E-002   5.3580395188155529E-002
 -0.10211054515241244        2.4931716929099026E-002   4.5590797449315552E-002
  -9.9454904627090807E-002   2.7504991161278729E-002   3.9290623528462541E-002
  -9.6799264101769145E-002   2.8510597180976083E-002   3.4679873425596433E-002
  -9.4143623576447538E-002   2.7948534988190984E-002   3.1758547140717283E-002
 -0.11745481012655438        2.7957870832788285E-002   4.2924983638072935E-002
 -0.11349886816134515        2.9428620943145904E-002   3.6662247829017627E-002
 -0.10954292619613593        3.0250455413997887E-002   3.1310691081750594E-002
 -0.10558698423092672        3.0423374245344349E-002   2.6870313396271755E-002
 -0.10163104226571748        2.9947377437185174E-002   2.3341114772581179E-002
 -0.12691915834149670        3.5124967181139652E-002   2.9140003467197414E-002
 -0.12244115969259857        3.3925524957192747E-002   2.5522882160903634E-002
 -0.11796316104370046        3.2995919666717020E-002   2.2038695160199316E-002
 -0.11348516239480233        3.2336151309712589E-002   1.8687442465084574E-002
 -0.10900716374590423        3.1946219886179371E-002   1.5469124075559386E-002
 -0.13315923032256097        4.2292063529491025E-002   1.2225454675528991E-002
 -0.12893741974617268        3.8422428971239611E-002   1.2172700444973438E-002
 -0.12471560916978436        3.5741383919436216E-002   1.1474635763808803E-002
 -0.12049379859339605        3.4248928374080854E-002   1.0131260632034881E-002
 -0.11627198801700774        3.3945062335173526E-002   8.1425750496518512E-003
 -0.13617502606974721        4.9459159877842412E-002  -7.8186627369323594E-003
 -0.13298764832206744        4.2919332985286475E-002  -3.3882973187727289E-003
 -0.12980027057438764        3.8486848172155336E-002  -3.8148710742106663E-004
 -0.12661289282670787        3.6161705438449106E-002   1.2017678971227900E-003
 -0.12342551507902810        3.5943904784167729E-002   1.3614676948587034E-003
  -9.4143623576447538E-002   2.7948534988190984E-002   3.1758547140717283E-002
  -9.1753536977472266E-002   2.6746739206509582E-002   3.1183679410642678E-002
  -8.9363450378496981E-002   2.5833144459517964E-002   3.0678365459024179E-002
  -8.6973363779521709E-002   2.5207750747215995E-002   3.0242605285861850E-002
  -8.4583277180546423E-002   2.4870558069603810E-002   2.9876398891155564E-002
 -0.10163104226571748        2.9947377437185174E-002   2.3341114772581179E-002
  -9.9155115359103846E-002   2.9175252638674407E-002   2.3066261127518046E-002
  -9.6679188452490253E-002   2.8459787498965994E-002   2.2893534319275495E-002
  -9.4203261545876618E-002   2.7800982018059944E-002   2.2822934347853527E-002
  -9.1727334639262970E-002   2.7198836195956255E-002   2.2854461213252131E-002
 -0.10900716374590423        3.1946219886179371E-002   1.5469124075559386E-002
 -0.10641282347328779        3.1603766070839145E-002   1.5262743139620328E-002
 -0.10381848320067136        3.1086430538414041E-002   1.5191062098866380E-002
 -0.10122414292805490        3.0394213288903880E-002   1.5254080953297448E-002
  -9.8629802655438442E-002   2.9527114322308701E-002   1.5451799702913535E-002
 -0.11627198801700774        3.3945062335173526E-002   8.1425750496518512E-003
 -0.11352666132002405        3.4032279503004026E-002   7.7731254469496965E-003
 -0.11078133462304035        3.3713073577862095E-002   7.5709487977967949E-003
 -0.10803600792605661        3.2987444559747829E-002   7.5360451021935773E-003
 -0.10529068122907292        3.1855392448661091E-002   7.6684143601397359E-003
 -0.12342551507902810        3.5943904784167729E-002   1.3614676948587034E-003
 -0.12049662889931265        3.6460792935168768E-002   5.9740804950578208E-004
 -0.11756774271959719        3.6339716617310065E-002   3.3194416066688326E-005
 -0.11463885653988173        3.5580675830591726E-002  -3.3117320545818403E-004
 -0.11170997036016628        3.4183670575013536E-002  -4.9569481506916979E-004
  -8.4583277180546423E-002   2.4870558069603810E-002   2.9876398891155564E-002
  -8.2199325039560137E-002   2.4576750670773140E-002   2.9174067595574532E-002
  -7.9815372898573850E-002   2.4081512794815713E-002   2.8821451984512317E-002
  -7.7431420757587563E-002   2.3384844441731549E-002   2.8818552057968738E-002
  -7.5047468616601276E-002   2.2486745611520531E-002   2.9165367815943866E-002
  -9.1727334639262970E-002   2.7198836195956255E-002   2.2854461213252131E-002
  -8.9045972323153144E-002   2.6590873575557360E-002   2.2206551984557350E-002
  -8.6364610007043263E-002   2.5914617699765642E-002   2.1803747421591094E-002
  -8.3683247690933410E-002   2.5170068568581040E-002   2.1646047524353222E-002
  -8.1001885374823571E-002   2.4357226182003727E-002   2.1733452292843819E-002
  -9.8629802655438442E-002   2.9527114322308701E-002   1.5451799702913535E-002
  -9.5755641182995274E-002   2.8604996480341482E-002   1.4991449762838928E-002
  -9.2881479710552078E-002   2.7747722604715544E-002   1.4671593469702517E-002
  -9.0007318238108869E-002   2.6955292695430674E-002   1.4492230823504350E-002
  -8.7133156765665687E-002   2.6227706752487062E-002   1.4453361824244434E-002
 -0.10529068122907292        3.1855392448661091E-002   7.6684143601397359E-003
 -0.10232833161908657        3.0619119385125640E-002   7.5287609304190966E-003
  -9.9365982009100268E-002   2.9580827509665474E-002   7.4249901288466966E-003
  -9.6403632399113939E-002   2.8740516822280307E-002   7.3571019554221368E-003
  -9.3441282789127639E-002   2.8098187322970383E-002   7.3250964101456394E-003
 -0.11170997036016628        3.4183670575013536E-002  -4.9569481506916979E-004
 -0.10876404363142705        3.2633242289909825E-002  -1.8151451270173591E-004
 -0.10581811690268783        3.1413932414615472E-002   6.3937399023591968E-005
 -0.10287219017394861        3.0525740949129892E-002   2.4066092010661608E-004
  -9.9926263445209385E-002   2.9968667893453538E-002   3.4865605054756887E-004
  -7.5047468616601276E-002   2.2486745611520531E-002   2.9165367815943866E-002
  -7.2688121345180032E-002   2.1520490074796200E-002   2.9063334555917114E-002
  -7.0328774073758843E-002   2.0619351602171848E-002   2.9096874624847710E-002
  -6.7969426802337654E-002   1.9783330193647718E-002   2.9265988022735903E-002
  -6.5610079530916438E-002   1.9012425849223469E-002   2.9570674749581527E-002
  -8.1001885374823571E-002   2.4357226182003727E-002   2.1733452292843819E-002
  -7.8493136611043707E-002   2.3515015661452962E-002   2.1505729589371234E-002
  -7.5984387847263829E-002   2.2682362128347740E-002   2.1441236541658484E-002
  -7.3475639083483937E-002   2.1859265582688164E-002   2.1539973149705544E-002
  -7.0966890319704171E-002   2.1045726024474409E-002   2.1801939413512383E-002
  -8.7133156765665687E-002   2.6227706752487062E-002   1.4453361824244434E-002
  -8.4447350182724812E-002   2.5509541248109682E-002   1.4044389600671704E-002
  -8.1761543599783965E-002   2.4745372654523520E-002   1.3826303359661195E-002
  -7.9075737016843076E-002   2.3935200971728781E-002   1.3799103101212802E-002
  -7.6389930433902242E-002   2.3079026199725239E-002   1.3962788825326450E-002
  -9.3441282789127639E-002   2.8098187322970383E-002   7.3250964101456394E-003
  -9.0550762060223430E-002   2.7504066834766423E-002   6.6793145898184220E-003
  -8.7660241331319194E-002   2.6808383180699329E-002   6.2520750788555290E-003
  -8.4769720602414944E-002   2.6011136360769259E-002   6.0433778772575660E-003
  -8.1879199873510763E-002   2.5112326374976179E-002   6.0532229850237471E-003
  -9.9926263445209385E-002   2.9968667893453538E-002   3.4865605054756887E-004
  -9.6803372243539465E-002   2.9498592421423053E-002  -5.8949544318862013E-004
  -9.3680481041869545E-002   2.8871393706875026E-002  -1.2814483007578120E-003
  -9.0557589840199626E-002   2.8087071749809941E-002  -1.7272025221601837E-003
  -8.7434698638529706E-002   2.7145626550227009E-002  -1.9267581073957873E-003
  -6.5610079530916438E-002   1.9012425849223469E-002   2.9570674749581527E-002
  -6.3280040346146274E-002   1.8263969469283214E-002   2.9455480189311489E-002
  -6.0950001161376083E-002   1.7495291954211165E-002   2.9528897902676016E-002
  -5.8619961976605892E-002   1.6706393304006830E-002   2.9790927889674829E-002
  -5.6289922791835728E-002   1.5897273518670652E-002   3.0241570150307873E-002
  -7.0966890319704171E-002   2.1045726024474409E-002   2.1801939413512383E-002
  -6.8452604028091626E-002   2.0244772374538950E-002   2.1613847208029696E-002
  -6.5938317736479013E-002   1.9459433553714559E-002   2.1605636942597400E-002
  -6.3424031444866469E-002   1.8689709562001656E-002   2.1777308617215441E-002
  -6.0909745153253925E-002   1.7935600399399565E-002   2.2128862231883845E-002
  -7.6389930433902242E-002   2.3079026199725239E-002   1.3962788825326450E-002
  -7.3700127369031254E-002   2.2225575279794518E-002   1.3737634938874060E-002
  -7.1010324304160322E-002   2.1423575153218070E-002   1.3683632658888112E-002
  -6.8320521239289375E-002   2.0673025819996207E-002   1.3800781985368545E-002
  -6.5630718174418387E-002   1.9973927280128478E-002   1.4089082918315496E-002
  -8.1879199873510763E-002   2.5112326374976179E-002   6.0532229850237471E-003
  -7.9022610368965310E-002   2.4206378185050281E-002   5.8268433818448977E-003
  -7.6166020864419925E-002   2.3387716752721912E-002   5.7628850515485403E-003
  -7.3309431359874513E-002   2.2656342077990783E-002   5.8613479941345267E-003
  -7.0452841855329115E-002   2.2012254160857392E-002   6.1222322096030762E-003
  -8.7434698638529706E-002   2.7145626550227009E-002  -1.9267581073957873E-003
  -8.4420053027893738E-002   2.6187181090305767E-002  -2.1185274630579065E-003
  -8.1405407417257880E-002   2.5351858352225060E-002  -2.1566058794217774E-003
  -7.8390761806621911E-002   2.4639658335985824E-002  -2.0409933564869941E-003
  -7.5376116195986054E-002   2.4050581041586305E-002  -1.7716898942535808E-003
  -5.6289922791835728E-002   1.5897273518670652E-002   3.0241570150307873E-002
  -5.3891735051990991E-002   1.5050889642993281E-002   3.0066591404491694E-002
  -5.1493547312146309E-002   1.4150198721765608E-002   3.0110631567537932E-002
  -4.9095359572301572E-002   1.3195200754988010E-002   3.0373690639446962E-002
  -4.6697171832456891E-002   1.2185895742659658E-002   3.0855768620218493E-002
  -6.0909745153253925E-002   1.7935600399399565E-002   2.2128862231883845E-002
  -5.8316318225041283E-002   1.7155009062636589E-002   2.1767509994334661E-002
  -5.5722891296828572E-002   1.6305838548440185E-002   2.1577617224659007E-002
  -5.3129464368615945E-002   1.5388088856809933E-002   2.1559183922856356E-002
  -5.0536037440403275E-002   1.4401759987746843E-002   2.1712210088926820E-002
  -6.5630718174418387E-002   1.9973927280128478E-002   1.4089082918315496E-002
  -6.2889611498827158E-002   1.9259128482279675E-002   1.3527085057150487E-002
  -6.0148504823235964E-002   1.8461478375114256E-002   1.3088987222869400E-002
  -5.7407398147644687E-002   1.7580976958632241E-002   1.2774789415472162E-002
  -5.4666291472053534E-002   1.6617624232833944E-002   1.2584491634958547E-002
  -7.0452841855329115E-002   2.2012254160857392E-002   6.1222322096030762E-003
  -6.7611614873348741E-002   2.1363247901922983E-002   5.3453165929389333E-003
  -6.4770387891368339E-002   2.0617118201788357E-002   4.6447415621693241E-003
  -6.1929160909387958E-002   1.9773865060454414E-002   4.0205071172940568E-003
  -5.9087933927407577E-002   1.8833488477920809E-002   3.4726132583134568E-003
  -7.5376116195986054E-002   2.4050581041586305E-002  -1.7716898942535808E-003
  -7.2482328348605851E-002   2.3467367321566124E-002  -2.7777953982998094E-003
  -6.9588540501225760E-002   2.2772758028462819E-002  -3.7551197574413608E-003
  -6.6694752653845557E-002   2.1966753162276788E-002  -4.7036629716773748E-003
  -6.3800964806465466E-002   2.1049352723008119E-002  -5.6234250410085451E-003
  -4.6697171832456891E-002   1.2185895742659658E-002   3.0855768620218493E-002
  -4.3730595303110659E-002   1.0531062635483701E-002   3.0928972576340030E-002
  -4.0764018773764440E-002   7.6394803841627196E-003   3.1658689586627570E-002
  -3.7797442244418118E-002   3.5111489886961132E-003   3.3044919651081014E-002
  -3.4830865715071990E-002  -1.8539315509153997E-003   3.5087662769700545E-002
  -5.0536037440403275E-002   1.4401759987746843E-002   2.1712210088926820E-002
  -4.7236475850385762E-002   1.3343729267400656E-002   2.0514710793211210E-002
  -4.3936914260368234E-002   1.2210874021922460E-002   1.9326668564672134E-002
  -4.0637352670350596E-002   1.1003194251312413E-002   1.8148083403309867E-002
  -3.7337791080333138E-002   9.7206899555701831E-003   1.6978955309124077E-002
  -5.4666291472053534E-002   1.6617624232833944E-002   1.2584491634958547E-002
  -5.1680800808354029E-002   1.6156395899317583E-002   1.1278213706418933E-002
  -4.8695310144654474E-002   1.6782267659682430E-002   9.3343368580666372E-003
  -4.5709819480954969E-002   1.8495239513928632E-002   6.7528610899015608E-003
  -4.2724328817255408E-002   2.1295311462055655E-002   3.5337864019238108E-003
  -5.9087933927407577E-002   1.8833488477920809E-002   3.4726132583134568E-003
  -5.7063570177015417E-002   1.8969062531234357E-002   3.2194813159628563E-003
  -5.5039206426623272E-002   2.1353661297442119E-002   1.6816944668104194E-003
  -5.3014842676231189E-002   2.5987284776544613E-002  -1.1407472891442312E-003
  -5.0990478925839029E-002   3.2869932968540960E-002  -5.2478439519008796E-003
  -6.3800964806465466E-002   2.1049352723008119E-002  -5.6234250410085451E-003
  -6.3384783956370150E-002   2.1781729163151353E-002  -3.6614863781566642E-003
  -6.2968603106274723E-002   2.5925054935202224E-002  -3.6312586090958832E-003
  -6.2552422256179352E-002   3.3479330039160836E-002  -5.5327417338267362E-003
  -6.2136241406083981E-002   4.4444554475026710E-002  -9.3659357523492304E-003
 </DataArray>
 </PointData>
 </Piece>
 <Piece  NumberOfPoints="          1600 "  NumberOfCells="         1024 ">
 <Points>
 <DataArray  type="Float64" NumberOfComponents="3"  format="ascii" >
  0.50000000000000000        0.0000000000000000        0.0000000000000000     
  0.53125000000000000        0.0000000000000000        0.0000000000000000     
  0.56250000000000000        0.0000000000000000        0.0000000000000000     
  0.59375000000000000        0.0000000000000000        0.0000000000000000     
  0.62500000000000000        0.0000000000000000        0.0000000000000000     
  0.50000000000000000        3.1250000000000000E-002   0.0000000000000000     
  0.53125000000000000        3.1250000000000000E-002   0.0000000000000000     
  0.56250000000000000        3.1250000000000000E-002   0.0000000000000000     
  0.59375000000000000        3.1250000000000000E-002   0.0000000000000000     
  0.62500000000000000        3.1250000000000000E-002   0.0000000000000000     
  0.50000000000000000        6.2500000000000000E-002   0.0000000000000000     
  0.53125000000000000        6.2500000000000000E-002   0.0000000000000000     
  0.56250000000000000        6.2500000000000000E-002   0.0000000000000000     
  0.59375000000000000        6.2500000000000000E-002   0.0000000000000000     
  0.62500000000000000        6.2500000000000000E-002   0.0000000000000000     
  0.50000000000000000        9.3750000000000000E-002   0.0000000000000000     
  0.53125000000000000        9.3750000000000000E-002   0.0000000000000000     
  0.56250000000000000        9.3750000000000000E-002   0.0000000000000000     
  0.59375000000000000        9.3750000000000000E-002   0.0000000000000000     
  0.62500000000000000        9.3750000000000000E-002   0.0000000000000000     
  0.50000000000000000       0.12500000000000000        0.0000000000000000     
  0.53125000000000000       0.12500000000000000        0.0000000000000000     
  0.56250000000000000       0.12500000000000000        0.0000000000000000     
  0.59375000000000000       0.12500000000000000        0.0000000000000000     
  0.62500000000000000       0.12500000000000000        0.0000000000000000     
  0.62500000000000000        0.0000000000000000        0.0000000000000000     
  0.65625000000000000        0.0000000000000000        0.0000000000000000     
  0.68750000000000000        0.0000000000000000        0.0000000000000000     
  0.71875000000000000        0.0000000000000000        0.0000000000000000     
  0.75000000000000000        0.0000000000000000        0.0000000000000000     
  0.62500000000000000        3.1250000000000000E-002   0.0000000000000000     
  0.65625000000000000        3.1250000000000000E-002   0.0000000000000000     
  0.68750000000000000        3.1250000000000000E-002   0.0000000000000000     
  0.71875000000000000        3.1250000000000000E-002   0.0000000000000000     
  0.75000000000000000        3.1250000000000000E-002   0.0000000000000000     
  0.62500000000000000        6.2500000000000000E-002   0.0000000000000000     
  0.65625000000000000        6.2500000000000000E-002   0.0000000000000000     
  0.68750000000000000        6.2500000000000000E-002   0.0000000000000000     
  0.71875000000000000        6.2500000000000000E-002   0.0000000000000000     
  0.75000000000000000        6.2500000000000000E-002   0.0000000000000000     
  0.62500000000000000        9.3750000000000000E-002   0.0000000000000000     
  0.65625000000000000        9.3750000000000000E-002   0.0000000000000000     
  0.68750000000000000        9.3750000000000000E-002   0.0000000000000000     
  0.71875000000000000        9.3750000000000000E-002   0.0000000000000000     
  0.75000000000000000        9.3750000000000000E-002   0.0000000000000000     
  0.62500000000000000       0.12500000000000000        0.0000000000000000     
  0.65625000000000000       0.12500000000000000        0.0000000000000000     
  0.68750000000000000       0.12500000000000000        0.0000000000000000     
  0.71875000000000000       0.12500000000000000        0.0000000000000000     
  0.75000000000000000       0.12500000000000000        0.0000000000000000     
  0.75000000000000000        0.0000000000000000        0.0000000000000000     
  0.78125000000000000        0.0000000000000000        0.0000000000000000     
  0.81250000000000000        0.0000000000000000        0.0000000000000000     
  0.84375000000000000        0.0000000000000000        0.0000000000000000     
  0.87500000000000000        0.0000000000000000        0.0000000000000000     
  0.75000000000000000        3.1250000000000000E-002   0.0000000000000000     
  0.78125000000000000        3.1250000000000000E-002   0.0000000000000000     
  0.81250000000000000        3.1250000000000000E-002   0.0000000000000000     
  0.84375000000000000        3.1250000000000000E-002   0.0000000000000000     
  0.87500000000000000        3.1250000000000000E-002   0.0000000000000000     
  0.75000000000000000        6.2500000000000000E-002   0.0000000000000000     
  0.78125000000000000        6.2500000000000000E-002   0.0000000000000000     
  0.81250000000000000        6.2500000000000000E-002   0.0000000000000000     
  0.84375000000000000        6.2500000000000000E-002   0.0000000000000000     
  0.87500000000000000        6.2500000000000000E-002   0.0000000000000000     
  0.75000000000000000        9.3750000000000000E-002   0.0000000000000000     
  0.78125000000000000        9.3750000000000000E-002   0.0000000000000000     
  0.81250000000000000        9.3750000000000000E-002   0.0000000000000000     
  0.84375000000000000        9.3750000000000000E-002   0.0000000000000000     
  0.87500000000000000        9.3750000000000000E-002   0.0000000000000000     
  0.75000000000000000       0.12500000000000000        0.0000000000000000     
  0.78125000000000000       0.12500000000000000        0.0000000000000000     
  0.81250000000000000       0.12500000000000000        0.0000000000000000     
  0.84375000000000000       0.12500000000000000        0.0000000000000000     
  0.87500000000000000       0.12500000000000000        0.0000000000000000     
  0.87500000000000000        0.0000000000000000        0.0000000000000000     
  0.90625000000000000        0.0000000000000000        0.0000000000000000     
  0.93750000000000000        0.0000000000000000        0.0000000000000000     
  0.96875000000000000        0.0000000000000000        0.0000000000000000     
   1.0000000000000000        0.0000000000000000        0.0000000000000000     
  0.87500000000000000        3.1250000000000000E-002   0.0000000000000000     
  0.90625000000000000        3.1250000000000000E-002   0.0000000000000000     
  0.93750000000000000        3.1250000000000000E-002   0.0000000000000000     
  0.96875000000000000        3.1250000000000000E-002   0.0000000000000000     
   1.0000000000000000        3.1250000000000000E-002   0.0000000000000000     
  0.87500000000000000        6.2500000000000000E-002   0.0000000000000000     
  0.90625000000000000        6.2500000000000000E-002   0.0000000000000000     
  0.93750000000000000        6.2500000000000000E-002   0.0000000000000000     
  0.96875000000000000        6.2500000000000000E-002   0.0000000000000000     
   1.0000000000000000        6.2500000000000000E-002   0.0000000000000000     
  0.87500000000000000        9.3750000000000000E-002   0.0000000000000000     
  0.90625000000000000        9.3750000000000000E-002   0.0000000000000000     
  0.93750000000000000        9.3750000000000000E-002   0.0000000000000000     
  0.96875000000000000        9.3750000000000000E-002   0.0000000000000000     
   1.0000000000000000        9.3750000000000000E-002   0.0000000000000000     
  0.87500000000000000       0.12500000000000000        0.0000000000000000     
  0.90625000000000000       0.12500000000000000        0.0000000000000000     
  0.93750000000000000       0.12500000000000000        0.0000000000000000     
  0.96875000000000000       0.12500000000000000        0.0000000000000000     
   1.0000000000000000       0.12500000000000000        0.0000000000000000     
   1.0000000000000000        0.0000000000000000        0.0000000000000000     
   1.0312500000000000        0.0000000000000000        0.0000000000000000     
   1.0625000000000000        0.0000000000000000        0.0000000000000000     
   1.0937500000000000        0.0000000000000000        0.0000000000000000     
   1.1250000000000000        0.0000000000000000        0.0000000000000000     
   1.0000000000000000        3.1250000000000000E-002   0.0000000000000000     
   1.0312500000000000        3.1250000000000000E-002   0.0000000000000000     
   1.0625000000000000        3.1250000000000000E-002   0.0000000000000000     
   1.0937500000000000        3.1250000000000000E-002   0.0000000000000000     
   1.1250000000000000        3.1250000000000000E-002   0.0000000000000000     
   1.0000000000000000        6.2500000000000000E-002   0.0000000000000000     
   1.0312500000000000        6.2500000000000000E-002   0.0000000000000000     
   1.0625000000000000        6.2500000000000000E-002   0.0000000000000000     
   1.0937500000000000        6.2500000000000000E-002   0.0000000000000000     
   1.1250000000000000        6.2500000000000000E-002   0.0000000000000000     
   1.0000000000000000        9.3750000000000000E-002   0.0000000000000000     
   1.0312500000000000        9.3750000000000000E-002   0.0000000000000000     
   1.0625000000000000        9.3750000000000000E-002   0.0000000000000000     
   1.0937500000000000        9.3750000000000000E-002   0.0000000000000000     
   1.1250000000000000        9.3750000000000000E-002   0.0000000000000000     
   1.0000000000000000       0.12500000000000000        0.0000000000000000     
   1.0312500000000000       0.12500000000000000        0.0000000000000000     
   1.0625000000000000       0.12500000000000000        0.0000000000000000     
   1.0937500000000000       0.12500000000000000        0.0000000000000000     
   1.1250000000000000       0.12500000000000000        0.0000000000000000     
   1.1250000000000000        0.0000000000000000        0.0000000000000000     
   1.1562500000000000        0.0000000000000000        0.0000000000000000     
   1.1875000000000000        0.0000000000000000        0.0000000000000000     
   1.2187500000000000        0.0000000000000000        0.0000000000000000     
   1.2500000000000000        0.0000000000000000        0.0000000000000000     
   1.1250000000000000        3.1250000000000000E-002   0.0000000000000000     
   1.1562500000000000        3.1250000000000000E-002   0.0000000000000000     
   1.1875000000000000        3.1250000000000000E-002   0.0000000000000000     
   1.2187500000000000        3.1250000000000000E-002   0.0000000000000000     
   1.2500000000000000        3.1250000000000000E-002   0.0000000000000000     
   1.1250000000000000        6.2500000000000000E-002   0.0000000000000000     
   1.1562500000000000        6.2500000000000000E-002   0.0000000000000000     
   1.1875000000000000        6.2500000000000000E-002   0.0000000000000000     
   1.2187500000000000        6.2500000000000000E-002   0.0000000000000000     
   1.2500000000000000        6.2500000000000000E-002   0.0000000000000000     
   1.1250000000000000        9.3750000000000000E-002   0.0000000000000000     
   1.1562500000000000        9.3750000000000000E-002   0.0000000000000000     
   1.1875000000000000        9.3750000000000000E-002   0.0000000000000000     
   1.2187500000000000        9.3750000000000000E-002   0.0000000000000000     
   1.2500000000000000        9.3750000000000000E-002   0.0000000000000000     
   1.1250000000000000       0.12500000000000000        0.0000000000000000     
   1.1562500000000000       0.12500000000000000        0.0000000000000000     
   1.1875000000000000       0.12500000000000000        0.0000000000000000     
   1.2187500000000000       0.12500000000000000        0.0000000000000000     
   1.2500000000000000       0.12500000000000000        0.0000000000000000     
   1.2500000000000000        0.0000000000000000        0.0000000000000000     
   1.2812500000000000        0.0000000000000000        0.0000000000000000     
   1.3125000000000000        0.0000000000000000        0.0000000000000000     
   1.3437500000000000        0.0000000000000000        0.0000000000000000     
   1.3750000000000000        0.0000000000000000        0.0000000000000000     
   1.2500000000000000        3.1250000000000000E-002   0.0000000000000000     
   1.2812500000000000        3.1250000000000000E-002   0.0000000000000000     
   1.3125000000000000        3.1250000000000000E-002   0.0000000000000000     
   1.3437500000000000        3.1250000000000000E-002   0.0000000000000000     
   1.3750000000000000        3.1250000000000000E-002   0.0000000000000000     
   1.2500000000000000        6.2500000000000000E-002   0.0000000000000000     
   1.2812500000000000        6.2500000000000000E-002   0.0000000000000000     
   1.3125000000000000        6.2500000000000000E-002   0.0000000000000000     
   1.3437500000000000        6.2500000000000000E-002   0.0000000000000000     
   1.3750000000000000        6.2500000000000000E-002   0.0000000000000000     
   1.2500000000000000        9.3750000000000000E-002   0.0000000000000000     
   1.2812500000000000        9.3750000000000000E-002   0.0000000000000000     
   1.3125000000000000        9.3750000000000000E-002   0.0000000000000000     
   1.3437500000000000        9.3750000000000000E-002   0.0000000000000000     
   1.3750000000000000        9.3750000000000000E-002   0.0000000000000000     
   1.2500000000000000       0.12500000000000000        0.0000000000000000     
   1.2812500000000000       0.12500000000000000        0.0000000000000000     
   1.3125000000000000       0.12500000000000000        0.0000000000000000     
   1.3437500000000000       0.12500000000000000        0.0000000000000000     
   1.3750000000000000       0.12500000000000000        0.0000000000000000     
   1.3750000000000000        0.0000000000000000        0.0000000000000000     
   1.4062500000000000        0.0000000000000000        0.0000000000000000     
   1.4375000000000000        0.0000000000000000        0.0000000000000000     
   1.4687500000000000        0.0000000000000000        0.0000000000000000     
   1.5000000000000000        0.0000000000000000        0.0000000000000000     
   1.3750000000000000        3.1250000000000000E-002   0.0000000000000000     
   1.4062500000000000        3.1250000000000000E-002   0.0000000000000000     
   1.4375000000000000        3.1250000000000000E-002   0.0000000000000000     
   1.4687500000000000        3.1250000000000000E-002   0.0000000000000000     
   1.5000000000000000        3.1250000000000000E-002   0.0000000000000000     
   1.3750000000000000        6.2500000000000000E-002   0.0000000000000000     
   1.4062500000000000        6.2500000000000000E-002   0.0000000000000000     
   1.4375000000000000        6.2500000000000000E-002   0.0000000000000000     
   1.4687500000000000        6.2500000000000000E-002   0.0000000000000000     
   1.5000000000000000        6.2500000000000000E-002   0.0000000000000000     
   1.3750000000000000        9.3750000000000000E-002   0.0000000000000000     
   1.4062500000000000        9.3750000000000000E-002   0.0000000000000000     
   1.4375000000000000        9.3750000000000000E-002   0.0000000000000000     
   1.4687500000000000        9.3750000000000000E-002   0.0000000000000000     
   1.5000000000000000        9.3750000000000000E-002   0.0000000000000000     
   1.3750000000000000       0.12500000000000000        0.0000000000000000     
   1.4062500000000000       0.12500000000000000        0.0000000000000000     
   1.4375000000000000       0.12500000000000000        0.0000000000000000     
   1.4687500000000000       0.12500000000000000        0.0000000000000000     
   1.5000000000000000       0.12500000000000000        0.0000000000000000     
  0.50000000000000000       0.12500000000000000        0.0000000000000000     
  0.53125000000000000       0.12500000000000000        0.0000000000000000     
  0.56250000000000000       0.12500000000000000        0.0000000000000000     
  0.59375000000000000       0.12500000000000000        0.0000000000000000     
  0.62500000000000000       0.12500000000000000        0.0000000000000000     
  0.50000000000000000       0.15625000000000000        0.0000000000000000     
  0.53125000000000000       0.15625000000000000        0.0000000000000000     
  0.56250000000000000       0.15625000000000000        0.0000000000000000     
  0.59375000000000000       0.15625000000000000        0.0000000000000000     
  0.62500000000000000       0.15625000000000000        0.0000000000000000     
  0.50000000000000000       0.18750000000000000        0.0000000000000000     
  0.53125000000000000       0.18750000000000000        0.0000000000000000     
  0.56250000000000000       0.18750000000000000        0.0000000000000000     
  0.59375000000000000       0.18750000000000000        0.0000000000000000     
  0.62500000000000000       0.18750000000000000        0.0000000000000000     
  0.50000000000000000       0.21875000000000000        0.0000000000000000     
  0.53125000000000000       0.21875000000000000        0.0000000000000000     
  0.56250000000000000       0.21875000000000000        0.0000000000000000     
  0.59375000000000000       0.21875000000000000        0.0000000000000000     
  0.62500000000000000       0.21875000000000000        0.0000000000000000     
  0.50000000000000000       0.25000000000000000        0.0000000000000000     
  0.53125000000000000       0.25000000000000000        0.0000000000000000     
  0.56250000000000000       0.25000000000000000        0.0000000000000000     
  0.59375000000000000       0.25000000000000000        0.0000000000000000     
  0.62500000000000000       0.25000000000000000        0.0000000000000000     
  0.62500000000000000       0.12500000000000000        0.0000000000000000     
  0.65625000000000000       0.12500000000000000        0.0000000000000000     
  0.68750000000000000       0.12500000000000000        0.0000000000000000     
  0.71875000000000000       0.12500000000000000        0.0000000000000000     
  0.75000000000000000       0.12500000000000000        0.0000000000000000     
  0.62500000000000000       0.15625000000000000        0.0000000000000000     
  0.65625000000000000       0.15625000000000000        0.0000000000000000     
  0.68750000000000000       0.15625000000000000        0.0000000000000000     
  0.71875000000000000       0.15625000000000000        0.0000000000000000     
  0.75000000000000000       0.15625000000000000        0.0000000000000000     
  0.62500000000000000       0.18750000000000000        0.0000000000000000     
  0.65625000000000000       0.18750000000000000        0.0000000000000000     
  0.68750000000000000       0.18750000000000000        0.0000000000000000     
  0.71875000000000000       0.18750000000000000        0.0000000000000000     
  0.75000000000000000       0.18750000000000000        0.0000000000000000     
  0.62500000000000000       0.21875000000000000        0.0000000000000000     
  0.65625000000000000       0.21875000000000000        0.0000000000000000     
  0.68750000000000000       0.21875000000000000        0.0000000000000000     
  0.71875000000000000       0.21875000000000000        0.0000000000000000     
  0.75000000000000000       0.21875000000000000        0.0000000000000000     
  0.62500000000000000       0.25000000000000000        0.0000000000000000     
  0.65625000000000000       0.25000000000000000        0.0000000000000000     
  0.68750000000000000       0.25000000000000000        0.0000000000000000     
  0.71875000000000000       0.25000000000000000        0.0000000000000000     
  0.75000000000000000       0.25000000000000000        0.0000000000000000     
  0.75000000000000000       0.12500000000000000        0.0000000000000000     
  0.78125000000000000       0.12500000000000000        0.0000000000000000     
  0.81250000000000000       0.12500000000000000        0.0000000000000000     
  0.84375000000000000       0.12500000000000000        0.0000000000000000     
  0.87500000000000000       0.12500000000000000        0.0000000000000000     
  0.75000000000000000       0.15625000000000000        0.0000000000000000     
  0.78125000000000000       0.15625000000000000        0.0000000000000000     
  0.81250000000000000       0.15625000000000000        0.0000000000000000     
  0.84375000000000000       0.15625000000000000        0.0000000000000000     
  0.87500000000000000       0.15625000000000000        0.0000000000000000     
  0.75000000000000000       0.18750000000000000        0.0000000000000000     
  0.78125000000000000       0.18750000000000000        0.0000000000000000     
  0.81250000000000000       0.18750000000000000        0.0000000000000000     
  0.84375000000000000       0.18750000000000000        0.0000000000000000     
  0.87500000000000000       0.18750000000000000        0.0000000000000000     
  0.75000000000000000       0.21875000000000000        0.0000000000000000     
  0.78125000000000000       0.21875000000000000        0.0000000000000000     
  0.81250000000000000       0.21875000000000000        0.0000000000000000     
  0.84375000000000000       0.21875000000000000        0.0000000000000000     
  0.87500000000000000       0.21875000000000000        0.0000000000000000     
  0.75000000000000000       0.25000000000000000        0.0000000000000000     
  0.78125000000000000       0.25000000000000000        0.0000000000000000     
  0.81250000000000000       0.25000000000000000        0.0000000000000000     
  0.84375000000000000       0.25000000000000000        0.0000000000000000     
  0.87500000000000000       0.25000000000000000        0.0000000000000000     
  0.87500000000000000       0.12500000000000000        0.0000000000000000     
  0.90625000000000000       0.12500000000000000        0.0000000000000000     
  0.93750000000000000       0.12500000000000000        0.0000000000000000     
  0.96875000000000000       0.12500000000000000        0.0000000000000000     
   1.0000000000000000       0.12500000000000000        0.0000000000000000     
  0.87500000000000000       0.15625000000000000        0.0000000000000000     
  0.90625000000000000       0.15625000000000000        0.0000000000000000     
  0.93750000000000000       0.15625000000000000        0.0000000000000000     
  0.96875000000000000       0.15625000000000000        0.0000000000000000     
   1.0000000000000000       0.15625000000000000        0.0000000000000000     
  0.87500000000000000       0.18750000000000000        0.0000000000000000     
  0.90625000000000000       0.18750000000000000        0.0000000000000000     
  0.93750000000000000       0.18750000000000000        0.0000000000000000     
  0.96875000000000000       0.18750000000000000        0.0000000000000000     
   1.0000000000000000       0.18750000000000000        0.0000000000000000     
  0.87500000000000000       0.21875000000000000        0.0000000000000000     
  0.90625000000000000       0.21875000000000000        0.0000000000000000     
  0.93750000000000000       0.21875000000000000        0.0000000000000000     
  0.96875000000000000       0.21875000000000000        0.0000000000000000     
   1.0000000000000000       0.21875000000000000        0.0000000000000000     
  0.87500000000000000       0.25000000000000000        0.0000000000000000     
  0.90625000000000000       0.25000000000000000        0.0000000000000000     
  0.93750000000000000       0.25000000000000000        0.0000000000000000     
  0.96875000000000000       0.25000000000000000        0.0000000000000000     
   1.0000000000000000       0.25000000000000000        0.0000000000000000     
   1.0000000000000000       0.12500000000000000        0.0000000000000000     
   1.0312500000000000       0.12500000000000000        0.0000000000000000     
   1.0625000000000000       0.12500000000000000        0.0000000000000000     
   1.0937500000000000       0.12500000000000000        0.0000000000000000     
   1.1250000000000000       0.12500000000000000        0.0000000000000000     
   1.0000000000000000       0.15625000000000000        0.0000000000000000     
   1.0312500000000000       0.15625000000000000        0.0000000000000000     
   1.0625000000000000       0.15625000000000000        0.0000000000000000     
   1.0937500000000000       0.15625000000000000        0.0000000000000000     
   1.1250000000000000       0.15625000000000000        0.0000000000000000     
   1.0000000000000000       0.18750000000000000        0.0000000000000000     
   1.0312500000000000       0.18750000000000000        0.0000000000000000     
   1.0625000000000000       0.18750000000000000        0.0000000000000000     
   1.0937500000000000       0.18750000000000000        0.0000000000000000     
   1.1250000000000000       0.18750000000000000        0.0000000000000000     
   1.0000000000000000       0.21875000000000000        0.0000000000000000     
   1.0312500000000000       0.21875000000000000        0.0000000000000000     
   1.0625000000000000       0.21875000000000000        0.0000000000000000     
   1.0937500000000000       0.21875000000000000        0.0000000000000000     
   1.1250000000000000       0.21875000000000000        0.0000000000000000     
   1.0000000000000000       0.25000000000000000        0.0000000000000000     
   1.0312500000000000       0.25000000000000000        0.0000000000000000     
   1.0625000000000000       0.25000000000000000        0.0000000000000000     
   1.0937500000000000       0.25000000000000000        0.0000000000000000     
   1.1250000000000000       0.25000000000000000        0.0000000000000000     
   1.1250000000000000       0.12500000000000000        0.0000000000000000     
   1.1562500000000000       0.12500000000000000        0.0000000000000000     
   1.1875000000000000       0.12500000000000000        0.0000000000000000     
   1.2187500000000000       0.12500000000000000        0.0000000000000000     
   1.2500000000000000       0.12500000000000000        0.0000000000000000     
   1.1250000000000000       0.15625000000000000        0.0000000000000000     
   1.1562500000000000       0.15625000000000000        0.0000000000000000     
   1.1875000000000000       0.15625000000000000        0.0000000000000000     
   1.2187500000000000       0.15625000000000000        0.0000000000000000     
   1.2500000000000000       0.15625000000000000        0.0000000000000000     
   1.1250000000000000       0.18750000000000000        0.0000000000000000     
   1.1562500000000000       0.18750000000000000        0.0000000000000000     
   1.1875000000000000       0.18750000000000000        0.0000000000000000     
   1.2187500000000000       0.18750000000000000        0.0000000000000000     
   1.2500000000000000       0.18750000000000000        0.0000000000000000     
   1.1250000000000000       0.21875000000000000        0.0000000000000000     
   1.1562500000000000       0.21875000000000000        0.0000000000000000     
   1.1875000000000000       0.21875000000000000        0.0000000000000000     
   1.2187500000000000       0.21875000000000000        0.0000000000000000     
   1.2500000000000000       0.21875000000000000        0.0000000000000000     
   1.1250000000000000       0.25000000000000000        0.0000000000000000     
   1.1562500000000000       0.25000000000000000        0.0000000000000000     
   1.1875000000000000       0.25000000000000000        0.0000000000000000     
   1.2187500000000000       0.25000000000000000        0.0000000000000000     
   1.2500000000000000       0.25000000000000000        0.0000000000000000     
   1.2500000000000000       0.12500000000000000        0.0000000000000000     
   1.2812500000000000       0.12500000000000000        0.0000000000000000     
   1.3125000000000000       0.12500000000000000        0.0000000000000000     
   1.3437500000000000       0.12500000000000000        0.0000000000000000     
   1.3750000000000000       0.12500000000000000        0.0000000000000000     
   1.2500000000000000       0.15625000000000000        0.0000000000000000     
   1.2812500000000000       0.15625000000000000        0.0000000000000000     
   1.3125000000000000       0.15625000000000000        0.0000000000000000     
   1.3437500000000000       0.15625000000000000        0.0000000000000000     
   1.3750000000000000       0.15625000000000000        0.0000000000000000     
   1.2500000000000000       0.18750000000000000        0.0000000000000000     
   1.2812500000000000       0.18750000000000000        0.0000000000000000     
   1.3125000000000000       0.18750000000000000        0.0000000000000000     
   1.3437500000000000       0.18750000000000000        0.0000000000000000     
   1.3750000000000000       0.18750000000000000        0.0000000000000000     
   1.2500000000000000       0.21875000000000000        0.0000000000000000     
   1.2812500000000000       0.21875000000000000        0.0000000000000000     
   1.3125000000000000       0.21875000000000000        0.0000000000000000     
   1.3437500000000000       0.21875000000000000        0.0000000000000000     
   1.3750000000000000       0.21875000000000000        0.0000000000000000     
   1.2500000000000000       0.25000000000000000        0.0000000000000000     
   1.2812500000000000       0.25000000000000000        0.0000000000000000     
   1.3125000000000000       0.25000000000000000        0.0000000000000000     
   1.3437500000000000       0.25000000000000000        0.0000000000000000     
   1.3750000000000000       0.25000000000000000        0.0000000000000000     
   1.3750000000000000       0.12500000000000000        0.0000000000000000     
   1.4062500000000000       0.12500000000000000        0.0000000000000000     
   1.4375000000000000       0.12500000000000000        0.0000000000000000     
   1.4687500000000000       0.12500000000000000        0.0000000000000000     
   1.5000000000000000       0.12500000000000000        0.0000000000000000     
   1.3750000000000000       0.15625000000000000        0.0000000000000000     
   1.4062500000000000       0.15625000000000000        0.0000000000000000     
   1.4375000000000000       0.15625000000000000        0.0000000000000000     
   1.4687500000000000       0.15625000000000000        0.0000000000000000     
   1.5000000000000000       0.15625000000000000        0.0000000000000000     
   1.3750000000000000       0.18750000000000000        0.0000000000000000     
   1.4062500000000000       0.18750000000000000        0.0000000000000000     
   1.4375000000000000       0.18750000000000000        0.0000000000000000     
   1.4687500000000000       0.18750000000000000        0.0000000000000000     
   1.5000000000000000       0.18750000000000000        0.0000000000000000     
   1.3750000000000000       0.21875000000000000        0.0000000000000000     
   1.4062500000000000       0.21875000000000000        0.0000000000000000     
   1.4375000000000000       0.21875000000000000        0.0000000000000000     
   1.4687500000000000       0.21875000000000000        0.0000000000000000     
   1.5000000000000000       0.21875000000000000        0.0000000000000000     
   1.3750000000000000       0.25000000000000000        0.0000000000000000     
   1.4062500000000000       0.25000000000000000        0.0000000000000000     
   1.4375000000000000       0.25000000000000000        0.0000000000000000     
   1.4687500000000000       0.25000000000000000        0.0000000000000000     
   1.5000000000000000       0.25000000000000000        0.0000000000000000     
  0.50000000000000000       0.25000000000000000        0.0000000000000000     
  0.53125000000000000       0.25000000000000000        0.0000000000000000     
  0.56250000000000000       0.25000000000000000        0.0000000000000000     
  0.59375000000000000       0.25000000000000000        0.0000000000000000     
  0.62500000000000000       0.25000000000000000        0.0000000000000000     
  0.50000000000000000       0.28125000000000000        0.0000000000000000     
  0.53125000000000000       0.28125000000000000        0.0000000000000000     
  0.56250000000000000       0.28125000000000000        0.0000000000000000     
  0.59375000000000000       0.28125000000000000        0.0000000000000000     
  0.62500000000000000       0.28125000000000000        0.0000000000000000     
  0.50000000000000000       0.31250000000000000        0.0000000000000000     
  0.53125000000000000       0.31250000000000000        0.0000000000000000     
  0.56250000000000000       0.31250000000000000        0.0000000000000000     
  0.59375000000000000       0.31250000000000000        0.0000000000000000     
  0.62500000000000000       0.31250000000000000        0.0000000000000000     
  0.50000000000000000       0.34375000000000000        0.0000000000000000     
  0.53125000000000000       0.34375000000000000        0.0000000000000000     
  0.56250000000000000       0.34375000000000000        0.0000000000000000     
  0.59375000000000000       0.34375000000000000        0.0000000000000000     
  0.62500000000000000       0.34375000000000000        0.0000000000000000     
  0.50000000000000000       0.37500000000000000        0.0000000000000000     
  0.53125000000000000       0.37500000000000000        0.0000000000000000     
  0.56250000000000000       0.37500000000000000        0.0000000000000000     
  0.59375000000000000       0.37500000000000000        0.0000000000000000     
  0.62500000000000000       0.37500000000000000        0.0000000000000000     
  0.62500000000000000       0.25000000000000000        0.0000000000000000     
  0.65625000000000000       0.25000000000000000        0.0000000000000000     
  0.68750000000000000       0.25000000000000000        0.0000000000000000     
  0.71875000000000000       0.25000000000000000        0.0000000000000000     
  0.75000000000000000       0.25000000000000000        0.0000000000000000     
  0.62500000000000000       0.28125000000000000        0.0000000000000000     
  0.65625000000000000       0.28125000000000000        0.0000000000000000     
  0.68750000000000000       0.28125000000000000        0.0000000000000000     
  0.71875000000000000       0.28125000000000000        0.0000000000000000     
  0.75000000000000000       0.28125000000000000        0.0000000000000000     
  0.62500000000000000       0.31250000000000000        0.0000000000000000     
  0.65625000000000000       0.31250000000000000        0.0000000000000000     
  0.68750000000000000       0.31250000000000000        0.0000000000000000     
  0.71875000000000000       0.31250000000000000        0.0000000000000000     
  0.75000000000000000       0.31250000000000000        0.0000000000000000     
  0.62500000000000000       0.34375000000000000        0.0000000000000000     
  0.65625000000000000       0.34375000000000000        0.0000000000000000     
  0.68750000000000000       0.34375000000000000        0.0000000000000000     
  0.71875000000000000       0.34375000000000000        0.0000000000000000     
  0.75000000000000000       0.34375000000000000        0.0000000000000000     
  0.62500000000000000       0.37500000000000000        0.0000000000000000     
  0.65625000000000000       0.37500000000000000        0.0000000000000000     
  0.68750000000000000       0.37500000000000000        0.0000000000000000     
  0.71875000000000000       0.37500000000000000        0.0000000000000000     
  0.75000000000000000       0.37500000000000000        0.0000000000000000     
  0.75000000000000000       0.25000000000000000        0.0000000000000000     
  0.78125000000000000       0.25000000000000000        0.0000000000000000     
  0.81250000000000000       0.25000000000000000        0.0000000000000000     
  0.84375000000000000       0.25000000000000000        0.0000000000000000     
  0.87500000000000000       0.25000000000000000        0.0000000000000000     
  0.75000000000000000       0.28125000000000000        0.0000000000000000     
  0.78125000000000000       0.28125000000000000        0.0000000000000000     
  0.81250000000000000       0.28125000000000000        0.0000000000000000     
  0.84375000000000000       0.28125000000000000        0.0000000000000000     
  0.87500000000000000       0.28125000000000000        0.0000000000000000     
  0.75000000000000000       0.31250000000000000        0.0000000000000000     
  0.78125000000000000       0.31250000000000000        0.0000000000000000     
  0.81250000000000000       0.31250000000000000        0.0000000000000000     
  0.84375000000000000       0.31250000000000000        0.0000000000000000     
  0.87500000000000000       0.31250000000000000        0.0000000000000000     
  0.75000000000000000       0.34375000000000000        0.0000000000000000     
  0.78125000000000000       0.34375000000000000        0.0000000000000000     
  0.81250000000000000       0.34375000000000000        0.0000000000000000     
  0.84375000000000000       0.34375000000000000        0.0000000000000000     
  0.87500000000000000       0.34375000000000000        0.0000000000000000     
  0.75000000000000000       0.37500000000000000        0.0000000000000000     
  0.78125000000000000       0.37500000000000000        0.0000000000000000     
  0.81250000000000000       0.37500000000000000        0.0000000000000000     
  0.84375000000000000       0.37500000000000000        0.0000000000000000     
  0.87500000000000000       0.37500000000000000        0.0000000000000000     
  0.87500000000000000       0.25000000000000000        0.0000000000000000     
  0.90625000000000000       0.25000000000000000        0.0000000000000000     
  0.93750000000000000       0.25000000000000000        0.0000000000000000     
  0.96875000000000000       0.25000000000000000        0.0000000000000000     
   1.0000000000000000       0.25000000000000000        0.0000000000000000     
  0.87500000000000000       0.28125000000000000        0.0000000000000000     
  0.90625000000000000       0.28125000000000000        0.0000000000000000     
  0.93750000000000000       0.28125000000000000        0.0000000000000000     
  0.96875000000000000       0.28125000000000000        0.0000000000000000     
   1.0000000000000000       0.28125000000000000        0.0000000000000000     
  0.87500000000000000       0.31250000000000000        0.0000000000000000     
  0.90625000000000000       0.31250000000000000        0.0000000000000000     
  0.93750000000000000       0.31250000000000000        0.0000000000000000     
  0.96875000000000000       0.31250000000000000        0.0000000000000000     
   1.0000000000000000       0.31250000000000000        0.0000000000000000     
  0.87500000000000000       0.34375000000000000        0.0000000000000000     
  0.90625000000000000       0.34375000000000000        0.0000000000000000     
  0.93750000000000000       0.34375000000000000        0.0000000000000000     
  0.96875000000000000       0.34375000000000000        0.0000000000000000     
   1.0000000000000000       0.34375000000000000        0.0000000000000000     
  0.87500000000000000       0.37500000000000000        0.0000000000000000     
  0.90625000000000000       0.37500000000000000        0.0000000000000000     
  0.93750000000000000       0.37500000000000000        0.0000000000000000     
  0.96875000000000000       0.37500000000000000        0.0000000000000000     
   1.0000000000000000       0.37500000000000000        0.0000000000000000     
   1.0000000000000000       0.25000000000000000        0.0000000000000000     
   1.0312500000000000       0.25000000000000000        0.0000000000000000     
   1.0625000000000000       0.25000000000000000        0.0000000000000000     
   1.0937500000000000       0.25000000000000000        0.0000000000000000     
   1.1250000000000000       0.25000000000000000        0.0000000000000000     
   1.0000000000000000       0.28125000000000000        0.0000000000000000     
   1.0312500000000000       0.28125000000000000        0.0000000000000000     
   1.0625000000000000       0.28125000000000000        0.0000000000000000     
   1.0937500000000000       0.28125000000000000        0.0000000000000000     
   1.1250000000000000       0.28125000000000000        0.0000000000000000     
   1.0000000000000000       0.31250000000000000        0.0000000000000000     
   1.0312500000000000       0.31250000000000000        0.0000000000000000     
   1.0625000000000000       0.31250000000000000        0.0000000000000000     
   1.0937500000000000       0.31250000000000000        0.0000000000000000     
   1.1250000000000000       0.31250000000000000        0.0000000000000000     
   1.0000000000000000       0.34375000000000000        0.0000000000000000     
   1.0312500000000000       0.34375000000000000        0.0000000000000000     
   1.0625000000000000       0.34375000000000000        0.0000000000000000     
   1.0937500000000000       0.34375000000000000        0.0000000000000000     
   1.1250000000000000       0.34375000000000000        0.0000000000000000     
   1.0000000000000000       0.37500000000000000        0.0000000000000000     
   1.0312500000000000       0.37500000000000000        0.0000000000000000     
   1.0625000000000000       0.37500000000000000        0.0000000000000000     
   1.0937500000000000       0.37500000000000000        0.0000000000000000     
   1.1250000000000000       0.37500000000000000        0.0000000000000000     
   1.1250000000000000       0.25000000000000000        0.0000000000000000     
   1.1562500000000000       0.25000000000000000        0.0000000000000000     
   1.1875000000000000       0.25000000000000000        0.0000000000000000     
   1.2187500000000000       0.25000000000000000        0.0000000000000000     
   1.2500000000000000       0.25000000000000000        0.0000000000000000     
   1.1250000000000000       0.28125000000000000        0.0000000000000000     
   1.1562500000000000       0.28125000000000000        0.0000000000000000     
   1.1875000000000000       0.28125000000000000        0.0000000000000000     
   1.2187500000000000       0.28125000000000000        0.0000000000000000     
   1.2500000000000000       0.28125000000000000        0.0000000000000000     
   1.1250000000000000       0.31250000000000000        0.0000000000000000     
   1.1562500000000000       0.31250000000000000        0.0000000000000000     
   1.1875000000000000       0.31250000000000000        0.0000000000000000     
   1.2187500000000000       0.31250000000000000        0.0000000000000000     
   1.2500000000000000       0.31250000000000000        0.0000000000000000     
   1.1250000000000000       0.34375000000000000        0.0000000000000000     
   1.1562500000000000       0.34375000000000000        0.0000000000000000     
   1.1875000000000000       0.34375000000000000        0.0000000000000000     
   1.2187500000000000       0.34375000000000000        0.0000000000000000     
   1.2500000000000000       0.34375000000000000        0.0000000000000000     
   1.1250000000000000       0.37500000000000000        0.0000000000000000     
   1.1562500000000000       0.37500000000000000        0.0000000000000000     
   1.1875000000000000       0.37500000000000000        0.0000000000000000     
   1.2187500000000000       0.37500000000000000        0.0000000000000000     
   1.2500000000000000       0.37500000000000000        0.0000000000000000     
   1.2500000000000000       0.25000000000000000        0.0000000000000000     
   1.2812500000000000       0.25000000000000000        0.0000000000000000     
   1.3125000000000000       0.25000000000000000        0.0000000000000000     
   1.3437500000000000       0.25000000000000000        0.0000000000000000     
   1.3750000000000000       0.25000000000000000        0.0000000000000000     
   1.2500000000000000       0.28125000000000000        0.0000000000000000     
   1.2812500000000000       0.28125000000000000        0.0000000000000000     
   1.3125000000000000       0.28125000000000000        0.0000000000000000     
   1.3437500000000000       0.28125000000000000        0.0000000000000000     
   1.3750000000000000       0.28125000000000000        0.0000000000000000     
   1.2500000000000000       0.31250000000000000        0.0000000000000000     
   1.2812500000000000       0.31250000000000000        0.0000000000000000     
   1.3125000000000000       0.31250000000000000        0.0000000000000000     
   1.3437500000000000       0.31250000000000000        0.0000000000000000     
   1.3750000000000000       0.31250000000000000        0.0000000000000000     
   1.2500000000000000       0.34375000000000000        0.0000000000000000     
   1.2812500000000000       0.34375000000000000        0.0000000000000000     
   1.3125000000000000       0.34375000000000000        0.0000000000000000     
   1.3437500000000000       0.34375000000000000        0.0000000000000000     
   1.3750000000000000       0.34375000000000000        0.0000000000000000     
   1.2500000000000000       0.37500000000000000        0.0000000000000000     
   1.2812500000000000       0.37500000000000000        0.0000000000000000     
   1.3125000000000000       0.37500000000000000        0.0000000000000000     
   1.3437500000000000       0.37500000000000000        0.0000000000000000     
   1.3750000000000000       0.37500000000000000        0.0000000000000000     
   1.3750000000000000       0.25000000000000000        0.0000000000000000     
   1.4062500000000000       0.25000000000000000        0.0000000000000000     
   1.4375000000000000       0.25000000000000000        0.0000000000000000     
   1.4687500000000000       0.25000000000000000        0.0000000000000000     
   1.5000000000000000       0.25000000000000000        0.0000000000000000     
   1.3750000000000000       0.28125000000000000        0.0000000000000000     
   1.4062500000000000       0.28125000000000000        0.0000000000000000     
   1.4375000000000000       0.28125000000000000        0.0000000000000000     
   1.4687500000000000       0.28125000000000000        0.0000000000000000     
   1.5000000000000000       0.28125000000000000        0.0000000000000000     
   1.3750000000000000       0.31250000000000000        0.0000000000000000     
   1.4062500000000000       0.31250000000000000        0.0000000000000000     
   1.4375000000000000       0.31250000000000000        0.0000000000000000     
   1.4687500000000000       0.31250000000000000        0.0000000000000000     
   1.5000000000000000       0.31250000000000000        0.0000000000000000     
   1.3750000000000000       0.34375000000000000        0.0000000000000000     
   1.4062500000000000       0.34375000000000000        0.0000000000000000     
   1.4375000000000000       0.34375000000000000        0.0000000000000000     
   1.4687500000000000       0.34375000000000000        0.0000000000000000     
   1.5000000000000000       0.34375000000000000        0.0000000000000000     
   1.3750000000000000       0.37500000000000000        0.0000000000000000     
   1.4062500000000000       0.37500000000000000        0.0000000000000000     
   1.4375000000000000       0.37500000000000000        0.0000000000000000     
   1.4687500000000000       0.37500000000000000        0.0000000000000000     
   1.5000000000000000       0.37500000000000000        0.0000000000000000     
  0.50000000000000000       0.37500000000000000        0.0000000000000000     
  0.53125000000000000       0.37500000000000000        0.0000000000000000     
  0.56250000000000000       0.37500000000000000        0.0000000000000000     
  0.59375000000000000       0.37500000000000000        0.0000000000000000     
  0.62500000000000000       0.37500000000000000        0.0000000000000000     
  0.50000000000000000       0.40625000000000000        0.0000000000000000     
  0.53125000000000000       0.40625000000000000        0.0000000000000000     
  0.56250000000000000       0.40625000000000000        0.0000000000000000     
  0.59375000000000000       0.40625000000000000        0.0000000000000000     
  0.62500000000000000       0.40625000000000000        0.0000000000000000     
  0.50000000000000000       0.43750000000000000        0.0000000000000000     
  0.53125000000000000       0.43750000000000000        0.0000000000000000     
  0.56250000000000000       0.43750000000000000        0.0000000000000000     
  0.59375000000000000       0.43750000000000000        0.0000000000000000     
  0.62500000000000000       0.43750000000000000        0.0000000000000000     
  0.50000000000000000       0.46875000000000000        0.0000000000000000     
  0.53125000000000000       0.46875000000000000        0.0000000000000000     
  0.56250000000000000       0.46875000000000000        0.0000000000000000     
  0.59375000000000000       0.46875000000000000        0.0000000000000000     
  0.62500000000000000       0.46875000000000000        0.0000000000000000     
  0.50000000000000000       0.50000000000000000        0.0000000000000000     
  0.53125000000000000       0.50000000000000000        0.0000000000000000     
  0.56250000000000000       0.50000000000000000        0.0000000000000000     
  0.59375000000000000       0.50000000000000000        0.0000000000000000     
  0.62500000000000000       0.50000000000000000        0.0000000000000000     
  0.62500000000000000       0.37500000000000000        0.0000000000000000     
  0.65625000000000000       0.37500000000000000        0.0000000000000000     
  0.68750000000000000       0.37500000000000000        0.0000000000000000     
  0.71875000000000000       0.37500000000000000        0.0000000000000000     
  0.75000000000000000       0.37500000000000000        0.0000000000000000     
  0.62500000000000000       0.40625000000000000        0.0000000000000000     
  0.65625000000000000       0.40625000000000000        0.0000000000000000     
  0.68750000000000000       0.40625000000000000        0.0000000000000000     
  0.71875000000000000       0.40625000000000000        0.0000000000000000     
  0.75000000000000000       0.40625000000000000        0.0000000000000000     
  0.62500000000000000       0.43750000000000000        0.0000000000000000     
  0.65625000000000000       0.43750000000000000        0.0000000000000000     
  0.68750000000000000       0.43750000000000000        0.0000000000000000     
  0.71875000000000000       0.43750000000000000        0.0000000000000000     
  0.75000000000000000       0.43750000000000000        0.0000000000000000     
  0.62500000000000000       0.46875000000000000        0.0000000000000000     
  0.65625000000000000       0.46875000000000000        0.0000000000000000     
  0.68750000000000000       0.46875000000000000        0.0000000000000000     
  0.71875000000000000       0.46875000000000000        0.0000000000000000     
  0.75000000000000000       0.46875000000000000        0.0000000000000000     
  0.62500000000000000       0.50000000000000000        0.0000000000000000     
  0.65625000000000000       0.50000000000000000        0.0000000000000000     
  0.68750000000000000       0.50000000000000000        0.0000000000000000     
  0.71875000000000000       0.50000000000000000        0.0000000000000000     
  0.75000000000000000       0.50000000000000000        0.0000000000000000     
  0.75000000000000000       0.37500000000000000        0.0000000000000000     
  0.78125000000000000       0.37500000000000000        0.0000000000000000     
  0.81250000000000000       0.37500000000000000        0.0000000000000000     
  0.84375000000000000       0.37500000000000000        0.0000000000000000     
  0.87500000000000000       0.37500000000000000        0.0000000000000000     
  0.75000000000000000       0.40625000000000000        0.0000000000000000     
  0.78125000000000000       0.40625000000000000        0.0000000000000000     
  0.81250000000000000       0.40625000000000000        0.0000000000000000     
  0.84375000000000000       0.40625000000000000        0.0000000000000000     
  0.87500000000000000       0.40625000000000000        0.0000000000000000     
  0.75000000000000000       0.43750000000000000        0.0000000000000000     
  0.78125000000000000       0.43750000000000000        0.0000000000000000     
  0.81250000000000000       0.43750000000000000        0.0000000000000000     
  0.84375000000000000       0.43750000000000000        0.0000000000000000     
  0.87500000000000000       0.43750000000000000        0.0000000000000000     
  0.75000000000000000       0.46875000000000000        0.0000000000000000     
  0.78125000000000000       0.46875000000000000        0.0000000000000000     
  0.81250000000000000       0.46875000000000000        0.0000000000000000     
  0.84375000000000000       0.46875000000000000        0.0000000000000000     
  0.87500000000000000       0.46875000000000000        0.0000000000000000     
  0.75000000000000000       0.50000000000000000        0.0000000000000000     
  0.78125000000000000       0.50000000000000000        0.0000000000000000     
  0.81250000000000000       0.50000000000000000        0.0000000000000000     
  0.84375000000000000       0.50000000000000000        0.0000000000000000     
  0.87500000000000000       0.50000000000000000        0.0000000000000000     
  0.87500000000000000       0.37500000000000000        0.0000000000000000     
  0.90625000000000000       0.37500000000000000        0.0000000000000000     
  0.93750000000000000       0.37500000000000000        0.0000000000000000     
  0.96875000000000000       0.37500000000000000        0.0000000000000000     
   1.0000000000000000       0.37500000000000000        0.0000000000000000     
  0.87500000000000000       0.40625000000000000        0.0000000000000000     
  0.90625000000000000       0.40625000000000000        0.0000000000000000     
  0.93750000000000000       0.40625000000000000        0.0000000000000000     
  0.96875000000000000       0.40625000000000000        0.0000000000000000     
   1.0000000000000000       0.40625000000000000        0.0000000000000000     
  0.87500000000000000       0.43750000000000000        0.0000000000000000     
  0.90625000000000000       0.43750000000000000        0.0000000000000000     
  0.93750000000000000       0.43750000000000000        0.0000000000000000     
  0.96875000000000000       0.43750000000000000        0.0000000000000000     
   1.0000000000000000       0.43750000000000000        0.0000000000000000     
  0.87500000000000000       0.46875000000000000        0.0000000000000000     
  0.90625000000000000       0.46875000000000000        0.0000000000000000     
  0.93750000000000000       0.46875000000000000        0.0000000000000000     
  0.96875000000000000       0.46875000000000000        0.0000000000000000     
   1.0000000000000000       0.46875000000000000        0.0000000000000000     
  0.87500000000000000       0.50000000000000000        0.0000000000000000     
  0.90625000000000000       0.50000000000000000        0.0000000000000000     
  0.93750000000000000       0.50000000000000000        0.0000000000000000     
  0.96875000000000000       0.50000000000000000        0.0000000000000000     
   1.0000000000000000       0.50000000000000000        0.0000000000000000     
   1.0000000000000000       0.37500000000000000        0.0000000000000000     
   1.0312500000000000       0.37500000000000000        0.0000000000000000     
   1.0625000000000000       0.37500000000000000        0.0000000000000000     
   1.0937500000000000       0.37500000000000000        0.0000000000000000     
   1.1250000000000000       0.37500000000000000        0.0000000000000000     
   1.0000000000000000       0.40625000000000000        0.0000000000000000     
   1.0312500000000000       0.40625000000000000        0.0000000000000000     
   1.0625000000000000       0.40625000000000000        0.0000000000000000     
   1.0937500000000000       0.40625000000000000        0.0000000000000000     
   1.1250000000000000       0.40625000000000000        0.0000000000000000     
   1.0000000000000000       0.43750000000000000        0.0000000000000000     
   1.0312500000000000       0.43750000000000000        0.0000000000000000     
   1.0625000000000000       0.43750000000000000        0.0000000000000000     
   1.0937500000000000       0.43750000000000000        0.0000000000000000     
   1.1250000000000000       0.43750000000000000        0.0000000000000000     
   1.0000000000000000       0.46875000000000000        0.0000000000000000     
   1.0312500000000000       0.46875000000000000        0.0000000000000000     
   1.0625000000000000       0.46875000000000000        0.0000000000000000     
   1.0937500000000000       0.46875000000000000        0.0000000000000000     
   1.1250000000000000       0.46875000000000000        0.0000000000000000     
   1.0000000000000000       0.50000000000000000        0.0000000000000000     
   1.0312500000000000       0.50000000000000000        0.0000000000000000     
   1.0625000000000000       0.50000000000000000        0.0000000000000000     
   1.0937500000000000       0.50000000000000000        0.0000000000000000     
   1.1250000000000000       0.50000000000000000        0.0000000000000000     
   1.1250000000000000       0.37500000000000000        0.0000000000000000     
   1.1562500000000000       0.37500000000000000        0.0000000000000000     
   1.1875000000000000       0.37500000000000000        0.0000000000000000     
   1.2187500000000000       0.37500000000000000        0.0000000000000000     
   1.2500000000000000       0.37500000000000000        0.0000000000000000     
   1.1250000000000000       0.40625000000000000        0.0000000000000000     
   1.1562500000000000       0.40625000000000000        0.0000000000000000     
   1.1875000000000000       0.40625000000000000        0.0000000000000000     
   1.2187500000000000       0.40625000000000000        0.0000000000000000     
   1.2500000000000000       0.40625000000000000        0.0000000000000000     
   1.1250000000000000       0.43750000000000000        0.0000000000000000     
   1.1562500000000000       0.43750000000000000        0.0000000000000000     
   1.1875000000000000       0.43750000000000000        0.0000000000000000     
   1.2187500000000000       0.43750000000000000        0.0000000000000000     
   1.2500000000000000       0.43750000000000000        0.0000000000000000     
   1.1250000000000000       0.46875000000000000        0.0000000000000000     
   1.1562500000000000       0.46875000000000000        0.0000000000000000     
   1.1875000000000000       0.46875000000000000        0.0000000000000000     
   1.2187500000000000       0.46875000000000000        0.0000000000000000     
   1.2500000000000000       0.46875000000000000        0.0000000000000000     
   1.1250000000000000       0.50000000000000000        0.0000000000000000     
   1.1562500000000000       0.50000000000000000        0.0000000000000000     
   1.1875000000000000       0.50000000000000000        0.0000000000000000     
   1.2187500000000000       0.50000000000000000        0.0000000000000000     
   1.2500000000000000       0.50000000000000000        0.0000000000000000     
   1.2500000000000000       0.37500000000000000        0.0000000000000000     
   1.2812500000000000       0.37500000000000000        0.0000000000000000     
   1.3125000000000000       0.37500000000000000        0.0000000000000000     
   1.3437500000000000       0.37500000000000000        0.0000000000000000     
   1.3750000000000000       0.37500000000000000        0.0000000000000000     
   1.2500000000000000       0.40625000000000000        0.0000000000000000     
   1.2812500000000000       0.40625000000000000        0.0000000000000000     
   1.3125000000000000       0.40625000000000000        0.0000000000000000     
   1.3437500000000000       0.40625000000000000        0.0000000000000000     
   1.3750000000000000       0.40625000000000000        0.0000000000000000     
   1.2500000000000000       0.43750000000000000        0.0000000000000000     
   1.2812500000000000       0.43750000000000000        0.0000000000000000     
   1.3125000000000000       0.43750000000000000        0.0000000000000000     
   1.3437500000000000       0.43750000000000000        0.0000000000000000     
   1.3750000000000000       0.43750000000000000        0.0000000000000000     
   1.2500000000000000       0.46875000000000000        0.0000000000000000     
   1.2812500000000000       0.46875000000000000        0.0000000000000000     
   1.3125000000000000       0.46875000000000000        0.0000000000000000     
   1.3437500000000000       0.46875000000000000        0.0000000000000000     
   1.3750000000000000       0.46875000000000000        0.0000000000000000     
   1.2500000000000000       0.50000000000000000        0.0000000000000000     
   1.2812500000000000       0.50000000000000000        0.0000000000000000     
   1.3125000000000000       0.50000000000000000        0.0000000000000000     
   1.3437500000000000       0.50000000000000000        0.0000000000000000     
   1.3750000000000000       0.50000000000000000        0.0000000000000000     
   1.3750000000000000       0.37500000000000000        0.0000000000000000     
   1.4062500000000000       0.37500000000000000        0.0000000000000000     
   1.4375000000000000       0.37500000000000000        0.0000000000000000     
   1.4687500000000000       0.37500000000000000        0.0000000000000000     
   1.5000000000000000       0.37500000000000000        0.0000000000000000     
   1.3750000000000000       0.40625000000000000        0.0000000000000000     
   1.4062500000000000       0.40625000000000000        0.0000000000000000     
   1.4375000000000000       0.40625000000000000        0.0000000000000000     
   1.4687500000000000       0.40625000000000000        0.0000000000000000     
   1.5000000000000000       0.40625000000000000        0.0000000000000000     
   1.3750000000000000       0.43750000000000000        0.0000000000000000     
   1.4062500000000000       0.43750000000000000        0.0000000000000000     
   1.4375000000000000       0.43750000000000000        0.0000000000000000     
   1.4687500000000000       0.43750000000000000        0.0000000000000000     
   1.5000000000000000       0.43750000000000000        0.0000000000000000     
   1.3750000000000000       0.46875000000000000        0.0000000000000000     
   1.4062500000000000       0.46875000000000000        0.0000000000000000     
   1.4375000000000000       0.46875000000000000        0.0000000000000000     
   1.4687500000000000       0.46875000000000000        0.0000000000000000     
   1.5000000000000000       0.46875000000000000        0.0000000000000000     
   1.3750000000000000       0.50000000000000000        0.0000000000000000     
   1.4062500000000000       0.50000000000000000        0.0000000000000000     
   1.4375000000000000       0.50000000000000000        0.0000000000000000     
   1.4687500000000000       0.50000000000000000        0.0000000000000000     
   1.5000000000000000       0.50000000000000000        0.0000000000000000     
  0.50000000000000000       0.50000000000000000        0.0000000000000000     
  0.53125000000000000       0.50000000000000000        0.0000000000000000     
  0.56250000000000000       0.50000000000000000        0.0000000000000000     
  0.59375000000000000       0.50000000000000000        0.0000000000000000     
  0.62500000000000000       0.50000000000000000        0.0000000000000000     
  0.50000000000000000       0.53125000000000000        0.0000000000000000     
  0.53125000000000000       0.53125000000000000        0.0000000000000000     
  0.56250000000000000       0.53125000000000000        0.0000000000000000     
  0.59375000000000000       0.53125000000000000        0.0000000000000000     
  0.62500000000000000       0.53125000000000000        0.0000000000000000     
  0.50000000000000000       0.56250000000000000        0.0000000000000000     
  0.53125000000000000       0.56250000000000000        0.0000000000000000     
  0.56250000000000000       0.56250000000000000        0.0000000000000000     
  0.59375000000000000       0.56250000000000000        0.0000000000000000     
  0.62500000000000000       0.56250000000000000        0.0000000000000000     
  0.50000000000000000       0.59375000000000000        0.0000000000000000     
  0.53125000000000000       0.59375000000000000        0.0000000000000000     
  0.56250000000000000       0.59375000000000000        0.0000000000000000     
  0.59375000000000000       0.59375000000000000        0.0000000000000000     
  0.62500000000000000       0.59375000000000000        0.0000000000000000     
  0.50000000000000000       0.62500000000000000        0.0000000000000000     
  0.53125000000000000       0.62500000000000000        0.0000000000000000     
  0.56250000000000000       0.62500000000000000        0.0000000000000000     
  0.59375000000000000       0.62500000000000000        0.0000000000000000     
  0.62500000000000000       0.62500000000000000        0.0000000000000000     
  0.62500000000000000       0.50000000000000000        0.0000000000000000     
  0.65625000000000000       0.50000000000000000        0.0000000000000000     
  0.68750000000000000       0.50000000000000000        0.0000000000000000     
  0.71875000000000000       0.50000000000000000        0.0000000000000000     
  0.75000000000000000       0.50000000000000000        0.0000000000000000     
  0.62500000000000000       0.53125000000000000        0.0000000000000000     
  0.65625000000000000       0.53125000000000000        0.0000000000000000     
  0.68750000000000000       0.53125000000000000        0.0000000000000000     
  0.71875000000000000       0.53125000000000000        0.0000000000000000     
  0.75000000000000000       0.53125000000000000        0.0000000000000000     
  0.62500000000000000       0.56250000000000000        0.0000000000000000     
  0.65625000000000000       0.56250000000000000        0.0000000000000000     
  0.68750000000000000       0.56250000000000000        0.0000000000000000     
  0.71875000000000000       0.56250000000000000        0.0000000000000000     
  0.75000000000000000       0.56250000000000000        0.0000000000000000     
  0.62500000000000000       0.59375000000000000        0.0000000000000000     
  0.65625000000000000       0.59375000000000000        0.0000000000000000     
  0.68750000000000000       0.59375000000000000        0.0000000000000000     
  0.71875000000000000       0.59375000000000000        0.0000000000000000     
  0.75000000000000000       0.59375000000000000        0.0000000000000000     
  0.62500000000000000       0.62500000000000000        0.0000000000000000     
  0.65625000000000000       0.62500000000000000        0.0000000000000000     
  0.68750000000000000       0.62500000000000000        0.0000000000000000     
  0.71875000000000000       0.62500000000000000        0.0000000000000000     
  0.75000000000000000       0.62500000000000000        0.0000000000000000     
  0.75000000000000000       0.50000000000000000        0.0000000000000000     
  0.78125000000000000       0.50000000000000000        0.0000000000000000     
  0.81250000000000000       0.50000000000000000        0.0000000000000000     
  0.84375000000000000       0.50000000000000000        0.0000000000000000     
  0.87500000000000000       0.50000000000000000        0.0000000000000000     
  0.75000000000000000       0.53125000000000000        0.0000000000000000     
  0.78125000000000000       0.53125000000000000        0.0000000000000000     
  0.81250000000000000       0.53125000000000000        0.0000000000000000     
  0.84375000000000000       0.53125000000000000        0.0000000000000000     
  0.87500000000000000       0.53125000000000000        0.0000000000000000     
  0.75000000000000000       0.56250000000000000        0.0000000000000000     
  0.78125000000000000       0.56250000000000000        0.0000000000000000     
  0.81250000000000000       0.56250000000000000        0.0000000000000000     
  0.84375000000000000       0.56250000000000000        0.0000000000000000     
  0.87500000000000000       0.56250000000000000        0.0000000000000000     
  0.75000000000000000       0.59375000000000000        0.0000000000000000     
  0.78125000000000000       0.59375000000000000        0.0000000000000000     
  0.81250000000000000       0.59375000000000000        0.0000000000000000     
  0.84375000000000000       0.59375000000000000        0.0000000000000000     
  0.87500000000000000       0.59375000000000000        0.0000000000000000     
  0.75000000000000000       0.62500000000000000        0.0000000000000000     
  0.78125000000000000       0.62500000000000000        0.0000000000000000     
  0.81250000000000000       0.62500000000000000        0.0000000000000000     
  0.84375000000000000       0.62500000000000000        0.0000000000000000     
  0.87500000000000000       0.62500000000000000        0.0000000000000000     
  0.87500000000000000       0.50000000000000000        0.0000000000000000     
  0.90625000000000000       0.50000000000000000        0.0000000000000000     
  0.93750000000000000       0.50000000000000000        0.0000000000000000     
  0.96875000000000000       0.50000000000000000        0.0000000000000000     
   1.0000000000000000       0.50000000000000000        0.0000000000000000     
  0.87500000000000000       0.53125000000000000        0.0000000000000000     
  0.90625000000000000       0.53125000000000000        0.0000000000000000     
  0.93750000000000000       0.53125000000000000        0.0000000000000000     
  0.96875000000000000       0.53125000000000000        0.0000000000000000     
   1.0000000000000000       0.53125000000000000        0.0000000000000000     
  0.87500000000000000       0.56250000000000000        0.0000000000000000     
  0.90625000000000000       0.56250000000000000        0.0000000000000000     
  0.93750000000000000       0.56250000000000000        0.0000000000000000     
  0.96875000000000000       0.56250000000000000        0.0000000000000000     
   1.0000000000000000       0.56250000000000000        0.0000000000000000     
  0.87500000000000000       0.59375000000000000        0.0000000000000000     
  0.90625000000000000       0.59375000000000000        0.0000000000000000     
  0.93750000000000000       0.59375000000000000        0.0000000000000000     
  0.96875000000000000       0.59375000000000000        0.0000000000000000     
   1.0000000000000000       0.59375000000000000        0.0000000000000000     
  0.87500000000000000       0.62500000000000000        0.0000000000000000     
  0.90625000000000000       0.62500000000000000        0.0000000000000000     
  0.93750000000000000       0.62500000000000000        0.0000000000000000     
  0.96875000000000000       0.62500000000000000        0.0000000000000000     
   1.0000000000000000       0.62500000000000000        0.0000000000000000     
   1.0000000000000000       0.50000000000000000        0.0000000000000000     
   1.0312500000000000       0.50000000000000000        0.0000000000000000     
   1.0625000000000000       0.50000000000000000        0.0000000000000000     
   1.0937500000000000       0.50000000000000000        0.0000000000000000     
   1.1250000000000000       0.50000000000000000        0.0000000000000000     
   1.0000000000000000       0.53125000000000000        0.0000000000000000     
   1.0312500000000000       0.53125000000000000        0.0000000000000000     
   1.0625000000000000       0.53125000000000000        0.0000000000000000     
   1.0937500000000000       0.53125000000000000        0.0000000000000000     
   1.1250000000000000       0.53125000000000000        0.0000000000000000     
   1.0000000000000000       0.56250000000000000        0.0000000000000000     
   1.0312500000000000       0.56250000000000000        0.0000000000000000     
   1.0625000000000000       0.56250000000000000        0.0000000000000000     
   1.0937500000000000       0.56250000000000000        0.0000000000000000     
   1.1250000000000000       0.56250000000000000        0.0000000000000000     
   1.0000000000000000       0.59375000000000000        0.0000000000000000     
   1.0312500000000000       0.59375000000000000        0.0000000000000000     
   1.0625000000000000       0.59375000000000000        0.0000000000000000     
   1.0937500000000000       0.59375000000000000        0.0000000000000000     
   1.1250000000000000       0.59375000000000000        0.0000000000000000     
   1.0000000000000000       0.62500000000000000        0.0000000000000000     
   1.0312500000000000       0.62500000000000000        0.0000000000000000     
   1.0625000000000000       0.62500000000000000        0.0000000000000000     
   1.0937500000000000       0.62500000000000000        0.0000000000000000     
   1.1250000000000000       0.62500000000000000        0.0000000000000000     
   1.1250000000000000       0.50000000000000000        0.0000000000000000     
   1.1562500000000000       0.50000000000000000        0.0000000000000000     
   1.1875000000000000       0.50000000000000000        0.0000000000000000     
   1.2187500000000000       0.50000000000000000        0.0000000000000000     
   1.2500000000000000       0.50000000000000000        0.0000000000000000     
   1.1250000000000000       0.53125000000000000        0.0000000000000000     
   1.1562500000000000       0.53125000000000000        0.0000000000000000     
   1.1875000000000000       0.53125000000000000        0.0000000000000000     
   1.2187500000000000       0.53125000000000000        0.0000000000000000     
   1.2500000000000000       0.53125000000000000        0.0000000000000000     
   1.1250000000000000       0.56250000000000000        0.0000000000000000     
   1.1562500000000000       0.56250000000000000        0.0000000000000000     
   1.1875000000000000       0.56250000000000000        0.0000000000000000     
   1.2187500000000000       0.56250000000000000        0.0000000000000000     
   1.2500000000000000       0.56250000000000000        0.0000000000000000     
   1.1250000000000000       0.59375000000000000        0.0000000000000000     
   1.1562500000000000       0.59375000000000000        0.0000000000000000     
   1.1875000000000000       0.59375000000000000        0.0000000000000000     
   1.2187500000000000       0.59375000000000000        0.0000000000000000     
   1.2500000000000000       0.59375000000000000        0.0000000000000000     
   1.1250000000000000       0.62500000000000000        0.0000000000000000     
   1.1562500000000000       0.62500000000000000        0.0000000000000000     
   1.1875000000000000       0.62500000000000000        0.0000000000000000     
   1.2187500000000000       0.62500000000000000        0.0000000000000000     
   1.2500000000000000       0.62500000000000000        0.0000000000000000     
   1.2500000000000000       0.50000000000000000        0.0000000000000000     
   1.2812500000000000       0.50000000000000000        0.0000000000000000     
   1.3125000000000000       0.50000000000000000        0.0000000000000000     
   1.3437500000000000       0.50000000000000000        0.0000000000000000     
   1.3750000000000000       0.50000000000000000        0.0000000000000000     
   1.2500000000000000       0.53125000000000000        0.0000000000000000     
   1.2812500000000000       0.53125000000000000        0.0000000000000000     
   1.3125000000000000       0.53125000000000000        0.0000000000000000     
   1.3437500000000000       0.53125000000000000        0.0000000000000000     
   1.3750000000000000       0.53125000000000000        0.0000000000000000     
   1.2500000000000000       0.56250000000000000        0.0000000000000000     
   1.2812500000000000       0.56250000000000000        0.0000000000000000     
   1.3125000000000000       0.56250000000000000        0.0000000000000000     
   1.3437500000000000       0.56250000000000000        0.0000000000000000     
   1.3750000000000000       0.56250000000000000        0.0000000000000000     
   1.2500000000000000       0.59375000000000000        0.0000000000000000     
   1.2812500000000000       0.59375000000000000        0.0000000000000000     
   1.3125000000000000       0.59375000000000000        0.0000000000000000     
   1.3437500000000000       0.59375000000000000        0.0000000000000000     
   1.3750000000000000       0.59375000000000000        0.0000000000000000     
   1.2500000000000000       0.62500000000000000        0.0000000000000000     
   1.2812500000000000       0.62500000000000000        0.0000000000000000     
   1.3125000000000000       0.62500000000000000        0.0000000000000000     
   1.3437500000000000       0.62500000000000000        0.0000000000000000     
   1.3750000000000000       0.62500000000000000        0.0000000000000000     
   1.3750000000000000       0.50000000000000000        0.0000000000000000     
   1.4062500000000000       0.50000000000000000        0.0000000000000000     
   1.4375000000000000       0.50000000000000000        0.0000000000000000     
   1.4687500000000000       0.50000000000000000        0.0000000000000000     
   1.5000000000000000       0.50000000000000000        0.0000000000000000     
   1.3750000000000000       0.53125000000000000        0.0000000000000000     
   1.4062500000000000       0.53125000000000000        0.0000000000000000     
   1.4375000000000000       0.53125000000000000        0.0000000000000000     
   1.4687500000000000       0.53125000000000000        0.0000000000000000     
   1.5000000000000000       0.53125000000000000        0.0000000000000000     
   1.3750000000000000       0.56250000000000000        0.0000000000000000     
   1.4062500000000000       0.56250000000000000        0.0000000000000000     
   1.4375000000000000       0.56250000000000000        0.0000000000000000     
   1.4687500000000000       0.56250000000000000        0.0000000000000000     
   1.5000000000000000       0.56250000000000000        0.0000000000000000     
   1.3750000000000000       0.59375000000000000        0.0000000000000000     
   1.4062500000000000       0.59375000000000000        0.0000000000000000     
   1.4375000000000000       0.59375000000000000        0.0000000000000000     
   1.4687500000000000       0.59375000000000000        0.0000000000000000     
   1.5000000000000000       0.59375000000000000        0.0000000000000000     
   1.3750000000000000       0.62500000000000000        0.0000000000000000     
   1.4062500000000000       0.62500000000000000        0.0000000000000000     
   1.4375000000000000       0.62500000000000000        0.0000000000000000     
   1.4687500000000000       0.62500000000000000        0.0000000000000000     
   1.5000000000000000       0.62500000000000000        0.0000000000000000     
  0.50000000000000000       0.62500000000000000        0.0000000000000000     
  0.53125000000000000       0.62500000000000000        0.0000000000000000     
  0.56250000000000000       0.62500000000000000        0.0000000000000000     
  0.59375000000000000       0.62500000000000000        0.0000000000000000     
  0.62500000000000000       0.62500000000000000        0.0000000000000000     
  0.50000000000000000       0.65625000000000000        0.0000000000000000     
  0.53125000000000000       0.65625000000000000        0.0000000000000000     
  0.56250000000000000       0.65625000000000000        0.0000000000000000     
  0.59375000000000000       0.65625000000000000        0.0000000000000000     
  0.62500000000000000       0.65625000000000000        0.0000000000000000     
  0.50000000000000000       0.68750000000000000        0.0000000000000000     
  0.53125000000000000       0.68750000000000000        0.0000000000000000     
  0.56250000000000000       0.68750000000000000        0.0000000000000000     
  0.59375000000000000       0.68750000000000000        0.0000000000000000     
  0.62500000000000000       0.68750000000000000        0.0000000000000000     
  0.50000000000000000       0.71875000000000000        0.0000000000000000     
  0.53125000000000000       0.71875000000000000        0.0000000000000000     
  0.56250000000000000       0.71875000000000000        0.0000000000000000     
  0.59375000000000000       0.71875000000000000        0.0000000000000000     
  0.62500000000000000       0.71875000000000000        0.0000000000000000     
  0.50000000000000000       0.75000000000000000        0.0000000000000000     
  0.53125000000000000       0.75000000000000000        0.0000000000000000     
  0.56250000000000000       0.75000000000000000        0.0000000000000000     
  0.59375000000000000       0.75000000000000000        0.0000000000000000     
  0.62500000000000000       0.75000000000000000        0.0000000000000000     
  0.62500000000000000       0.62500000000000000        0.0000000000000000     
  0.65625000000000000       0.62500000000000000        0.0000000000000000     
  0.68750000000000000       0.62500000000000000        0.0000000000000000     
  0.71875000000000000       0.62500000000000000        0.0000000000000000     
  0.75000000000000000       0.62500000000000000        0.0000000000000000     
  0.62500000000000000       0.65625000000000000        0.0000000000000000     
  0.65625000000000000       0.65625000000000000        0.0000000000000000     
  0.68750000000000000       0.65625000000000000        0.0000000000000000     
  0.71875000000000000       0.65625000000000000        0.0000000000000000     
  0.75000000000000000       0.65625000000000000        0.0000000000000000     
  0.62500000000000000       0.68750000000000000        0.0000000000000000     
  0.65625000000000000       0.68750000000000000        0.0000000000000000     
  0.68750000000000000       0.68750000000000000        0.0000000000000000     
  0.71875000000000000       0.68750000000000000        0.0000000000000000     
  0.75000000000000000       0.68750000000000000        0.0000000000000000     
  0.62500000000000000       0.71875000000000000        0.0000000000000000     
  0.65625000000000000       0.71875000000000000        0.0000000000000000     
  0.68750000000000000       0.71875000000000000        0.0000000000000000     
  0.71875000000000000       0.71875000000000000        0.0000000000000000     
  0.75000000000000000       0.71875000000000000        0.0000000000000000     
  0.62500000000000000       0.75000000000000000        0.0000000000000000     
  0.65625000000000000       0.75000000000000000        0.0000000000000000     
  0.68750000000000000       0.75000000000000000        0.0000000000000000     
  0.71875000000000000       0.75000000000000000        0.0000000000000000     
  0.75000000000000000       0.75000000000000000        0.0000000000000000     
  0.75000000000000000       0.62500000000000000        0.0000000000000000     
  0.78125000000000000       0.62500000000000000        0.0000000000000000     
  0.81250000000000000       0.62500000000000000        0.0000000000000000     
  0.84375000000000000       0.62500000000000000        0.0000000000000000     
  0.87500000000000000       0.62500000000000000        0.0000000000000000     
  0.75000000000000000       0.65625000000000000        0.0000000000000000     
  0.78125000000000000       0.65625000000000000        0.0000000000000000     
  0.81250000000000000       0.65625000000000000        0.0000000000000000     
  0.84375000000000000       0.65625000000000000        0.0000000000000000     
  0.87500000000000000       0.65625000000000000        0.0000000000000000     
  0.75000000000000000       0.68750000000000000        0.0000000000000000     
  0.78125000000000000       0.68750000000000000        0.0000000000000000     
  0.81250000000000000       0.68750000000000000        0.0000000000000000     
  0.84375000000000000       0.68750000000000000        0.0000000000000000     
  0.87500000000000000       0.68750000000000000        0.0000000000000000     
  0.75000000000000000       0.71875000000000000        0.0000000000000000     
  0.78125000000000000       0.71875000000000000        0.0000000000000000     
  0.81250000000000000       0.71875000000000000        0.0000000000000000     
  0.84375000000000000       0.71875000000000000        0.0000000000000000     
  0.87500000000000000       0.71875000000000000        0.0000000000000000     
  0.75000000000000000       0.75000000000000000        0.0000000000000000     
  0.78125000000000000       0.75000000000000000        0.0000000000000000     
  0.81250000000000000       0.75000000000000000        0.0000000000000000     
  0.84375000000000000       0.75000000000000000        0.0000000000000000     
  0.87500000000000000       0.75000000000000000        0.0000000000000000     
  0.87500000000000000       0.62500000000000000        0.0000000000000000     
  0.90625000000000000       0.62500000000000000        0.0000000000000000     
  0.93750000000000000       0.62500000000000000        0.0000000000000000     
  0.96875000000000000       0.62500000000000000        0.0000000000000000     
   1.0000000000000000       0.62500000000000000        0.0000000000000000     
  0.87500000000000000       0.65625000000000000        0.0000000000000000     
  0.90625000000000000       0.65625000000000000        0.0000000000000000     
  0.93750000000000000       0.65625000000000000        0.0000000000000000     
  0.96875000000000000       0.65625000000000000        0.0000000000000000     
   1.0000000000000000       0.65625000000000000        0.0000000000000000     
  0.87500000000000000       0.68750000000000000        0.0000000000000000     
  0.90625000000000000       0.68750000000000000        0.0000000000000000     
  0.93750000000000000       0.68750000000000000        0.0000000000000000     
  0.96875000000000000       0.68750000000000000        0.0000000000000000     
   1.0000000000000000       0.68750000000000000        0.0000000000000000     
  0.87500000000000000       0.71875000000000000        0.0000000000000000     
  0.90625000000000000       0.71875000000000000        0.0000000000000000     
  0.93750000000000000       0.71875000000000000        0.0000000000000000     
  0.96875000000000000       0.71875000000000000        0.0000000000000000     
   1.0000000000000000       0.71875000000000000        0.0000000000000000     
  0.87500000000000000       0.75000000000000000        0.0000000000000000     
  0.90625000000000000       0.75000000000000000        0.0000000000000000     
  0.93750000000000000       0.75000000000000000        0.0000000000000000     
  0.96875000000000000       0.75000000000000000        0.0000000000000000     
   1.0000000000000000       0.75000000000000000        0.0000000000000000     
   1.0000000000000000       0.62500000000000000        0.0000000000000000     
   1.0312500000000000       0.62500000000000000        0.0000000000000000     
   1.0625000000000000       0.62500000000000000        0.0000000000000000     
   1.0937500000000000       0.62500000000000000        0.0000000000000000     
   1.1250000000000000       0.62500000000000000        0.0000000000000000     
   1.0000000000000000       0.65625000000000000        0.0000000000000000     
   1.0312500000000000       0.65625000000000000        0.0000000000000000     
   1.0625000000000000       0.65625000000000000        0.0000000000000000     
   1.0937500000000000       0.65625000000000000        0.0000000000000000     
   1.1250000000000000       0.65625000000000000        0.0000000000000000     
   1.0000000000000000       0.68750000000000000        0.0000000000000000     
   1.0312500000000000       0.68750000000000000        0.0000000000000000     
   1.0625000000000000       0.68750000000000000        0.0000000000000000     
   1.0937500000000000       0.68750000000000000        0.0000000000000000     
   1.1250000000000000       0.68750000000000000        0.0000000000000000     
   1.0000000000000000       0.71875000000000000        0.0000000000000000     
   1.0312500000000000       0.71875000000000000        0.0000000000000000     
   1.0625000000000000       0.71875000000000000        0.0000000000000000     
   1.0937500000000000       0.71875000000000000        0.0000000000000000     
   1.1250000000000000       0.71875000000000000        0.0000000000000000     
   1.0000000000000000       0.75000000000000000        0.0000000000000000     
   1.0312500000000000       0.75000000000000000        0.0000000000000000     
   1.0625000000000000       0.75000000000000000        0.0000000000000000     
   1.0937500000000000       0.75000000000000000        0.0000000000000000     
   1.1250000000000000       0.75000000000000000        0.0000000000000000     
   1.1250000000000000       0.62500000000000000        0.0000000000000000     
   1.1562500000000000       0.62500000000000000        0.0000000000000000     
   1.1875000000000000       0.62500000000000000        0.0000000000000000     
   1.2187500000000000       0.62500000000000000        0.0000000000000000     
   1.2500000000000000       0.62500000000000000        0.0000000000000000     
   1.1250000000000000       0.65625000000000000        0.0000000000000000     
   1.1562500000000000       0.65625000000000000        0.0000000000000000     
   1.1875000000000000       0.65625000000000000        0.0000000000000000     
   1.2187500000000000       0.65625000000000000        0.0000000000000000     
   1.2500000000000000       0.65625000000000000        0.0000000000000000     
   1.1250000000000000       0.68750000000000000        0.0000000000000000     
   1.1562500000000000       0.68750000000000000        0.0000000000000000     
   1.1875000000000000       0.68750000000000000        0.0000000000000000     
   1.2187500000000000       0.68750000000000000        0.0000000000000000     
   1.2500000000000000       0.68750000000000000        0.0000000000000000     
   1.1250000000000000       0.71875000000000000        0.0000000000000000     
   1.1562500000000000       0.71875000000000000        0.0000000000000000     
   1.1875000000000000       0.71875000000000000        0.0000000000000000     
   1.2187500000000000       0.71875000000000000        0.0000000000000000     
   1.2500000000000000       0.71875000000000000        0.0000000000000000     
   1.1250000000000000       0.75000000000000000        0.0000000000000000     
   1.1562500000000000       0.75000000000000000        0.0000000000000000     
   1.1875000000000000       0.75000000000000000        0.0000000000000000     
   1.2187500000000000       0.75000000000000000        0.0000000000000000     
   1.2500000000000000       0.75000000000000000        0.0000000000000000     
   1.2500000000000000       0.62500000000000000        0.0000000000000000     
   1.2812500000000000       0.62500000000000000        0.0000000000000000     
   1.3125000000000000       0.62500000000000000        0.0000000000000000     
   1.3437500000000000       0.62500000000000000        0.0000000000000000     
   1.3750000000000000       0.62500000000000000        0.0000000000000000     
   1.2500000000000000       0.65625000000000000        0.0000000000000000     
   1.2812500000000000       0.65625000000000000        0.0000000000000000     
   1.3125000000000000       0.65625000000000000        0.0000000000000000     
   1.3437500000000000       0.65625000000000000        0.0000000000000000     
   1.3750000000000000       0.65625000000000000        0.0000000000000000     
   1.2500000000000000       0.68750000000000000        0.0000000000000000     
   1.2812500000000000       0.68750000000000000        0.0000000000000000     
   1.3125000000000000       0.68750000000000000        0.0000000000000000     
   1.3437500000000000       0.68750000000000000        0.0000000000000000     
   1.3750000000000000       0.68750000000000000        0.0000000000000000     
   1.2500000000000000       0.71875000000000000        0.0000000000000000     
   1.2812500000000000       0.71875000000000000        0.0000000000000000     
   1.3125000000000000       0.71875000000000000        0.0000000000000000     
   1.3437500000000000       0.71875000000000000        0.0000000000000000     
   1.3750000000000000       0.71875000000000000        0.0000000000000000     
   1.2500000000000000       0.75000000000000000        0.0000000000000000     
   1.2812500000000000       0.75000000000000000        0.0000000000000000     
   1.3125000000000000       0.75000000000000000        0.0000000000000000     
   1.3437500000000000       0.75000000000000000        0.0000000000000000     
   1.3750000000000000       0.75000000000000000        0.0000000000000000     
   1.3750000000000000       0.62500000000000000        0.0000000000000000     
   1.4062500000000000       0.62500000000000000        0.0000000000000000     
   1.4375000000000000       0.62500000000000000        0.0000000000000000     
   1.4687500000000000       0.62500000000000000        0.0000000000000000     
   1.5000000000000000       0.62500000000000000        0.0000000000000000     
   1.3750000000000000       0.65625000000000000        0.0000000000000000     
   1.4062500000000000       0.65625000000000000        0.0000000000000000     
   1.4375000000000000       0.65625000000000000        0.0000000000000000     
   1.4687500000000000       0.65625000000000000        0.0000000000000000     
   1.5000000000000000       0.65625000000000000        0.0000000000000000     
   1.3750000000000000       0.68750000000000000        0.0000000000000000     
   1.4062500000000000       0.68750000000000000        0.0000000000000000     
   1.4375000000000000       0.68750000000000000        0.0000000000000000     
   1.4687500000000000       0.68750000000000000        0.0000000000000000     
   1.5000000000000000       0.68750000000000000        0.0000000000000000     
   1.3750000000000000       0.71875000000000000        0.0000000000000000     
   1.4062500000000000       0.71875000000000000        0.0000000000000000     
   1.4375000000000000       0.71875000000000000        0.0000000000000000     
   1.4687500000000000       0.71875000000000000        0.0000000000000000     
   1.5000000000000000       0.71875000000000000        0.0000000000000000     
   1.3750000000000000       0.75000000000000000        0.0000000000000000     
   1.4062500000000000       0.75000000000000000        0.0000000000000000     
   1.4375000000000000       0.75000000000000000        0.0000000000000000     
   1.4687500000000000       0.75000000000000000        0.0000000000000000     
   1.5000000000000000       0.75000000000000000        0.0000000000000000     
  0.50000000000000000       0.75000000000000000        0.0000000000000000     
  0.53125000000000000       0.75000000000000000        0.0000000000000000     
  0.56250000000000000       0.75000000000000000        0.0000000000000000     
  0.59375000000000000       0.75000000000000000        0.0000000000000000     
  0.62500000000000000       0.75000000000000000        0.0000000000000000     
  0.50000000000000000       0.78125000000000000        0.0000000000000000     
  0.53125000000000000       0.78125000000000000        0.0000000000000000     
  0.56250000000000000       0.78125000000000000        0.0000000000000000     
  0.59375000000000000       0.78125000000000000        0.0000000000000000     
  0.62500000000000000       0.78125000000000000        0.0000000000000000     
  0.50000000000000000       0.81250000000000000        0.0000000000000000     
  0.53125000000000000       0.81250000000000000        0.0000000000000000     
  0.56250000000000000       0.81250000000000000        0.0000000000000000     
  0.59375000000000000       0.81250000000000000        0.0000000000000000     
  0.62500000000000000       0.81250000000000000        0.0000000000000000     
  0.50000000000000000       0.84375000000000000        0.0000000000000000     
  0.53125000000000000       0.84375000000000000        0.0000000000000000     
  0.56250000000000000       0.84375000000000000        0.0000000000000000     
  0.59375000000000000       0.84375000000000000        0.0000000000000000     
  0.62500000000000000       0.84375000000000000        0.0000000000000000     
  0.50000000000000000       0.87500000000000000        0.0000000000000000     
  0.53125000000000000       0.87500000000000000        0.0000000000000000     
  0.56250000000000000       0.87500000000000000        0.0000000000000000     
  0.59375000000000000       0.87500000000000000        0.0000000000000000     
  0.62500000000000000       0.87500000000000000        0.0000000000000000     
  0.62500000000000000       0.75000000000000000        0.0000000000000000     
  0.65625000000000000       0.75000000000000000        0.0000000000000000     
  0.68750000000000000       0.75000000000000000        0.0000000000000000     
  0.71875000000000000       0.75000000000000000        0.0000000000000000     
  0.75000000000000000       0.75000000000000000        0.0000000000000000     
  0.62500000000000000       0.78125000000000000        0.0000000000000000     
  0.65625000000000000       0.78125000000000000        0.0000000000000000     
  0.68750000000000000       0.78125000000000000        0.0000000000000000     
  0.71875000000000000       0.78125000000000000        0.0000000000000000     
  0.75000000000000000       0.78125000000000000        0.0000000000000000     
  0.62500000000000000       0.81250000000000000        0.0000000000000000     
  0.65625000000000000       0.81250000000000000        0.0000000000000000     
  0.68750000000000000       0.81250000000000000        0.0000000000000000     
  0.71875000000000000       0.81250000000000000        0.0000000000000000     
  0.75000000000000000       0.81250000000000000        0.0000000000000000     
  0.62500000000000000       0.84375000000000000        0.0000000000000000     
  0.65625000000000000       0.84375000000000000        0.0000000000000000     
  0.68750000000000000       0.84375000000000000        0.0000000000000000     
  0.71875000000000000       0.84375000000000000        0.0000000000000000     
  0.75000000000000000       0.84375000000000000        0.0000000000000000     
  0.62500000000000000       0.87500000000000000        0.0000000000000000     
  0.65625000000000000       0.87500000000000000        0.0000000000000000     
  0.68750000000000000       0.87500000000000000        0.0000000000000000     
  0.71875000000000000       0.87500000000000000        0.0000000000000000     
  0.75000000000000000       0.87500000000000000        0.0000000000000000     
  0.75000000000000000       0.75000000000000000        0.0000000000000000     
  0.78125000000000000       0.75000000000000000        0.0000000000000000     
  0.81250000000000000       0.75000000000000000        0.0000000000000000     
  0.84375000000000000       0.75000000000000000        0.0000000000000000     
  0.87500000000000000       0.75000000000000000        0.0000000000000000     
  0.75000000000000000       0.78125000000000000        0.0000000000000000     
  0.78125000000000000       0.78125000000000000        0.0000000000000000     
  0.81250000000000000       0.78125000000000000        0.0000000000000000     
  0.84375000000000000       0.78125000000000000        0.0000000000000000     
  0.87500000000000000       0.78125000000000000        0.0000000000000000     
  0.75000000000000000       0.81250000000000000        0.0000000000000000     
  0.78125000000000000       0.81250000000000000        0.0000000000000000     
  0.81250000000000000       0.81250000000000000        0.0000000000000000     
  0.84375000000000000       0.81250000000000000        0.0000000000000000     
  0.87500000000000000       0.81250000000000000        0.0000000000000000     
  0.75000000000000000       0.84375000000000000        0.0000000000000000     
  0.78125000000000000       0.84375000000000000        0.0000000000000000     
  0.81250000000000000       0.84375000000000000        0.0000000000000000     
  0.84375000000000000       0.84375000000000000        0.0000000000000000     
  0.87500000000000000       0.84375000000000000        0.0000000000000000     
  0.75000000000000000       0.87500000000000000        0.0000000000000000     
  0.78125000000000000       0.87500000000000000        0.0000000000000000     
  0.81250000000000000       0.87500000000000000        0.0000000000000000     
  0.84375000000000000       0.87500000000000000        0.0000000000000000     
  0.87500000000000000       0.87500000000000000        0.0000000000000000     
  0.87500000000000000       0.75000000000000000        0.0000000000000000     
  0.90625000000000000       0.75000000000000000        0.0000000000000000     
  0.93750000000000000       0.75000000000000000        0.0000000000000000     
  0.96875000000000000       0.75000000000000000        0.0000000000000000     
   1.0000000000000000       0.75000000000000000        0.0000000000000000     
  0.87500000000000000       0.78125000000000000        0.0000000000000000     
  0.90625000000000000       0.78125000000000000        0.0000000000000000     
  0.93750000000000000       0.78125000000000000        0.0000000000000000     
  0.96875000000000000       0.78125000000000000        0.0000000000000000     
   1.0000000000000000       0.78125000000000000        0.0000000000000000     
  0.87500000000000000       0.81250000000000000        0.0000000000000000     
  0.90625000000000000       0.81250000000000000        0.0000000000000000     
  0.93750000000000000       0.81250000000000000        0.0000000000000000     
  0.96875000000000000       0.81250000000000000        0.0000000000000000     
   1.0000000000000000       0.81250000000000000        0.0000000000000000     
  0.87500000000000000       0.84375000000000000        0.0000000000000000     
  0.90625000000000000       0.84375000000000000        0.0000000000000000     
  0.93750000000000000       0.84375000000000000        0.0000000000000000     
  0.96875000000000000       0.84375000000000000        0.0000000000000000     
   1.0000000000000000       0.84375000000000000        0.0000000000000000     
  0.87500000000000000       0.87500000000000000        0.0000000000000000     
  0.90625000000000000       0.87500000000000000        0.0000000000000000     
  0.93750000000000000       0.87500000000000000        0.0000000000000000     
  0.96875000000000000       0.87500000000000000        0.0000000000000000     
   1.0000000000000000       0.87500000000000000        0.0000000000000000     
   1.0000000000000000       0.75000000000000000        0.0000000000000000     
   1.0312500000000000       0.75000000000000000        0.0000000000000000     
   1.0625000000000000       0.75000000000000000        0.0000000000000000     
   1.0937500000000000       0.75000000000000000        0.0000000000000000     
   1.1250000000000000       0.75000000000000000        0.0000000000000000     
   1.0000000000000000       0.78125000000000000        0.0000000000000000     
   1.0312500000000000       0.78125000000000000        0.0000000000000000     
   1.0625000000000000       0.78125000000000000        0.0000000000000000     
   1.0937500000000000       0.78125000000000000        0.0000000000000000     
   1.1250000000000000       0.78125000000000000        0.0000000000000000     
   1.0000000000000000       0.81250000000000000        0.0000000000000000     
   1.0312500000000000       0.81250000000000000        0.0000000000000000     
   1.0625000000000000       0.81250000000000000        0.0000000000000000     
   1.0937500000000000       0.81250000000000000        0.0000000000000000     
   1.1250000000000000       0.81250000000000000        0.0000000000000000     
   1.0000000000000000       0.84375000000000000        0.0000000000000000     
   1.0312500000000000       0.84375000000000000        0.0000000000000000     
   1.0625000000000000       0.84375000000000000        0.0000000000000000     
   1.0937500000000000       0.84375000000000000        0.0000000000000000     
   1.1250000000000000       0.84375000000000000        0.0000000000000000     
   1.0000000000000000       0.87500000000000000        0.0000000000000000     
   1.0312500000000000       0.87500000000000000        0.0000000000000000     
   1.0625000000000000       0.87500000000000000        0.0000000000000000     
   1.0937500000000000       0.87500000000000000        0.0000000000000000     
   1.1250000000000000       0.87500000000000000        0.0000000000000000     
   1.1250000000000000       0.75000000000000000        0.0000000000000000     
   1.1562500000000000       0.75000000000000000        0.0000000000000000     
   1.1875000000000000       0.75000000000000000        0.0000000000000000     
   1.2187500000000000       0.75000000000000000        0.0000000000000000     
   1.2500000000000000       0.75000000000000000        0.0000000000000000     
   1.1250000000000000       0.78125000000000000        0.0000000000000000     
   1.1562500000000000       0.78125000000000000        0.0000000000000000     
   1.1875000000000000       0.78125000000000000        0.0000000000000000     
   1.2187500000000000       0.78125000000000000        0.0000000000000000     
   1.2500000000000000       0.78125000000000000        0.0000000000000000     
   1.1250000000000000       0.81250000000000000        0.0000000000000000     
   1.1562500000000000       0.81250000000000000        0.0000000000000000     
   1.1875000000000000       0.81250000000000000        0.0000000000000000     
   1.2187500000000000       0.81250000000000000        0.0000000000000000     
   1.2500000000000000       0.81250000000000000        0.0000000000000000     
   1.1250000000000000       0.84375000000000000        0.0000000000000000     
   1.1562500000000000       0.84375000000000000        0.0000000000000000     
   1.1875000000000000       0.84375000000000000        0.0000000000000000     
   1.2187500000000000       0.84375000000000000        0.0000000000000000     
   1.2500000000000000       0.84375000000000000        0.0000000000000000     
   1.1250000000000000       0.87500000000000000        0.0000000000000000     
   1.1562500000000000       0.87500000000000000        0.0000000000000000     
   1.1875000000000000       0.87500000000000000        0.0000000000000000     
   1.2187500000000000       0.87500000000000000        0.0000000000000000     
   1.2500000000000000       0.87500000000000000        0.0000000000000000     
   1.2500000000000000       0.75000000000000000        0.0000000000000000     
   1.2812500000000000       0.75000000000000000        0.0000000000000000     
   1.3125000000000000       0.75000000000000000        0.0000000000000000     
   1.3437500000000000       0.75000000000000000        0.0000000000000000     
   1.3750000000000000       0.75000000000000000        0.0000000000000000     
   1.2500000000000000       0.78125000000000000        0.0000000000000000     
   1.2812500000000000       0.78125000000000000        0.0000000000000000     
   1.3125000000000000       0.78125000000000000        0.0000000000000000     
   1.3437500000000000       0.78125000000000000        0.0000000000000000     
   1.3750000000000000       0.78125000000000000        0.0000000000000000     
   1.2500000000000000       0.81250000000000000        0.0000000000000000     
   1.2812500000000000       0.81250000000000000        0.0000000000000000     
   1.3125000000000000       0.81250000000000000        0.0000000000000000     
   1.3437500000000000       0.81250000000000000        0.0000000000000000     
   1.3750000000000000       0.81250000000000000        0.0000000000000000     
   1.2500000000000000       0.84375000000000000        0.0000000000000000     
   1.2812500000000000       0.84375000000000000        0.0000000000000000     
   1.3125000000000000       0.84375000000000000        0.0000000000000000     
   1.3437500000000000       0.84375000000000000        0.0000000000000000     
   1.3750000000000000       0.84375000000000000        0.0000000000000000     
   1.2500000000000000       0.87500000000000000        0.0000000000000000     
   1.2812500000000000       0.87500000000000000        0.0000000000000000     
   1.3125000000000000       0.87500000000000000        0.0000000000000000     
   1.3437500000000000       0.87500000000000000        0.0000000000000000     
   1.3750000000000000       0.87500000000000000        0.0000000000000000     
   1.3750000000000000       0.75000000000000000        0.0000000000000000     
   1.4062500000000000       0.75000000000000000        0.0000000000000000     
   1.4375000000000000       0.75000000000000000        0.0000000000000000     
   1.4687500000000000       0.75000000000000000        0.0000000000000000     
   1.5000000000000000       0.75000000000000000        0.0000000000000000     
   1.3750000000000000       0.78125000000000000        0.0000000000000000     
   1.4062500000000000       0.78125000000000000        0.0000000000000000     
   1.4375000000000000       0.78125000000000000        0.0000000000000000     
   1.4687500000000000       0.78125000000000000        0.0000000000000000     
   1.5000000000000000       0.78125000000000000        0.0000000000000000     
   1.3750000000000000       0.81250000000000000        0.0000000000000000     
   1.4062500000000000       0.81250000000000000        0.0000000000000000     
   1.4375000000000000       0.81250000000000000        0.0000000000000000     
   1.4687500000000000       0.81250000000000000        0.0000000000000000     
   1.5000000000000000       0.81250000000000000        0.0000000000000000     
   1.3750000000000000       0.84375000000000000        0.0000000000000000     
   1.4062500000000000       0.84375000000000000        0.0000000000000000     
   1.4375000000000000       0.84375000000000000        0.0000000000000000     
   1.4687500000000000       0.84375000000000000        0.0000000000000000     
   1.5000000000000000       0.84375000000000000        0.0000000000000000     
   1.3750000000000000       0.87500000000000000        0.0000000000000000     
   1.4062500000000000       0.87500000000000000        0.0000000000000000     
   1.4375000000000000       0.87500000000000000        0.0000000000000000     
   1.4687500000000000       0.87500000000000000        0.0000000000000000     
   1.5000000000000000       0.87500000000000000        0.0000000000000000     
  0.50000000000000000       0.87500000000000000        0.0000000000000000     
  0.53125000000000000       0.87500000000000000        0.0000000000000000     
  0.56250000000000000       0.87500000000000000        0.0000000000000000     
  0.59375000000000000       0.87500000000000000        0.0000000000000000     
  0.62500000000000000       0.87500000000000000        0.0000000000000000     
  0.50000000000000000       0.90625000000000000        0.0000000000000000     
  0.53125000000000000       0.90625000000000000        0.0000000000000000     
  0.56250000000000000       0.90625000000000000        0.0000000000000000     
  0.59375000000000000       0.90625000000000000        0.0000000000000000     
  0.62500000000000000       0.90625000000000000        0.0000000000000000     
  0.50000000000000000       0.93750000000000000        0.0000000000000000     
  0.53125000000000000       0.93750000000000000        0.0000000000000000     
  0.56250000000000000       0.93750000000000000        0.0000000000000000     
  0.59375000000000000       0.93750000000000000        0.0000000000000000     
  0.62500000000000000       0.93750000000000000        0.0000000000000000     
  0.50000000000000000       0.96875000000000000        0.0000000000000000     
  0.53125000000000000       0.96875000000000000        0.0000000000000000     
  0.56250000000000000       0.96875000000000000        0.0000000000000000     
  0.59375000000000000       0.96875000000000000        0.0000000000000000     
  0.62500000000000000       0.96875000000000000        0.0000000000000000     
  0.50000000000000000        1.0000000000000000        0.0000000000000000     
  0.53125000000000000        1.0000000000000000        0.0000000000000000     
  0.56250000000000000        1.0000000000000000        0.0000000000000000     
  0.59375000000000000        1.0000000000000000        0.0000000000000000     
  0.62500000000000000        1.0000000000000000        0.0000000000000000     
  0.62500000000000000       0.87500000000000000        0.0000000000000000     
  0.65625000000000000       0.87500000000000000        0.0000000000000000     
  0.68750000000000000       0.87500000000000000        0.0000000000000000     
  0.71875000000000000       0.87500000000000000        0.0000000000000000     
  0.75000000000000000       0.87500000000000000        0.0000000000000000     
  0.62500000000000000       0.90625000000000000        0.0000000000000000     
  0.65625000000000000       0.90625000000000000        0.0000000000000000     
  0.68750000000000000       0.90625000000000000        0.0000000000000000     
  0.71875000000000000       0.90625000000000000        0.0000000000000000     
  0.75000000000000000       0.90625000000000000        0.0000000000000000     
  0.62500000000000000       0.93750000000000000        0.0000000000000000     
  0.65625000000000000       0.93750000000000000        0.0000000000000000     
  0.68750000000000000       0.93750000000000000        0.0000000000000000     
  0.71875000000000000       0.93750000000000000        0.0000000000000000     
  0.75000000000000000       0.93750000000000000        0.0000000000000000     
  0.62500000000000000       0.96875000000000000        0.0000000000000000     
  0.65625000000000000       0.96875000000000000        0.0000000000000000     
  0.68750000000000000       0.96875000000000000        0.0000000000000000     
  0.71875000000000000       0.96875000000000000        0.0000000000000000     
  0.75000000000000000       0.96875000000000000        0.0000000000000000     
  0.62500000000000000        1.0000000000000000        0.0000000000000000     
  0.65625000000000000        1.0000000000000000        0.0000000000000000     
  0.68750000000000000        1.0000000000000000        0.0000000000000000     
  0.71875000000000000        1.0000000000000000        0.0000000000000000     
  0.75000000000000000        1.0000000000000000        0.0000000000000000     
  0.75000000000000000       0.87500000000000000        0.0000000000000000     
  0.78125000000000000       0.87500000000000000        0.0000000000000000     
  0.81250000000000000       0.87500000000000000        0.0000000000000000     
  0.84375000000000000       0.87500000000000000        0.0000000000000000     
  0.87500000000000000       0.87500000000000000        0.0000000000000000     
  0.75000000000000000       0.90625000000000000        0.0000000000000000     
  0.78125000000000000       0.90625000000000000        0.0000000000000000     
  0.81250000000000000       0.90625000000000000        0.0000000000000000     
  0.84375000000000000       0.90625000000000000        0.0000000000000000     
  0.87500000000000000       0.90625000000000000        0.0000000000000000     
  0.75000000000000000       0.93750000000000000        0.0000000000000000     
  0.78125000000000000       0.93750000000000000        0.0000000000000000     
  0.81250000000000000       0.93750000000000000        0.0000000000000000     
  0.84375000000000000       0.93750000000000000        0.0000000000000000     
  0.87500000000000000       0.93750000000000000        0.0000000000000000     
  0.75000000000000000       0.96875000000000000        0.0000000000000000     
  0.78125000000000000       0.96875000000000000        0.0000000000000000     
  0.81250000000000000       0.96875000000000000        0.0000000000000000     
  0.84375000000000000       0.96875000000000000        0.0000000000000000     
  0.87500000000000000       0.96875000000000000        0.0000000000000000     
  0.75000000000000000        1.0000000000000000        0.0000000000000000     
  0.78125000000000000        1.0000000000000000        0.0000000000000000     
  0.81250000000000000        1.0000000000000000        0.0000000000000000     
  0.84375000000000000        1.0000000000000000        0.0000000000000000     
  0.87500000000000000        1.0000000000000000        0.0000000000000000     
  0.87500000000000000       0.87500000000000000        0.0000000000000000     
  0.90625000000000000       0.87500000000000000        0.0000000000000000     
  0.93750000000000000       0.87500000000000000        0.0000000000000000     
  0.96875000000000000       0.87500000000000000        0.0000000000000000     
   1.0000000000000000       0.87500000000000000        0.0000000000000000     
  0.87500000000000000       0.90625000000000000        0.0000000000000000     
  0.90625000000000000       0.90625000000000000        0.0000000000000000     
  0.93750000000000000       0.90625000000000000        0.0000000000000000     
  0.96875000000000000       0.90625000000000000        0.0000000000000000     
   1.0000000000000000       0.90625000000000000        0.0000000000000000     
  0.87500000000000000       0.93750000000000000        0.0000000000000000     
  0.90625000000000000       0.93750000000000000        0.0000000000000000     
  0.93750000000000000       0.93750000000000000        0.0000000000000000     
  0.96875000000000000       0.93750000000000000        0.0000000000000000     
   1.0000000000000000       0.93750000000000000        0.0000000000000000     
  0.87500000000000000       0.96875000000000000        0.0000000000000000     
  0.90625000000000000       0.96875000000000000        0.0000000000000000     
  0.93750000000000000       0.96875000000000000        0.0000000000000000     
  0.96875000000000000       0.96875000000000000        0.0000000000000000     
   1.0000000000000000       0.96875000000000000        0.0000000000000000     
  0.87500000000000000        1.0000000000000000        0.0000000000000000     
  0.90625000000000000        1.0000000000000000        0.0000000000000000     
  0.93750000000000000        1.0000000000000000        0.0000000000000000     
  0.96875000000000000        1.0000000000000000        0.0000000000000000     
   1.0000000000000000        1.0000000000000000        0.0000000000000000     
   1.0000000000000000       0.87500000000000000        0.0000000000000000     
   1.0312500000000000       0.87500000000000000        0.0000000000000000     
   1.0625000000000000       0.87500000000000000        0.0000000000000000     
   1.0937500000000000       0.87500000000000000        0.0000000000000000     
   1.1250000000000000       0.87500000000000000        0.0000000000000000     
   1.0000000000000000       0.90625000000000000        0.0000000000000000     
   1.0312500000000000       0.90625000000000000        0.0000000000000000     
   1.0625000000000000       0.90625000000000000        0.0000000000000000     
   1.0937500000000000       0.90625000000000000        0.0000000000000000     
   1.1250000000000000       0.90625000000000000        0.0000000000000000     
   1.0000000000000000       0.93750000000000000        0.0000000000000000     
   1.0312500000000000       0.93750000000000000        0.0000000000000000     
   1.0625000000000000       0.93750000000000000        0.0000000000000000     
   1.0937500000000000       0.93750000000000000        0.0000000000000000     
   1.1250000000000000       0.93750000000000000        0.0000000000000000     
   1.0000000000000000       0.96875000000000000        0.0000000000000000     
   1.0312500000000000       0.96875000000000000        0.0000000000000000     
   1.0625000000000000       0.96875000000000000        0.0000000000000000     
   1.0937500000000000       0.96875000000000000        0.0000000000000000     
   1.1250000000000000       0.96875000000000000        0.0000000000000000     
   1.0000000000000000        1.0000000000000000        0.0000000000000000     
   1.0312500000000000        1.0000000000000000        0.0000000000000000     
   1.0625000000000000        1.0000000000000000        0.0000000000000000     
   1.0937500000000000        1.0000000000000000        0.0000000000000000     
   1.1250000000000000        1.0000000000000000        0.0000000000000000     
   1.1250000000000000       0.87500000000000000        0.0000000000000000     
   1.1562500000000000       0.87500000000000000        0.0000000000000000     
   1.1875000000000000       0.87500000000000000        0.0000000000000000     
   1.2187500000000000       0.87500000000000000        0.0000000000000000     
   1.2500000000000000       0.87500000000000000        0.0000000000000000     
   1.1250000000000000       0.90625000000000000        0.0000000000000000     
   1.1562500000000000       0.90625000000000000        0.0000000000000000     
   1.1875000000000000       0.90625000000000000        0.0000000000000000     
   1.2187500000000000       0.90625000000000000        0.0000000000000000     
   1.2500000000000000       0.90625000000000000        0.0000000000000000     
   1.1250000000000000       0.93750000000000000        0.0000000000000000     
   1.1562500000000000       0.93750000000000000        0.0000000000000000     
   1.1875000000000000       0.93750000000000000        0.0000000000000000     
   1.2187500000000000       0.93750000000000000        0.0000000000000000     
   1.2500000000000000       0.93750000000000000        0.0000000000000000     
   1.1250000000000000       0.96875000000000000        0.0000000000000000     
   1.1562500000000000       0.96875000000000000        0.0000000000000000     
   1.1875000000000000       0.96875000000000000        0.0000000000000000     
   1.2187500000000000       0.96875000000000000        0.0000000000000000     
   1.2500000000000000       0.96875000000000000        0.0000000000000000     
   1.1250000000000000        1.0000000000000000        0.0000000000000000     
   1.1562500000000000        1.0000000000000000        0.0000000000000000     
   1.1875000000000000        1.0000000000000000        0.0000000000000000     
   1.2187500000000000        1.0000000000000000        0.0000000000000000     
   1.2500000000000000        1.0000000000000000        0.0000000000000000     
   1.2500000000000000       0.87500000000000000        0.0000000000000000     
   1.2812500000000000       0.87500000000000000        0.0000000000000000     
   1.3125000000000000       0.87500000000000000        0.0000000000000000     
   1.3437500000000000       0.87500000000000000        0.0000000000000000     
   1.3750000000000000       0.87500000000000000        0.0000000000000000     
   1.2500000000000000       0.90625000000000000        0.0000000000000000     
   1.2812500000000000       0.90625000000000000        0.0000000000000000     
   1.3125000000000000       0.90625000000000000        0.0000000000000000     
   1.3437500000000000       0.90625000000000000        0.0000000000000000     
   1.3750000000000000       0.90625000000000000        0.0000000000000000     
   1.2500000000000000       0.93750000000000000        0.0000000000000000     
   1.2812500000000000       0.93750000000000000        0.0000000000000000     
   1.3125000000000000       0.93750000000000000        0.0000000000000000     
   1.3437500000000000       0.93750000000000000        0.0000000000000000     
   1.3750000000000000       0.93750000000000000        0.0000000000000000     
   1.2500000000000000       0.96875000000000000        0.0000000000000000     
   1.2812500000000000       0.96875000000000000        0.0000000000000000     
   1.3125000000000000       0.96875000000000000        0.0000000000000000     
   1.3437500000000000       0.96875000000000000        0.0000000000000000     
   1.3750000000000000       0.96875000000000000        0.0000000000000000     
   1.2500000000000000        1.0000000000000000        0.0000000000000000     
   1.2812500000000000        1.0000000000000000        0.0000000000000000     
   1.3125000000000000        1.0000000000000000        0.0000000000000000     
   1.3437500000000000        1.0000000000000000        0.0000000000000000     
   1.3750000000000000        1.0000000000000000        0.0000000000000000     
   1.3750000000000000       0.87500000000000000        0.0000000000000000     
   1.4062500000000000       0.87500000000000000        0.0000000000000000     
   1.4375000000000000       0.87500000000000000        0.0000000000000000     
   1.4687500000000000       0.87500000000000000        0.0000000000000000     
   1.5000000000000000       0.87500000000000000        0.0000000000000000     
   1.3750000000000000       0.90625000000000000        0.0000000000000000     
   1.4062500000000000       0.90625000000000000        0.0000000000000000     
   1.4375000000000000       0.90625000000000000        0.0000000000000000     
   1.4687500000000000       0.90625000000000000        0.0000000000000000     
   1.5000000000000000       0.90625000000000000        0.0000000000000000     
   1.3750000000000000       0.93750000000000000        0.0000000000000000     
   1.4062500000000000       0.93750000000000000        0.0000000000000000     
   1.4375000000000000       0.93750000000000000        0.0000000000000000     
   1.4687500000000000       0.93750000000000000        0.0000000000000000     
   1.5000000000000000       0.93750000000000000        0.0000000000000000     
   1.3750000000000000       0.96875000000000000        0.0000000000000000     
   1.4062500000000000       0.96875000000000000        0.0000000000000000     
   1.4375000000000000       0.96875000000000000        0.0000000000000000     
   1.4687500000000000       0.96875000000000000        0.0000000000000000     
   1.5000000000000000       0.96875000000000000        0.0000000000000000     
   1.3750000000000000        1.0000000000000000        0.0000000000000000     
   1.4062500000000000        1.0000000000000000        0.0000000000000000     
   1.4375000000000000        1.0000000000000000        0.0000000000000000     
   1.4687500000000000        1.0000000000000000        0.0000000000000000     
   1.5000000000000000        1.0000000000000000        0.0000000000000000     
 </DataArray>
 </Points>
 <Cells>
 <DataArray  type="Int32"  Name="connectivity"  format="ascii">
           0           1           6           5
           1           2           7           6
           2           3           8           7
           3           4           9           8
           5           6          11          10
           6           7          12          11
           7           8          13          12
           8           9          14          13
          10          11          16          15
          11          12          17          16
          12          13          18          17
          13          14          19          18
          15          16          21          20
          16          17          22          21
          17          18          23          22
          18          19          24          23
          25          26          31          30
          26          27          32          31
          27          28          33          32
          28          29          34          33
          30          31          36          35
          31          32          37          36
          32          33          38          37
          33          34          39          38
          35          36          41          40
          36          37          42          41
          37          38          43          42
          38          39          44          43
          40          41          46          45
          41          42          47          46
          42          43          48          47
          43          44          49          48
          50          51          56          55
          51          52          57          56
          52          53          58          57
          53          54          59          58
          55          56          61          60
          56          57          62          61
          57          58          63          62
          58          59          64          63
          60          61          66          65
          61          62          67          66
          62          63          68          67
          63          64          69          68
          65          66          71          70
          66          67          72          71
          67          68          73          72
          68          69          74          73
          75          76          81          80
          76          77          82          81
          77          78          83          82
          78          79          84          83
          80          81          86          85
          81          82          87          86
          82          83          88          87
          83          84          89          88
          85          86          91          90
          86          87          92          91
          87          88          93          92
          88          89          94          93
          90          91          96          95
          91          92          97          96
          92          93          98          97
          93          94          99          98
         100         101         106         105
         101         102         107         106
         102         103         108         107
         103         104         109         108
         105         106         111         110
         106         107         112         111
         107         108         113         112
         108         109         114         113
         110         111         116         115
         111         112         117         116
         112         113         118         117
         113         114         119         118
         115         116         121         120
         116         117         122         121
         117         118         123         122
         118         119         124         123
         125         126         131         130
         126         127         132         131
         127         128         133         132
         128         129         134         133
         130         131         136         135
         131         132         137         136
         132         133         138         137
         133         134         139         138
         135         136         141         140
         136         137         142         141
         137         138         143         142
         138         139         144         143
         140         141         146         145
         141         142         147         146
         142         143         148         147
         143         144         149         148
         150         151         156         155
         151         152         157         156
         152         153         158         157
         153         154         159         158
         155         156         161         160
         156         157         162         161
         157         158         163         162
         158         159         164         163
         160         161         166         165
         161         162         167         166
         162         163         168         167
         163         164         169         168
         165         166         171         170
         166         167         172         171
         167         168         173         172
         168         169         174         173
         175         176         181         180
         176         177         182         181
         177         178         183         182
         178         179         184         183
         180         181         186         185
         181         182         187         186
         182         183         188         187
         183         184         189         188
         185         186         191         190
         186         187         192         191
         187         188         193         192
         188         189         194         193
         190         191         196         195
         191         192         197         196
         192         193         198         197
         193         194         199         198
         200         201         206         205
         201         202         207         206
         202         203         208         207
         203         204         209         208
         205         206         211         210
         206         207         212         211
         207         208         213         212
         208         209         214         213
         210         211         216         215
         211         212         217         216
         212         213         218         217
         213         214         219         218
         215         216         221         220
         216         217         222         221
         217         218         223         222
         218         219         224         223
         225         226         231         230
         226         227         232         231
         227         228         233         232
         228         229         234         233
         230         231         236         235
         231         232         237         236
         232         233         238         237
         233         234         239         238
         235         236         241         240
         236         237         242         241
         237         238         243         242
         238         239         244         243
         240         241         246         245
         241         242         247         246
         242         243         248         247
         243         244         249         248
         250         251         256         255
         251         252         257         256
         252         253         258         257
         253         254         259         258
         255         256         261         260
         256         257         262         261
         257         258         263         262
         258         259         264         263
         260         261         266         265
         261         262         267         266
         262         263         268         267
         263         264         269         268
         265         266         271         270
         266         267         272         271
         267         268         273         272
         268         269         274         273
         275         276         281         280
         276         277         282         281
         277         278         283         282
         278         279         284         283
         280         281         286         285
         281         282         287         286
         282         283         288         287
         283         284         289         288
         285         286         291         290
         286         287         292         291
         287         288         293         292
         288         289         294         293
         290         291         296         295
         291         292         297         296
         292         293         298         297
         293         294         299         298
         300         301         306         305
         301         302         307         306
         302         303         308         307
         303         304         309         308
         305         306         311         310
         306         307         312         311
         307         308         313         312
         308         309         314         313
         310         311         316         315
         311         312         317         316
         312         313         318         317
         313         314         319         318
         315         316         321         320
         316         317         322         321
         317         318         323         322
         318         319         324         323
         325         326         331         330
         326         327         332         331
         327         328         333         332
         328         329         334         333
         330         331         336         335
         331         332         337         336
         332         333         338         337
         333         334         339         338
         335         336         341         340
         336         337         342         341
         337         338         343         342
         338         339         344         343
         340         341         346         345
         341         342         347         346
         342         343         348         347
         343         344         349         348
         350         351         356         355
         351         352         357         356
         352         353         358         357
         353         354         359         358
         355         356         361         360
         356         357         362         361
         357         358         363         362
         358         359         364         363
         360         361         366         365
         361         362         367         366
         362         363         368         367
         363         364         369         368
         365         366         371         370
         366         367         372         371
         367         368         373         372
         368         369         374         373
         375         376         381         380
         376         377         382         381
         377         378         383         382
         378         379         384         383
         380         381         386         385
         381         382         387         386
         382         383         388         387
         383         384         389         388
         385         386         391         390
         386         387         392         391
         387         388         393         392
         388         389         394         393
         390         391         396         395
         391         392         397         396
         392         393         398         397
         393         394         399         398
         400         401         406         405
         401         402         407         406
         402         403         408         407
         403         404         409         408
         405         406         411         410
         406         407         412         411
         407         408         413         412
         408         409         414         413
         410         411         416         415
         411         412         417         416
         412         413         418         417
         413         414         419         418
         415         416         421         420
         416         417         422         421
         417         418         423         422
         418         419         424         423
         425         426         431         430
         426         427         432         431
         427         428         433         432
         428         429         434         433
         430         431         436         435
         431         432         437         436
         432         433         438         437
         433         434         439         438
         435         436         441         440
         436         437         442         441
         437         438         443         442
         438         439         444         443
         440         441         446         445
         441         442         447         446
         442         443         448         447
         443         444         449         448
         450         451         456         455
         451         452         457         456
         452         453         458         457
         453         454         459         458
         455         456         461         460
         456         457         462         461
         457         458         463         462
         458         459         464         463
         460         461         466         465
         461         462         467         466
         462         463         468         467
         463         464         469         468
         465         466         471         470
         466         467         472         471
         467         468         473         472
         468         469         474         473
         475         476         481         480
         476         477         482         481
         477         478         483         482
         478         479         484         483
         480         481         486         485
         481         482         487         486
         482         483         488         487
         483         484         489         488
         485         486         491         490
         486         487         492         491
         487         488         493         492
         488         489         494         493
         490         491         496         495
         491         492         497         496
         492         493         498         497
         493         494         499         498
         500         501         506         505
         501         502         507         506
         502         503         508         507
         503         504         509         508
         505         506         511         510
         506         507         512         511
         507         508         513         512
         508         509         514         513
         510         511         516         515
         511         512         517         516
         512         513         518         517
         513         514         519         518
         515         516         521         520
         516         517         522         521
         517         518         523         522
         518         519         524         523
         525         526         531         530
         526         527         532         531
         527         528         533         532
         528         529         534         533
         530         531         536         535
         531         532         537         536
         532         533         538         537
         533         534         539         538
         535         536         541         540
         536         537         542         541
         537         538         543         542
         538         539         544         543
         540         541         546         545
         541         542         547         546
         542         543         548         547
         543         544         549         548
         550         551         556         555
         551         552         557         556
         552         553         558         557
         553         554         559         558
         555         556         561         560
         556         557         562         561
         557         558         563         562
         558         559         564         563
         560         561         566         565
         561         562         567         566
         562         563         568         567
         563         564         569         568
         565         566         571         570
         566         567         572         571
         567         568         573         572
         568         569         574         573
         575         576         581         580
         576         577         582         581
         577         578         583         582
         578         579         584         583
         580         581         586         585
         581         582         587         586
         582         583         588         587
         583         584         589         588
         585         586         591         590
         586         587         592         591
         587         588         593         592
         588         589         594         593
         590         591         596         595
         591         592         597         596
         592         593         598         597
         593         594         599         598
         600         601         606         605
         601         602         607         606
         602         603         608         607
         603         604         609         608
         605         606         611         610
         606         607         612         611
         607         608         613         612
         608         609         614         613
         610         611         616         615
         611         612         617         616
         612         613         618         617
         613         614         619         618
         615         616         621         620
         616         617         622         621
         617         618         623         622
         618         619         624         623
         625         626         631         630
         626         627         632         631
         627         628         633         632
         628         629         634         633
         630         631         636         635
         631         632         637         636
         632         633         638         637
         633         634         639         638
         635         636         641         640
         636         637         642         641
         637         638         643         642
         638         639         644         643
         640         641         646         645
         641         642         647         646
         642         643         648         647
         643         644         649         648
         650         651         656         655
         651         652         657         656
         652         653         658         657
         653         654         659         658
         655         656         661         660
         656         657         662         661
         657         658         663         662
         658         659         664         663
         660         661         666         665
         661         662         667         666
         662         663         668         667
         663         664         669         668
         665         666         671         670
         666         667         672         671
         667         668         673         672
         668         669         674         673
         675         676         681         680
         676         677         682         681
         677         678         683         682
         678         679         684         683
         680         681         686         685
         681         682         687         686
         682         683         688         687
         683         684         689         688
         685         686         691         690
         686         687         692         691
         687         688         693         692
         688         689         694         693
         690         691         696         695
         691         692         697         696
         692         693         698         697
         693         694         699         698
         700         701         706         705
         701         702         707         706
         702         703         708         707
         703         704         709         708
         705         706         711         710
         706         707         712         711
         707         708         713         712
         708         709         714         713
         710         711         716         715
         711         712         717         716
         712         713         718         717
         713         714         719         718
         715         716         721         720
         716         717         722         721
         717         718         723         722
         718         719         724         723
         725         726         731         730
         726         727         732         731
         727         728         733         732
         728         729         734         733
         730         731         736         735
         731         732         737         736
         732         733         738         737
         733         734         739         738
         735         736         741         740
         736         737         742         741
         737         738         743         742
         738         739         744         743
         740         741         746         745
         741         742         747         746
         742         743         748         747
         743         744         749         748
         750         751         756         755
         751         752         757         756
         752         753         758         757
         753         754         759         758
         755         756         761         760
         756         757         762         761
         757         758         763         762
         758         759         764         763
         760         761         766         765
         761         762         767         766
         762         763         768         767
         763         764         769         768
         765         766         771         770
         766         767         772         771
         767         768         773         772
         768         769         774         773
         775         776         781         780
         776         777         782         781
         777         778         783         782
         778         779         784         783
         780         781         786         785
         781         782         787         786
         782         783         788         787
         783         784         789         788
         785         786         791         790
         786         787         792         791
         787         788         793         792
         788         789         794         793
         790         791         796         795
         791         792         797         796
         792         793         798         797
         793         794         799         798
         800         801         806         805
         801         802         807         806
         802         803         808         807
         803         804         809         808
         805         806         811         810
         806         807         812         811
         807         808         813         812
         808         809         814         813
         810         811         816         815
         811         812         817         816
         812         813         818         817
         813         814         819         818
         815         816         821         820
         816         817         822         821
         817         818         823         822
         818         819         824         823
         825         826         831         830
         826         827         832         831
         827         828         833         832
         828         829         834         833
         830         831         836         835
         831         832         837         836
         832         833         838         837
         833         834         839         838
         835         836         841         840
         836         837         842         841
         837         838         843         842
         838         839         844         843
         840         841         846         845
         841         842         847         846
         842         843         848         847
         843         844         849         848
         850         851         856         855
         851         852         857         856
         852         853         858         857
         853         854         859         858
         855         856         861         860
         856         857         862         861
         857         858         863         862
         858         859         864         863
         860         861         866         865
         861         862         867         866
         862         863         868         867
         863         864         869         868
         865         866         871         870
         866         867         872         871
         867         868         873         872
         868         869         874         873
         875         876         881         880
         876         877         882         881
         877         878         883         882
         878         879         884         883
         880         881         886         885
         881         882         887         886
         882         883         888         887
         883         884         889         888
         885         886         891         890
         886         887         892         891
         887         888         893         892
         888         889         894         893
         890         891         896         895
         891         892         897         896
         892         893         898         897
         893         894         899         898
         900         901         906         905
         901         902         907         906
         902         903         908         907
         903         904         909         908
         905         906         911         910
         906         907         912         911
         907         908         913         912
         908         909         914         913
         910         911         916         915
         911         912         917         916
         912         913         918         917
         913         914         919         918
         915         916         921         920
         916         917         922         921
         917         918         923         922
         918         919         924         923
         925         926         931         930
         926         927         932         931
         927         928         933         932
         928         929         934         933
         930         931         936         935
         931         932         937         936
         932         933         938         937
         933         934         939         938
         935         936         941         940
         936         937         942         941
         937         938         943         942
         938         939         944         943
         940         941         946         945
         941         942         947         946
         942         943         948         947
         943         944         949         948
         950         951         956         955
         951         952         957         956
         952         953         958         957
         953         954         959         958
         955         956         961         960
         956         957         962         961
         957         958         963         962
         958         959         964         963
         960         961         966         965
         961         962         967         966
         962         963         968         967
         963         964         969         968
         965         966         971         970
         966         967         972         971
         967         968         973         972
         968         969         974         973
         975         976         981         980
         976         977         982         981
         977         978         983         982
         978         979         984         983
         980         981         986         985
         981         982         987         986
         982         983         988         987
         983         984         989         988
         985         986         991         990
         986         987         992         991
         987         988         993         992
         988         989         994         993
         990         991         996         995
         991         992         997         996
         992         993         998         997
         993         994         999         998
        1000        1001        1006        1005
        1001        1002        1007        1006
        1002        1003        1008        1007
        1003        1004        1009        1008
        1005        1006        1011        1010
        1006        1007        1012        1011
        1007        1008        1013        1012
        1008        1009        1014        1013
        1010        1011        1016        1015
        1011        1012        1017        1016
        1012        1013        1018        1017
        1013        1014        1019        1018
        1015        1016        1021        1020
        1016        1017        1022        1021
        1017        1018        1023        1022
        1018        1019        1024        1023
        1025        1026        1031        1030
        1026        1027        1032        1031
        1027        1028        1033        1032
        1028        1029        1034        1033
        1030        1031        1036        1035
        1031        1032        1037        1036
        1032        1033        1038        1037
        1033        1034        1039        1038
        1035        1036        1041        1040
        1036        1037        1042        1041
        1037        1038        1043        1042
        1038        1039        1044        1043
        1040        1041        1046        1045
        1041        1042        1047        1046
        1042        1043        1048        1047
        1043        1044        1049        1048
        1050        1051        1056        1055
        1051        1052        1057        1056
        1052        1053        1058        1057
        1053        1054        1059        1058
        1055        1056        1061        1060
        1056        1057        1062        1061
        1057        1058        1063        1062
        1058        1059        1064        1063
        1060        1061        1066        1065
        1061        1062        1067        1066
        1062        1063        1068        1067
        1063        1064        1069        1068
        1065        1066        1071        1070
        1066        1067        1072        1071
        1067        1068        1073        1072
        1068        1069        1074        1073
        1075        1076        1081        1080
        1076        1077        1082        1081
        1077        1078        1083        1082
        1078        1079        1084        1083
        1080        1081        1086        1085
        1081        1082        1087        1086
        1082        1083        1088        1087
        1083        1084        1089        1088
        1085        1086        1091        1090
        1086        1087        1092        1091
        1087        1088        1093        1092
        1088        1089        1094        1093
        1090        1091        1096        1095
        1091        1092        1097        1096
        1092        1093        1098        1097
        1093        1094        1099        1098
        1100        1101        1106        1105
        1101        1102        1107        1106
        1102        1103        1108        1107
        1103        1104        1109        1108
        1105        1106        1111        1110
        1106        1107        1112        1111
        1107        1108        1113        1112
        1108        1109        1114        1113
        1110        1111        1116        1115
        1111        1112        1117        1116
        1112        1113        1118        1117
        1113        1114        1119        1118
        1115        1116        1121        1120
        1116        1117        1122        1121
        1117        1118        1123        1122
        1118        1119        1124        1123
        1125        1126        1131        1130
        1126        1127        1132        1131
        1127        1128        1133        1132
        1128        1129        1134        1133
        1130        1131        1136        1135
        1131        1132        1137        1136
        1132        1133        1138        1137
        1133        1134        1139        1138
        1135        1136        1141        1140
        1136        1137        1142        1141
        1137        1138        1143        1142
        1138        1139        1144        1143
        1140        1141        1146        1145
        1141        1142        1147        1146
        1142        1143        1148        1147
        1143        1144        1149        1148
        1150        1151        1156        1155
        1151        1152        1157        1156
        1152        1153        1158        1157
        1153        1154        1159        1158
        1155        1156        1161        1160
        1156        1157        1162        1161
        1157        1158        1163        1162
        1158        1159        1164        1163
        1160        1161        1166        1165
        1161        1162        1167        1166
        1162        1163        1168        1167
        1163        1164        1169        1168
        1165        1166        1171        1170
        1166        1167        1172        1171
        1167        1168        1173        1172
        1168        1169        1174        1173
        1175        1176        1181        1180
        1176        1177        1182        1181
        1177        1178        1183        1182
        1178        1179        1184        1183
        1180        1181        1186        1185
        1181        1182        1187        1186
        1182        1183        1188        1187
        1183        1184        1189        1188
        1185        1186        1191        1190
        1186        1187        1192        1191
        1187        1188        1193        1192
        1188        1189        1194        1193
        1190        1191        1196        1195
        1191        1192        1197        1196
        1192        1193        1198        1197
        1193        1194        1199        1198
        1200        1201        1206        1205
        1201        1202        1207        1206
        1202        1203        1208        1207
        1203        1204        1209        1208
        1205        1206        1211        1210
        1206        1207        1212        1211
        1207        1208        1213        1212
        1208        1209        1214        1213
        1210        1211        1216        1215
        1211        1212        1217        1216
        1212        1213        1218        1217
        1213        1214        1219        1218
        1215        1216        1221        1220
        1216        1217        1222        1221
        1217        1218        1223        1222
        1218        1219        1224        1223
        1225        1226        1231        1230
        1226        1227        1232        1231
        1227        1228        1233        1232
        1228        1229        1234        1233
        1230        1231        1236        1235
        1231        1232        1237        1236
        1232        1233        1238        1237
        1233        1234        1239        1238
        1235        1236        1241        1240
        1236        1237        1242        1241
        1237        1238        1243        1242
        1238        1239        1244        1243
        1240        1241        1246        1245
        1241        1242        1247        1246
        1242        1243        1248        1247
        1243        1244        1249        1248
        1250        1251        1256        1255
        1251        1252        1257        1256
        1252        1253        1258        1257
        1253        1254        1259        1258
        1255        1256        1261        1260
        1256        1257        1262        1261
        1257        1258        1263        1262
        1258        1259        1264        1263
        1260        1261        1266        1265
        1261        1262        1267        1266
        1262        1263        1268        1267
        1263        1264        1269        1268
        1265        1266        1271        1270
        1266        1267        1272        1271
        1267        1268        1273        1272
        1268        1269        1274        1273
        1275        1276        1281        1280
        1276        1277        1282        1281
        1277        1278        1283        1282
        1278        1279        1284        1283
        1280        1281        1286        1285
        1281        1282        1287        1286
        1282        1283        1288        1287
        1283        1284        1289        1288
        1285        1286        1291        1290
        1286        1287        1292        1291
        1287        1288        1293        1292
        1288        1289        1294        1293
        1290        1291        1296        1295
        1291        1292        1297        1296
        1292        1293        1298        1297
        1293        1294        1299        1298
        1300        1301        1306        1305
        1301        1302        1307        1306
        1302        1303        1308        1307
        1303        1304        1309        1308
        1305        1306        1311        1310
        1306        1307        1312        1311
        1307        1308        1313        1312
        1308        1309        1314        1313
        1310        1311        1316        1315
        1311        1312        1317        1316
        1312        1313        1318        1317
        1313        1314        1319        1318
        1315        1316        1321        1320
        1316        1317        1322        1321
        1317        1318        1323        1322
        1318        1319        1324        1323
        1325        1326        1331        1330
        1326        1327        1332        1331
        1327        1328        1333        1332
        1328        1329        1334        1333
        1330        1331        1336        1335
        1331        1332        1337        1336
        1332        1333        1338        1337
        1333        1334        1339        1338
        1335        1336        1341        1340
        1336        1337        1342        1341
        1337        1338        1343        1342
        1338        1339        1344        1343
        1340        1341        1346        1345
        1341        1342        1347        1346
        1342        1343        1348        1347
        1343        1344        1349        1348
        1350        1351        1356        1355
        1351        1352        1357        1356
        1352        1353        1358        1357
        1353        1354        1359        1358
        1355        1356        1361        1360
        1356        1357        1362        1361
        1357        1358        1363        1362
        1358        1359        1364        1363
        1360        1361        1366        1365
        1361        1362        1367        1366
        1362        1363        1368        1367
        1363        1364        1369        1368
        1365        1366        1371        1370
        1366        1367        1372        1371
        1367        1368        1373        1372
        1368        1369        1374        1373
        1375        1376        1381        1380
        1376        1377        1382        1381
        1377        1378        1383        1382
        1378        1379        1384        1383
        1380        1381        1386        1385
        1381        1382        1387        1386
        1382        1383        1388        1387
        1383        1384        1389        1388
        1385        1386        1391        1390
        1386        1387        1392        1391
        1387        1388        1393        1392
        1388        1389        1394        1393
        1390        1391        1396        1395
        1391        1392        1397        1396
        1392        1393        1398        1397
        1393        1394        1399        1398
        1400        1401        1406        1405
        1401        1402        1407        1406
        1402        1403        1408        1407
        1403        1404        1409        1408
        1405        1406        1411        1410
        1406        1407        1412        1411
        1407        1408        1413        1412
        1408        1409        1414        1413
        1410        1411        1416        1415
        1411        1412        1417        1416
        1412        1413        1418        1417
        1413        1414        1419        1418
        1415        1416        1421        1420
        1416        1417        1422        1421
        1417        1418        1423        1422
        1418        1419        1424        1423
        1425        1426        1431        1430
        1426        1427        1432        1431
        1427        1428        1433        1432
        1428        1429        1434        1433
        1430        1431        1436        1435
        1431        1432        1437        1436
        1432        1433        1438        1437
        1433        1434        1439        1438
        1435        1436        1441        1440
        1436        1437        1442        1441
        1437        1438        1443        1442
        1438        1439        1444        1443
        1440        1441        1446        1445
        1441        1442        1447        1446
        1442        1443        1448        1447
        1443        1444        1449        1448
        1450        1451        1456        1455
        1451        1452        1457        1456
        1452        1453        1458        1457
        1453        1454        1459        1458
        1455        1456        1461        1460
        1456        1457        1462        1461
        1457        1458        1463        1462
        1458        1459        1464        1463
        1460        1461        1466        1465
        1461        1462        1467        1466
        1462        1463        1468        1467
        1463        1464        1469        1468
        1465        1466        1471        1470
        1466        1467        1472        1471
        1467        1468        1473        1472
        1468        1469        1474        1473
        1475        1476        1481        1480
        1476        1477        1482        1481
        1477        1478        1483        1482
        1478        1479        1484        1483
        1480        1481        1486        1485
        1481        1482        1487        1486
        1482        1483        1488        1487
        1483        1484        1489        1488
        1485        1486        1491        1490
        1486        1487        1492        1491
        1487        1488        1493        1492
        1488        1489        1494        1493
        1490        1491        1496        1495
        1491        1492        1497        1496
        1492        1493        1498        1497
        1493        1494        1499        1498
        1500        1501        1506        1505
        1501        1502        1507        1506
        1502        1503        1508        1507
        1503        1504        1509        1508
        1505        1506        1511        1510
        1506        1507        1512        1511
        1507        1508        1513        1512
        1508        1509        1514        1513
        1510        1511        1516        1515
        1511        1512        1517        1516
        1512        1513        1518        1517
        1513        1514        1519        1518
        1515        1516        1521        1520
        1516        1517        1522        1521
        1517        1518        1523        1522
        1518        1519        1524        1523
        1525        1526        1531        1530
        1526        1527        1532        1531
        1527        1528        1533        1532
        1528        1529        1534        1533
        1530        1531        1536        1535
        1531        1532        1537        1536
        1532        1533        1538        1537
        1533        1534        1539        1538
        1535        1536        1541        1540
        1536        1537        1542        1541
        1537        1538        1543        1542
        1538        1539        1544        1543
        1540        1541        1546        1545
        1541        1542        1547        1546
        1542        1543        1548        1547
        1543        1544        1549        1548
        1550        1551        1556        1555
        1551        1552        1557        1556
        1552        1553        1558        1557
        1553        1554        1559        1558
        1555        1556        1561        1560
        1556        1557        1562        1561
        1557        1558        1563        1562
        1558        1559        1564        1563
        1560        1561        1566        1565
        1561        1562        1567        1566
        1562        1563        1568        1567
        1563        1564        1569        1568
        1565        1566        1571        1570
        1566        1567        1572        1571
        1567        1568        1573        1572
        1568        1569        1574        1573
        1575        1576        1581        1580
        1576        1577        1582        1581
        1577        1578        1583        1582
        1578        1579        1584        1583
        1580        1581        1586        1585
        1581        1582        1587        1586
        1582        1583        1588        1587
        1583        1584        1589        1588
        1585        1586        1591        1590
        1586        1587        1592        1591
        1587        1588        1593        1592
        1588        1589        1594        1593
        1590        1591        1596        1595
        1591        1592        1597        1596
        1592        1593        1598        1597
        1593        1594        1599        1598
 </DataArray>
 <DataArray  type="Int32"  Name="offsets"  format="ascii"> 
           4
           8
          12
          16
          20
          24
          28
          32
          36
          40
          44
          48
          52
          56
          60
          64
          68
          72
          76
          80
          84
          88
          92
          96
         100
         104
         108
         112
         116
         120
         124
         128
         132
         136
         140
         144
         148
         152
         156
         160
         164
         168
         172
         176
         180
         184
         188
         192
         196
         200
         204
         208
         212
         216
         220
         224
         228
         232
         236
         240
         244
         248
         252
         256
         260
         264
         268
         272
         276
         280
         284
         288
         292
         296
         300
         304
         308
         312
         316
         320
         324
         328
         332
         336
         340
         344
         348
         352
         356
         360
         364
         368
         372
         376
         380
         384
         388
         392
         396
         400
         404
         408
         412
         416
         420
         424
         428
         432
         436
         440
         444
         448
         452
         456
         460
         464
         468
         472
         476
         480
         484
         488
         492
         496
         500
         504
         508
         512
         516
         520
         524
         528
         532
         536
         540
         544
         548
         552
         556
         560
         564
         568
         572
         576
         580
         584
         588
         592
         596
         600
         604
         608
         612
         616
         620
         624
         628
         632
         636
         640
         644
         648
         652
         656
         660
         664
         668
         672
         676
         680
         684
         688
         692
         696
         700
         704
         708
         712
         716
         720
         724
         728
         732
         736
         740
         744
         748
         752
         756
         760
         764
         768
         772
         776
         780
         784
         788
         792
         796
         800
         804
         808
         812
         816
         820
         824
         828
         832
         836
         840
         844
         848
         852
         856
         860
         864
         868
         872
         876
         880
         884
         888
         892
         896
         900
         904
         908
         912
         916
         920
         924
         928
         932
         936
         940
         944
         948
         952
         956
         960
         964
         968
         972
         976
         980
         984
         988
         992
         996
        1000
        1004
        1008
        1012
        1016
        1020
        1024
        1028
        1032
        1036
        1040
        1044
        1048
        1052
        1056
        1060
        1064
        1068
        1072
        1076
        1080
        1084
        1088
        1092
        1096
        1100
        1104
        1108
        1112
        1116
        1120
        1124
        1128
        1132
        1136
        1140
        1144
        1148
        1152
        1156
        1160
        1164
        1168
        1172
        1176
        1180
        1184
        1188
        1192
        1196
        1200
        1204
        1208
        1212
        1216
        1220
        1224
        1228
        1232
        1236
        1240
        1244
        1248
        1252
        1256
        1260
        1264
        1268
        1272
        1276
        1280
        1284
        1288
        1292
        1296
        1300
        1304
        1308
        1312
        1316
        1320
        1324
        1328
        1332
        1336
        1340
        1344
        1348
        1352
        1356
        1360
        1364
        1368
        1372
        1376
        1380
        1384
        1388
        1392
        1396
        1400
        1404
        1408
        1412
        1416
        1420
        1424
        1428
        1432
        1436
        1440
        1444
        1448
        1452
        1456
        1460
        1464
        1468
        1472
        1476
        1480
        1484
        1488
        1492
        1496
        1500
        1504
        1508
        1512
        1516
        1520
        1524
        1528
        1532
        1536
        1540
        1544
        1548
        1552
        1556
        1560
        1564
        1568
        1572
        1576
        1580
        1584
        1588
        1592
        1596
        1600
        1604
        1608
        1612
        1616
        1620
        1624
        1628
        1632
        1636
        1640
        1644
        1648
        1652
        1656
        1660
        1664
        1668
        1672
        1676
        1680
        1684
        1688
        1692
        1696
        1700
        1704
        1708
        1712
        1716
        1720
        1724
        1728
        1732
        1736
        1740
        1744
        1748
        1752
        1756
        1760
        1764
        1768
        1772
        1776
        1780
        1784
        1788
        1792
        1796
        1800
        1804
        1808
        1812
        1816
        1820
        1824
        1828
        1832
        1836
        1840
        1844
        1848
        1852
        1856
        1860
        1864
        1868
        1872
        1876
        1880
        1884
        1888
        1892
        1896
        1900
        1904
        1908
        1912
        1916
        1920
        1924
        1928
        1932
        1936
        1940
        1944
        1948
        1952
        1956
        1960
        1964
        1968
        1972
        1976
        1980
        1984
        1988
        1992
        1996
        2000
        2004
        2008
        2012
        2016
        2020
        2024
        2028
        2032
        2036
        2040
        2044
        2048
        2052
        2056
        2060
        2064
        2068
        2072
        2076
        2080
        2084
        2088
        2092
        2096
        2100
        2104
        2108
        2112
        2116
        2120
        2124
        2128
        2132
        2136
        2140
        2144
        2148
        2152
        2156
        2160
        2164
        2168
        2172
        2176
        2180
        2184
        2188
        2192
        2196
        2200
        2204
        2208
        2212
        2216
        2220
        2224
        2228
        2232
        2236
        2240
        2244
        2248
        2252
        2256
        2260
        2264
        2268
        2272
        2276
        2280
        2284
        2288
        2292
        2296
        2300
        2304
        2308
        2312
        2316
        2320
        2324
        2328
        2332
        2336
        2340
        2344
        2348
        2352
        2356
        2360
        2364
        2368
        2372
        2376
        2380
        2384
        2388
        2392
        2396
        2400
        2404
        2408
        2412
        2416
        2420
        2424
        2428
        2432
        2436
        2440
        2444
        2448
        2452
        2456
        2460
        2464
        2468
        2472
        2476
        2480
        2484
        2488
        2492
        2496
        2500
        2504
        2508
        2512
        2516
        2520
        2524
        2528
        2532
        2536
        2540
        2544
        2548
        2552
        2556
        2560
        2564
        2568
        2572
        2576
        2580
        2584
        2588
        2592
        2596
        2600
        2604
        2608
        2612
        2616
        2620
        2624
        2628
        2632
        2636
        2640
        2644
        2648
        2652
        2656
        2660
        2664
        2668
        2672
        2676
        2680
        2684
        2688
        2692
        2696
        2700
        2704
        2708
        2712
        2716
        2720
        2724
        2728
        2732
        2736
        2740
        2744
        2748
        2752
        2756
        2760
        2764
        2768
        2772
        2776
        2780
        2784
        2788
        2792
        2796
        2800
        2804
        2808
        2812
        2816
        2820
        2824
        2828
        2832
        2836
        2840
        2844
        2848
        2852
        2856
        2860
        2864
        2868
        2872
        2876
        2880
        2884
        2888
        2892
        2896
        2900
        2904
        2908
        2912
        2916
        2920
        2924
        2928
        2932
        2936
        2940
        2944
        2948
        2952
        2956
        2960
        2964
        2968
        2972
        2976
        2980
        2984
        2988
        2992
        2996
        3000
        3004
        3008
        3012
        3016
        3020
        3024
        3028
        3032
        3036
        3040
        3044
        3048
        3052
        3056
        3060
        3064
        3068
        3072
        3076
        3080
        3084
        3088
        3092
        3096
        3100
        3104
        3108
        3112
        3116
        3120
        3124
        3128
        3132
        3136
        3140
        3144
        3148
        3152
        3156
        3160
        3164
        3168
        3172
        3176
        3180
        3184
        3188
        3192
        3196
        3200
        3204
        3208
        3212
        3216
        3220
        3224
        3228
        3232
        3236
        3240
        3244
        3248
        3252
        3256
        3260
        3264
        3268
        3272
        3276
        3280
        3284
        3288
        3292
        3296
        3300
        3304
        3308
        3312
        3316
        3320
        3324
        3328
        3332
        3336
        3340
        3344
        3348
        3352
        3356
        3360
        3364
        3368
        3372
        3376
        3380
        3384
        3388
        3392
        3396
        3400
        3404
        3408
        3412
        3416
        3420
        3424
        3428
        3432
        3436
        3440
        3444
        3448
        3452
        3456
        3460
        3464
        3468
        3472
        3476
        3480
        3484
        3488
        3492
        3496
        3500
        3504
        3508
        3512
        3516
        3520
        3524
        3528
        3532
        3536
        3540
        3544
        3548
        3552
        3556
        3560
        3564
        3568
        3572
        3576
        3580
        3584
        3588
        3592
        3596
        3600
        3604
        3608
        3612
        3616
        3620
        3624
        3628
        3632
        3636
        3640
        3644
        3648
        3652
        3656
        3660
        3664
        3668
        3672
        3676
        3680
        3684
        3688
        3692
        3696
        3700
        3704
        3708
        3712
        3716
        3720
        3724
        3728
        3732
        3736
        3740
        3744
        3748
        3752
        3756
        3760
        3764
        3768
        3772
        3776
        3780
        3784
        3788
        3792
        3796
        3800
        3804
        3808
        3812
        3816
        3820
        3824
        3828
        3832
        3836
        3840
        3844
        3848
        3852
        3856
        3860
        3864
        3868
        3872
        3876
        3880
        3884
        3888
        3892
        3896
        3900
        3904
        3908
        3912
        3916
        3920
        3924
        3928
        3932
        3936
        3940
        3944
        3948
        3952
        3956
        3960
        3964
        3968
        3972
        3976
        3980
        3984
        3988
        3992
        3996
        4000
        4004
        4008
        4012
        4016
        4020
        4024
        4028
        4032
        4036
        4040
        4044
        4048
        4052
        4056
        4060
        4064
        4068
        4072
        4076
        4080
        4084
        4088
        4092
        4096
 </DataArray>
 <DataArray  type="UInt8"  Name="types"  format="ascii">
 9
 9
 9
 9
 9
 9
 9
 9
 9
 9
 9
 9
 9
 9
 9
 9
 9
 9
 9
 9
 9
 9
 9
 9
 9
 9
 9
 9
 9
 9
 9
 9
 9
 9
 9
 9
 9
 9
 9
 9
 9
 9
 9
 9
 9
 9
 9
 9
 9
 9
 9
 9
 9
 9
 9
 9
 9
 9
 9
 9
 9
 9
 9
 9
 9
 9
 9
 9
 9
 9
 9
 9
 9
 9
 9
 9
 9
 9
 9
 9
 9
 9
 9
 9
 9
 9
 9
 9
 9
 9
 9
 9
 9
 9
 9
 9
 9
 9
 9
 9
 9
 9
 9
 9
 9
 9
 9
 9
 9
 9
 9
 9
 9
 9
 9
 9
 9
 9
 9
 9
 9
 9
 9
 9
 9
 9
 9
 9
 9
 9
 9
 9
 9
 9
 9
 9
 9
 9
 9
 9
 9
 9
 9
 9
 9
 9
 9
 9
 9
 9
 9
 9
 9
 9
 9
 9
 9
 9
 9
 9
 9
 9
 9
 9
 9
 9
 9
 9
 9
 9
 9
 9
 9
 9
 9
 9
 9
 9
 9
 9
 9
 9
 9
 9
 9
 9
 9
 9
 9
 9
 9
 9
 9
 9
 9
 9
 9
 9
 9
 9
 9
 9
 9
 9
 9
 9
 9
 9
 9
 9
 9
 9
 9
 9
 9
 9
 9
 9
 9
 9
 9
 9
 9
 9
 9
 9
 9
 9
 9
 9
 9
 9
 9
 9
 9
 9
 9
 9
 9
 9
 9
 9
 9
 9
 9
 9
 9
 9
 9
 9
 9
 9
 9
 9
 9
 9
 9
 9
 9
 9
 9
 9
 9
 9
 9
 9
 9
 9
 9
 9
 9
 9
 9
 9
 9
 9
 9
 9
 9
 9
 9
 9
 9
 9
 9
 9
 9
 9
 9
 9
 9
 9
 9
 9
 9
 9
 9
 9
 9
 9
 9
 9
 9
 9
 9
 9
 9
 9
 9
 9
 9
 9
 9
 9
 9
 9
 9
 9
 9
 9
 9
 9
 9
 9
 9
 9
 9
 9
 9
 9
 9
 9
 9
 9
 9
 9
 9
 9
 9
 9
 9
 9
 9
 9
 9
 9
 9
 9
 9
 9
 9
 9
 9
 9
 9
 9
 9
 9
 9
 9
 9
 9
 9
 9
 9
 9
 9
 9
 9
 9
 9
 9
 9
 9
 9
 9
 9
 9
 9
 9
 9
 9
 9
 9
 9
 9
 9
 9
 9
 9
 9
 9
 9
 9
 9
 9
 9
 9
 9
 9
 9
 9
 9
 9
 9
 9
 9
 9
 9
 9
 9
 9
 9
 9
 9
 9
 9
 9
 9
 9
 9
 9
 9
 9
 9
 9
 9
 9
 9
 9
 9
 9
 9
 9
 9
 9
 9
 9
 9
 9
 9
 9
 9
 9
 9
 9
 9
 9
 9
 9
 9
 9
 9
 9
 9
 9
 9
 9
 9
 9
 9
 9
 9
 9
 9
 9
 9
 9
 9
 9
 9
 9
 9
 9
 9
 9
 9
 9
 9
 9
 9
 9
 9
 9
 9
 9
 9
 9
 9
 9
 9
 9
 9
 9
 9
 9
 9
 9
 9
 9
 9
 9
 9
 9
 9
 9
 9
 9
 9
 9
 9
 9
 9
 9
 9
 9
 9
 9
 9
 9
 9
 9
 9
 9
 9
 9
 9
 9
 9
 9
 9
 9
 9
 9
 9
 9
 9
 9
 9
 9
 9
 9
 9
 9
 9
 9
 9
 9
 9
 9
 9
 9
 9
 9
 9
 9
 9
 9
 9
 9
 9
 9
 9
 9
 9
 9
 9
 9
 9
 9
 9
 9
 9
 9
 9
 9
 9
 9
 9
 9
 9
 9
 9
 9
 9
 9
 9
 9
 9
 9
 9
 9
 9
 9
 9
 9
 9
 9
 9
 9
 9
 9
 9
 9
 9
 9
 9
 9
 9
 9
 9
 9
 9
 9
 9
 9
 9
 9
 9
 9
 9
 9
 9
 9
 9
 9
 9
 9
 9
 9
 9
 9
 9
 9
 9
 9
 9
 9
 9
 9
 9
 9
 9
 9
 9
 9
 9
 9
 9
 9
 9
 9
 9
 9
 9
 9
 9
 9
 9
 9
 9
 9
 9
 9
 9
 9
 9
 9
 9
 9
 9
 9
 9
 9
 9
 9
 9
 9
 9
 9
 9
 9
 9
 9
 9
 9
 9
 9
 9
 9
 9
 9
 9
 9
 9
 9
 9
 9
 9
 9
 9
 9
 9
 9
 9
 9
 9
 9
 9
 9
 9
 9
 9
 9
 9
 9
 9
 9
 9
 9
 9
 9
 9
 9
 9
 9
 9
 9
 9
 9
 9
 9
 9
 9
 9
 9
 9
 9
 9
 9
 9
 9
 9
 9
 9
 9
 9
 9
 9
 9
 9
 9
 9
 9
 9
 9
 9
 9
 9
 9
 9
 9
 9
 9
 9
 9
 9
 9
 9
 9
 9
 9
 9
 9
 9
 9
 9
 9
 9
 9
 9
 9
 9
 9
 9
 9
 9
 9
 9
 9
 9
 9
 9
 9
 9
 9
 9
 9
 9
 9
 9
 9
 9
 9
 9
 9
 9
 9
 9
 9
 9
 9
 9
 9
 9
 9
 9
 9
 9
 9
 9
 9
 9
 9
 9
 9
 9
 9
 9
 9
 9
 9
 9
 9
 9
 9
 9
 9
 9
 9
 9
 9
 9
 9
 9
 9
 9
 9
 9
 9
 9
 9
 9
 9
 9
 9
 9
 9
 9
 9
 9
 9
 9
 9
 9
 9
 9
 9
 9
 9
 9
 9
 9
 9
 9
 9
 9
 9
 9
 9
 9
 9
 9
 9
 9
 9
 9
 9
 9
 9
 9
 9
 9
 9
 9
 9
 9
 9
 9
 9
 9
 9
 9
 9
 9
 9
 9
 9
 9
 9
 9
 9
 9
 9
 9
 9
 9
 9
 9
 9
 9
 9
 9
 9
 9
 9
 9
 9
 9
 9
 9
 9
 9
 9
 9
 9
 9
 9
 9
 9
 9
 9
 9
 9
 9
 9
 9
 9
 9
 9
 9
 9
 9
 9
 9
 9
 9
 9
 9
 9
 9
 9
 9
 9
 9
 9
 9
 9
 9
 9
 9
 9
 9
 9
 9
 9
 9
 9
 9
 9
 9
 9
 9
 9
 9
 9
 9
 9
 9
 9
 9
 9
 9
 9
 9
 9
 9
 9
 9
 9
 9
 9
 9
 9
 9
 9
 9
 9
 9
 9
 9
 9
 9
 9
 9
 9
 9
 9
 9
 9
 9
 9
 9
 9
 </DataArray>
 </Cells> 
 <PointData>
 <DataArray  type="Float64" Name="disp" NumberOfComponents="3" format="ascii">
   6.4297177392819066E-002   6.2521584475030229E-002   0.0000000000000000     
   6.7633853611699657E-002   6.7985612107316157E-002   0.0000000000000000     
   7.0815430521296047E-002   7.3613544079761645E-002   0.0000000000000000     
   7.3841908121608194E-002   7.9405380392366651E-002   0.0000000000000000     
   7.6713286412636111E-002   8.5361121045131189E-002   0.0000000000000000     
   5.9860966209622390E-002   6.1865792211364116E-002   0.0000000000000000     
   6.2811540422790108E-002   6.7276518149023773E-002   0.0000000000000000     
   6.5655374996376387E-002   7.2872852033576574E-002   0.0000000000000000     
   6.8392469930381242E-002   7.8654793865022526E-002   0.0000000000000000     
   7.1022825224804645E-002   8.4622343643361631E-002   0.0000000000000000     
   5.5317300563329008E-002   6.1109592767112877E-002   0.0000000000000000     
   5.7959628264916095E-002   6.6518862570369763E-002   0.0000000000000000     
   6.0527119576614039E-002   7.2120965636979811E-002   0.0000000000000000     
   6.3019774498422887E-002   7.7915901966943035E-002   0.0000000000000000     
   6.5437593030342592E-002   8.3903671560259421E-002   0.0000000000000000     
   5.0666180453938899E-002   6.0252986142276518E-002   0.0000000000000000     
   5.3078117138077599E-002   6.5712645371354142E-002   0.0000000000000000     
   5.5430664262009002E-002   7.1357884889971357E-002   0.0000000000000000     
   5.7723821825733115E-002   7.7188704698128149E-002   0.0000000000000000     
   5.9957589829249924E-002   8.3205104795824505E-002   0.0000000000000000     
   4.5907605881452075E-002   5.9295972336855032E-002   0.0000000000000000     
   4.8167007042274654E-002   6.4857866551976923E-002   0.0000000000000000     
   5.0366009052561292E-002   7.0583609792551197E-002   0.0000000000000000     
   5.2504611912311962E-002   7.6473202058577883E-002   0.0000000000000000     
   5.4582815621526684E-002   8.2526643350056952E-002   0.0000000000000000     
   7.6713286412636111E-002   8.5361121045131189E-002   0.0000000000000000     
   7.9453042616367639E-002   9.1475039182084217E-002   0.0000000000000000     
   8.2084653954790560E-002   9.7741407947254708E-002   0.0000000000000000     
   8.4608120427904873E-002  0.10416022734064267        0.0000000000000000     
   8.7023442035710608E-002  0.11073149736224809        0.0000000000000000     
   7.1022825224804645E-002   8.4622343643361631E-002   0.0000000000000000     
   7.3553019300018077E-002   9.0758931289675854E-002   0.0000000000000000     
   7.5989630576392977E-002   9.7047986725047150E-002   0.0000000000000000     
   7.8332659053929346E-002  0.10348950994947553        0.0000000000000000     
   8.0582104732627169E-002  0.11008350096296100        0.0000000000000000     
   6.5437593030342592E-002   8.3903671560259421E-002   0.0000000000000000     
   6.7776580687101268E-002   9.0064161414461885E-002   0.0000000000000000     
   7.0032742983427015E-002   9.6377258527083384E-002   0.0000000000000000     
   7.2206079919319835E-002  0.10284296289812389        0.0000000000000000     
   7.4296591494779712E-002  0.10946127452758345        0.0000000000000000     
   5.9957589829249924E-002   8.3205104795824505E-002   0.0000000000000000     
   6.2123726777617190E-002   8.9390729556442311E-002   0.0000000000000000     
   6.4213991175892660E-002   9.5729223353363396E-002   0.0000000000000000     
   6.6228383024076354E-002  0.10222058618658776        0.0000000000000000     
   6.8166902322168238E-002  0.10886481805611538        0.0000000000000000     
   5.4582815621526684E-002   8.2526643350056952E-002   0.0000000000000000     
   5.6594457571565865E-002   8.8738635715617159E-002   0.0000000000000000     
   5.8533375153789931E-002   9.5103881203887214E-002   0.0000000000000000     
   6.0399568368198903E-002  0.10162237981486712        0.0000000000000000     
   6.2193037214792746E-002  0.10829413154855685        0.0000000000000000     
   8.7023442035710608E-002  0.11073149736224809        0.0000000000000000     
   8.9335635515363152E-002  0.11744693965026053        0.0000000000000000     
   9.1549717604017922E-002  0.12429827584286951        0.0000000000000000     
   9.3665688301674904E-002  0.13128550594007507        0.0000000000000000     
   9.5683547608334113E-002  0.13840862994187719        0.0000000000000000     
   8.0582104732627169E-002  0.11008350096296100        0.0000000000000000     
   8.2739398143173604E-002  0.11682231405664908        0.0000000000000000     
   8.4805969816255752E-002  0.12369830352168533        0.0000000000000000     
   8.6781819751873615E-002  0.13071146935806974        0.0000000000000000     
   8.8666947950027220E-002  0.13786181156580229        0.0000000000000000     
   7.4296591494779712E-002  0.10946127452758345        0.0000000000000000     
   7.6303708071764509E-002  0.11622468775305657        0.0000000000000000     
   7.8226860012232072E-002  0.12312569691213786        0.0000000000000000     
   8.0066047316182415E-002  0.13016430200482731        0.0000000000000000     
   8.1821269983615511E-002  0.13734050303112494        0.0000000000000000     
   6.8166902322168238E-002  0.10886481805611538        0.0000000000000000     
   7.0028565301135909E-002  0.11565406073948296        0.0000000000000000     
   7.1812388191946908E-002  0.12258045601422708        0.0000000000000000     
   7.3518370994601276E-002  0.12964400388034786        0.0000000000000000     
   7.5146513709098986E-002  0.13684470433784512        0.0000000000000000     
   6.2193037214792746E-002  0.10829413154855685        0.0000000000000000     
   6.3913969831287762E-002  0.11511043301592824        0.0000000000000000     
   6.5562554355400260E-002  0.12206258082795304        0.0000000000000000     
   6.7138790787130226E-002  0.12915057498463128        0.0000000000000000     
   6.8642679126477632E-002  0.13637441548596294        0.0000000000000000     
   9.5683547608334113E-002  0.13840862994187719        0.0000000000000000     
   9.7605756972512489E-002  0.14565394972562151        0.0000000000000000     
   9.9434777842726960E-002  0.15300776716865361        0.0000000000000000     
  0.10117061021897751       0.16047008227097356        0.0000000000000000     
  0.10281325410126416       0.16804089503258129        0.0000000000000000     
   8.8666947950027220E-002  0.13786181156580229        0.0000000000000000     
   9.0462908397895281E-002  0.14513383831222545        0.0000000000000000     
   9.2171255082656514E-002  0.15251205776468180        0.0000000000000000     
   9.3791988004310947E-002  0.15999646992317121        0.0000000000000000     
   9.5325107162858538E-002  0.16758707478769372        0.0000000000000000     
   8.1821269983615511E-002  0.13734050303112494        0.0000000000000000     
   8.3493278541047211E-002  0.14463812990428099        0.0000000000000000     
   8.5082823514993328E-002  0.15204101253754573        0.0000000000000000     
   8.6589904905453888E-002  0.15954915093091915        0.0000000000000000     
   8.8014522712428878E-002  0.16716254508440126        0.0000000000000000     
   7.5146513709098986E-002  0.13684470433784512        0.0000000000000000     
   7.6696867401968266E-002  0.14416682450178805        0.0000000000000000     
   7.8169483139737414E-002  0.15159463148724545        0.0000000000000000     
   7.9564360922406360E-002  0.15912812529421738        0.0000000000000000     
   8.0881500749975174E-002  0.16676730592270383        0.0000000000000000     
   6.8642679126477632E-002  0.13637441548596294        0.0000000000000000     
   7.0073674980658487E-002  0.14371992210474666        0.0000000000000000     
   7.1431233956888746E-002  0.15117291461378099        0.0000000000000000     
   7.2715356055168379E-002  0.15873339301306597        0.0000000000000000     
   7.3926041275497428E-002  0.16640135730260161        0.0000000000000000     
  0.10281325410126416       0.16804089503258129        0.0000000000000000     
  0.10436586644608807       0.17571035045209260        0.0000000000000000     
  0.10583160420995041       0.18346859352812314        0.0000000000000000     
  0.10721046739285121       0.19131562426067295        0.0000000000000000     
  0.10850245599479043       0.19925144264974204        0.0000000000000000     
   9.5325107162858538E-002  0.16758707478769372        0.0000000000000000     
   9.6772652167158718E-002  0.17527641122137025        0.0000000000000000     
   9.8136662626070834E-002  0.18305701808732172        0.0000000000000000     
   9.9417138539594926E-002  0.19092889538554808        0.0000000000000000     
  0.10061407990773097       0.19889204311604938        0.0000000000000000     
   8.8014522712428878E-002  0.16716254508440126        0.0000000000000000     
   8.9357749287693689E-002  0.17487466592918341        0.0000000000000000     
   9.0620656983023698E-002  0.18267898439645708        0.0000000000000000     
   9.1803245798418948E-002  0.19057550048622213        0.0000000000000000     
   9.2905515733879382E-002  0.19856421419847869        0.0000000000000000     
   8.0881500749975174E-002  0.16676730592270383        0.0000000000000000     
   8.2121157807692982E-002  0.17450511457553208        0.0000000000000000     
   8.3283587280809007E-002  0.18233449245552913        0.0000000000000000     
   8.4368789169323222E-002  0.19025543956269508        0.0000000000000000     
   8.5376763473235640E-002  0.19826795589702995        0.0000000000000000     
   7.3926041275497428E-002  0.16640135730260161        0.0000000000000000     
   7.5062877727156627E-002  0.17416775716041616        0.0000000000000000     
   7.6125453519426761E-002  0.18202354226453793        0.0000000000000000     
   7.7113768652307790E-002  0.18996871261496698        0.0000000000000000     
   7.8027823125799728E-002  0.19800326821170319        0.0000000000000000     
  0.10850245599479043       0.19925144264974204        0.0000000000000000     
  0.10971290116337046       0.20727247581692365        0.0000000000000000     
  0.11084713404619365       0.21537515088381110        0.0000000000000000     
  0.11190515464326001       0.22355946785040426        0.0000000000000000     
  0.11288696295456954       0.23182542671670328        0.0000000000000000     
  0.10061407990773097       0.19889204311604938        0.0000000000000000     
  0.10173248048255486       0.20693939375749471        0.0000000000000000     
  0.10277733401614245       0.21506387978855324        0.0000000000000000     
  0.10374864050849375       0.22326550120922506        0.0000000000000000     
  0.10464639995960877       0.23154425801950998        0.0000000000000000     
   9.2905515733879382E-002  0.19856421419847869        0.0000000000000000     
   9.3931549302183573E-002  0.20663632846655849        0.0000000000000000     
   9.4885429016110079E-002  0.21478304622379332        0.0000000000000000     
   9.5767154875658844E-002  0.22300436747018321        0.0000000000000000     
   9.6576726880829911E-002  0.23130029220572815        0.0000000000000000     
   8.5376763473235640E-002  0.19826795589702995        0.0000000000000000     
   8.6310107622256604E-002  0.20636327994411496        0.0000000000000000     
   8.7171419046096488E-002  0.21453265018953124        0.0000000000000000     
   8.7960697744755290E-002  0.22277606663327887        0.0000000000000000     
   8.8677943718233010E-002  0.23109352927535781        0.0000000000000000     
   7.8027823125799728E-002  0.19800326821170319        0.0000000000000000     
   7.8868155442773938E-002  0.20612024819016408        0.0000000000000000     
   7.9635304106101729E-002  0.21431269168576700        0.0000000000000000     
   8.0329269115783100E-002  0.22258059869851199        0.0000000000000000     
   8.0950050471818066E-002  0.23092396922839897        0.0000000000000000     
  0.11288696295456954       0.23182542671670328        0.0000000000000000     
  0.11382126265753868       0.24018956232074060        0.0000000000000000     
  0.11473675742958389       0.24866840950054880        0.0000000000000000     
  0.11563344727070518       0.25726196825612785        0.0000000000000000     
  0.11651133218090251       0.26597023858747781        0.0000000000000000     
  0.10464639995960877       0.23154425801950998        0.0000000000000000     
  0.10547583754191980       0.23992381865080714        0.0000000000000000     
  0.10624217842785932       0.24842785153451560        0.0000000000000000     
  0.10694542261742722       0.25705635667063531        0.0000000000000000     
  0.10758557011062353       0.26580933405916629        0.0000000000000000     
   9.6576726880829911E-002  0.23130029220572815        0.0000000000000000     
   9.7304974053014512E-002  0.23969752467077468        0.0000000000000000     
   9.7942725413603812E-002  0.24822276910566946        0.0000000000000000     
   9.8489980962597881E-002  0.25687602551041239        0.0000000000000000     
   9.8946740699996663E-002  0.26565729388500353        0.0000000000000000     
   8.8677943718233010E-002  0.23109352927535781        0.0000000000000000     
   8.9308672190822697E-002  0.23951068038064330        0.0000000000000000     
   8.9838398386817439E-002  0.24805316221401036        0.0000000000000000     
   9.0267122306217154E-002  0.25672097477545913        0.0000000000000000     
   9.0594843949021925E-002  0.26551411806498948        0.0000000000000000     
   8.0950050471818066E-002  0.23092396922839897        0.0000000000000000     
   8.1486931955344455E-002  0.23936328578041280        0.0000000000000000     
   8.1929197347500135E-002  0.24791903085953831        0.0000000000000000     
   8.2276846648285093E-002  0.25659120446577549        0.0000000000000000     
   8.2529879857699315E-002  0.26537980659912425        0.0000000000000000     
  0.11651133218090251       0.26597023858747781        0.0000000000000000     
  0.11731058117463627       0.27495792626619697        0.0000000000000000     
  0.11797136326636679       0.28438973706388360        0.0000000000000000     
  0.11849367845609404       0.29426567098053780        0.0000000000000000     
  0.11887752674381807       0.30458572801615957        0.0000000000000000     
  0.10758557011062353       0.26580933405916629        0.0000000000000000     
  0.10814359539859184       0.27481892896912652        0.0000000000000000     
  0.10860047297247566       0.28421728666953405        0.0000000000000000     
  0.10895620283227501       0.29400440716038884        0.0000000000000000     
  0.10921078497798989       0.30418029044169098        0.0000000000000000     
   9.8946740699996663E-002  0.26565729388500353        0.0000000000000000     
   9.9324063536828433E-002  0.27466481850022756        0.0000000000000000     
   9.9633008384121383E-002  0.28399684362686917        0.0000000000000000     
   9.9873575241875512E-002  0.29365336926492852        0.0000000000000000     
  0.10004576411009083       0.30363439541440534        0.0000000000000000     
   9.0594843949021925E-002  0.26551411806498948        0.0000000000000000     
   9.0851985589346096E-002  0.27449559485949998        0.0000000000000000     
   9.1068969501303942E-002  0.28372840793588905        0.0000000000000000     
   9.1245795684895561E-002  0.29321255729415657        0.0000000000000000     
   9.1382464140120898E-002  0.30294804293430272        0.0000000000000000     
   8.2529879857699315E-002  0.26537980659912425        0.0000000000000000     
   8.2727361556144782E-002  0.27431125804694390        0.0000000000000000     
   8.2908356324023394E-002  0.28341197959659359        0.0000000000000000     
   8.3072864161335164E-002  0.29268197124807327        0.0000000000000000     
   8.3220885068080092E-002  0.30212123300138305        0.0000000000000000     
   4.5907605881452075E-002   5.9295972336855032E-002   0.0000000000000000     
   4.8167007042274654E-002   6.4857866551976923E-002   0.0000000000000000     
   5.0366009052561292E-002   7.0583609792551197E-002   0.0000000000000000     
   5.2504611912311962E-002   7.6473202058577883E-002   0.0000000000000000     
   5.4582815621526684E-002   8.2526643350056952E-002   0.0000000000000000     
   4.1250188160750288E-002   5.8429224574909212E-002   0.0000000000000000     
   4.3376929774869968E-002   6.4080368300483831E-002   0.0000000000000000     
   4.5437705584533528E-002   6.9876467519197377E-002   0.0000000000000000     
   4.7432515589740966E-002   7.5817522231049844E-002   0.0000000000000000     
   4.9361359790492290E-002   8.1903532436041274E-002   0.0000000000000000     
   3.6902538606715288E-002   5.7843416080499845E-002   0.0000000000000000     
   3.8858517133226238E-002   6.3505992805120648E-002   0.0000000000000000     
   4.0750305494188364E-002   6.9314785244387944E-002   0.0000000000000000     
   4.2577903689601682E-002   7.5269793398301713E-002   0.0000000000000000     
   4.4341311719466203E-002   8.1371017266862009E-002   0.0000000000000000     
   3.2864657219347088E-002   5.7538546853626922E-002   0.0000000000000000     
   3.4611769117343455E-002   6.3134740065887374E-002   0.0000000000000000     
   3.6303808781525816E-002   6.8898562968122884E-002   0.0000000000000000     
   3.7940776211894130E-002   7.4830015560333474E-002   0.0000000000000000     
   3.9522671408448423E-002   8.0929097842519171E-002   0.0000000000000000     
   2.9136543998645667E-002   5.7514616894290466E-002   0.0000000000000000     
   3.0636685727221655E-002   6.2966610082783966E-002   0.0000000000000000     
   3.2098215446545862E-002   6.8627800690402183E-002   0.0000000000000000     
   3.3521133156618296E-002   7.4498188717145100E-002   0.0000000000000000     
   3.4905438857438950E-002   8.0577774163012733E-002   0.0000000000000000     
   5.4582815621526684E-002   8.2526643350056952E-002   0.0000000000000000     
   5.6594457571565865E-002   8.8738635715617159E-002   0.0000000000000000     
   5.8533375153789931E-002   9.5103881203887214E-002   0.0000000000000000     
   6.0399568368198903E-002  0.10162237981486712        0.0000000000000000     
   6.2193037214792746E-002  0.10829413154855685        0.0000000000000000     
   4.9361359790492290E-002   8.1903532436041274E-002   0.0000000000000000     
   5.1222023008336823E-002   8.8139019767170909E-002   0.0000000000000000     
   5.3012290064823907E-002   9.4528505857438008E-002   0.0000000000000000     
   5.4732160959953542E-002  0.10107199070684258        0.0000000000000000     
   5.6381635693725722E-002  0.10776947431538465        0.0000000000000000     
   4.4341311719466203E-002   8.1371017266862009E-002   0.0000000000000000     
   4.6039673027319629E-002   8.7623021586288014E-002   0.0000000000000000     
   4.7672131056699679E-002   9.4030371092798923E-002   0.0000000000000000     
   4.9238685807606361E-002  0.10059306578639479        0.0000000000000000     
   5.0739337280039674E-002  0.10731110566707558        0.0000000000000000     
   3.9522671408448423E-002   8.0929097842519171E-002   0.0000000000000000     
   4.1047407628514256E-002   8.7190641172968486E-002   0.0000000000000000     
   4.2512898129417241E-002   9.3609476909970013E-002   0.0000000000000000     
   4.3919142911157352E-002  0.10018560505352372        0.0000000000000000     
   4.5266141973734596E-002  0.10691902560362966        0.0000000000000000     
   3.4905438857438950E-002   8.0577774163012733E-002   0.0000000000000000     
   3.6245226811920737E-002   8.6841878527212341E-002   0.0000000000000000     
   3.7534591282976593E-002   9.3265823308951237E-002   0.0000000000000000     
   3.8773532270606516E-002   9.9849608508229409E-002   0.0000000000000000     
   3.9962049774810486E-002  0.10659323412504684        0.0000000000000000     
   6.2193037214792746E-002  0.10829413154855685        0.0000000000000000     
   6.3913969831287762E-002  0.11511043301592824        0.0000000000000000     
   6.5562554355400260E-002  0.12206258082795304        0.0000000000000000     
   6.7138790787130226E-002  0.12915057498463128        0.0000000000000000     
   6.8642679126477632E-002  0.13637441548596294        0.0000000000000000     
   5.6381635693725722E-002  0.10776947431538465        0.0000000000000000     
   5.7962411716202179E-002  0.11461120998819596        0.0000000000000000     
   5.9476186477444626E-002  0.12158745103040831        0.0000000000000000     
   6.0922959977453069E-002  0.12869819744202163        0.0000000000000000     
   6.2302732216227508E-002  0.13594344922303603        0.0000000000000000     
   5.0739337280039674E-002  0.10731110566707558        0.0000000000000000     
   5.2176381009861203E-002  0.11417379706208969        0.0000000000000000     
   5.3552112532932551E-002  0.12117044629868548        0.0000000000000000     
   5.4866531849253705E-002  0.12830105337686296        0.0000000000000000     
   5.6119638958824672E-002  0.13556561829662211        0.0000000000000000     
   4.5266141973734596E-002  0.10691902560362966        0.0000000000000000     
   4.6555877712264847E-002  0.11379819423760937        0.0000000000000000     
   4.7790332521864036E-002  0.12081156663278457        0.0000000000000000     
   4.8969506402532115E-002  0.12795914278915518        0.0000000000000000     
   5.0093399354269097E-002  0.13524092270672117        0.0000000000000000     
   3.9962049774810486E-002  0.10659323412504684        0.0000000000000000     
   4.1100901823413132E-002  0.11348440151475506        0.0000000000000000     
   4.2190846444239066E-002  0.12051081203270554        0.0000000000000000     
   4.3231883637288290E-002  0.12767246567889826        0.0000000000000000     
   4.4224013402560804E-002  0.13496936245333330        0.0000000000000000     
   6.8642679126477632E-002  0.13637441548596294        0.0000000000000000     
   7.0073674980658487E-002  0.14371992210474666        0.0000000000000000     
   7.1431233956888746E-002  0.15117291461378099        0.0000000000000000     
   7.2715356055168379E-002  0.15873339301306597        0.0000000000000000     
   7.3926041275497428E-002  0.16640135730260161        0.0000000000000000     
   6.2302732216227508E-002  0.13594344922303603        0.0000000000000000     
   6.3614460207063517E-002  0.14331070573505605        0.0000000000000000     
   6.4857100963256628E-002  0.15078746633968637        0.0000000000000000     
   6.6030654484806869E-002  0.15837373103692698        0.0000000000000000     
   6.7135120771714227E-002  0.16606949982677785        0.0000000000000000     
   5.6119638958824672E-002  0.13556561829662211        0.0000000000000000     
   5.7309982011129038E-002  0.14295245841461546        0.0000000000000000     
   5.8436109155650416E-002  0.15044989108749557        0.0000000000000000     
   5.9498020392388787E-002  0.15805791631526239        0.0000000000000000     
   6.0495715721344177E-002  0.16577653409791596        0.0000000000000000     
   5.0093399354269097E-002  0.13524092270672117        0.0000000000000000     
   5.1160240392855064E-002  0.14264518014342495        0.0000000000000000     
   5.2168258534070075E-002  0.15016018885720864        0.0000000000000000     
   5.3117453777914152E-002  0.15778594884807237        0.0000000000000000     
   5.4007826124387266E-002  0.16552246011601604        0.0000000000000000     
   4.4224013402560804E-002  0.13496936245333330        0.0000000000000000     
   4.5165235352241581E-002  0.14238887092148442        0.0000000000000000     
   4.6053549098515625E-002  0.14991835964882558        0.0000000000000000     
   4.6888954641382929E-002  0.15755782863535678        0.0000000000000000     
   4.7671451980843493E-002  0.16530727788107796        0.0000000000000000     
   7.3926041275497428E-002  0.16640135730260161        0.0000000000000000     
   7.5062877727156627E-002  0.17416775716041616        0.0000000000000000     
   7.6125453519426761E-002  0.18202354226453793        0.0000000000000000     
   7.7113768652307790E-002  0.18996871261496698        0.0000000000000000     
   7.8027823125799728E-002  0.19800326821170319        0.0000000000000000     
   6.7135120771714227E-002  0.16606949982677785        0.0000000000000000     
   6.8169579164735830E-002  0.17386359014570724        0.0000000000000000     
   6.9133109004628837E-002  0.18174481943018334        0.0000000000000000     
   7.0025710291393220E-002  0.18971318768020612        0.0000000000000000     
   7.0847383025028993E-002  0.19776869489577567        0.0000000000000000     
   6.0495715721344177E-002  0.16577653409791596        0.0000000000000000     
   6.1427932239081863E-002  0.17359360999327672        0.0000000000000000     
   6.2293407042167195E-002  0.18149700955916506        0.0000000000000000     
   6.3092140130600133E-002  0.18948673279558104        0.0000000000000000     
   6.3824131504380696E-002  0.19756277970252456        0.0000000000000000     
   5.4007826124387266E-002  0.16552246011601604        0.0000000000000000     
   5.4837936950194725E-002  0.17335781670312467        0.0000000000000000     
   5.5606347632041794E-002  0.18128011265148314        0.0000000000000000     
   5.6313058169928508E-002  0.18928934796109159        0.0000000000000000     
   5.6958068563854852E-002  0.19738552263194997        0.0000000000000000     
   4.7671451980843493E-002  0.16530727788107796        0.0000000000000000     
   4.8399593298074389E-002  0.17315621027525097        0.0000000000000000     
   4.9071930774252676E-002  0.18109412870713762        0.0000000000000000     
   4.9688464409378366E-002  0.18912103317673790        0.0000000000000000     
   5.0249194203451454E-002  0.19723692368405174        0.0000000000000000     
   7.8027823125799728E-002  0.19800326821170319        0.0000000000000000     
   7.8868155442773938E-002  0.20612024819016408        0.0000000000000000     
   7.9635304106101729E-002  0.21431269168576700        0.0000000000000000     
   8.0329269115783100E-002  0.22258059869851199        0.0000000000000000     
   8.0950050471818066E-002  0.23092396922839897        0.0000000000000000     
   7.0847383025028993E-002  0.19776869489577567        0.0000000000000000     
   7.1596716837259558E-002  0.20590629701942967        0.0000000000000000     
   7.2272301359808347E-002  0.21412094999370573        0.0000000000000000     
   7.2874136592675345E-002  0.22241265381860403        0.0000000000000000     
   7.3402222535860567E-002  0.23078140849412443        0.0000000000000000     
   6.3824131504380696E-002  0.19756277970252456        0.0000000000000000     
   6.4486815879237422E-002  0.20572049024663525        0.0000000000000000     
   6.5077627970898916E-002  0.21395520439455254        0.0000000000000000     
   6.5596567779365095E-002  0.22226692214627652        0.0000000000000000     
   6.6043635304636028E-002  0.23065564350180712        0.0000000000000000     
   5.6958068563854852E-002  0.19738552263194997        0.0000000000000000     
   5.7538452568707564E-002  0.20556282787178096        0.0000000000000000     
   5.8051283939373401E-002  0.21381545488830750        0.0000000000000000     
   5.8496562675852369E-002  0.22214340368152946        0.0000000000000000     
   5.8874288778144462E-002  0.23054667425144693        0.0000000000000000     
   5.0249194203451454E-002  0.19723692368405174        0.0000000000000000     
   5.0751626905669950E-002  0.20543330989486677        0.0000000000000000     
   5.1193269265231843E-002  0.21370170147497045        0.0000000000000000     
   5.1574121282137148E-002  0.22204209842436287        0.0000000000000000     
   5.1894182956385856E-002  0.23045450074304394        0.0000000000000000     
   8.0950050471818066E-002  0.23092396922839897        0.0000000000000000     
   8.1486931955344455E-002  0.23936328578041280        0.0000000000000000     
   8.1929197347500135E-002  0.24791903085953831        0.0000000000000000     
   8.2276846648285093E-002  0.25659120446577549        0.0000000000000000     
   8.2529879857699315E-002  0.26537980659912425        0.0000000000000000     
   7.3402222535860567E-002  0.23078140849412443        0.0000000000000000     
   7.3853261188204997E-002  0.23924047151907160        0.0000000000000000     
   7.4223954548549562E-002  0.24780310039225006        0.0000000000000000     
   7.4514302616894332E-002  0.25646929511365979        0.0000000000000000     
   7.4724305393239251E-002  0.26523905568330075        0.0000000000000000     
   6.6043635304636028E-002  0.23065564350180712        0.0000000000000000     
   6.6421167731029504E-002  0.23912736824560785        0.0000000000000000     
   6.6731502242863353E-002  0.24768809616214227        0.0000000000000000     
   6.6974638840137574E-002  0.25633782725141036        0.0000000000000000     
   6.7150577522852167E-002  0.26507656151341208        0.0000000000000000     
   5.8874288778144462E-002  0.23054667425144693        0.0000000000000000     
   5.9190651583818053E-002  0.23902397596002156        0.0000000000000000     
   5.9451840430441508E-002  0.24757401816921495        0.0000000000000000     
   5.9657855318014846E-002  0.25619680087902719        0.0000000000000000     
   5.9808696246538048E-002  0.26489232408945818        0.0000000000000000     
   5.1894182956385856E-002  0.23045450074304394        0.0000000000000000     
   5.2161712746570596E-002  0.23893029466231269        0.0000000000000000     
   5.2384969111284027E-002  0.24746086641346809        0.0000000000000000     
   5.2563952050526129E-002  0.25604621599651023        0.0000000000000000     
   5.2698661564296916E-002  0.26468634341143904        0.0000000000000000     
   8.2529879857699315E-002  0.26537980659912425        0.0000000000000000     
   8.2727361556144782E-002  0.27431125804694390        0.0000000000000000     
   8.2908356324023394E-002  0.28341197959659359        0.0000000000000000     
   8.3072864161335164E-002  0.29268197124807327        0.0000000000000000     
   8.3220885068080092E-002  0.30212123300138305        0.0000000000000000     
   7.4724305393239251E-002  0.26523905568330075        0.0000000000000000     
   7.4894968304805118E-002  0.27410613856833455        0.0000000000000000     
   7.5067296778812659E-002  0.28306430023592244        0.0000000000000000     
   7.5241290815261902E-002  0.29211354068606454        0.0000000000000000     
   7.5416950414152834E-002  0.30125385991876091        0.0000000000000000     
   6.7150577522852167E-002  0.26507656151341208        0.0000000000000000     
   6.7299582702907701E-002  0.27387456692944717        0.0000000000000000     
   6.7461918792204770E-002  0.28270211148081531        0.0000000000000000     
   6.7637585790743346E-002  0.29155919516751649        0.0000000000000000     
   6.7826583698523471E-002  0.30044581798955067        0.0000000000000000     
   5.9808696246538048E-002  0.26489232408945818        0.0000000000000000     
   5.9941204750452531E-002  0.27361654313028183        0.0000000000000000     
   6.0092222364199699E-002  0.28232541333127215        0.0000000000000000     
   6.0261749087779530E-002  0.29101893469242907        0.0000000000000000     
   6.0449784921192046E-002  0.29969710721375248        0.0000000000000000     
   5.2698661564296916E-002  0.26468634341143904        0.0000000000000000     
   5.2819834447439609E-002  0.27333206717083863        0.0000000000000000     
   5.2958207494797446E-002  0.28193420578729295        0.0000000000000000     
   5.3113780706370427E-002  0.29049275926080220        0.0000000000000000     
   5.3286554082158544E-002  0.29900772759136623        0.0000000000000000     
   2.9136543998645667E-002   5.7514616894290466E-002   0.0000000000000000     
   3.0636685727221655E-002   6.2966610082783966E-002   0.0000000000000000     
   3.2098215446545862E-002   6.8627800690402183E-002   0.0000000000000000     
   3.3521133156618296E-002   7.4498188717145100E-002   0.0000000000000000     
   3.4905438857438950E-002   8.0577774163012733E-002   0.0000000000000000     
   2.5527226128813984E-002   5.7524772402066868E-002   0.0000000000000000     
   2.6779915842075838E-002   6.2838367651695815E-002   0.0000000000000000     
   2.8010238407739200E-002   6.8400944459918039E-002   0.0000000000000000     
   2.9218193825804060E-002   7.4212502826733515E-002   0.0000000000000000     
   3.0403782096270433E-002   8.0273042752142254E-002   0.0000000000000000     
   2.1845730794054968E-002   5.7322159576532548E-002   0.0000000000000000     
   2.2888108341121038E-002   6.2586777568508251E-002   0.0000000000000000     
   2.3916590583596496E-002   6.8116440325362598E-002   0.0000000000000000     
   2.4931177521481329E-002   7.3911147847095626E-002   0.0000000000000000     
   2.5931869154775539E-002   7.9970900133707321E-002   0.0000000000000000     
   1.8092057994368617E-002   5.6906778417687515E-002   0.0000000000000000     
   1.8961263224357268E-002   6.2211839833221247E-002   0.0000000000000000     
   1.9817271974117756E-002   6.7774288286735887E-002   0.0000000000000000     
   2.0660084243650092E-002   7.3594123778231435E-002   0.0000000000000000     
   2.1489700032954261E-002   7.9671346307707891E-002   0.0000000000000000     
   1.4266207729754942E-002   5.6278628925531746E-002   0.0000000000000000     
   1.4999380491784516E-002   6.1713554445834817E-002   0.0000000000000000     
   1.5712282579302982E-002   6.7374488344037878E-002   0.0000000000000000     
   1.6404913992310342E-002   7.3261430620140927E-002   0.0000000000000000     
   1.7077274730806599E-002   7.9374381274143979E-002   0.0000000000000000     
   3.4905438857438950E-002   8.0577774163012733E-002   0.0000000000000000     
   3.6245226811920737E-002   8.6841878527212341E-002   0.0000000000000000     
   3.7534591282976593E-002   9.3265823308951237E-002   0.0000000000000000     
   3.8773532270606516E-002   9.9849608508229409E-002   0.0000000000000000     
   3.9962049774810486E-002  0.10659323412504684        0.0000000000000000     
   3.0403782096270433E-002   8.0273042752142254E-002   0.0000000000000000     
   3.1557633799491454E-002   8.6539108077518592E-002   0.0000000000000000     
   3.2670379515820275E-002   9.2967242644236864E-002   0.0000000000000000     
   3.3742019245256889E-002   9.9557446452297041E-002   0.0000000000000000     
   3.4772552987801297E-002  0.10630971950169917        0.0000000000000000     
   2.5931869154775539E-002   7.9970900133707321E-002   0.0000000000000000     
   2.6909131813178805E-002   8.6244704252386284E-002   0.0000000000000000     
   2.7853431826390801E-002   9.2681567270321161E-002   0.0000000000000000     
   2.8764769194411528E-002   9.9281489187511965E-002   0.0000000000000000     
   2.9643143917240992E-002  0.10604447000395863        0.0000000000000000     
   2.1489700032954261E-002   7.9671346307707891E-002   0.0000000000000000     
   2.2299720852982780E-002   8.5958667051815402E-002   0.0000000000000000     
   2.3083748214688178E-002   9.2408797187204128E-002   0.0000000000000000     
   2.3841782118070445E-002   9.9021736713874070E-002   0.0000000000000000     
   2.4573822563129569E-002  0.10579748563182524        0.0000000000000000     
   1.7077274730806599E-002   7.9374381274143979E-002   0.0000000000000000     
   1.7729400918903401E-002   8.5680996475805946E-002   0.0000000000000000     
   1.8361328680712406E-002   9.2148932394885752E-002   0.0000000000000000     
   1.8973058016233609E-002   9.8778189031383426E-002   0.0000000000000000     
   1.9564588925467023E-002  0.10556876638529897        0.0000000000000000     
   3.9962049774810486E-002  0.10659323412504684        0.0000000000000000     
   4.1100901823413132E-002  0.11348440151475506        0.0000000000000000     
   4.2190846444239066E-002  0.12051081203270554        0.0000000000000000     
   4.3231883637288290E-002  0.12767246567889826        0.0000000000000000     
   4.4224013402560804E-002  0.13496936245333330        0.0000000000000000     
   3.4772552987801297E-002  0.10630971950169917        0.0000000000000000     
   3.5761228992849531E-002  0.11321122565968716        0.0000000000000000     
   3.6707295509797608E-002  0.12024912879350499        0.0000000000000000     
   3.7610752538645528E-002  0.12742342890315270        0.0000000000000000     
   3.8471600079393299E-002  0.13473412598863019        0.0000000000000000     
   2.9643143917240992E-002  0.10604447000395863        0.0000000000000000     
   3.0486634870117560E-002  0.11295747343856619        0.0000000000000000     
   3.1293320928279598E-002  0.12000746321023954        0.0000000000000000     
   3.2063202091727111E-002  0.12719443931897872        0.0000000000000000     
   3.2796278360460104E-002  0.13451840176478375        0.0000000000000000     
   2.4573822563129569E-002  0.10579748563182524        0.0000000000000000     
   2.5277119455217215E-002  0.11272314485139211        0.0000000000000000     
   2.5948922699685042E-002  0.11978581528290914        0.0000000000000000     
   2.6589232296533045E-002  0.12698549692637645        0.0000000000000000     
   2.7198048245761223E-002  0.13432218978179394        0.0000000000000000     
   1.9564588925467023E-002  0.10556876638529897        0.0000000000000000     
   2.0132682748148507E-002  0.11250823989816490        0.0000000000000000     
   2.0674100824013941E-002  0.11958418501151384        0.0000000000000000     
   2.1188843153063321E-002  0.12679660172534579        0.0000000000000000     
   2.1676909735296655E-002  0.13414549003966075        0.0000000000000000     
   4.4224013402560804E-002  0.13496936245333330        0.0000000000000000     
   4.5165235352241581E-002  0.14238887092148442        0.0000000000000000     
   4.6053549098515625E-002  0.14991835964882558        0.0000000000000000     
   4.6888954641382929E-002  0.15755782863535678        0.0000000000000000     
   4.7671451980843493E-002  0.16530727788107796        0.0000000000000000     
   3.8471600079393299E-002  0.13473412598863019        0.0000000000000000     
   3.9287789299319635E-002  0.14216757738582297        0.0000000000000000     
   4.0057271365703272E-002  0.14971014043061653        0.0000000000000000     
   4.0780046278544202E-002  0.15736181512301084        0.0000000000000000     
   4.1456114037842433E-002  0.16512260146300584        0.0000000000000000     
   3.2796278360460104E-002  0.13451840176478375        0.0000000000000000     
   3.3490724644120250E-002  0.14196534617346968        0.0000000000000000     
   3.4144715852349225E-002  0.14952126817085162        0.0000000000000000     
   3.4758251985147030E-002  0.15718616775692967        0.0000000000000000     
   3.5331333042513666E-002  0.16496004493170371        0.0000000000000000     
   2.7198048245761223E-002  0.13432218978179394        0.0000000000000000     
   2.7774041386643418E-002  0.14178217728442447        0.0000000000000000     
   2.8315882558453482E-002  0.14935174286953096        0.0000000000000000     
   2.8823571761191401E-002  0.15703088653711328        0.0000000000000000     
   2.9297108994857188E-002  0.16481960828717157        0.0000000000000000     
   2.1676909735296655E-002  0.13414549003966075        0.0000000000000000     
   2.2137739526889157E-002  0.14161807071868740        0.0000000000000000     
   2.2570771484016049E-002  0.14920156452665440        0.0000000000000000     
   2.2976005606677324E-002  0.15689597146356174        0.0000000000000000     
   2.3353441894872998E-002  0.16470129152940943        0.0000000000000000     
   4.7671451980843493E-002  0.16530727788107796        0.0000000000000000     
   4.8399593298074389E-002  0.17315621027525097        0.0000000000000000     
   4.9071930774252676E-002  0.18109412870713762        0.0000000000000000     
   4.9688464409378366E-002  0.18912103317673790        0.0000000000000000     
   5.0249194203451454E-002  0.19723692368405174        0.0000000000000000     
   4.1456114037842433E-002  0.16512260146300584        0.0000000000000000     
   4.2084100243373453E-002  0.17298347188321278        0.0000000000000000     
   4.2662630494912743E-002  0.18093539881624271        0.0000000000000000     
   4.3191704792460303E-002  0.18897838226209568        0.0000000000000000     
   4.3671323136016148E-002  0.19711242222077169        0.0000000000000000     
   3.5331333042513666E-002  0.16496004493170371        0.0000000000000000     
   3.5862656746744513E-002  0.17283428270056700        0.0000000000000000     
   3.6350920820134941E-002  0.18080026406891272        0.0000000000000000     
   3.6796125262684956E-002  0.18885798903674084        0.0000000000000000     
   3.7198270074394545E-002  0.19700745760405133        0.0000000000000000     
   2.9297108994857188E-002  0.16481960828717157        0.0000000000000000     
   2.9735262808187567E-002  0.17270864272731370        0.0000000000000000     
   3.0136801749919277E-002  0.18068872446514767        0.0000000000000000     
   3.0501725820052311E-002  0.18875985350067334        0.0000000000000000     
   3.0830035018586673E-002  0.19692202983389087        0.0000000000000000     
   2.3353441894872998E-002  0.16470129152940943        0.0000000000000000     
   2.3701918427702608E-002  0.17260655196345287        0.0000000000000000     
   2.4020273284265738E-002  0.18060078000494748        0.0000000000000000     
   2.4308506464562368E-002  0.18868397565389322        0.0000000000000000     
   2.4566617968592507E-002  0.19685613891029013        0.0000000000000000     
   5.0249194203451454E-002  0.19723692368405174        0.0000000000000000     
   5.0751626905669950E-002  0.20543330989486677        0.0000000000000000     
   5.1193269265231843E-002  0.21370170147497045        0.0000000000000000     
   5.1574121282137148E-002  0.22204209842436287        0.0000000000000000     
   5.1894182956385856E-002  0.23045450074304394        0.0000000000000000     
   4.3671323136016148E-002  0.19711242222077169        0.0000000000000000     
   4.4099821276418788E-002  0.20532598574057831        0.0000000000000000     
   4.4475534964506749E-002  0.21360753986982325        0.0000000000000000     
   4.4798464200280032E-002  0.22195708460850644        0.0000000000000000     
   4.5068608983738656E-002  0.23037461995662797        0.0000000000000000     
   3.7198270074394545E-002  0.19700745760405133        0.0000000000000000     
   3.7556518067248273E-002  0.20523490483360127        0.0000000000000000     
   3.7870032053230626E-002  0.21352656578814752        0.0000000000000000     
   3.8138812032341630E-002  0.22188244046769012        0.0000000000000000     
   3.8362858004581307E-002  0.23030252887222899        0.0000000000000000     
   3.0830035018586673E-002  0.19692202983389087        0.0000000000000000     
   3.1121717278158392E-002  0.20516006717393567        0.0000000000000000     
   3.1376760531403480E-002  0.21345877922994327        0.0000000000000000     
   3.1595164778321951E-002  0.22181816600191370        0.0000000000000000     
   3.1776930018913796E-002  0.23023822748984699        0.0000000000000000     
   2.4566617968592507E-002  0.19685613891029013        0.0000000000000000     
   2.4795418909149151E-002  0.20510147276158147        0.0000000000000000     
   2.4995720399025312E-002  0.21340418019521054        0.0000000000000000     
   2.5167522438220975E-002  0.22176426121117734        0.0000000000000000     
   2.5310825026736147E-002  0.23018171580948188        0.0000000000000000     
   5.1894182956385856E-002  0.23045450074304394        0.0000000000000000     
   5.2161712746570596E-002  0.23893029466231269        0.0000000000000000     
   5.2384969111284027E-002  0.24746086641346809        0.0000000000000000     
   5.2563952050526129E-002  0.25604621599651023        0.0000000000000000     
   5.2698661564296916E-002  0.26468634341143904        0.0000000000000000     
   4.5068608983738656E-002  0.23037461995662797        0.0000000000000000     
   4.5294971694870019E-002  0.23884485190981966        0.0000000000000000     
   4.5486554713661559E-002  0.24735248646371347        0.0000000000000000     
   4.5643358040113276E-002  0.25589752361830936        0.0000000000000000     
   4.5765381674225163E-002  0.26447996337360735        0.0000000000000000     
   3.8362858004581307E-002  0.23030252887222899        0.0000000000000000     
   3.8551048904299161E-002  0.23876617525988098        0.0000000000000000     
   3.8712263665844758E-002  0.24725272388876271        0.0000000000000000     
   3.8846502289218106E-002  0.25576217475887425        0.0000000000000000     
   3.8953764774419197E-002  0.26429452787021557        0.0000000000000000     
   3.1776930018913796E-002  0.23023822748984699        0.0000000000000000     
   3.1929944374858028E-002  0.23869426471249650        0.0000000000000000     
   3.2062095967833638E-002  0.24716157868861582        0.0000000000000000     
   3.2173384797840640E-002  0.25564016941820500        0.0000000000000000     
   3.2263810864879026E-002  0.26413003690126385        0.0000000000000000     
   2.5310825026736147E-002  0.23018171580948188        0.0000000000000000     
   2.5431658106546622E-002  0.23862912026766636        0.0000000000000000     
   2.5536051619628200E-002  0.24707905086327284        0.0000000000000000     
   2.5624005565980868E-002  0.25553150759630144        0.0000000000000000     
   2.5695519945604643E-002  0.26398649046675216        0.0000000000000000     
   5.2698661564296916E-002  0.26468634341143904        0.0000000000000000     
   5.2819834447439609E-002  0.27333206717083863        0.0000000000000000     
   5.2958207494797446E-002  0.28193420578729295        0.0000000000000000     
   5.3113780706370427E-002  0.29049275926080220        0.0000000000000000     
   5.3286554082158544E-002  0.29900772759136623        0.0000000000000000     
   4.5765381674225163E-002  0.26447996337360735        0.0000000000000000     
   4.5876617232542369E-002  0.27304983940675120        0.0000000000000000     
   4.6001056331610030E-002  0.28155718539488472        0.0000000000000000     
   4.6138698971428138E-002  0.29000200133800796        0.0000000000000000     
   4.6289545151996701E-002  0.29838428723612087        0.0000000000000000     
   3.8953764774419197E-002  0.26429452787021557        0.0000000000000000     
   3.9052698544434238E-002  0.27279856019365334        0.0000000000000000     
   3.9161951022249425E-002  0.28122304870005421        0.0000000000000000     
   3.9281522207864766E-002  0.28956799338941813        0.0000000000000000     
   3.9411412101280248E-002  0.29783339426174515        0.0000000000000000     
   3.2263810864879026E-002  0.26413003690126385        0.0000000000000000     
   3.2348078383115215E-002  0.27257822953154520        0.0000000000000000     
   3.2440891566715646E-002  0.28093179570280152        0.0000000000000000     
   3.2542250415680304E-002  0.28919073541503282        0.0000000000000000     
   3.2652154930009190E-002  0.29735504866823914        0.0000000000000000     
   2.5695519945604643E-002  0.26398649046675216        0.0000000000000000     
   2.5762756748585310E-002  0.27238884742042657        0.0000000000000000     
   2.5837877965008679E-002  0.28068342640312649        0.0000000000000000     
   2.5920883594874759E-002  0.28887022741485197        0.0000000000000000     
   2.6011773638183529E-002  0.29694925045560283        0.0000000000000000     
   1.4266207729754942E-002   5.6278628925531746E-002   0.0000000000000000     
   1.4999380491784516E-002   6.1713554445834817E-002   0.0000000000000000     
   1.5712282579302982E-002   6.7374488344037878E-002   0.0000000000000000     
   1.6404913992310342E-002   7.3261430620140927E-002   0.0000000000000000     
   1.7077274730806599E-002   7.9374381274143979E-002   0.0000000000000000     
   1.0478115496039875E-002   5.5635911974145996E-002   0.0000000000000000     
   1.1077368053237713E-002   6.1223590133966110E-002   0.0000000000000000     
   1.1649396325373807E-002   6.6999442435896839E-002   0.0000000000000000     
   1.2194200312448149E-002   7.2963468879938140E-002   0.0000000000000000     
   1.2711780014460741E-002   7.9115669466090013E-002   0.0000000000000000     
   6.8377167890493629E-003   5.5176828437611000E-002   0.0000000000000000     
   7.2701338185517991E-003   6.0873615625232316E-002   0.0000000000000000     
   7.6763871385518634E-003   6.6731552500940983E-002   0.0000000000000000     
   8.0564767490495549E-003   7.2750639064737041E-002   0.0000000000000000     
   8.4104026500448729E-003   7.8930875316620422E-002   0.0000000000000000     
   3.3450116087834071E-003   5.4901378315926744E-002   0.0000000000000000     
   3.5776777877267684E-003   6.0663630919633400E-002   0.0000000000000000     
   3.7932550188371533E-003   6.6570818539170365E-002   0.0000000000000000     
   3.9917433021145598E-003   7.2622941174537631E-002   0.0000000000000000     
   4.1731426375589921E-003   7.8819998825735205E-002   0.0000000000000000     
  -4.4757994619587516E-011   5.4809561609093241E-002   0.0000000000000000     
  -3.9237378103573750E-011   6.0593636017169376E-002   0.0000000000000000     
  -3.3770323451705331E-011   6.6517240550584944E-002   0.0000000000000000     
  -2.8356830582667095E-011   7.2580375209339951E-002   0.0000000000000000     
  -2.2996899089883227E-011   7.8783039993434376E-002   0.0000000000000000     
   1.7077274730806599E-002   7.9374381274143979E-002   0.0000000000000000     
   1.7729400918903401E-002   8.5680996475805946E-002   0.0000000000000000     
   1.8361328680712406E-002   9.2148932394885752E-002   0.0000000000000000     
   1.8973058016233609E-002   9.8778189031383426E-002   0.0000000000000000     
   1.9564588925467023E-002  0.10556876638529897        0.0000000000000000     
   1.2711780014460741E-002   7.9115669466090013E-002   0.0000000000000000     
   1.3208232544583545E-002   8.5441695119663125E-002   0.0000000000000000     
   1.3689655015988518E-002   9.1927196765968097E-002   0.0000000000000000     
   1.4156047428675662E-002   9.8572174405004917E-002   0.0000000000000000     
   1.4607409782644978E-002  0.10537662803677360        0.0000000000000000     
   8.4104026500448729E-003   7.8930875316620422E-002   0.0000000000000000     
   8.7462762636661071E-003   8.5270765578692148E-002   0.0000000000000000     
   9.0722090120415530E-003   9.1768814173053118E-002   0.0000000000000000     
   9.3882008951712038E-003   9.8425021099703414E-002   0.0000000000000000     
   9.6942519130550631E-003  0.10523938635864295        0.0000000000000000     
   4.1731426375589921E-003   7.8819998825735205E-002   0.0000000000000000     
   4.3435320761510922E-003   8.5168207852892988E-002   0.0000000000000000     
   4.5089906688715034E-003   9.1673784616140896E-002   0.0000000000000000     
   4.6695184157202318E-003   9.8336729115478916E-002   0.0000000000000000     
   4.8251153166972722E-003  0.10515704135090703        0.0000000000000000     
  -2.2996899089883227E-011   7.8783039993434376E-002   0.0000000000000000     
  -1.7961505113101017E-011   8.5134021942265700E-002   0.0000000000000000     
  -1.3521622298402758E-011   9.1642108095231378E-002   0.0000000000000000     
  -9.6772513234148066E-012   9.8307298452331424E-002   0.0000000000000000     
  -6.4283921068220007E-012  0.10512959301356582        0.0000000000000000     
   1.9564588925467023E-002  0.10556876638529897        0.0000000000000000     
   2.0132682748148507E-002  0.11250823989816490        0.0000000000000000     
   2.0674100824013941E-002  0.11958418501151384        0.0000000000000000     
   2.1188843153063321E-002  0.12679660172534579        0.0000000000000000     
   2.1676909735296655E-002  0.13414549003966075        0.0000000000000000     
   1.4607409782644978E-002  0.10537662803677360        0.0000000000000000     
   1.5040467061289361E-002  0.11232869590374042        0.0000000000000000     
   1.5451944248001705E-002  0.11941651624837166        0.0000000000000000     
   1.5841841342782013E-002  0.12664008907066729        0.0000000000000000     
   1.6210158345630284E-002  0.13399941437062729        0.0000000000000000     
   9.6942519130550631E-003  0.10523938635864295        0.0000000000000000     
   9.9876147070177175E-003  0.11220045019297446        0.0000000000000000     
   1.0265541918383757E-002  0.11929675284580057        0.0000000000000000     
   1.0528033547153180E-002  0.12652829431712134        0.0000000000000000     
   1.0775089593325987E-002  0.13389507460693664        0.0000000000000000     
   4.8251153166972722E-003  0.10515704135090703        0.0000000000000000     
   4.9741256853335757E-003  0.11212350276586702        0.0000000000000000     
   5.1148938351600936E-003  0.11922489480380066        0.0000000000000000     
   5.2474197661768248E-003  0.12646121746470787        0.0000000000000000     
   5.3717034783837695E-003  0.13383247074858873        0.0000000000000000     
  -6.4283921068220007E-012  0.10512959301356582        0.0000000000000000     
  -3.7630623443696276E-012  0.11209785362241811        0.0000000000000000     
  -1.6692821170477545E-012  0.11920094212237185        0.0000000000000000     
  -1.4705256326866256E-013  0.12643885851342704        0.0000000000000000     
   8.0363059956622962E-013  0.13381160279558363        0.0000000000000000     
   2.1676909735296655E-002  0.13414549003966075        0.0000000000000000     
   2.2137739526889157E-002  0.14161807071868740        0.0000000000000000     
   2.2570771484016049E-002  0.14920156452665440        0.0000000000000000     
   2.2976005606677324E-002  0.15689597146356174        0.0000000000000000     
   2.3353441894872998E-002  0.16470129152940943        0.0000000000000000     
   1.6210158345630284E-002  0.13399941437062729        0.0000000000000000     
   1.6557047435872725E-002  0.14148281724011125        0.0000000000000000     
   1.6882660792835562E-002  0.14907862277097866        0.0000000000000000     
   1.7186998416518787E-002  0.15678683096322951        0.0000000000000000     
   1.7470060306922403E-002  0.16460744181686376        0.0000000000000000     
   1.0775089593325987E-002  0.13389507460693664        0.0000000000000000     
   1.1007193484609407E-002  0.14138620761254889        0.0000000000000000     
   1.1224828648710669E-002  0.14899080723126037        0.0000000000000000     
   1.1427995085629776E-002  0.15670887346307119        0.0000000000000000     
   1.1616692795366722E-002  0.16454040630798117        0.0000000000000000     
   5.3717034783837695E-003  0.13383247074858873        0.0000000000000000     
   5.4881776730991948E-003  0.14132824183600032        0.0000000000000000     
   5.5972750516413662E-003  0.14893811790749961        0.0000000000000000     
   5.6989956140102854E-003  0.15666209896308667        0.0000000000000000     
   5.7933393602059534E-003  0.16450018500276151        0.0000000000000000     
   8.0363059956622962E-013  0.13381160279558363        0.0000000000000000     
   1.3420900675520375E-012  0.14130891991046546        0.0000000000000000     
   1.6276547167362598E-012  0.14892055479969629        0.0000000000000000     
   1.6603222973993886E-012  0.15664650746327607        0.0000000000000000     
   1.4400937040082162E-012  0.16448677790120489        0.0000000000000000     
   2.3353441894872998E-002  0.16470129152940943        0.0000000000000000     
   2.3701918427702608E-002  0.17260655196345287        0.0000000000000000     
   2.4020273284265738E-002  0.18060078000494748        0.0000000000000000     
   2.4308506464562368E-002  0.18868397565389322        0.0000000000000000     
   2.4566617968592507E-002  0.19685613891029013        0.0000000000000000     
   1.7470060306922403E-002  0.16460744181686376        0.0000000000000000     
   1.7730808824954716E-002  0.17252752532421198        0.0000000000000000     
   1.7968206331524045E-002  0.18053415147760477        0.0000000000000000     
   1.8182252826630385E-002  0.18862732027704196        0.0000000000000000     
   1.8372948310273737E-002  0.19680703172252370        0.0000000000000000     
   1.1616692795366722E-002  0.16454040630798117        0.0000000000000000     
   1.1790119219608958E-002  0.17247107772481865        0.0000000000000000     
   1.1947471800043921E-002  0.18048655967241198        0.0000000000000000     
   1.2088750536671617E-002  0.18858685215076115        0.0000000000000000     
   1.2213955429492041E-002  0.19677195515986612        0.0000000000000000     
   5.7933393602059534E-003  0.16450018500276151        0.0000000000000000     
   5.8798496116653238E-003  0.17243720916527278        0.0000000000000000     
   5.9580696898253599E-003  0.18045800458936920        0.0000000000000000     
   6.0279995946860582E-003  0.18856257127505074        0.0000000000000000     
   6.0896393262474206E-003  0.19675090922231744        0.0000000000000000     
   1.4400937040082162E-012  0.16448677790120489        0.0000000000000000     
   1.1238223893150767E-012  0.17242591964557441        0.0000000000000000     
   8.6836321553512841E-013  0.18044848622847637        0.0000000000000000     
   6.7371425820951514E-013  0.18855447764991076        0.0000000000000000     
   5.3987543602307397E-013  0.19674389390987759        0.0000000000000000     
   2.4566617968592507E-002  0.19685613891029013        0.0000000000000000     
   2.4795418909149151E-002  0.20510147276158147        0.0000000000000000     
   2.4995720399025312E-002  0.21340418019521054        0.0000000000000000     
   2.5167522438220975E-002  0.22176426121117734        0.0000000000000000     
   2.5310825026736147E-002  0.23018171580948188        0.0000000000000000     
   1.8372948310273737E-002  0.19680703172252370        0.0000000000000000     
   1.8541669858128461E-002  0.20505730907148145        0.0000000000000000     
   1.8689794545868929E-002  0.21336217558134676        0.0000000000000000     
   1.8817322373495132E-002  0.22172163125211966        0.0000000000000000     
   1.8924253341007072E-002  0.23013567608380014        0.0000000000000000     
   1.2213955429492041E-002  0.19677195515986612        0.0000000000000000     
   1.2324517023004211E-002  0.20502576357857838        0.0000000000000000     
   1.2421865861707144E-002  0.21333217228574949        0.0000000000000000     
   1.2506001945600840E-002  0.22169118128137932        0.0000000000000000     
   1.2576925274685298E-002  0.23010279056546801        0.0000000000000000     
   6.0896393262474206E-003  0.19675090922231744        0.0000000000000000     
   6.1439604037764042E-003  0.20500683628287239        0.0000000000000000     
   6.1919343465399656E-003  0.21331417030841870        0.0000000000000000     
   6.2335611545381083E-003  0.22167291129895647        0.0000000000000000     
   6.2688408277708271E-003  0.23008305925448558        0.0000000000000000     
   5.3987543602307397E-013  0.19674389390987759        0.0000000000000000     
   4.4503766991055294E-013  0.20500052718436335        0.0000000000000000     
   3.6738938714170333E-013  0.21330816964935445        0.0000000000000000     
   3.0692920535875523E-013  0.22166682130485094        0.0000000000000000     
   2.6365932007110793E-013  0.23007648215085277        0.0000000000000000     
   2.5310825026736147E-002  0.23018171580948188        0.0000000000000000     
   2.5431658106546622E-002  0.23862912026766636        0.0000000000000000     
   2.5536051619628200E-002  0.24707905086327284        0.0000000000000000     
   2.5624005565980868E-002  0.25553150759630144        0.0000000000000000     
   2.5695519945604643E-002  0.26398649046675216        0.0000000000000000     
   1.8924253341007072E-002  0.23013567608380014        0.0000000000000000     
   1.9014521621592038E-002  0.23857507904831174        0.0000000000000000     
   1.9092061388437317E-002  0.24701060911757808        0.0000000000000000     
   1.9156872641542901E-002  0.25544226629159922        0.0000000000000000     
   1.9208955380908801E-002  0.26387005057037505        0.0000000000000000     
   1.2576925274685298E-002  0.23010279056546801        0.0000000000000000     
   1.2636866442221364E-002  0.23853647817735402        0.0000000000000000     
   1.2688056041469884E-002  0.24696172215637588        0.0000000000000000     
   1.2730494072430855E-002  0.25537852250253368        0.0000000000000000     
   1.2764180535104279E-002  0.26378687921582744        0.0000000000000000     
   6.2688408277708271E-003  0.23008305925448558        0.0000000000000000     
   6.2986925684346004E-003  0.23851331765479314        0.0000000000000000     
   6.3240355787258975E-003  0.24693238997966627        0.0000000000000000     
   6.3448698586447208E-003  0.25534027622910493        0.0000000000000000     
   6.3611954081910678E-003  0.26373697640310922        0.0000000000000000     
   2.6365932007110793E-013  0.23007648215085277        0.0000000000000000     
   2.3174778068790758E-013  0.23850559748062916        0.0000000000000000     
   2.0536166083634511E-013  0.24692261258744924        0.0000000000000000     
   1.8450364391679741E-013  0.25532752747131293        0.0000000000000000     
   1.6916979969638923E-013  0.26372034213222045        0.0000000000000000     
   2.5695519945604643E-002  0.26398649046675216        0.0000000000000000     
   2.5762756748585310E-002  0.27238884742042657        0.0000000000000000     
   2.5837877965008679E-002  0.28068342640312649        0.0000000000000000     
   2.5920883594874759E-002  0.28887022741485197        0.0000000000000000     
   2.6011773638183529E-002  0.29694925045560283        0.0000000000000000     
   1.9208955380908801E-002  0.26387005057037505        0.0000000000000000     
   1.9258330173457017E-002  0.27223667806425916        0.0000000000000000     
   1.9315017586109560E-002  0.28048486488360486        0.0000000000000000     
   1.9379017618866418E-002  0.28861461102841240        0.0000000000000000     
   1.9450330271727601E-002  0.29662591649868159        0.0000000000000000     
   1.2764180535104279E-002  0.26378687921582744        0.0000000000000000     
   1.2796395190342862E-002  0.27212798566700447        0.0000000000000000     
   1.2834417798999300E-002  0.28034303522681236        0.0000000000000000     
   1.2878248361073600E-002  0.28843202789525113        0.0000000000000000     
   1.2927886876565755E-002  0.29639496367232060        0.0000000000000000     
   6.3611954081910678E-003  0.26373697640310922        0.0000000000000000     
   6.3769517992428347E-003  0.27206277022866271        0.0000000000000000     
   6.3960786036779084E-003  0.28025793743274896        0.0000000000000000     
   6.4185758214962913E-003  0.28832247801536803        0.0000000000000000     
   6.4444434526979826E-003  0.29625639197651998        0.0000000000000000     
   1.6916979969638923E-013  0.26372034213222045        0.0000000000000000     
   1.5693718026510428E-013  0.27204103174923355        0.0000000000000000     
   1.4538001878727780E-013  0.28022957150141453        0.0000000000000000     
   1.3449847789323566E-013  0.28828596138876317        0.0000000000000000     
   1.2429206969200024E-013  0.29621020141127963        0.0000000000000000     
  -4.4757994619587516E-011   5.4809561609093241E-002   0.0000000000000000     
  -3.9237378103573750E-011   6.0593636017169376E-002   0.0000000000000000     
  -3.3770323451705331E-011   6.6517240550584944E-002   0.0000000000000000     
  -2.8356830582667095E-011   7.2580375209339951E-002   0.0000000000000000     
  -2.2996899089883227E-011   7.8783039993434376E-002   0.0000000000000000     
  -3.3450116954397056E-003   5.4901378317263147E-002   0.0000000000000000     
  -3.5776778636118717E-003   6.0663630918077208E-002   0.0000000000000000     
  -3.7932550840908442E-003   6.6570818535508017E-002   0.0000000000000000     
  -3.9917433568766201E-003   7.2622941169555533E-002   0.0000000000000000     
  -4.1731426819691993E-003   7.8819998820219811E-002   0.0000000000000000     
  -6.8377168671265908E-003   5.5176828440589111E-002   0.0000000000000000     
  -7.2701338866679481E-003   6.0873615622593871E-002   0.0000000000000000     
  -7.6763871969446860E-003   6.6731552494262852E-002   0.0000000000000000     
  -8.0564767979568064E-003   7.2750639055596034E-002   0.0000000000000000     
  -8.4104026897043049E-003   7.8930875306593429E-002   0.0000000000000000     
  -1.0478115559818649E-002   5.5635911979071133E-002   0.0000000000000000     
  -1.1077368108405603E-002   6.1223590130719360E-002   0.0000000000000000     
  -1.1649396372331850E-002   6.6999442426849451E-002   0.0000000000000000     
  -1.2194200351597389E-002   7.2963468867461426E-002   0.0000000000000000     
  -1.2711780046202218E-002   7.9115669452555243E-002   0.0000000000000000     
  -1.4266207773515883E-002   5.6278628932709227E-002   0.0000000000000000     
  -1.4999380528824838E-002   6.1713554442453689E-002   0.0000000000000000     
  -1.5712282610252332E-002   6.7374488333267840E-002   0.0000000000000000     
  -1.6404914017798367E-002   7.3261430605151695E-002   0.0000000000000000     
  -1.7077274751462937E-002   7.9374381258105225E-002   0.0000000000000000     
  -2.2996899089883227E-011   7.8783039993434376E-002   0.0000000000000000     
  -1.7961505113101017E-011   8.5134021942265700E-002   0.0000000000000000     
  -1.3521622298402758E-011   9.1642108095231378E-002   0.0000000000000000     
  -9.6772513234148066E-012   9.8307298452331424E-002   0.0000000000000000     
  -6.4283921068220007E-012  0.10512959301356582        0.0000000000000000     
  -4.1731426819691993E-003   7.8819998820219811E-002   0.0000000000000000     
  -4.3435321108525196E-003   8.5168207847377844E-002   0.0000000000000000     
  -4.5089906950105136E-003   9.1673784610906722E-002   0.0000000000000000     
  -4.6695184344431803E-003   9.8336729110806376E-002   0.0000000000000000     
  -4.8251153291505224E-003  0.10515704134707686        0.0000000000000000     
  -8.4104026897043049E-003   7.8930875306593429E-002   0.0000000000000000     
  -8.7462762947027872E-003   8.5270765568797077E-002   0.0000000000000000     
  -9.0722090354678486E-003   9.1768814163749005E-002   0.0000000000000000     
  -9.3882009119994874E-003   9.8425021091449211E-002   0.0000000000000000     
  -9.6942519242977088E-003  0.10523938635189767        0.0000000000000000     
  -1.2711780046202218E-002   7.9115669452555243E-002   0.0000000000000000     
  -1.3208232569512313E-002   8.5441695106523358E-002   0.0000000000000000     
  -1.3689655034893630E-002   9.1927196753758267E-002   0.0000000000000000     
  -1.4156047442346177E-002   9.8572174394259901E-002   0.0000000000000000     
  -1.4607409791869955E-002  0.10537662802802829        0.0000000000000000     
  -1.7077274751462937E-002   7.9374381258105225E-002   0.0000000000000000     
  -1.7729400935281088E-002   8.5680996460556727E-002   0.0000000000000000     
  -1.8361328693287857E-002   9.2148932380934467E-002   0.0000000000000000     
  -1.8973058025483245E-002   9.8778189019238447E-002   0.0000000000000000     
  -1.9564588931867254E-002  0.10556876637546868        0.0000000000000000     
  -6.4283921068220007E-012  0.10512959301356582        0.0000000000000000     
  -3.7630623443696276E-012  0.11209785362241811        0.0000000000000000     
  -1.6692821170477545E-012  0.11920094212237185        0.0000000000000000     
  -1.4705256326866256E-013  0.12643885851342704        0.0000000000000000     
   8.0363059956622962E-013  0.13381160279558363        0.0000000000000000     
  -4.8251153291505224E-003  0.10515704134707686        0.0000000000000000     
  -4.9741256926412337E-003  0.11212350276297618        0.0000000000000000     
  -5.1148938384240122E-003  0.11922489480176236        0.0000000000000000     
  -5.2474197664988528E-003  0.12646121746343544        0.0000000000000000     
  -5.3717034768657598E-003  0.13383247074799534        0.0000000000000000     
  -9.6942519242977088E-003  0.10523938635189767        0.0000000000000000     
  -9.9876147136699692E-003  0.11220045018788963        0.0000000000000000     
  -1.0265541921423727E-002  0.11929675284222037        0.0000000000000000     
  -1.0528033547558980E-002  0.12652829431488977        0.0000000000000000     
  -1.0775089592075734E-002  0.13389507460589792        0.0000000000000000     
  -1.4607409791869955E-002  0.10537662802802829        0.0000000000000000     
  -1.5040467066849269E-002  0.11232869589715856        0.0000000000000000     
  -1.5451944250668429E-002  0.11941651624374582        0.0000000000000000     
  -1.5841841343327431E-002  0.12664008906779012        0.0000000000000000     
  -1.6210158344826291E-002  0.13399941436929133        0.0000000000000000     
  -1.9564588931867254E-002  0.10556876637546868        0.0000000000000000     
  -2.0132682752179130E-002  0.11250823989078286        0.0000000000000000     
  -2.0674100826158118E-002  0.11958418500633876        0.0000000000000000     
  -2.1188843153804218E-002  0.12679660172213636        0.0000000000000000     
  -2.1676909735117433E-002  0.13414549003817566        0.0000000000000000     
   8.0363059956622962E-013  0.13381160279558363        0.0000000000000000     
   1.3420900675520375E-012  0.14130891991046546        0.0000000000000000     
   1.6276547167362598E-012  0.14892055479969629        0.0000000000000000     
   1.6603222973993886E-012  0.15664650746327607        0.0000000000000000     
   1.4400937040082162E-012  0.16448677790120489        0.0000000000000000     
  -5.3717034768657598E-003  0.13383247074799534        0.0000000000000000     
  -5.4881776705365242E-003  0.14132824183595180        0.0000000000000000     
  -5.5972750485229353E-003  0.14893811790781436        0.0000000000000000     
  -5.6989956108249975E-003  0.15666209896358313        0.0000000000000000     
  -5.7933393574427037E-003  0.16450018500325811        0.0000000000000000     
  -1.0775089592075734E-002  0.13389507460589792        0.0000000000000000     
  -1.1007193482411273E-002  0.14138620761246665        0.0000000000000000     
  -1.1224828646002875E-002  0.14899080723181790        0.0000000000000000     
  -1.1427995082850544E-002  0.15670887346395171        0.0000000000000000     
  -1.1616692792954283E-002  0.16454040630886796        0.0000000000000000     
  -1.6210158344826291E-002  0.13399941436929133        0.0000000000000000     
  -1.6557047434282147E-002  0.14148281724001013        0.0000000000000000     
  -1.6882660790812160E-002  0.14907862277170689        0.0000000000000000     
  -1.7186998414416326E-002  0.15678683096438170        0.0000000000000000     
  -1.7470060305094647E-002  0.16460744181803447        0.0000000000000000     
  -2.1676909735117433E-002  0.13414549003817566        0.0000000000000000     
  -2.2137739526149159E-002  0.14161807071858215        0.0000000000000000     
  -2.2570771482950794E-002  0.14920156452748129        0.0000000000000000     
  -2.2976005605522341E-002  0.15689597146487311        0.0000000000000000     
  -2.3353441893863802E-002  0.16470129153075763        0.0000000000000000     
   1.4400937040082162E-012  0.16448677790120489        0.0000000000000000     
   1.1238223893150767E-012  0.17242591964557441        0.0000000000000000     
   8.6836321553512841E-013  0.18044848622847637        0.0000000000000000     
   6.7371425820951514E-013  0.18855447764991076        0.0000000000000000     
   5.3987543602307397E-013  0.19674389390987759        0.0000000000000000     
  -5.7933393574427037E-003  0.16450018500325811        0.0000000000000000     
  -5.8798496095097555E-003  0.17243720916568345        0.0000000000000000     
  -5.9580696881598571E-003  0.18045800458970346        0.0000000000000000     
  -6.0279995933930066E-003  0.18856257127531809        0.0000000000000000     
  -6.0896393252092007E-003  0.19675090922252739        0.0000000000000000     
  -1.1616692792954283E-002  0.16454040630886796        0.0000000000000000     
  -1.1790119217729621E-002  0.17247107772555981        0.0000000000000000     
  -1.1947471798592088E-002  0.18048655967302038        0.0000000000000000     
  -1.2088750535541688E-002  0.18858685215124962        0.0000000000000000     
  -1.2213955428578416E-002  0.19677195516024756        0.0000000000000000     
  -1.7470060305094647E-002  0.16460744181803447        0.0000000000000000     
  -1.7730808823535768E-002  0.17252752532520352        0.0000000000000000     
  -1.7968206330428328E-002  0.18053415147842716        0.0000000000000000     
  -1.8182252825772325E-002  0.18862732027770532        0.0000000000000000     
  -1.8372948309567771E-002  0.19680703172303807        0.0000000000000000     
  -2.3353441893863802E-002  0.16470129153075763        0.0000000000000000     
  -2.3701918426928203E-002  0.17260655196461455        0.0000000000000000     
  -2.4020273283668580E-002  0.18060078000592378        0.0000000000000000     
  -2.4308506464084934E-002  0.18868397565468525        0.0000000000000000     
  -2.4566617968177263E-002  0.19685613891089901        0.0000000000000000     
   5.3987543602307397E-013  0.19674389390987759        0.0000000000000000     
   4.4503766991055294E-013  0.20500052718436335        0.0000000000000000     
   3.6738938714170333E-013  0.21330816964935445        0.0000000000000000     
   3.0692920535875523E-013  0.22166682130485094        0.0000000000000000     
   2.6365932007110793E-013  0.23007648215085277        0.0000000000000000     
  -6.0896393252092007E-003  0.19675090922252739        0.0000000000000000     
  -6.1439604029180639E-003  0.20500683628303448        0.0000000000000000     
  -6.1919343458292182E-003  0.21331417030854255        0.0000000000000000     
  -6.2335611539426601E-003  0.22167291129905162        0.0000000000000000     
  -6.2688408272583923E-003  0.23008305925456163        0.0000000000000000     
  -1.2213955428578416E-002  0.19677195516024756        0.0000000000000000     
  -1.2324517022241081E-002  0.20502576357886904        0.0000000000000000     
  -1.2421865861068485E-002  0.21333217228596896        0.0000000000000000     
  -1.2506001945060631E-002  0.22169118128154733        0.0000000000000000     
  -1.2576925274217514E-002  0.23010279056560415        0.0000000000000000     
  -1.8372948309567771E-002  0.19680703172303807        0.0000000000000000     
  -1.8541669857524010E-002  0.20505730907186698        0.0000000000000000     
  -1.8689794545350417E-002  0.21336217558163365        0.0000000000000000     
  -1.8817322373046973E-002  0.22172163125233807        0.0000000000000000     
  -1.8924253340613706E-002  0.23013567608398022        0.0000000000000000     
  -2.4566617968177263E-002  0.19685613891089901        0.0000000000000000     
  -2.4795418908766857E-002  0.20510147276202834        0.0000000000000000     
  -2.4995720398675009E-002  0.21340418019553664        0.0000000000000000     
  -2.5167522437901713E-002  0.22176426121142381        0.0000000000000000     
  -2.5310825026446965E-002  0.23018171580968994        0.0000000000000000     
   2.6365932007110793E-013  0.23007648215085277        0.0000000000000000     
   2.3174778068790758E-013  0.23850559748062916        0.0000000000000000     
   2.0536166083634511E-013  0.24692261258744924        0.0000000000000000     
   1.8450364391679741E-013  0.25532752747131293        0.0000000000000000     
   1.6916979969638923E-013  0.26372034213222045        0.0000000000000000     
  -6.2688408272583923E-003  0.23008305925456163        0.0000000000000000     
  -6.2986925679837328E-003  0.23851331765485687        0.0000000000000000     
  -6.3240355783259995E-003  0.24693238997972153        0.0000000000000000     
  -6.3448698582851942E-003  0.25534027622915573        0.0000000000000000     
  -6.3611954078613142E-003  0.26373697640315930        0.0000000000000000     
  -1.2576925274217514E-002  0.23010279056560415        0.0000000000000000     
  -1.2636866441808378E-002  0.23853647817747109        0.0000000000000000     
  -1.2688056041102458E-002  0.24696172215648013        0.0000000000000000     
  -1.2730494072099759E-002  0.25537852250263116        0.0000000000000000     
  -1.2764180534800279E-002  0.26378687921592420        0.0000000000000000     
  -1.8924253340613706E-002  0.23013567608398022        0.0000000000000000     
  -1.9014521621242182E-002  0.23857507904847192        0.0000000000000000     
  -1.9092061388124016E-002  0.24701060911772493        0.0000000000000000     
  -1.9156872641259193E-002  0.25544226629173938        0.0000000000000000     
  -1.9208955380647721E-002  0.26387005057051499        0.0000000000000000     
  -2.5310825026446965E-002  0.23018171580968994        0.0000000000000000     
  -2.5431658106285154E-002  0.23862912026785926        0.0000000000000000     
  -2.5536051619390668E-002  0.24707905086345605        0.0000000000000000     
  -2.5624005565763500E-002  0.25553150759648019        0.0000000000000000     
  -2.5695519945403655E-002  0.26398649046693184        0.0000000000000000     
   1.6916979969638923E-013  0.26372034213222045        0.0000000000000000     
   1.5693718026510428E-013  0.27204103174923355        0.0000000000000000     
   1.4538001878727780E-013  0.28022957150141453        0.0000000000000000     
   1.3449847789323566E-013  0.28828596138876317        0.0000000000000000     
   1.2429206969200024E-013  0.29621020141127963        0.0000000000000000     
  -6.3611954078613142E-003  0.26373697640315930        0.0000000000000000     
  -6.3769517989369345E-003  0.27206277022871550        0.0000000000000000     
  -6.3960786033946289E-003  0.28025793743280719        0.0000000000000000     
  -6.4185758212344018E-003  0.28832247801543454        0.0000000000000000     
  -6.4444434524562498E-003  0.29625639197659753        0.0000000000000000     
  -1.2764180534800279E-002  0.26378687921592420        0.0000000000000000     
  -1.2796395190060891E-002  0.27212798566710644        0.0000000000000000     
  -1.2834417798738482E-002  0.28034303522692505        0.0000000000000000     
  -1.2878248360833037E-002  0.28843202789538008        0.0000000000000000     
  -1.2927886876344569E-002  0.29639496367247148        0.0000000000000000     
  -1.9208955380647721E-002  0.26387005057051499        0.0000000000000000     
  -1.9258330173214936E-002  0.27223667806440655        0.0000000000000000     
  -1.9315017585886166E-002  0.28048486488376806        0.0000000000000000     
  -1.9379017618661409E-002  0.28861461102859975        0.0000000000000000     
  -1.9450330271540663E-002  0.29662591649890152        0.0000000000000000     
  -2.5695519945403655E-002  0.26398649046693184        0.0000000000000000     
  -2.5762756748399063E-002  0.27238884742061559        0.0000000000000000     
  -2.5837877964837684E-002  0.28068342640333616        0.0000000000000000     
  -2.5920883594719508E-002  0.28887022741509355        0.0000000000000000     
  -2.6011773638044539E-002  0.29694925045588771        0.0000000000000000     
  -1.4266207773515883E-002   5.6278628932709227E-002   0.0000000000000000     
  -1.4999380528824838E-002   6.1713554442453689E-002   0.0000000000000000     
  -1.5712282610252332E-002   6.7374488333267840E-002   0.0000000000000000     
  -1.6404914017798367E-002   7.3261430605151695E-002   0.0000000000000000     
  -1.7077274751462937E-002   7.9374381258105225E-002   0.0000000000000000     
  -1.8092058015576628E-002   5.6906778424319050E-002   0.0000000000000000     
  -1.8961263241295077E-002   6.2211839828511292E-002   0.0000000000000000     
  -1.9817271987552409E-002   6.7774288274222105E-002   0.0000000000000000     
  -2.0660084254348631E-002   7.3594123761451496E-002   0.0000000000000000     
  -2.1489700041683747E-002   7.9671346290199452E-002   0.0000000000000000     
  -2.1845730793359226E-002   5.7322159576716283E-002   0.0000000000000000     
  -2.2888108339185739E-002   6.2586777559606649E-002   0.0000000000000000     
  -2.3916590581078354E-002   6.8116440310416387E-002   0.0000000000000000     
  -2.4931177519037093E-002   7.3911147829145513E-002   0.0000000000000000     
  -2.5931869153061945E-002   7.9970900115793969E-002   0.0000000000000000     
  -2.5527226106863674E-002   5.7524772389900926E-002   0.0000000000000000     
  -2.6779915822496815E-002   6.2838367635739731E-002   0.0000000000000000     
  -2.8010238390830170E-002   6.8400944441850658E-002   0.0000000000000000     
  -2.9218193811863736E-002   7.4212502808233674E-002   0.0000000000000000     
  -3.0403782085597509E-002   8.0273042734888805E-002   0.0000000000000000     
  -2.9136543956089979E-002   5.7514616863872978E-002   0.0000000000000000     
  -3.0636685691228321E-002   6.2966610056910594E-002   0.0000000000000000     
  -3.2098215416807852E-002   6.8627800668524946E-002   0.0000000000000000     
  -3.3521133132828569E-002   7.4498188698716064E-002   0.0000000000000000     
  -3.4905438839290460E-002   8.0577774147483933E-002   0.0000000000000000     
  -1.7077274751462937E-002   7.9374381258105225E-002   0.0000000000000000     
  -1.7729400935281088E-002   8.5680996460556727E-002   0.0000000000000000     
  -1.8361328693287857E-002   9.2148932380934467E-002   0.0000000000000000     
  -1.8973058025483245E-002   9.8778189019238447E-002   0.0000000000000000     
  -1.9564588931867254E-002  0.10556876637546868        0.0000000000000000     
  -2.1489700041683747E-002   7.9671346290199452E-002   0.0000000000000000     
  -2.2299720860191857E-002   8.5958667035552966E-002   0.0000000000000000     
  -2.3083748220507051E-002   9.2408797172598964E-002   0.0000000000000000     
  -2.3841782122629347E-002   9.9021736701337473E-002   0.0000000000000000     
  -2.4573822566558726E-002  0.10579748562176851        0.0000000000000000     
  -2.5931869153061945E-002   7.9970900115793969E-002   0.0000000000000000     
  -2.6909131812427337E-002   8.6244704236167841E-002   0.0000000000000000     
  -2.7853431826407725E-002   9.2681567256073030E-002   0.0000000000000000     
  -2.8764769195003106E-002   9.9281489175509566E-002   0.0000000000000000     
  -2.9643143918213481E-002  0.10604446999447745        0.0000000000000000     
  -3.0403782085597509E-002   8.0273042734888805E-002   0.0000000000000000     
  -3.1557633791987547E-002   8.6539108062401338E-002   0.0000000000000000     
  -3.2670379510989889E-002   9.2967242631356653E-002   0.0000000000000000     
  -3.3742019242604546E-002   9.9557446441754696E-002   0.0000000000000000     
  -3.4772552986831518E-002  0.10630971949359552        0.0000000000000000     
  -3.4905438839290460E-002   8.0577774147483933E-002   0.0000000000000000     
  -3.6245226798872474E-002   8.6841878514253512E-002   0.0000000000000000     
  -3.7534591274253543E-002   9.3265823298449832E-002   0.0000000000000000     
  -3.8773532265433654E-002   9.9849608500072878E-002   0.0000000000000000     
  -3.9962049772412814E-002  0.10659323411912267        0.0000000000000000     
  -1.9564588931867254E-002  0.10556876637546868        0.0000000000000000     
  -2.0132682752179130E-002  0.11250823989078286        0.0000000000000000     
  -2.0674100826158118E-002  0.11958418500633876        0.0000000000000000     
  -2.1188843153804218E-002  0.12679660172213636        0.0000000000000000     
  -2.1676909735117433E-002  0.13414549003817566        0.0000000000000000     
  -2.4573822566558726E-002  0.10579748562176851        0.0000000000000000     
  -2.5277119457667037E-002  0.11272314484388873        0.0000000000000000     
  -2.5948922701326097E-002  0.11978581527769487        0.0000000000000000     
  -2.6589232297535917E-002  0.12698549692318684        0.0000000000000000     
  -2.7198048246296486E-002  0.13432218978036473        0.0000000000000000     
  -2.9643143918213481E-002  0.10604446999447745        0.0000000000000000     
  -3.0486634871320459E-002  0.11295747343160233        0.0000000000000000     
  -3.1293320929605670E-002  0.12000746320550976        0.0000000000000000     
  -3.2063202093069107E-002  0.12719443931619978        0.0000000000000000     
  -3.2796278361710778E-002  0.13451840176367238        0.0000000000000000     
  -3.4772552986831518E-002  0.10630971949359552        0.0000000000000000     
  -3.5761228993139396E-002  0.11321122565392359        0.0000000000000000     
  -3.6707295510996829E-002  0.12024912878978350        0.0000000000000000     
  -3.7610752540403802E-002  0.12742342890117520        0.0000000000000000     
  -3.8471600081360309E-002  0.13473412598809870        0.0000000000000000     
  -3.9962049772412814E-002  0.10659323411912267        0.0000000000000000     
  -4.1100901823123856E-002  0.11348440151085255        0.0000000000000000     
  -4.2190846445499579E-002  0.12051081203051604        0.0000000000000000     
  -4.3231883639539989E-002  0.12767246567811308        0.0000000000000000     
  -4.4224013405245073E-002  0.13496936245364366        0.0000000000000000     
  -2.1676909735117433E-002  0.13414549003817566        0.0000000000000000     
  -2.2137739526149159E-002  0.14161807071858215        0.0000000000000000     
  -2.2570771482950794E-002  0.14920156452748129        0.0000000000000000     
  -2.2976005605522341E-002  0.15689597146487311        0.0000000000000000     
  -2.3353441893863802E-002  0.16470129153075763        0.0000000000000000     
  -2.7198048246296486E-002  0.13432218978036473        0.0000000000000000     
  -2.7774041386850579E-002  0.14178217728439563        0.0000000000000000     
  -2.8315882558440978E-002  0.14935174287044661        0.0000000000000000     
  -2.8823571761067673E-002  0.15703088653851774        0.0000000000000000     
  -2.9297108994730661E-002  0.16481960828860900        0.0000000000000000     
  -3.2796278361710778E-002  0.13451840176367238        0.0000000000000000     
  -3.3490724645224706E-002  0.14196534617366333        0.0000000000000000     
  -3.4144715853304905E-002  0.14952126817190828        0.0000000000000000     
  -3.4758251985951387E-002  0.15718616775840730        0.0000000000000000     
  -3.5331333043164152E-002  0.16496004493316033        0.0000000000000000     
  -3.8471600081360309E-002  0.13473412598809870        0.0000000000000000     
  -3.9287789301271518E-002  0.14216757738638533        0.0000000000000000     
  -4.0057271367542571E-002  0.14971014043186634        0.0000000000000000     
  -4.0780046280173489E-002  0.15736181512454173        0.0000000000000000     
  -4.1456114039164271E-002  0.16512260146441152        0.0000000000000000     
  -4.4224013405245073E-002  0.13496936245364366        0.0000000000000000     
  -4.5165235354991028E-002  0.14238887092256161        0.0000000000000000     
  -4.6053549101154001E-002  0.14991835965032074        0.0000000000000000     
  -4.6888954643733986E-002  0.15755782863692105        0.0000000000000000     
  -4.7671451982731011E-002  0.16530727788236257        0.0000000000000000     
  -2.3353441893863802E-002  0.16470129153075763        0.0000000000000000     
  -2.3701918426928203E-002  0.17260655196461455        0.0000000000000000     
  -2.4020273283668580E-002  0.18060078000592378        0.0000000000000000     
  -2.4308506464084934E-002  0.18868397565468525        0.0000000000000000     
  -2.4566617968177263E-002  0.19685613891089901        0.0000000000000000     
  -2.9297108994730661E-002  0.16481960828860900        0.0000000000000000     
  -2.9735262808100647E-002  0.17270864272855541        0.0000000000000000     
  -3.0136801749848351E-002  0.18068872446619183        0.0000000000000000     
  -3.0501725819973759E-002  0.18875985350151833        0.0000000000000000     
  -3.0830035018476885E-002  0.19692202983453497        0.0000000000000000     
  -3.5331333043164152E-002  0.16496004493316033        0.0000000000000000     
  -3.5862656747246854E-002  0.17283428270178855        0.0000000000000000     
  -3.6350920820503167E-002  0.18080026406991292        0.0000000000000000     
  -3.6796125262933091E-002  0.18885798903753367        0.0000000000000000     
  -3.7198270074536618E-002  0.19700745760465060        0.0000000000000000     
  -4.1456114039164271E-002  0.16512260146441152        0.0000000000000000     
  -4.2084100244366804E-002  0.17298347188431387        0.0000000000000000     
  -4.2662630495633021E-002  0.18093539881708712        0.0000000000000000     
  -4.3191704792962901E-002  0.18897838226273111        0.0000000000000000     
  -4.3671323136356459E-002  0.19711242222124595        0.0000000000000000     
  -4.7671451982731011E-002  0.16530727788236257        0.0000000000000000     
  -4.8399593299460510E-002  0.17315621027613154        0.0000000000000000     
  -4.9071930775237901E-002  0.18109412870771430        0.0000000000000000     
  -4.9688464410063207E-002  0.18912103317711079        0.0000000000000000     
  -5.0249194203936427E-002  0.19723692368432102        0.0000000000000000     
  -2.4566617968177263E-002  0.19685613891089901        0.0000000000000000     
  -2.4795418908766857E-002  0.20510147276202834        0.0000000000000000     
  -2.4995720398675009E-002  0.21340418019553664        0.0000000000000000     
  -2.5167522437901713E-002  0.22176426121142381        0.0000000000000000     
  -2.5310825026446965E-002  0.23018171580968994        0.0000000000000000     
  -3.0830035018476885E-002  0.19692202983453497        0.0000000000000000     
  -3.1121717278012391E-002  0.20516006717440208        0.0000000000000000     
  -3.1376760531234969E-002  0.21345877923028009        0.0000000000000000     
  -3.1595164778144620E-002  0.22181816600216911        0.0000000000000000     
  -3.1776930018741344E-002  0.23023822749006909        0.0000000000000000     
  -3.7198270074536618E-002  0.19700745760465060        0.0000000000000000     
  -3.7556518067303389E-002  0.20523490483403709        0.0000000000000000     
  -3.7870032053223014E-002  0.21352656578846640        0.0000000000000000     
  -3.8138812032295522E-002  0.22188244046793848        0.0000000000000000     
  -3.8362858004520890E-002  0.23030252887245339        0.0000000000000000     
  -4.3671323136356459E-002  0.19711242222124595        0.0000000000000000     
  -4.4099821276639833E-002  0.20532598574093350        0.0000000000000000     
  -4.4475534964639150E-002  0.21360753987009543        0.0000000000000000     
  -4.4798464200354410E-002  0.22195708460873190        0.0000000000000000     
  -4.5068608983785598E-002  0.23037461995684289        0.0000000000000000     
  -5.0249194203936427E-002  0.19723692368432102        0.0000000000000000     
  -5.0751626906021752E-002  0.20543330989509115        0.0000000000000000     
  -5.1193269265483364E-002  0.21370170147516723        0.0000000000000000     
  -5.1574121282321278E-002  0.22204209842454936        0.0000000000000000     
  -5.1894182956535487E-002  0.23045450074323753        0.0000000000000000     
  -2.5310825026446965E-002  0.23018171580968994        0.0000000000000000     
  -2.5431658106285154E-002  0.23862912026785926        0.0000000000000000     
  -2.5536051619390668E-002  0.24707905086345605        0.0000000000000000     
  -2.5624005565763500E-002  0.25553150759648019        0.0000000000000000     
  -2.5695519945403655E-002  0.26398649046693184        0.0000000000000000     
  -3.1776930018741344E-002  0.23023822749006909        0.0000000000000000     
  -3.1929944374697011E-002  0.23869426471271121        0.0000000000000000     
  -3.2062095967683502E-002  0.24716157868882671        0.0000000000000000     
  -3.2173384797700808E-002  0.25564016941841561        0.0000000000000000     
  -3.2263810864748943E-002  0.26413003690147790        0.0000000000000000     
  -3.8362858004520890E-002  0.23030252887245339        0.0000000000000000     
  -3.8551048904237460E-002  0.23876617526010580        0.0000000000000000     
  -3.8712263665783585E-002  0.24725272388899042        0.0000000000000000     
  -3.8846502289159250E-002  0.25576217475910723        0.0000000000000000     
  -3.8953764774364463E-002  0.26429452787045632        0.0000000000000000     
  -4.5068608983785598E-002  0.23037461995684289        0.0000000000000000     
  -4.5294971694906518E-002  0.23884485191004304        0.0000000000000000     
  -4.5486554713690924E-002  0.24735248646394714        0.0000000000000000     
  -4.5643358040138832E-002  0.25589752361855511        0.0000000000000000     
  -4.5765381674250233E-002  0.26447996337386709        0.0000000000000000     
  -5.1894182956535487E-002  0.23045450074323753        0.0000000000000000     
  -5.2161712746704170E-002  0.23893029466252294        0.0000000000000000     
  -5.2384969111405527E-002  0.24746086641369686        0.0000000000000000     
  -5.2563952050639545E-002  0.25604621599675931        0.0000000000000000     
  -5.2698661564406238E-002  0.26468634341171027        0.0000000000000000     
  -2.5695519945403655E-002  0.26398649046693184        0.0000000000000000     
  -2.5762756748399063E-002  0.27238884742061559        0.0000000000000000     
  -2.5837877964837684E-002  0.28068342640333616        0.0000000000000000     
  -2.5920883594719508E-002  0.28887022741509355        0.0000000000000000     
  -2.6011773638044539E-002  0.29694925045588771        0.0000000000000000     
  -3.2263810864748943E-002  0.26413003690147790        0.0000000000000000     
  -3.2348078382995291E-002  0.27257822953177113        0.0000000000000000     
  -3.2440891566607254E-002  0.28093179570305304        0.0000000000000000     
  -3.2542250415584832E-002  0.28919073541532347        0.0000000000000000     
  -3.2652154929928019E-002  0.29735504866858259        0.0000000000000000     
  -3.8953764774364463E-002  0.26429452787045632        0.0000000000000000     
  -3.9052698544385610E-002  0.27279856019391030        0.0000000000000000     
  -3.9161951022209075E-002  0.28122304870034209        0.0000000000000000     
  -3.9281522207834860E-002  0.28956799338975159        0.0000000000000000     
  -3.9411412101262956E-002  0.29783339426213884        0.0000000000000000     
  -4.5765381674250233E-002  0.26447996337386709        0.0000000000000000     
  -4.5876617232570034E-002  0.27304983940703303        0.0000000000000000     
  -4.6001056331643156E-002  0.28155718539520336        0.0000000000000000     
  -4.6138698971469577E-002  0.29000200133837767        0.0000000000000000     
  -4.6289545152049326E-002  0.29838428723655647        0.0000000000000000     
  -5.2698661564406238E-002  0.26468634341171027        0.0000000000000000     
  -5.2819834447548564E-002  0.27333206717113950        0.0000000000000000     
  -5.2958207494909502E-002  0.28193420578763673        0.0000000000000000     
  -5.3113780706489012E-002  0.29049275926120205        0.0000000000000000     
  -5.3286554082287149E-002  0.29900772759183547        0.0000000000000000     
  -2.9136543956089979E-002   5.7514616863872978E-002   0.0000000000000000     
  -3.0636685691228321E-002   6.2966610056910594E-002   0.0000000000000000     
  -3.2098215416807852E-002   6.8627800668524946E-002   0.0000000000000000     
  -3.3521133132828569E-002   7.4498188698716064E-002   0.0000000000000000     
  -3.4905438839290460E-002   8.0577774147483933E-002   0.0000000000000000     
  -3.2864657162914750E-002   5.7538546808140072E-002   0.0000000000000000     
  -3.4611769070712978E-002   6.3134740032550471E-002   0.0000000000000000     
  -3.6303808743824294E-002   6.8898562944310363E-002   0.0000000000000000     
  -3.7940776182248705E-002   7.4830015543419712E-002   0.0000000000000000     
  -3.9522671385986183E-002   8.0929097829878560E-002   0.0000000000000000     
  -3.6902538549214617E-002   5.7843416032209855E-002   0.0000000000000000     
  -3.8858517086283503E-002   6.3505992772090694E-002   0.0000000000000000     
  -4.0750305456692379E-002   6.9314785223077963E-002   0.0000000000000000     
  -4.2577903660441258E-002   7.5269793385171715E-002   0.0000000000000000     
  -4.4341311697530091E-002   8.1371017258371911E-002   0.0000000000000000     
  -4.1250188114989567E-002   5.8429224536082319E-002   0.0000000000000000     
  -4.3376929737939912E-002   6.4080368275531222E-002   0.0000000000000000     
  -4.5437705555412128E-002   6.9876467504827802E-002   0.0000000000000000     
  -4.7432515567406214E-002   7.5817522223972061E-002   0.0000000000000000     
  -4.9361359773922170E-002   8.1903532432963999E-002   0.0000000000000000     
  -4.5907605860239620E-002   5.9295972319757459E-002   0.0000000000000000     
  -4.8167007025682190E-002   6.4857866542872095E-002   0.0000000000000000     
  -5.0366009039983513E-002   7.0583609789559867E-002   0.0000000000000000     
  -5.2504611903143601E-002   7.6473202059820763E-002   0.0000000000000000     
  -5.4582815615162428E-002   8.2526643353654824E-002   0.0000000000000000     
  -3.4905438839290460E-002   8.0577774147483933E-002   0.0000000000000000     
  -3.6245226798872474E-002   8.6841878514253512E-002   0.0000000000000000     
  -3.7534591274253543E-002   9.3265823298449832E-002   0.0000000000000000     
  -3.8773532265433654E-002   9.9849608500072878E-002   0.0000000000000000     
  -3.9962049772412814E-002  0.10659323411912267        0.0000000000000000     
  -3.9522671385986183E-002   8.0929097829878560E-002   0.0000000000000000     
  -4.1047407612325705E-002   8.7190641163131855E-002   0.0000000000000000     
  -4.2512898118556186E-002   9.3609476902624653E-002   0.0000000000000000     
  -4.3919142904677626E-002  0.10018560504835688        0.0000000000000000     
  -4.5266141970690024E-002  0.10691902560032862        0.0000000000000000     
  -4.4341311697530091E-002   8.1371017258371911E-002   0.0000000000000000     
  -4.6039673011590829E-002   8.7623021580443938E-002   0.0000000000000000     
  -4.7672131046255339E-002   9.4030371089153117E-002   0.0000000000000000     
  -4.9238685801523650E-002  0.10059306578449953        0.0000000000000000     
  -5.0739337277395741E-002  0.10731110566648309        0.0000000000000000     
  -4.9361359773922170E-002   8.1903532432963999E-002   0.0000000000000000     
  -5.1222022996667838E-002   8.8139019766189694E-002   0.0000000000000000     
  -5.3012290057351023E-002   9.4528505858035308E-002   0.0000000000000000     
  -5.4732160955971741E-002  0.10107199070850073        0.0000000000000000     
  -5.6381635692529963E-002  0.10776947431758609        0.0000000000000000     
  -5.4582815615162428E-002   8.2526643353654824E-002   0.0000000000000000     
  -5.6594457567556725E-002   8.8738635720369219E-002   0.0000000000000000     
  -5.8533375151843210E-002   9.5103881209271116E-002   0.0000000000000000     
  -6.0399568368021864E-002  0.10162237982036060        0.0000000000000000     
  -6.2193037216092699E-002  0.10829413155363758        0.0000000000000000     
  -3.9962049772412814E-002  0.10659323411912267        0.0000000000000000     
  -4.1100901823123856E-002  0.11348440151085255        0.0000000000000000     
  -4.2190846445499579E-002  0.12051081203051604        0.0000000000000000     
  -4.3231883639539989E-002  0.12767246567811308        0.0000000000000000     
  -4.4224013405245073E-002  0.13496936245364366        0.0000000000000000     
  -4.5266141970690024E-002  0.10691902560032862        0.0000000000000000     
  -4.6555877711835149E-002  0.11379819423586539        0.0000000000000000     
  -4.7790332523354767E-002  0.12081156663229287        0.0000000000000000     
  -4.8969506405248865E-002  0.12795914278961099        0.0000000000000000     
  -5.0093399357517471E-002  0.13524092270781979        0.0000000000000000     
  -5.0739337277395741E-002  0.10731110566648309        0.0000000000000000     
  -5.2176381009834606E-002  0.11417379706243824        0.0000000000000000     
  -5.3552112534803256E-002  0.12117044629969941        0.0000000000000000     
  -5.4866531852301663E-002  0.12830105337826656        0.0000000000000000     
  -5.6119638962329861E-002  0.13556561829813968        0.0000000000000000     
  -5.6381635692529963E-002  0.10776947431758609        0.0000000000000000     
  -5.7962411717122221E-002  0.11461120999057110        0.0000000000000000     
  -5.9476186479845032E-002  0.12158745103273567        0.0000000000000000     
  -6.0922959980698368E-002  0.12869819744407979        0.0000000000000000     
  -6.2302732219682244E-002  0.13594344922460339        0.0000000000000000     
  -6.2193037216092699E-002  0.10829413155363758        0.0000000000000000     
  -6.3913969833698001E-002  0.11511043302026398        0.0000000000000000     
  -6.5562554358480116E-002  0.12206258083140167        0.0000000000000000     
  -6.7138790790438968E-002  0.12915057498705063        0.0000000000000000     
  -6.8642679129574641E-002  0.13637441548721083        0.0000000000000000     
  -4.4224013405245073E-002  0.13496936245364366        0.0000000000000000     
  -4.5165235354991028E-002  0.14238887092256161        0.0000000000000000     
  -4.6053549101154001E-002  0.14991835965032074        0.0000000000000000     
  -4.6888954643733986E-002  0.15755782863692105        0.0000000000000000     
  -4.7671451982731011E-002  0.16530727788236257        0.0000000000000000     
  -5.0093399357517471E-002  0.13524092270781979        0.0000000000000000     
  -5.1160240396178627E-002  0.14264518014488661        0.0000000000000000     
  -5.2168258537250413E-002  0.15016018885877877        0.0000000000000000     
  -5.3117453780732828E-002  0.15778594884949637        0.0000000000000000     
  -5.4007826126625871E-002  0.16552246011703931        0.0000000000000000     
  -5.6119638962329861E-002  0.13556561829813968        0.0000000000000000     
  -5.7309982014629689E-002  0.14295245841605481        0.0000000000000000     
  -5.8436109158943032E-002  0.15044989108874776        0.0000000000000000     
  -5.9498020395269906E-002  0.15805791631621868        0.0000000000000000     
  -6.0495715723610274E-002  0.16577653409846743        0.0000000000000000     
  -6.2302732219682244E-002  0.13594344922460339        0.0000000000000000     
  -6.3614460210344240E-002  0.14331070573606614        0.0000000000000000     
  -6.4857100966231901E-002  0.15078746634022766        0.0000000000000000     
  -6.6030654487345256E-002  0.15837373103708793        0.0000000000000000     
  -6.7135120773684276E-002  0.16606949982664701        0.0000000000000000     
  -6.8642679129574641E-002  0.13637441548721083        0.0000000000000000     
  -7.0073674983322246E-002  0.14371992210492071        0.0000000000000000     
  -7.1431233959116991E-002  0.15117291461321850        0.0000000000000000     
  -7.2715356056958849E-002  0.15873339301210426        0.0000000000000000     
  -7.3926041276847820E-002  0.16640135730157801        0.0000000000000000     
  -4.7671451982731011E-002  0.16530727788236257        0.0000000000000000     
  -4.8399593299460510E-002  0.17315621027613154        0.0000000000000000     
  -4.9071930775237901E-002  0.18109412870771430        0.0000000000000000     
  -4.9688464410063207E-002  0.18912103317711079        0.0000000000000000     
  -5.0249194203936427E-002  0.19723692368432102        0.0000000000000000     
  -5.4007826126625871E-002  0.16552246011703931        0.0000000000000000     
  -5.4837936951812417E-002  0.17335781670369074        0.0000000000000000     
  -5.5606347633175388E-002  0.18128011265173372        0.0000000000000000     
  -5.6313058170714740E-002  0.18928934796116839        0.0000000000000000     
  -5.6958068564430503E-002  0.19738552263199463        0.0000000000000000     
  -6.0495715723610274E-002  0.16577653409846743        0.0000000000000000     
  -6.1427932240707028E-002  0.17359360999344059        0.0000000000000000     
  -6.2293407043303016E-002  0.18149700955908471        0.0000000000000000     
  -6.3092140131398231E-002  0.18948673279539974        0.0000000000000000     
  -6.3824131504992693E-002  0.19756277970238564        0.0000000000000000     
  -6.7135120773684276E-002  0.16606949982664701        0.0000000000000000     
  -6.8169579166144328E-002  0.17386359014538122        0.0000000000000000     
  -6.9133109005620808E-002  0.18174481942976720        0.0000000000000000     
  -7.0025710292113685E-002  0.18971318767980480        0.0000000000000000     
  -7.0847383025622990E-002  0.19776869489549409        0.0000000000000000     
  -7.3926041276847820E-002  0.16640135730157801        0.0000000000000000     
  -7.5062877728124311E-002  0.17416775715951266        0.0000000000000000     
  -7.6125453520128741E-002  0.18202354226378115        0.0000000000000000     
  -7.7113768652861098E-002  0.18996871261438364        0.0000000000000000     
  -7.8027823126321380E-002  0.19800326821131997        0.0000000000000000     
  -5.0249194203936427E-002  0.19723692368432102        0.0000000000000000     
  -5.0751626906021752E-002  0.20543330989509115        0.0000000000000000     
  -5.1193269265483364E-002  0.21370170147516723        0.0000000000000000     
  -5.1574121282321278E-002  0.22204209842454936        0.0000000000000000     
  -5.1894182956535487E-002  0.23045450074323753        0.0000000000000000     
  -5.6958068564430503E-002  0.19738552263199463        0.0000000000000000     
  -5.7538452569156046E-002  0.20556282787186245        0.0000000000000000     
  -5.8051283939724752E-002  0.21381545488842174        0.0000000000000000     
  -5.8496562676136621E-002  0.22214340368167254        0.0000000000000000     
  -5.8874288778391654E-002  0.23054667425161487        0.0000000000000000     
  -6.3824131504992693E-002  0.19756277970238564        0.0000000000000000     
  -6.4486815879749651E-002  0.20572049024659961        0.0000000000000000     
  -6.5077627971332389E-002  0.21395520439459875        0.0000000000000000     
  -6.5596567779740905E-002  0.22226692214638302        0.0000000000000000     
  -6.6043635304975215E-002  0.23065564350195250        0.0000000000000000     
  -7.0847383025622990E-002  0.19776869489549409        0.0000000000000000     
  -7.1596716837802554E-002  0.20590629701930269        0.0000000000000000     
  -7.2272301360306282E-002  0.21412094999369827        0.0000000000000000     
  -7.2874136593134159E-002  0.22241265381868083        0.0000000000000000     
  -7.3402222536286185E-002  0.23078140849425038        0.0000000000000000     
  -7.8027823126321380E-002  0.19800326821131997        0.0000000000000000     
  -7.8868155443314769E-002  0.20612024818997168        0.0000000000000000     
  -7.9635304106646404E-002  0.21431269168572037        0.0000000000000000     
  -8.0329269116316354E-002  0.22258059869856595        0.0000000000000000     
  -8.0950050472324578E-002  0.23092396922850852        0.0000000000000000     
  -5.1894182956535487E-002  0.23045450074323753        0.0000000000000000     
  -5.2161712746704170E-002  0.23893029466252294        0.0000000000000000     
  -5.2384969111405527E-002  0.24746086641369686        0.0000000000000000     
  -5.2563952050639545E-002  0.25604621599675931        0.0000000000000000     
  -5.2698661564406238E-002  0.26468634341171027        0.0000000000000000     
  -5.8874288778391654E-002  0.23054667425161487        0.0000000000000000     
  -5.9190651584045420E-002  0.23902397596021352        0.0000000000000000     
  -5.9451840430653512E-002  0.24757401816943331        0.0000000000000000     
  -5.9657855318215922E-002  0.25619680087927410        0.0000000000000000     
  -5.9808696246732650E-002  0.26489232408973601        0.0000000000000000     
  -6.6043635304975215E-002  0.23065564350195250        0.0000000000000000     
  -6.6421167731345265E-002  0.23912736824578296        0.0000000000000000     
  -6.6731502243161031E-002  0.24768809616235010        0.0000000000000000     
  -6.6974638840422485E-002  0.25633782725165405        0.0000000000000000     
  -6.7150577523129640E-002  0.26507656151369463        0.0000000000000000     
  -7.3402222536286185E-002  0.23078140849425038        0.0000000000000000     
  -7.3853261188603719E-002  0.23924047151923114        0.0000000000000000     
  -7.4223954548928078E-002  0.24780310039244735        0.0000000000000000     
  -7.4514302617259234E-002  0.25646929511389893        0.0000000000000000     
  -7.4724305393597215E-002  0.26523905568358608        0.0000000000000000     
  -8.0950050472324578E-002  0.23092396922850852        0.0000000000000000     
  -8.1486931955820754E-002  0.23936328578055815        0.0000000000000000     
  -8.1929197347954619E-002  0.24791903085972497        0.0000000000000000     
  -8.2276846648726157E-002  0.25659120446600908        0.0000000000000000     
  -8.2529879858135355E-002  0.26537980659941030        0.0000000000000000     
  -5.2698661564406238E-002  0.26468634341171027        0.0000000000000000     
  -5.2819834447548564E-002  0.27333206717113950        0.0000000000000000     
  -5.2958207494909502E-002  0.28193420578763673        0.0000000000000000     
  -5.3113780706489012E-002  0.29049275926120205        0.0000000000000000     
  -5.3286554082287149E-002  0.29900772759183547        0.0000000000000000     
  -5.9808696246732650E-002  0.26489232408973601        0.0000000000000000     
  -5.9941204750644739E-002  0.27361654313059736        0.0000000000000000     
  -6.0092222364393204E-002  0.28232541333163658        0.0000000000000000     
  -6.0261749087978066E-002  0.29101893469285339        0.0000000000000000     
  -6.0449784921399310E-002  0.29969710721424797        0.0000000000000000     
  -6.7150577523129640E-002  0.26507656151369463        0.0000000000000000     
  -6.7299582703182093E-002  0.27387456692977463        0.0000000000000000     
  -6.7461918792479439E-002  0.28270211148119656        0.0000000000000000     
  -6.7637585791021623E-002  0.29155919516796042        0.0000000000000000     
  -6.7826583698808701E-002  0.30044581799006620        0.0000000000000000     
  -7.4724305393597215E-002  0.26523905568358608        0.0000000000000000     
  -7.4894968305160639E-002  0.27410613856867116        0.0000000000000000     
  -7.5067296779168124E-002  0.28306430023631685        0.0000000000000000     
  -7.5241290815619713E-002  0.29211354068652318        0.0000000000000000     
  -7.5416950414515349E-002  0.30125385991929010        0.0000000000000000     
  -8.2529879858135355E-002  0.26537980659941030        0.0000000000000000     
  -8.2727361556580392E-002  0.27431125804728707        0.0000000000000000     
  -8.2908356324459365E-002  0.28341197959699749        0.0000000000000000     
  -8.3072864161772314E-002  0.29268197124854178        0.0000000000000000     
  -8.3220885068519240E-002  0.30212123300191968        0.0000000000000000     
  -4.5907605860239620E-002   5.9295972319757459E-002   0.0000000000000000     
  -4.8167007025682190E-002   6.4857866542872095E-002   0.0000000000000000     
  -5.0366009039983513E-002   7.0583609789559867E-002   0.0000000000000000     
  -5.2504611903143601E-002   7.6473202059820763E-002   0.0000000000000000     
  -5.4582815615162428E-002   8.2526643353654824E-002   0.0000000000000000     
  -5.0666180456965422E-002   6.0252986150121923E-002   0.0000000000000000     
  -5.3078117141599962E-002   6.5712645379728832E-002   0.0000000000000000     
  -5.5430664265821189E-002   7.1357884898844898E-002   0.0000000000000000     
  -5.7723821829629068E-002   7.7188704707470163E-002   0.0000000000000000     
  -5.9957589833023628E-002   8.3205104805604599E-002   0.0000000000000000     
  -5.5317300577167661E-002   6.1109592794062362E-002   0.0000000000000000     
  -5.7959628277782886E-002   6.6518862591716937E-002   0.0000000000000000     
  -6.0527119588339770E-002   7.2120965654253688E-002   0.0000000000000000     
  -6.3019774508838333E-002   7.7915901981672545E-002   0.0000000000000000     
  -6.5437593039278541E-002   8.3903671573973507E-002   0.0000000000000000     
  -5.9860966220846329E-002   6.1865792251578754E-002   0.0000000000000000     
  -6.2811540434230942E-002   6.7276518178836481E-002   0.0000000000000000     
  -6.5655375007539291E-002   7.2872852055786183E-002   0.0000000000000000     
  -6.8392469940771361E-002   7.8654793882427895E-002   0.0000000000000000     
  -7.1022825233927181E-002   8.4622343658761617E-002   0.0000000000000000     
  -6.4297177388001420E-002   6.2521584522671120E-002   0.0000000000000000     
  -6.7633853610944122E-002   6.7985612141087365E-002   0.0000000000000000     
  -7.0815430523419709E-002   7.3613544103442424E-002   0.0000000000000000     
  -7.3841908125428179E-002   7.9405380409736256E-002   0.0000000000000000     
  -7.6713286416969534E-002   8.5361121059968861E-002   0.0000000000000000     
  -5.4582815615162428E-002   8.2526643353654824E-002   0.0000000000000000     
  -5.6594457567556725E-002   8.8738635720369219E-002   0.0000000000000000     
  -5.8533375151843210E-002   9.5103881209271116E-002   0.0000000000000000     
  -6.0399568368021864E-002  0.10162237982036060        0.0000000000000000     
  -6.2193037216092699E-002  0.10829413155363758        0.0000000000000000     
  -5.9957589833023628E-002   8.3205104805604599E-002   0.0000000000000000     
  -6.2123726781208727E-002   8.9390729566398000E-002   0.0000000000000000     
  -6.4213991179388252E-002   9.5729223363000118E-002   0.0000000000000000     
  -6.6228383027562177E-002  0.10222058619541102        0.0000000000000000     
  -6.8166902325730513E-002  0.10886481806363069        0.0000000000000000     
  -6.5437593039278541E-002   8.3903671573973507E-002   0.0000000000000000     
  -6.7776580694575053E-002   9.0064161427691608E-002   0.0000000000000000     
  -7.0032742989642460E-002   9.6377258539361813E-002   0.0000000000000000     
  -7.2206079924480762E-002  0.10284296290898408        0.0000000000000000     
  -7.4296591499089987E-002  0.10946127453655846        0.0000000000000000     
  -7.1022825233927181E-002   8.4622343658761617E-002   0.0000000000000000     
  -7.3553019307655676E-002   9.0758931304250098E-002   0.0000000000000000     
  -7.5989630582605855E-002   9.7047986738356143E-002   0.0000000000000000     
  -7.8332659058777634E-002  0.10348950996107974        0.0000000000000000     
  -8.0582104736171112E-002  0.11008350097242089        0.0000000000000000     
  -7.6713286416969534E-002   8.5361121059968861E-002   0.0000000000000000     
  -7.9453042620450651E-002   9.1475039196073443E-002   0.0000000000000000     
  -8.2084653958278422E-002   9.7741407959983151E-002   0.0000000000000000     
  -8.4608120430452821E-002  0.10416022735169801        0.0000000000000000     
  -8.7023442036973875E-002  0.11073149737121800        0.0000000000000000     
  -6.2193037216092699E-002  0.10829413155363758        0.0000000000000000     
  -6.3913969833698001E-002  0.11511043302026398        0.0000000000000000     
  -6.5562554358480116E-002  0.12206258083140167        0.0000000000000000     
  -6.7138790790438968E-002  0.12915057498705063        0.0000000000000000     
  -6.8642679129574641E-002  0.13637441548721083        0.0000000000000000     
  -6.8166902325730513E-002  0.10886481806363069        0.0000000000000000     
  -7.0028565304718682E-002  0.11565406074541179        0.0000000000000000     
  -7.1812388195352087E-002  0.12258045601850708        0.0000000000000000     
  -7.3518370997630728E-002  0.12964400388291647        0.0000000000000000     
  -7.5146513711554591E-002  0.13684470433864010        0.0000000000000000     
  -7.4296591499089987E-002  0.10946127453655846        0.0000000000000000     
  -7.6303708075340967E-002  0.11622468775990942        0.0000000000000000     
  -7.8226860015104552E-002  0.12312569691686154        0.0000000000000000     
  -8.0066047318380823E-002  0.13016430200741477        0.0000000000000000     
  -8.1821269985169684E-002  0.13734050303156911        0.0000000000000000     
  -8.0582104736171112E-002  0.11008350097242089        0.0000000000000000     
  -8.2739398145564858E-002  0.11682231406375690        0.0000000000000000     
  -8.4805969817737581E-002  0.12369830352646508        0.0000000000000000     
  -8.6781819752689240E-002  0.13071146936054542        0.0000000000000000     
  -8.8666947950419892E-002  0.13786181156599797        0.0000000000000000     
  -8.7023442036973875E-002  0.11073149737121800        0.0000000000000000     
  -8.9335635515390366E-002  0.11744693965695420        0.0000000000000000     
  -9.1549717603251091E-002  0.12429827584731772        0.0000000000000000     
  -9.3665688300556035E-002  0.13128550594230851        0.0000000000000000     
  -9.5683547607305214E-002  0.13840862994192660        0.0000000000000000     
  -6.8642679129574641E-002  0.13637441548721083        0.0000000000000000     
  -7.0073674983322246E-002  0.14371992210492071        0.0000000000000000     
  -7.1431233959116991E-002  0.15117291461321850        0.0000000000000000     
  -7.2715356056958849E-002  0.15873339301210426        0.0000000000000000     
  -7.3926041276847820E-002  0.16640135730157801        0.0000000000000000     
  -7.5146513711554591E-002  0.13684470433864010        0.0000000000000000     
  -7.6696867403810542E-002  0.14416682450106263        0.0000000000000000     
  -7.8169483141085377E-002  0.15159463148556881        0.0000000000000000     
  -7.9564360923379110E-002  0.15912812529215875        0.0000000000000000     
  -8.0881500750691740E-002  0.16676730592083233        0.0000000000000000     
  -8.1821269985169684E-002  0.13734050303156911        0.0000000000000000     
  -8.3493278542055890E-002  0.14463812990293609        0.0000000000000000     
  -8.5082823515624170E-002  0.15204101253512728        0.0000000000000000     
  -8.6589904905874482E-002  0.15954915092814248        0.0000000000000000     
  -8.8014522712806867E-002  0.16716254508198194        0.0000000000000000     
  -8.8666947950419892E-002  0.13786181156599797        0.0000000000000000     
  -9.0462908398058289E-002  0.14513383831054125        0.0000000000000000     
  -9.2171255082733314E-002  0.15251205776189380        0.0000000000000000     
  -9.3791988004444951E-002  0.15999646992005567        0.0000000000000000     
  -9.5325107163193187E-002  0.16758707478502685        0.0000000000000000     
  -9.5683547607305214E-002  0.13840862994192660        0.0000000000000000     
  -9.7605756971817767E-002  0.14565394972387793        0.0000000000000000     
  -9.9434777842412864E-002  0.15300776716586845        0.0000000000000000     
 -0.10117061021909052       0.16047008226789813        0.0000000000000000     
 -0.10281325410185070       0.16804089502996700        0.0000000000000000     
  -7.3926041276847820E-002  0.16640135730157801        0.0000000000000000     
  -7.5062877728124311E-002  0.17416775715951266        0.0000000000000000     
  -7.6125453520128741E-002  0.18202354226378115        0.0000000000000000     
  -7.7113768652861098E-002  0.18996871261438364        0.0000000000000000     
  -7.8027823126321380E-002  0.19800326821131997        0.0000000000000000     
  -8.0881500750691740E-002  0.16676730592083233        0.0000000000000000     
  -8.2121157808247802E-002  0.17450511457410314        0.0000000000000000     
  -8.3283587281271804E-002  0.18233449245448471        0.0000000000000000     
  -8.4368789169763744E-002  0.19025543956197707        0.0000000000000000     
  -8.5376763473723638E-002  0.19826795589658019        0.0000000000000000     
  -8.8014522712806867E-002  0.16716254508198194        0.0000000000000000     
  -8.9357749288115615E-002  0.17487466592742112        0.0000000000000000     
  -9.0620656983494974E-002  0.18267898439523586        0.0000000000000000     
  -9.1803245798944944E-002  0.19057550048542604        0.0000000000000000     
  -9.2905515734465524E-002  0.19856421419799175        0.0000000000000000     
  -9.5325107163193187E-002  0.16758707478502685        0.0000000000000000     
  -9.6772652167727721E-002  0.17527641121946666        0.0000000000000000     
  -9.8136662626798196E-002  0.18305701808603456        0.0000000000000000     
  -9.9417138540404640E-002  0.19092889538473057        0.0000000000000000     
 -0.10061407990854704       0.19889204311555464        0.0000000000000000     
 -0.10281325410185070       0.16804089502996700        0.0000000000000000     
 -0.10436586644708414       0.17571035045023969        0.0000000000000000     
 -0.10583160421118154       0.18346859352688094        0.0000000000000000     
 -0.10721046739414287       0.19131562425989063        0.0000000000000000     
 -0.10850245599596817       0.19925144264926886        0.0000000000000000     
  -7.8027823126321380E-002  0.19800326821131997        0.0000000000000000     
  -7.8868155443314769E-002  0.20612024818997168        0.0000000000000000     
  -7.9635304106646404E-002  0.21431269168572037        0.0000000000000000     
  -8.0329269116316354E-002  0.22258059869856595        0.0000000000000000     
  -8.0950050472324578E-002  0.23092396922850852        0.0000000000000000     
  -8.5376763473723638E-002  0.19826795589658019        0.0000000000000000     
  -8.6310107622812215E-002  0.20636327994387862        0.0000000000000000     
  -8.7171419046690221E-002  0.21453265018945705        0.0000000000000000     
  -8.7960697745357641E-002  0.22277606663331537        0.0000000000000000     
  -8.8677943718814475E-002  0.23109352927545374        0.0000000000000000     
  -9.2905515734465524E-002  0.19856421419799175        0.0000000000000000     
  -9.3931549302820883E-002  0.20663632846629565        0.0000000000000000     
  -9.4885429016775061E-002  0.21478304622370042        0.0000000000000000     
  -9.5767154876328128E-002  0.22300436747020613        0.0000000000000000     
  -9.6576726881480002E-002  0.23130029220581275        0.0000000000000000     
 -0.10061407990854704       0.19889204311555464        0.0000000000000000     
 -0.10173248048334070       0.20693939375722262        0.0000000000000000     
 -0.10277733401690096       0.21506387978845046        0.0000000000000000     
 -0.10374864050922780       0.22326550120923813        0.0000000000000000     
 -0.10464639996032120       0.23154425801958564        0.0000000000000000     
 -0.10850245599596817       0.19925144264926886        0.0000000000000000     
 -0.10971290116437174       0.20727247581665967        0.0000000000000000     
 -0.11084713404706791       0.21537515088370723        0.0000000000000000     
 -0.11190515464405666       0.22355946785041148        0.0000000000000000     
 -0.11288696295533801       0.23182542671677245        0.0000000000000000     
  -8.0950050472324578E-002  0.23092396922850852        0.0000000000000000     
  -8.1486931955820754E-002  0.23936328578055815        0.0000000000000000     
  -8.1929197347954619E-002  0.24791903085972497        0.0000000000000000     
  -8.2276846648726157E-002  0.25659120446600908        0.0000000000000000     
  -8.2529879858135355E-002  0.26537980659941030        0.0000000000000000     
  -8.8677943718814475E-002  0.23109352927545374        0.0000000000000000     
  -8.9308672191373131E-002  0.23951068038077622        0.0000000000000000     
  -8.9838398387345975E-002  0.24805316221418733        0.0000000000000000     
  -9.0267122306733047E-002  0.25672097477568701        0.0000000000000000     
  -9.0594843949534334E-002  0.26551411806527525        0.0000000000000000     
  -9.6576726881480002E-002  0.23130029220581275        0.0000000000000000     
  -9.7304974053637527E-002  0.23969752467089780        0.0000000000000000     
  -9.7942725414207427E-002  0.24822276910583879        0.0000000000000000     
  -9.8489980963189686E-002  0.25687602551063587        0.0000000000000000     
  -9.8946740700584346E-002  0.26565729388528880        0.0000000000000000     
 -0.10464639996032120       0.23154425801958564        0.0000000000000000     
 -0.10547583754261398       0.23992381865092285        0.0000000000000000     
 -0.10624217842853895       0.24842785153467942        0.0000000000000000     
 -0.10694542261809610       0.25705635667085541        0.0000000000000000     
 -0.10758557011128544       0.26580933405945095        0.0000000000000000     
 -0.11288696295533801       0.23182542671677245        0.0000000000000000     
 -0.11382126265830247       0.24018956232085126        0.0000000000000000     
 -0.11473675743034058       0.24866840950070909        0.0000000000000000     
 -0.11563344727145228       0.25726196825634590        0.0000000000000000     
 -0.11651133218163762       0.26597023858776170        0.0000000000000000     
  -8.2529879858135355E-002  0.26537980659941030        0.0000000000000000     
  -8.2727361556580392E-002  0.27431125804728707        0.0000000000000000     
  -8.2908356324459365E-002  0.28341197959699749        0.0000000000000000     
  -8.3072864161772314E-002  0.29268197124854178        0.0000000000000000     
  -8.3220885068519240E-002  0.30212123300191968        0.0000000000000000     
  -9.0594843949534334E-002  0.26551411806527525        0.0000000000000000     
  -9.0851985589859394E-002  0.27449559485984765        0.0000000000000000     
  -9.1068969501817781E-002  0.28372840793629966        0.0000000000000000     
  -9.1245795685409525E-002  0.29321255729463130        0.0000000000000000     
  -9.1382464140634626E-002  0.30294804293484268        0.0000000000000000     
  -9.8946740700584346E-002  0.26565729388528880        0.0000000000000000     
  -9.9324063537415713E-002  0.27466481850057817        0.0000000000000000     
  -9.9633008384708052E-002  0.28399684362728433        0.0000000000000000     
  -9.9873575242461418E-002  0.29365336926540730        0.0000000000000000     
 -0.10004576411067576       0.30363439541494697        0.0000000000000000     
 -0.10758557011128544       0.26580933405945095        0.0000000000000000     
 -0.10814359539924935       0.27481892896947868        0.0000000000000000     
 -0.10860047297313018       0.28421728666995155        0.0000000000000000     
 -0.10895620283292795       0.29400440716086951        0.0000000000000000     
 -0.10921078497864269       0.30418029044223244        0.0000000000000000     
 -0.11651133218163762       0.26597023858776170        0.0000000000000000     
 -0.11731058117536033       0.27495792626654925        0.0000000000000000     
 -0.11797136326708418       0.28438973706430137        0.0000000000000000     
 -0.11849367845680921       0.29426567098101808        0.0000000000000000     
 -0.11887752674453533       0.30458572801669925        0.0000000000000000     
 </DataArray>
 <DataArray  type="Float64" Name="stress" NumberOfComponents="3" format="ascii">
   6820323737.6927948        883366868.43062568        738159884.71964598     
   6442934758.2699137        618039183.10673118        545328810.78526509     
   6083865586.6243448        413777523.70721197        394285709.55834645     
   5743116222.7561007        270581890.23208213        285030581.03890568     
   5420686666.6651726        188452282.68136525        217563425.22693241     
   5891119704.8351574        411823871.84989023        611434005.76102030     
   5648580844.6629343        286494697.93033934        492123498.61989611     
   5415197511.8311234        191683948.47879171        402448530.94772905     
   5190969706.3397055        127391623.49524307        342409102.74451476     
   4975897428.1886902        93617722.979710340        312005214.01027173     
   5143542827.9599190       -5230977.9361183643        528339909.22231525     
   5001132849.2140503       -978011.79862022400        471858308.36470896     
   4858714117.3716621        3245777.3504872322        432859813.73755980     
   4716286632.4327679        7440389.5112245083        411344425.34085518     
   4573850394.3973494        11605824.683574677        407312143.17460132     
   4577593107.0671043       -367797680.92740178        488877595.10352904     
   4500590771.9232588       -244378946.08015776        484533240.01971859     
   4414415403.2459936       -151536989.67767334        485519557.92784435     
   4319067001.0352936       -89271811.719957352        491836548.82790953     
   4214545565.2911654       -57583412.207002163        503484212.71991265     
   4193270542.1566863       -675876237.12396908        493047063.40467495     
   4146954612.7905707       -443708104.91425705        530148293.58491486     
   4082301369.4540992       -272664352.60570335        560427763.51858091     
   3999310812.1472874       -162744980.19829035        583885473.20568275     
   3897982940.8701296       -113949987.69203830        600521422.64620697     
   5420686666.6651726        188452282.68136525        217563425.22693241     
   5206471808.2297182        166529892.53820658        168611285.90462574     
   4992229103.4087687        144514681.11004496        131817458.33785003     
   4777958552.2023220        122406648.39690351        107181942.52662575     
   4563660154.6103735        100205794.39875507        94704738.470929861     
   4975897428.1886902        93617722.979710340        312005214.01027173     
   4793187187.3072128        83513499.274728775        276620733.20091498     
   4610526517.3027086        73574511.826328993        250584992.65334484     
   4427915418.1751852        63800760.634524584        233897992.36755833     
   4245353889.9246368        54192245.699325800        226559732.34355128     
   4573850394.3973494        11605824.683574677        407312143.17460132     
   4414617423.9448290        10911563.279257536        385585641.01775301     
   4255511441.6317601        10640595.673133612        370398307.62893534     
   4096532447.4581432        10792921.865174055        361750143.00814778     
   3937680441.4239807        11368541.855400562        359641147.15538090     
   4214545565.2911654       -57583412.207002163        503484212.71991265     
   4070762518.1425791       -51275915.448151588        495506009.35513240     
   3927183876.3959274       -44287067.349533796        491257403.26462227     
   3783809640.0511990       -36616867.911160231        490738394.44838709     
   3640639809.1084137       -28265317.132987499        493948982.90642351     
   3897982940.8701296       -113949987.69203830        600521422.64620697     
   3761622469.9004679       -103048936.90752935        606381838.21304834     
   3625543821.5952106       -91208477.241662741        613162279.56040668     
   3489746995.9543586       -78428608.694449425        620862746.68828332     
   3354231992.9779210       -64709331.265856743        629483239.59667492     
   4563660154.6103735        100205794.39875507        94704738.470929861     
   4371059789.1531677        86117478.593840837        78925453.093598306     
   4179544277.9184904        75645343.530682802        68836700.511395365     
   3989113620.9063268        68789389.209232807        64438480.724313341     
   3799767818.1166763        65549615.629505396        65730793.732365042     
   4245353889.9246368        54192245.699325800        226559732.34355128     
   4069123004.2732906        47375079.966191530        215215427.12332794     
   3893430782.7486911        42353461.322218180        209094538.94207969     
   3718277225.3508434        39127389.767420530        208197067.79980043     
   3543662332.0797362        37696865.301757097        212523013.69649047     
   3937680441.4239807        11368541.855400562        359641147.15538090     
   3776484419.1323309        11422141.260203362        352094600.31386912     
   3615280870.8716598        11450654.101588726        349304354.75516677     
   3454069796.6419616        11454080.379567862        351270410.47928494     
   3292851196.4432430        11432420.094129443        357992767.48621827     
   3640639809.1084137       -28265317.132987499        493948982.90642351     
   3493144033.7303009       -21741337.524105787        489562972.66521806     
   3345094542.2873993       -17063078.131191730        489466147.95067018     
   3196491334.7796941       -14230538.954289913        493658508.76277924     
   3047334411.2072020       -13243719.993349314        502140055.10154921     
   3354231992.9779210       -64709331.265856743        629483239.59667492     
   3219101848.0671949       -52115356.386729360        627620544.17737722     
   3082871796.9958982       -43187735.376162410        629579918.52857471     
   2945541839.7640357       -37926468.234159589        635361362.65028489     
   2807111976.3716063       -36331554.960697412        644964876.54249287     
   3799767818.1166763        65549615.629505396        65730793.732365042     
   3620405258.6054554        64080778.627787352        51774040.531525299     
   3439150787.9010119        56305570.981981158        42090769.035296738     
   3256004406.0033703        42223992.692192793        36680979.243689604     
   3070966112.9124932        21836043.758275986        35544671.156724386     
   3543662332.0797362        37696865.301757097        212523013.69649047     
   3375361251.4044542        37421346.934449553        198560406.42985961     
   3206034163.0768743        33725803.059471130        188557766.10908332     
   3035681067.0969982        26610233.676859617        182515092.73415130     
   2864301963.4648285        16074638.786595106        180432386.30506361     
   3292851196.4432430        11432420.094129443        357992767.48621827     
   3134715838.1502557        12081493.425158978        345034526.95154887     
   2976420375.7458825        12196886.384897947        335722738.60395175     
   2817964809.2301407        11778598.973401189        330057402.44343203     
   2659349138.6030221        10826631.190651417        328038518.46997821     
   3047334411.2072020       -13243719.993349314        502140055.10154921     
   2898469018.8428526       -11938781.900116086        491196402.09658432     
   2750309425.9080577       -8281179.0417147875        483585686.51991075     
   2602855632.4027958       -2270911.4181869030        479307908.37153518     
   2456107638.3270779        6092020.9704701900        478363067.65145153     
   2807111976.3716063       -36331554.960697412        644964876.54249287     
   2666620793.4822617       -34639479.041324258        637046031.86495650     
   2527701313.5633764       -27708393.220413804        632146609.85695159     
   2390353536.6149602       -15538297.497939706        630266610.51845860     
   2254577462.6370044        1870808.1260629892        631406033.84949005     
   3070966112.9124932        21836043.758275986        35544671.156724386     
   2899335443.0159564        5731128.9238315821        23246229.496166360     
   2729768605.5046268       -3494344.6266123056        13460196.918931769     
   2562265600.3784585       -5840376.8931676149        6186573.4250219008     
   2396826427.6374836       -1306967.8757563829        1425359.0144021653     
   2864301963.4648285        16074638.786595106        180432386.30506361     
   2701556156.1384277        8209704.8487244844        170520421.37856501     
   2539889546.8340006        3942097.6507574320        163029022.98503268     
   2379302135.5515308        3271817.1926583052        157958191.12445122     
   2219793922.2910395        6198863.4744880199        155307925.79684114     
   2659349138.6030221        10826631.190651417        328038518.46997821     
   2505225786.5600295        11122955.963316679        319364290.18710935     
   2351196998.1757965        11734492.931840539        313018785.88684958     
   2197262773.4503231        12661242.096226931        309002005.56920558     
   2043423112.3835919        13903203.456424832        307313949.23416871     
   2456107638.3270779        6092020.9704701900        478363067.65145153     
   2310344334.2807803        14470882.267673612        469777835.92179281     
   2163690959.5300255        19882841.216673493        463429485.62440240     
   2016147514.0748112        22327897.817490935        459318016.75926870     
   1867713997.9151361        21806052.070089102        457443429.32638961     
   2254577462.6370044        1870808.1260629892        631406033.84949005     
   2116911799.3006790        18253483.761774898        621761058.58263373     
   1977371430.8966794        28387142.505235672        614261122.19768369     
   1835956357.4250066        32271784.356450796        608906224.69465137     
   1692666578.8856604        29907409.315427423        605696366.07351768     
   2396826427.6374836       -1306967.8757563829        1425359.0144021653     
   2253176740.4287133        7619370.2720575333       -6137585.7254622253     
   2106049649.4968183        4954362.6761449575       -11262667.067299606     
   1955445154.8417840       -9301990.6635806561       -13949885.011074107     
   1801363256.4636109       -35149689.747092247       -14199239.556821598     
   2219793922.2910395        6198863.4744880199        155307925.79684114     
   2080784073.8130174        13533765.793341041        144179007.25551397     
   1939546684.4134340        13443531.707011700        134548586.45416871     
   1796081754.0922911        5928161.2154616117        126416663.39280984     
   1650389282.8495891       -9012345.6812516451        119783238.07143161     
   2043423112.3835919        13903203.456424832        307313949.23416871     
   1906369200.7561343        18841499.382244945        294077230.15989995     
   1768337611.0086870        20520868.241441369        281399643.16754818     
   1629328343.1412797        18941310.034088075        269281188.25712395     
   1489341397.1538787        14102824.760095716        257721865.42861858     
   1867713997.9151361        21806052.070089102        457443429.32638961     
   1729932121.2580650        23542571.038797975        443557082.98767751     
   1592422429.2825952        26186372.279501557        429290503.07283449     
   1455184921.9887307        29737455.792220235        414643689.58184940     
   1318219599.3764646        34195821.576925337        399616642.51473039     
   1692666578.8856604        29907409.315427423        605696366.07351768     
   1551472835.3188152        27636980.763003647        592618565.73887062     
   1411801139.2351382        30440043.821130693        578221166.17003167     
   1273651490.6346576        38316598.489919603        562504167.36699009     
   1137023889.5173385        51266644.769241393        545467569.32975543     
   1801363256.4636109       -35149689.747092247       -14199239.556821598     
   1770739375.2094946       -16877736.014312744       -8281504.2852013577     
   1748262511.5327735        28550942.976484537       -41308820.503758684     
   1733932665.4335186        101136347.22548562       -113281188.21250382     
   1727749836.9116886        200878476.73256993       -224198607.41145214     
   1650389282.8495891       -9012345.6812516451        119783238.07143161     
   1527736798.1652179       -14035104.517706513        135620274.63929802     
   1409293668.9690535       -5026678.3934786320        124986832.19005789     
   1295059895.2611008        18012932.691475213        87882910.723709926     
   1185035477.0413582        55083728.737096131        24308510.240250286     
   1489341397.1538787        14102824.760095716        257721865.42861858     
   1310301944.6766396       -3522155.9543640614        278884264.18861777     
   1131534185.5983889       -20241492.005521715        286050756.40460569     
   953038119.91912413       -36055183.393401980        279221342.07655716     
   774813747.63882089       -50963230.118066370        258396021.20450571     
   1318219599.3764646        34195821.576925337        399616642.51473039     
   1118434814.7437522        14661109.675725579        421510464.36276901     
   914984061.42078602       -17093497.859661341        441882952.13987350     
   707867339.40757811       -61068001.029177099        460734105.84604043     
   497084648.70411777       -117262399.83287862        478063925.48126996     
   1137023889.5173385        51266644.769241393        545467569.32975543     
   952135408.36652601        40514692.372466981        563498875.16173863     
   759643296.43624485        4417304.0441409349        592483419.39586425     
   559547553.72648013       -57025520.215805262        632421202.03214180     
   351848180.23724455       -143813780.40731528        683312223.07056797     
   1727749836.9116886        200878476.73256993       -224198607.41145214     
   1457054936.7250106        184750315.59773248       -96711503.986746952     
   1154136094.2515831        61209013.507053256        60014186.223425254     
   818993309.49134529       -169745429.53963262        245978463.21907732     
   451626582.44439578       -508113013.54206920        461181327.00018102     
   1185035477.0413582        55083728.737096131        24308510.240250286     
   977902978.87785244        11987438.332738638        155606759.09904987     
   732911897.22602415       -157304130.36607212        312783991.02164274     
   450062232.08589900       -452790977.35922164        495840206.00801998     
   129353983.45741832       -874473102.64683425        704775404.05818284     
   774813747.63882089       -50963230.118066370        258396021.20450571     
   621644783.72228742       -123907310.12477744        386931667.42890376     
   424982595.11585855       -341828805.76445961        537986692.99540091     
   184827181.81952989       -704727717.03713417        711561097.90400290     
  -98821456.166667461       -1212604043.9427319        907654882.15472841     
   497084648.70411777       -117262399.83287862        478063925.48126996     
   388280351.25828755       -222933929.77485052        597263221.00278080     
   230348187.92100704       -492365012.68831283        735622292.14471900     
   23288158.692265272       -925555648.57330525        893141138.90707004     
  -232899736.42791286       -1522505837.4297774        1069819761.2898508     
   351848180.23724455       -143813780.40731528        683312223.07056797     
   277809681.48587358       -285092420.61744118        786601419.82069826     
   149008675.64150992       -608912751.13754296        905690788.46958280     
  -34554837.295882642       -1115274771.9677274        1040580329.0171857     
  -272880857.32628137       -1804178483.1079597        1191270041.4635427     
   4193270542.1566863       -675876237.12396908        493047063.40467495     
   4146954612.7905707       -443708104.91425705        530148293.58491486     
   4082301369.4540992       -272664352.60570335        560427763.51858091     
   3999310812.1472874       -162744980.19829035        583885473.20568275     
   3897982940.8701296       -113949987.69203830        600521422.64620697     
   4097071285.2278690       -165332620.53262615        794682344.59329784     
   3989755041.4695597       -100872284.54115081        789693428.39621115     
   3876858145.5001554       -55014122.586682558        783304752.80976439     
   3758380597.3196511       -27758134.669214725        775516317.83395386     
   3634322396.9280457       -19104320.788735867        766328123.46878469     
   3912732028.6797466        318768996.17293203        1031411739.0247012     
   3759906901.5498552        220168965.25234437        999215448.50273955     
   3614257783.9681096        145488966.15890515        971041399.44862688     
   3475784675.9345083        94728998.892617464        946889591.86236382     
   3344487577.4490514        67889063.453481913        926760025.74394739     
   3640252772.5123219        776428612.99269438        1203235246.6988854     
   3457410193.0314465        519415644.46622813        1158714353.9045053     
   3294500284.8579621        328844913.63106537        1123637703.4351804     
   3151523047.9918661        204716420.48719728        1098005295.2909160     
   3028478482.4331594        147030165.03463244        1081817129.4717059     
   3279633516.7255964        1207646229.9266701        1310152867.6158495     
   3082264915.9143353        796867753.10050440        1268190144.6014993     
   2917585648.1697121        495053719.82979310        1241093664.7694168     
   2785595713.4917173        302204130.11452627        1228863428.1195998     
   2686295111.8803644        218318983.95471573        1231499434.6520531     
   3897982940.8701296       -113949987.69203830        600521422.64620697     
   3761622469.9004679       -103048936.90752935        606381838.21304834     
   3625543821.5952106       -91208477.241662741        613162279.56040668     
   3489746995.9543586       -78428608.694449425        620862746.68828332     
   3354231992.9779210       -64709331.265856743        629483239.59667492     
   3634322396.9280457       -19104320.788735867        766328123.46878469     
   3498457356.1665502       -21452357.306024551        764377431.56325972     
   3363254419.2951913       -21593380.856195450        764945295.72237742     
   3228713586.3139720       -19527391.439229488        768031715.94613481     
   3094834857.2228880       -15254389.055151463        773636692.23454189     
   3344487577.4490514        67889063.453481913        926760025.74394739     
   3213685196.2789488        53662108.449366808        917441887.79607236     
   3083925200.2247090        42909770.498139381        912240836.19696677     
   2955207589.2863355        35632049.599794745        911156870.94663155     
   2827532363.4638305        31828945.754341841        914189992.04506791     
   3028478482.4331594        147030165.03463244        1081817129.4717059     
   2907305990.2376618        122294460.35865498        1065575206.9114971     
   2787556164.3837647        102300976.82133567        1055048900.9841818     
   2669229004.8714590        87049714.422658205        1050238211.6897665     
   2552324511.7007484        76540673.162631869        1051143139.0282462     
   2686295111.8803644        218318983.95471573        1231499434.6520531     
   2579319738.0426974        184444698.42184520        1208777388.9095275     
   2474147311.7723541        156580238.11338389        1193369490.0840263     
   2370777833.0693345        134725603.02933681        1185275738.1755459     
   2269211301.9336414        118880793.16971111        1184496133.1840909     
   3354231992.9779210       -64709331.265856743        629483239.59667492     
   3219101848.0671949       -52115356.386729360        627620544.17737722     
   3082871796.9958982       -43187735.376162410        629579918.52857471     
   2945541839.7640357       -37926468.234159589        635361362.65028489     
   2807111976.3716063       -36331554.960697412        644964876.54249287     
   3094834857.2228880       -15254389.055151463        773636692.23454189     
   2968151206.2248821       -8725153.8175396919        768143222.25123572     
   2840869875.1338444       -4188185.5567172766        766724540.80909824     
   2712990863.9497709       -1643484.2726742029        769380647.90813637     
   2584514172.6726613       -1091049.9654093981        776111543.54835236     
   2827532363.4638305        31828945.754341841        914189992.04506791     
   2710017260.0090375        32510057.439586043        905651677.90987301     
   2592406702.5287428        32872989.039816141        901440871.08652234     
   2474700691.0229459        32917740.555033326        901557571.57501268     
   2356899225.4916434        32644311.985251665        906001779.37535036     
   2552324511.7007484        76540673.162631869        1051143139.0282462     
   2444700009.4196553        71590277.384655952        1040145911.1532872     
   2337482279.1805916        67995788.413436651        1033728909.3608435     
   2230671320.9835596        65757206.248987436        1031892133.6509111     
   2124267134.8285503        64874530.891292810        1034635584.0234965     
   2269211301.9336414        118880793.16971111        1184496133.1840909     
   2172199454.4567380        108515506.01765859        1171625921.9814844     
   2076096605.0893927        101180212.56413376        1163588655.6320634     
   1980902753.8316088        96874912.809149742        1160384334.1358275     
   1886617900.6833901        95599606.752716959        1162012957.4927807     
   2807111976.3716063       -36331554.960697412        644964876.54249287     
   2666620793.4822617       -34639479.041324258        637046031.86495650     
   2527701313.5633764       -27708393.220413804        632146609.85695159     
   2390353536.6149602       -15538297.497939706        630266610.51845860     
   2254577462.6370044        1870808.1260629892        631406033.84949005     
   2584514172.6726613       -1091049.9654093981        776111543.54835236     
   2451829070.7584338       -1216421.2984050512        768119685.09078813     
   2320127176.9927702        1935567.8638216257        763532492.54126668     
   2189408491.3756771        8364917.5212916136        762349965.89977646     
   2059673013.9071496        18071627.673950315        764572105.16633475     
   2356899225.4916434        32644311.985251665        906001779.37535036     
   2233120899.5197320        31031701.890050173        897250329.84554386     
   2109737286.8744864        30734802.883746982        892288789.46229613     
   1986748387.5559158        31753614.966349483        891117158.22560608     
   1864154201.5640142        34088138.137853622        893735436.13548064     
   2124267134.8285503        64874530.891292810        1034635584.0234965     
   2010496279.7661541        62104890.524036646        1024437966.1292312     
   1896531643.2085323        58689311.839376092        1018415500.6200527     
   1782373225.1556804        54627794.837280154        1016568187.4959450     
   1668021025.6076064        49920339.517778516        1018896026.7569172     
   1886617900.6833901        95599606.752716959        1162012957.4927807     
   1783955211.4977014        92003144.603564262        1149682593.9418519     
   1680510245.9948950        85799094.730679452        1141912626.0145183     
   1576283004.1749723        76987457.134074628        1138703053.7107866     
   1471273486.0379214        65568231.813720107        1140053877.0306523     
   2254577462.6370044        1870808.1260629892        631406033.84949005     
   2116911799.3006790        18253483.761774898        621761058.58263373     
   1977371430.8966794        28387142.505235672        614261122.19768369     
   1835956357.4250066        32271784.356450796        608906224.69465137     
   1692666578.8856604        29907409.315427423        605696366.07351768     
   2059673013.9071496        18071627.673950315        764572105.16633475     
   1926059691.7163341        26636627.061032891        753368904.12212026     
   1791477431.2568078        31971832.219081163        744941928.82684004     
   1655926232.5285659        34077243.148070574        739291179.28050065     
   1519406095.5315962        32952859.847978234        736416655.48308957     
   1864154201.5640142        34088138.137853622        893735436.13548064     
   1736396611.5673680        35376478.590924263        882030737.24602163     
   1608575850.1009667        36454247.478128552        873733450.97252774     
   1480691917.1648116        37321444.799489379        868843577.31500185     
   1352744812.7588887        37978070.554959476        867361116.27344668     
   1668021025.6076064        49920339.517778516        1018896026.7569172     
   1547922558.8537807        44473038.351412833        1007746557.9543349     
   1428666687.4291601        41834388.282396555        1000635688.6347500     
   1310253411.3337355        42004389.310701609        997563418.79815376     
   1192682730.5675092        44983041.436334014        998529748.44455957     
   1471273486.0379214        65568231.813720107        1140053877.0306523     
   1360637533.5755737        53926306.342528641        1130516366.2470670     
   1251749943.2413809        48112254.631854475        1125648641.8134997     
   1144610715.0353513        48126076.681730449        1125450703.7299569     
   1039219848.9574693        53967772.492097199        1129922551.9964421     
   1692666578.8856604        29907409.315427423        605696366.07351768     
   1551472835.3188152        27636980.763003647        592618565.73887062     
   1411801139.2351382        30440043.821130693        578221166.17003167     
   1273651490.6346576        38316598.489919603        562504167.36699009     
   1137023889.5173385        51266644.769241393        545467569.32975543     
   1519406095.5315962        32952859.847978234        736416655.48308957     
   1376693751.2658048        29240499.592065990        727722658.85300577     
   1234468819.0432968        27152846.147128522        719512860.54333925     
   1092731298.8640914        26689899.513189852        711787260.55409908     
   951481190.72818923        27851659.690261722        704545858.88529027     
   1352744812.7588887        37978070.554959476        867361116.27344668     
   1213667575.0930405        34369890.785198867        861843848.66805732     
   1074043114.0306144        28937633.026834905        858614576.93771780     
   933871429.57161784        21681297.279907942        857673301.08242190     
   793152521.71604478        12600883.544390202        859020021.10216832     
   1192682730.5675092        44983041.436334014        998529748.44455957     
   1062394306.8005337        43025154.342407227        994982135.18401694     
   930524024.19710910        35794404.460317373        995526315.35314524     
   797071882.75723195        23290791.790055692        1000162288.9519358     
   662037882.48090529        5514316.3316200376        1008890055.9803885     
   1039219848.9574693        53967772.492097199        1129922551.9964421     
   922873946.38828719        55206290.263707101        1127137518.4008942     
   803911549.54276633        47723160.447521925        1130248075.7896321     
   682332658.42092621        31518383.043605775        1139254224.1626525     
   558137273.02276564        6591958.0519432724        1154155963.5199623     
   1137023889.5173385        51266644.769241393        545467569.32975543     
   952135408.36652601        40514692.372466981        563498875.16173863     
   759643296.43624485        4417304.0441409349        592483419.39586425     
   559547553.72648013       -57025520.215805262        632421202.03214180     
   351848180.23724455       -143813780.40731528        683312223.07056797     
   951481190.72818923        27851659.690261722        704545858.88529027     
   792218112.26111090        11184600.265565544        722188679.56085384     
   624275361.19967365       -34414701.140318483        749955134.75127685     
   447652937.54389524       -108946244.52734268        787845224.45656943     
   262350841.29376218       -212410029.89555177        835858948.67672396     
   793152521.71604478        12600883.544390202        859020021.10216832     
   657144549.11188316       -10692371.954502910        875018974.50396323     
   511380862.09849954       -66504675.484143823        900311958.53332877     
   355861460.67588848       -154836027.04453957        934898973.19027841     
   190586344.84405699       -275686426.63566846        978780018.47481406     
   662037882.48090529        5514316.3316200376        1008890055.9803885     
   546914718.91886342       -25116224.287694067        1021989759.9910567     
   420959799.13271672       -91852618.987355918        1043553890.7420104     
   284173123.12247509       -194694867.76733530        1073582448.2332649     
   136554690.88813025       -333642970.62765825        1112075432.4648306     
   558137273.02276564        6591958.0519432724        1154155963.5199623     
   461528621.68203521       -32086956.734034330        1163101036.0221405     
   353012172.30232483       -110458531.64995073        1179680931.3773355     
   232587924.88364750       -228522766.69575697        1203895649.5855474     
   100255879.42599565       -386279661.87148368        1235745190.6467736     
   351848180.23724455       -143813780.40731528        683312223.07056797     
   277809681.48587358       -285092420.61744118        786601419.82069826     
   149008675.64150992       -608912751.13754296        905690788.46958280     
  -34554837.295882642       -1115274771.9677274        1040580329.0171857     
  -272880857.32628137       -1804178483.1079597        1191270041.4635427     
   262350841.29376218       -212410029.89555177        835858948.67672396     
   223631525.61693844       -352134015.11176980        885218104.38815367     
   140689662.30151221       -639266492.45667672        945586924.02883804     
   13525251.347467184       -1073807461.9302936        1016965407.5987597     
  -157861707.24518603       -1655756923.5326290        1099353555.0979218     
   190586344.84405699       -275686426.63566846        978780018.47481406     
   173499046.61465278       -417961906.54612684        986505752.51100409     
   122729160.20103621       -672512680.40396237        1000450642.5069542     
   38276685.603215992       -1039338748.2091402        1020614688.4626484     
  -79858377.178819358       -1518440109.9617167        1046997890.3780951     
   136554690.88813025       -333642970.62765825        1112075432.4648306     
   127412244.47902369       -482576094.92050195        1090464364.1892583     
   95127169.340105355       -708651314.97938013        1070281943.9039450     
   39699465.471372068       -1011868630.8042846        1051528171.6088728     
  -38870867.127153516       -1392228042.3952148        1034203047.3040799     
   100255879.42599565       -386279661.87148368        1235745190.6467736     
   85371119.210051507       -545976580.23485994        1197093939.4229040     
   57883689.718701541       -747682396.18293333        1155080828.2197874     
   17793590.951954305       -991397109.71565294        1109705857.0374496     
  -34899177.090217292       -1277120720.8331320        1060969025.8758550     
   3279633516.7255964        1207646229.9266701        1310152867.6158495     
   3082264915.9143353        796867753.10050440        1268190144.6014993     
   2917585648.1697121        495053719.82979310        1241093664.7694168     
   2785595713.4917173        302204130.11452627        1228863428.1195998     
   2686295111.8803644        218318983.95471573        1231499434.6520531     
   2605724179.8275089        596958228.90065539        1139961502.5503719     
   2499230795.2272477        385130024.86347717        1154804186.4925120     
   2410412174.9974694        232217702.06124675        1178773038.3095353     
   2339268319.1381741        138221260.49395812        1211868058.0014482     
   2285799227.6493616        103140700.16161418        1254089245.5682490     
   2018375950.8490186        12238560.250521779        1044562369.7085652     
   1986357567.2958117       -5559435.5468515158        1098693463.7950063     
   1956999379.4169393       -14490112.429783583        1156210650.4489629     
   1930301387.2123938       -14553470.398282528        1217113929.6704252     
   1906263590.6821823       -5749509.4523421526        1281403301.4593952     
   1517588829.7901156       -546512776.02373743        1023955469.0904125     
   1543645232.1200290       -375200628.13048220        1099857976.5089889     
   1557347261.4281158       -245069723.64330149        1173406501.1876936     
   1558694917.7143838       -156120062.56219161        1244601043.1265287     
   1547688200.9788303       -108351644.88715279        1313441602.3254917     
   1103362816.6508105       -1079295779.9221158        1078140800.6959190     
   1171093789.6998930       -723793552.88742232        1158297724.6344550     
   1211455821.0310032       -459521131.57930779        1230360590.5257339     
   1224448910.6441395       -286478515.99777025        1294329398.3697600     
   1210073058.5393033       -204665706.14280927        1350204148.1665394     
   2686295111.8803644        218318983.95471573        1231499434.6520531     
   2579319738.0426974        184444698.42184520        1208777388.9095275     
   2474147311.7723541        156580238.11338389        1193369490.0840263     
   2370777833.0693345        134725603.02933681        1185275738.1755459     
   2269211301.9336414        118880793.16971111        1184496133.1840909     
   2285799227.6493616        103140700.16161418        1254089245.5682490     
   2202139924.8548813        87354673.623450875        1239915652.9302144     
   2119499218.4718189        74963968.456676006        1232189139.0249827     
   2037877108.5001750        65968584.661295891        1230909703.8525507     
   1957273594.9399431        60368522.237295628        1236077347.4129257     
   1906263590.6821823       -5749509.4523421526        1281403301.4593952     
   1843443021.2616825       -4190478.2965639830        1274863085.5772970     
   1780856697.0966935       -1850629.6224191189        1273902880.2437782     
   1718504618.1872177        1270036.5701022148        1278522685.4588408     
   1656386784.5332499        5171520.2809880972        1288722501.2224827     
   1547688200.9788303       -108351644.88715279        1313441602.3254917     
   1503229027.2631030       -90190757.338195145        1313619686.8507721     
   1458219747.6469834       -73863556.123881161        1318510713.7404091     
   1412660362.1304641       -59370041.244234443        1328114682.9944041     
   1366550870.7135530       -46710212.699226856        1342431594.6127589     
   1210073058.5393033       -204665706.14280927        1350204148.1665394     
   1181497942.8591454       -170646163.50143135        1356185456.7506413     
   1151588370.1226852       -141074811.04772800        1366012639.5148780     
   1120344340.3299224       -115951648.78169793        1379685696.4592502     
   1087765853.4808600       -95276676.703334093        1397204627.5837574     
   2269211301.9336414        118880793.16971111        1184496133.1840909     
   2172199454.4567380        108515506.01765859        1171625921.9814844     
   2076096605.0893927        101180212.56413376        1163588655.6320634     
   1980902753.8316088        96874912.809149742        1160384334.1358275     
   1886617900.6833901        95599606.752716959        1162012957.4927807     
   1957273594.9399431        60368522.237295628        1236077347.4129257     
   1874283005.6857789        56433948.564411163        1227744863.4499426     
   1791844113.2900605        54338364.419672728        1223881007.0791545     
   1709956917.7527838        54081769.803078592        1224485778.3005552     
   1628621419.0739522        55664164.714630067        1229559177.1141508     
   1656386784.5332499        5171520.2809880972        1288722501.2224827     
   1586376547.0418475        7355388.1492788196        1284510893.0394838     
   1516560705.1577697        10187241.375320077        1284403595.1876874     
   1446939258.8810201        13667079.959122300        1288400607.6670897     
   1377512208.2115974        17794903.900673151        1296501930.4776893     
   1366550870.7135530       -46710212.699226856        1342431594.6127589     
   1308480078.5249336       -38720175.227748275        1341924010.7501142     
   1250246380.6925206       -31273156.568914771        1345156419.9576726     
   1191849777.2163186       -24369156.722713590        1352128822.2354374     
   1133290268.0963218       -18008175.689155936        1362841217.5834057     
   1087765853.4808600       -95276676.703334093        1397204627.5837574     
   1040593600.1350386       -81792741.566678047        1399984216.5818233     
   992901139.89431131       -70042829.413042605        1406139481.3891020     
   944688472.75867581       -60026940.242436528        1415670422.0055914     
   895955598.72812819       -51745074.054866970        1428577038.4312949     
   1886617900.6833901        95599606.752716959        1162012957.4927807     
   1783955211.4977014        92003144.603564262        1149682593.9418519     
   1680510245.9948950        85799094.730679452        1141912626.0145183     
   1576283004.1749723        76987457.134074628        1138703053.7107866     
   1471273486.0379214        65568231.813720107        1140053877.0306523     
   1628621419.0739522        55664164.714630067        1229559177.1141508     
   1538757480.6915686        55043486.113316715        1219016763.2732329     
   1448576213.6253779        53365045.232640624        1213072427.4540634     
   1358077617.8753738        50628842.072589159        1211726169.6566484     
   1267261693.4415681        46834876.633198261        1214977989.8809798     
   1377512208.2115974        17794903.900673151        1296501930.4776893     
   1300554684.6272309        20182308.045595944        1288289905.2523155     
   1223744779.9923720        23061775.355542123        1284713640.4468434     
   1147082494.3070128        26433305.830488265        1285773136.0612724     
   1070567827.5711582        30296899.470449507        1291468392.0955975     
   1133290268.0963218       -18008175.689155936        1362841217.5834057     
   1069346823.3046930       -12580389.599572241        1357502019.8791072     
   1006015945.0958836       -5110714.9005947113        1356836264.9928567     
   943297633.46988344        4400848.4077501893        1360843952.9246569     
   881191888.42670250        15954300.325495362        1369525083.6745129     
   895955598.72812819       -51745074.054866970        1428577038.4312949     
   845133896.72395217       -43244606.822211444        1426653107.1535966     
   795389708.93590927       -31152425.535778850        1429440301.0921001     
   746723035.36398292       -15468530.195624650        1436938620.2468088     
   699133876.00819111        3807079.1983111501        1449148064.6177180     
   1471273486.0379214        65568231.813720107        1140053877.0306523     
   1360637533.5755737        53926306.342528641        1130516366.2470670     
   1251749943.2413809        48112254.631854475        1125648641.8134997     
   1144610715.0353513        48126076.681730449        1125450703.7299569     
   1039219848.9574693        53967772.492097199        1129922551.9964421     
   1267261693.4415681        46834876.633198261        1214977989.8809798     
   1170923799.2071531        42226668.065524578        1209548603.7810428     
   1075458627.8182535        40527535.649570763        1208824772.2209911     
   980866179.27485847        41737479.385300398        1212806495.2008207     
   887146453.57697475        45856499.272728622        1221493772.7205293     
   1070567827.5711582        30296899.470449507        1291468392.0955975     
   988630186.39285469        32753066.254763782        1289125551.5162244     
   906689628.77741075        35199511.581951648        1291524033.6665928     
   824746154.72482944        37636235.452009231        1298663838.5467064     
   742799764.23511207        40063237.864949673        1310544966.1565609     
   881191888.42670250        15954300.325495362        1369525083.6745129     
   813756695.13267481        25505500.910235226        1369247209.4526117     
   745442946.11886096        32128182.429024190        1373746426.1503091     
   676250641.38525987        35822344.881859422        1383022733.7676172     
   606179780.93187892        36587988.268756241        1397076132.3045206     
   699133876.00819111        3807079.1983111501        1449148064.6177180     
   646303325.42661059        20483972.031931370        1449913577.5901976     
   591718579.84259927        31313548.190779746        1455491949.6721487     
   535379639.25615555        36295807.674851626        1465883180.8635540     
   477286503.66728061        35430750.484153256        1481087271.1644282     
   1039219848.9574693        53967772.492097199        1129922551.9964421     
   922873946.38828719        55206290.263707101        1127137518.4008942     
   803911549.54276633        47723160.447521925        1130248075.7896321     
   682332658.42092621        31518383.043605775        1139254224.1626525     
   558137273.02276564        6591958.0519432724        1154155963.5199623     
   887146453.57697475        45856499.272728622        1221493772.7205293     
   785607360.11705470        45213349.220254689        1218464791.6171901     
   681602339.67229939        36350442.551657051        1221364303.7268689     
   575131392.24271703        19267779.266970247        1230192309.0495608     
   466194517.82829821       -6034640.6338346303        1244948807.5852656     
   742799764.23511207        40063237.864949673        1310544966.1565609     
   656161486.25225234        37566621.898734599        1307447699.3855057     
   567207848.57605410        27352140.288051993        1310311828.0562012     
   475938851.20651585        9419793.0329039097        1319137352.1686332     
   382354494.14364552       -16230419.866681382        1333924271.7228127     
   606179780.93187892        36587988.268756241        1397076132.3045206     
   534536324.79387093        32266108.299119115        1394086241.7058403     
   460728076.25402963        20728253.656696513        1397090648.7776279     
   384755035.31234264        1974424.3414559066        1406089353.5198872     
   306617201.96881706       -23995379.646574244        1421082355.9326134     
   477286503.66728061        35430750.484153256        1481087271.1644282     
   420731875.74193400        29311808.421480328        1478380418.5781906     
   362163022.70623434        16478782.657624781        1481700765.8911457     
   301579944.56019157       -3068326.8073717058        1491048313.1033032     
   238982641.30380410       -29329519.973522455        1506423060.2146602     
   558137273.02276564        6591958.0519432724        1154155963.5199623     
   461528621.68203521       -32086956.734034330        1163101036.0221405     
   353012172.30232483       -110458531.64995073        1179680931.3773355     
   232587924.88364750       -228522766.69575697        1203895649.5855474     
   100255879.42599565       -386279661.87148368        1235745190.6467736     
   466194517.82829821       -6034640.6338346303        1244948807.5852656     
   388968695.41280448       -40864017.710607126        1243274830.0851905     
   301654773.97623098       -109320391.52431838        1247987543.2801499     
   204252753.51857370       -211403762.07497239        1259086947.1701541     
   96762634.039835453       -347114129.36256301        1276573041.7551930     
   382354494.14364552       -16230419.866681382        1333924271.7228127     
   320945408.77346003       -48280086.798200771        1323754226.4080231     
   251267923.40008357       -107891087.07369544        1318722739.6302981     
   173322038.02351207       -195063420.69317085        1318829811.3896332     
   87107752.643754587       -309797087.65660512        1324075441.6860328     
   306617201.96881706       -23995379.646574244        1421082355.9326134     
   257458761.76399583       -54335163.996843621        1404539224.9906454     
   201851620.57388264       -106170618.29809190        1391886520.4277701     
   139795778.39845949       -179501742.55037326        1383124242.2439833     
   71291235.237738758       -274328536.75364107        1378252390.4392657     
   238982641.30380410       -29329519.973522455        1506423060.2146602     
   198508754.38441533       -59029249.306511357        1485629825.8330646     
   153405865.49762616       -104158985.19750169        1467478885.6725762     
   103673974.64341380       -164718727.64656943        1451970239.7331884     
   49313081.821804792       -240708476.65362576        1439103888.0149176     
   100255879.42599565       -386279661.87148368        1235745190.6467736     
   85371119.210051507       -545976580.23485994        1197093939.4229040     
   57883689.718701541       -747682396.18293333        1155080828.2197874     
   17793590.951954305       -991397109.71565294        1109705857.0374496     
  -34899177.090217292       -1277120720.8331320        1060969025.8758550     
   96762634.039835453       -347114129.36256301        1276573041.7551930     
   79777650.175957054       -488233403.04504514        1222185643.6696680     
   51412338.687435001       -667287102.14300919        1165257400.1386096     
   11666699.574280083       -884275226.65641034        1105788311.1620054     
  -39459267.163516402       -1139197776.5852919        1043778376.7398807     
   87107752.643754587       -309797087.65660512        1324075441.6860328     
   70368300.942507714       -431634989.91504031        1255377961.9980872     
   43470863.267391205       -587332845.41970491        1184960651.3982949     
   6415439.6184038818       -776890654.17061496        1112823509.8866780     
  -40797970.004456341       -1000308416.1677574        1038966537.4632194     
   71291235.237738758       -274328536.75364107        1378252390.4392657     
   57143071.509700000       -376181340.84484786        1296670894.4081275     
   34059263.458568722       -507819626.01304084        1214190581.9988608     
   2039811.0843200684       -669243392.25828874        1130811453.2114558     
  -38915285.613024086       -860452639.58051109        1046533508.0459101     
   49313081.821804792       -240708476.65362576        1439103888.0149176     
   40101961.877542362       -321872455.83446044        1346064440.8998156     
   23177539.260961950       -428747443.92301875        1252947191.9402850     
  -1460186.0279654264       -561333440.91940451        1159752141.1363106     
  -33811213.989219338       -719630446.82353985        1066479288.4879178     
   1103362816.6508105       -1079295779.9221158        1078140800.6959190     
   1171093789.6998930       -723793552.88742232        1158297724.6344550     
   1211455821.0310032       -459521131.57930779        1230360590.5257339     
   1224448910.6441395       -286478515.99777025        1294329398.3697600     
   1210073058.5393033       -204665706.14280927        1350204148.1665394     
   944375475.77797556       -774415825.67052627        1313978302.8273540     
   969810127.28247762       -515398229.59365606        1341889398.8374581     
   974718072.56056488       -324802987.60483485        1367624605.0046360     
   959099311.61223483       -202630099.70407474        1391183921.3288846     
   922953844.43749070       -148879565.89135939        1412567347.8102031     
   707485894.72506690       -492906543.47296226        1513595372.2703280     
   707533276.69733715       -325300862.75021040        1497243248.4254940     
   693896187.93474877       -203310084.47698608        1484633402.9420536     
   666574628.43730390       -126934208.65328398        1475765835.8200054     
   625568598.20500076       -96173235.279109478        1470640547.0593493     
   392694073.49208593       -234767933.32941988        1676992009.0248539     
   384263237.94447303       -153501452.35707873        1624359273.3985629     
   368990167.15355682       -95042422.195746303        1581386984.3379850     
   346874861.11934429       -59390842.845403329        1548075141.8431246     
   317917319.84182978       -46546714.306067169        1524423745.9139779     
   12.079034384437303        4.7601046273158367        1804168213.0909240     
   11.023883545939823        1.5857304022983905        1723237473.7566597     
   10.216990440494586      -0.76111804587823917        1657885349.1924336     
   9.6583568295131244       -2.2804341519528974        1608111839.3982451     
   9.3479819123538324       -2.9722212786203226        1573916944.3740931     
   1210073058.5393033       -204665706.14280927        1350204148.1665394     
   1181497942.8591454       -170646163.50143135        1356185456.7506413     
   1151588370.1226852       -141074811.04772800        1366012639.5148780     
   1120344340.3299224       -115951648.78169793        1379685696.4592502     
   1087765853.4808600       -95276676.703334093        1397204627.5837574     
   922953844.43749070       -148879565.89135939        1412567347.8102031     
   901773080.32735240       -123289737.13104647        1413564053.4058278     
   879591473.45125115       -101036050.92394322        1418348166.1554246     
   856409023.80918300       -82118507.270064354        1426919686.0589924     
   832225731.40114963       -66537106.169402719        1439278613.1165311     
   625568598.20500076       -96173235.279109478        1470640547.0593493     
   611615137.01869965       -79063234.993708730        1467041866.3385558     
   596994447.35677075       -64177329.627068996        1467172125.7455714     
   581706529.21921110       -51515519.179197192        1471031325.2803924     
   565751382.60602045       -41077803.650096953        1478619464.9430182     
   317917319.84182978       -46546714.306067169        1524423745.9139779     
   311024112.93318164       -37966657.089434266        1516618895.5488284     
   303797291.83923978       -30498647.157114938        1512484518.2853177     
   296236856.56000423       -24142684.509108827        1512020614.1234524     
   288342807.09547412       -18898769.145416319        1515227183.0632248     
   9.3479819123538324       -2.9722212786203226        1573916944.3740931     
   8.0708000722134354       -3.4182205600828608        1562295141.0366426     
   6.8986634628286243       -3.5140669906919362        1554285343.7746685     
   5.8315665483345951       -3.2597828397218849        1549887552.5881712     
   4.8695116620297361       -2.6553572070091516        1549101767.4771538     
   1087765853.4808600       -95276676.703334093        1397204627.5837574     
   1040593600.1350386       -81792741.566678047        1399984216.5818233     
   992901139.89431131       -70042829.413042605        1406139481.3891020     
   944688472.75867581       -60026940.242436528        1415670422.0055914     
   895955598.72812819       -51745074.054866970        1428577038.4312949     
   832225731.40114963       -66537106.169402719        1439278613.1165311     
   793527089.72264993       -57419990.066025823        1438087447.5571392     
   754438292.86540699       -49603391.225127190        1441046496.4787705     
   714959340.82942367       -43087309.646697819        1448155759.8814204     
   675090233.61469460       -37871745.330754250        1459415237.7650983     
   565751382.60602045       -41077803.650096953        1478619464.9430182     
   537739320.22858143       -35663616.289883286        1473609271.8283677     
   509467154.38856548       -31116440.471593797        1473523831.8665457     
   480934885.08597541       -27436276.195218265        1478363145.0575523     
   452142512.32080317       -24623123.460782170        1488127211.4013958     
   288342807.09547412       -18898769.145416319        1515227183.0632248     
   273230291.65283722       -16523620.238238946        1506549689.3955042     
   257987724.46378940       -14581977.152430356        1503571487.5524235     
   242615105.52832916       -13073839.887997940        1506292577.5339835     
   227112434.84645334       -11999208.444949284        1514712959.3401799     
   4.8695116620297361       -2.6553572070091516        1549101767.4771538     
   3.9954132035802479       -1.9111051797858660        1536908700.2585564     
   3.0910721326871236       -1.2676625545974227        1531189463.5364079     
   2.1564846977725609      -0.72504044892438446        1531944057.3107090     
   1.1916480622777323      -0.28324970574162150        1539172481.5814602     
   895955598.72812819       -51745074.054866970        1428577038.4312949     
   845133896.72395217       -43244606.822211444        1426653107.1535966     
   795389708.93590927       -31152425.535778850        1429440301.0921001     
   746723035.36398292       -15468530.195624650        1436938620.2468088     
   699133876.00819111        3807079.1983111501        1449148064.6177180     
   675090233.61469460       -37871745.330754250        1459415237.7650983     
   636072279.94415462       -31766897.909716576        1457967639.9033620     
   597862461.91950476       -22968265.002378464        1461441558.5770538     
   560460779.54074442       -11475846.608740866        1469836993.7861736     
   523867232.80787528        2710357.2711990774        1483153945.5307271     
   452142512.32080317       -24623123.460782170        1488127211.4013958     
   425529425.03882909       -20733560.434888333        1486841671.9570110     
   399455094.83250797       -15048140.490151465        1490688040.3672826     
   373919521.70184225       -7566863.6265626401        1499666316.6322086     
   348922705.64683056        1710270.1558716595        1513776500.7517858     
   227112434.84645334       -11999208.444949284        1514712959.3401799     
   213505332.00798032       -10144594.397709653        1513275203.3145390     
   200167607.67491987       -7392051.9990939945        1517179746.4627814     
   187099261.84728014       -3741581.2490758374        1526426588.7849045     
   174300294.52505502        806817.85232331604        1541015730.2809052     
   1.1916480622777323      -0.28324970574162150        1539172481.5814602     
  0.85160276266713286       0.20180043533648892        1537268233.9759555     
  0.44673047312653147       0.47076060998125951        1540916676.8635545     
  -2.2947760907616160E-002  0.52370062270284767        1550117810.2442658     
 -0.55745170384519893       0.36055563296904275        1564871634.1180804     
   699133876.00819111        3807079.1983111501        1449148064.6177180     
   646303325.42661059        20483972.031931370        1449913577.5901976     
   591718579.84259927        31313548.190779746        1455491949.6721487     
   535379639.25615555        36295807.674851626        1465883180.8635540     
   477286503.66728061        35430750.484153256        1481087271.1644282     
   523867232.80787528        2710357.2711990774        1483153945.5307271     
   482641321.85815513        14737127.468591958        1482428474.8236268     
   440099764.65760541        22378410.163218319        1486889896.1014707     
   396242561.20622879        25634205.355091602        1496538209.3642564     
   351069711.50401938        24504513.044183612        1511373414.6119897     
   348922705.64683056        1710270.1558716595        1513776500.7517858     
   320370099.68748498        9407517.3245798498        1512071686.5753107     
   290940396.22891504        14181106.162541285        1515927797.2592540     
   260633595.27112260        16031036.669761077        1525344832.8036249     
   229449696.81410152        14957308.846220322        1540322793.2084198     
   174300294.52505502        806817.85232331604        1541015730.2809052     
   159489658.91460377        4495141.5999085680        1538843212.8452525     
   144240474.55653590        6721636.1887709349        1542605653.1455059     
   128552741.45084514        7486301.6188908294        1552303051.1816633     
   112426459.59752998        6789137.8902625963        1567935406.9537323     
 -0.55745170384519893       0.36055563296904275        1564871634.1180804     
 -0.46048750893010160       0.29458093473701830        1562743053.6334565     
 -0.35954394223785308       0.24186872742732693        1566923463.7602179     
 -0.25461064117854620       0.20245667550858232        1577412864.4983709     
 -0.14570057614617060       0.17630050350006687        1594211255.8479121     
   477286503.66728061        35430750.484153256        1481087271.1644282     
   420731875.74193400        29311808.421480328        1478380418.5781906     
   362163022.70623434        16478782.657624781        1481700765.8911457     
   301579944.56019157       -3068326.8073717058        1491048313.1033032     
   238982641.30380410       -29329519.973522455        1506423060.2146602     
   351069711.50401938        24504513.044183612        1511373414.6119897     
   310294660.95221245        20407582.602765322        1508027805.2965422     
   268008941.56837526        11275089.387915716        1510326514.4566345     
   224212553.35252905       -2892966.6003001183        1518269542.0922613     
   178905496.30466333       -22096585.361911587        1531856888.2034349     
   229449696.81410152        14957308.846220322        1540322793.2084198     
   203360276.71108788        12554205.948627755        1536925909.4884827     
   176263744.05438060        6794061.2053918019        1538790462.8204236     
   148160098.84398085       -2323125.3834878132        1545916453.2042432     
   119049341.07988733       -14797353.818011262        1558303880.6399419     
   112426459.59752998        6789137.8902625963        1567935406.9537323     
   99928723.018570691        5751678.4590898827        1565074731.1540148     
   86927430.164238617        3035698.1100107692        1567092610.9825141     
   73422581.034543842       -1358803.1569453739        1573989046.4392335     
   59414175.629485078       -7431825.3417788260        1585764037.5241704     
 -0.14570057614617060       0.17630050350006687        1594211255.8479121     
 -0.12535686774331875       0.13410225311158033        1592474270.2931273     
 -0.10204616455873752       0.10179190366068722        1595232958.9429066     
  -7.5781711492109466E-002   7.9328427984035887E-002   1602487321.7972448     
  -4.6553969470606207E-002   6.6742582156968516E-002   1614237358.8561392     
   238982641.30380410       -29329519.973522455        1506423060.2146602     
   198508754.38441533       -59029249.306511357        1485629825.8330646     
   153405865.49762616       -104158985.19750169        1467478885.6725762     
   103673974.64341380       -164718727.64656943        1451970239.7331884     
   49313081.821804792       -240708476.65362576        1439103888.0149176     
   178905496.30466333       -22096585.361911587        1531856888.2034349     
   147708575.30009088       -44623834.109813780        1506513736.4133084     
   113039902.82034221       -78723587.774963230        1484009230.2015309     
   74899478.865406185       -124395846.35740656        1464343369.5680983     
   33287303.435293540       -181640609.85710394        1447516154.5130126     
   119049341.07988733       -14797353.818011262        1558303880.6399419     
   97690389.867957756       -29983820.817477092        1529760937.0155511     
   74016937.673085615       -52885291.093418196        1504252990.3267508     
   48028984.495253131       -83501764.645894423        1481780040.5735340     
   19726530.334470756       -121833241.47486894        1462342087.7559066     
   59414175.629485078       -7431825.3417788260        1585764037.5241704     
   48454198.088024080       -15109209.429478094        1555371427.6397913     
   36336970.055851802       -26644095.152878828        1528210166.0482340     
   23062491.532959301       -42036482.512014322        1504280252.7495120     
   8630762.5193316974       -61286371.506932132        1483581687.7436035     
  -4.6553969470606207E-002   6.6742582156968516E-002   1614237358.8561392     
  -3.9707156976351271E-002   5.4194972685374945E-002   1583345208.2860253     
  -3.1347406355667927E-002   4.6692571970047218E-002   1555880757.3659811     
  -2.1483204409561724E-002   4.4203274282653048E-002   1531844006.0960062     
  -1.0118188338463615E-002   4.6718078124012678E-002   1511234954.4760919     
   49313081.821804792       -240708476.65362576        1439103888.0149176     
   40101961.877542362       -321872455.83446044        1346064440.8998156     
   23177539.260961950       -428747443.92301875        1252947191.9402850     
  -1460186.0279654264       -561333440.91940451        1159752141.1363106     
  -33811213.989219338       -719630446.82353985        1066479288.4879178     
   33287303.435293540       -181640609.85710394        1447516154.5130126     
   29331353.854042232       -241627877.12894017        1347121017.2261205     
   19590427.268754110       -320898401.08089924        1245959187.0069726     
   4064523.6794323623       -419452181.71296960        1144030663.8555732     
  -17246356.913916200       -537289219.02513063        1041335447.7719337     
   19726530.334470756       -121833241.47486894        1462342087.7559066     
   19057490.865308739       -161234274.91303658        1356840973.5768998     
   14531800.060424164       -213490812.80361623        1249884275.3778203     
   6149457.9198026806       -278602855.14664632        1141471993.1586750     
  -6089535.5565488786       -356570401.94211560        1031604126.9194779     
   8630762.5193316974       -61286371.506932132        1483581687.7436035     
   9280372.9113608189       -80691649.186680660        1375224309.9521701     
   8001657.6359681562       -106524679.09117109        1264722457.0528433     
   4794616.6931439638       -138785461.22043002        1152076129.0456309     
  -340749.91711231321       -177473995.57446641        1037285325.9305583     
  -1.0118188338463615E-002   4.6718078124012678E-002   1511234954.4760919     
  -7.7997132562148026E-003   5.0124785274821955E-002   1402271026.3519123     
  -4.6084473233846471E-003   5.6442876929073571E-002   1290473732.0320282     
  -5.4269775486690680E-004   6.5672444588665169E-002   1175843071.5164492     
   4.3875159915474915E-003   7.7788416733645019E-002   1058379044.8051672     
   12.079034384437303        4.7601046273158367        1804168213.0909240     
   11.023883545939823        1.5857304022983905        1723237473.7566597     
   10.216990440494586      -0.76111804587823917        1657885349.1924336     
   9.6583568295131244       -2.2804341519528974        1608111839.3982451     
   9.3479819123538324       -2.9722212786203226        1573916944.3740931     
  -392694049.67606437        234767943.33321276        1676992010.8219550     
  -384263216.20092160        153501456.34724030        1624359275.3775830     
  -368990146.98342788        95042421.835764542        1581386986.4506941     
  -346874842.02358902        59390839.798775584        1548075144.0412900     
  -317917301.32140380        46546710.236273229        1524423748.1493635     
  -707485872.32168961        492906553.63916463        1513595375.9875824     
  -707533256.46640682        325300867.19654703        1497243252.5095410     
  -693896169.37468767        203310084.87538591        1484633407.2964263     
  -666574611.04653084        126934206.67568314        1475765840.3482385     
  -625568581.48193932        96173232.597427845        1470640551.6649797     
  -944375455.85784125        774415835.67795610        1313978308.5878017     
  -969810109.77257729        515398234.13364691        1341889405.1525271     
  -974718056.95678449        324802988.35776061        1367624611.7296250     
  -959099297.41046774        202630098.35029209        1391183928.3190975     
  -922953831.13362622        148879564.11123782        1412567354.9209385     
  -1103362800.2845192        1079295789.4495928        1078140808.6226168     
  -1171093776.1194277        723793557.15854621        1158297733.3065476     
  -1211455809.7297220        459521132.28288138        1230360599.7502935     
  -1224448901.1153982        286478514.82260853        1294329407.9538569     
  -1210073050.2764657        204665704.77769876        1350204157.9172409     
   9.3479819123538324       -2.9722212786203226        1573916944.3740931     
   8.0708000722134354       -3.4182205600828608        1562295141.0366426     
   6.8986634628286243       -3.5140669906919362        1554285343.7746685     
   5.8315665483345951       -3.2597828397218849        1549887552.5881712     
   4.8695116620297361       -2.6553572070091516        1549101767.4771538     
  -317917301.32140380        46546710.236273229        1524423748.1493635     
  -311024096.78969669        37966652.433211282        1516618897.4568427     
  -303797277.92743057        30498642.398679614        1512484519.9319255     
  -296236844.73460597        24142680.132677406        1512020615.5746152     
  -288342797.21121711        18898765.635219932        1515227184.3849092     
  -625568581.48193932        96173232.597427845        1470640551.6649797     
  -611615122.30669403        79063232.087688863        1467041870.2138245     
  -596994434.57537067        64177326.764875323        1467172129.0224018     
  -581706518.28796887        51515516.628990442        1471031328.0907140     
  -565751373.44449151        41077801.680025071        1478619467.4187603     
  -922953831.13362622        148879564.11123782        1412567354.9209385     
  -901773068.48019207        123289735.54521155        1413564059.3075860     
  -879591463.04515934        101036049.58451337        1418348171.0460987     
  -856409014.82853150        82118506.229131937        1426919690.1364708     
  -832225723.83030927        66537105.479066372        1439278616.5787065     
  -1210073050.2764657        204665704.77769876        1350204157.9172409     
  -1181497935.3101840        170646162.80580115        1356185464.7381320     
  -1151588363.3367934        141074810.85760111        1366012646.0030117     
  -1120344334.3562827        115951648.93313181        1379685701.7118831     
  -1087765848.3686657        95276677.032352686        1397204631.8647444     
   4.8695116620297361       -2.6553572070091516        1549101767.4771538     
   3.9954132035802479       -1.9111051797858660        1536908700.2585564     
   3.0910721326871236       -1.2676625545974227        1531189463.5364079     
   2.1564846977725609      -0.72504044892438446        1531944057.3107090     
   1.1916480622777323      -0.28324970574162150        1539172481.5814602     
  -288342797.21121711        18898765.635219932        1515227184.3849092     
  -273230283.56785363        16523617.782316655        1506549690.3797951     
  -257987718.22741210        14581975.586341605        1503571488.2602332     
  -242615101.18989712        13073839.047275886        1506292578.0262337     
  -227112432.45530838        11999208.165125415        1514712959.6777847     
  -565751373.44449151        41077801.680025071        1478619467.4187603     
  -537739312.74335480        35663614.992069870        1473609273.6423328     
  -509467148.61781979        31116439.718775392        1473523833.1405661     
  -480934881.06789601        27436275.860110402        1478363145.9134684     
  -452142510.09357524        24623123.416102439        1488127211.9610324     
  -832225723.83030927        66537105.479066372        1439278616.5787065     
  -793527083.53108990        57419989.718152046        1438087450.0461693     
  -754438288.08015347        49603391.129629701        1441046498.1774063     
  -714959337.47750926        43087309.713465631        1448155760.9724166     
  -675090231.72314882        37871745.469689935        1459415238.4312007     
  -1087765848.3686657        95276677.032352686        1397204631.8647444     
  -1040593595.9310592        81792741.960562348        1399984219.5913107     
  -992901136.61441457        70042829.818899989        1406139483.3707533     
  -944688470.41874444        60026940.607323706        1415670423.2030795     
  -895955597.34403253        51745074.325884342        1428577039.0882847     
   1.1916480622777323      -0.28324970574162150        1539172481.5814602     
  0.85160276266713286       0.20180043533648892        1537268233.9759555     
  0.44673047312653147       0.47076060998125951        1540916676.8635545     
  -2.2947760907616160E-002  0.52370062270284767        1550117810.2442658     
 -0.55745170384519893       0.36055563296904275        1564871634.1180804     
  -227112432.45530838        11999208.165125415        1514712959.6777847     
  -213505330.34564859        10144594.817468151        1513275203.4704046     
  -200167606.84164408        7392052.7842931896        1517179746.4618526     
  -187099261.94329518        3741582.0655992031        1526426588.6521292     
  -174300295.65060693       -806817.33862824738        1541015730.0412359     
  -452142510.09357524        24623123.416102439        1488127211.9610324     
  -425529423.51785636        20733560.840660572        1486841672.1874664     
  -399455094.08863705        15048141.110219836        1490688040.3184476     
  -373919521.80590975        7566864.2248075455        1499666316.3539815     
  -348922706.66967905       -1710269.8155938536        1513776500.2940660     
  -675090231.72314882        37871745.469689935        1459415238.4312007     
  -636072278.66502488        31766898.271362305        1457967640.1271338     
  -597862461.29423892        22968265.448574036        1461441558.4333405     
  -560460779.61078656        11475847.001338899        1469836993.3498194     
  -523867233.61466628       -2710357.0703339577        1483153944.8765752     
  -895955597.34403253        51745074.325884342        1428577039.0882847     
  -845133895.78715742        43244607.109564841        1426653107.2894123     
  -795389708.45845437        31152425.799339116        1429440300.8065324     
  -746723035.35792613        15468530.395196885        1436938619.6396458     
  -699133876.48556626       -3807079.1028412879        1449148063.7887580     
 -0.55745170384519893       0.36055563296904275        1564871634.1180804     
 -0.46048750893010160       0.29458093473701830        1562743053.6334565     
 -0.35954394223785308       0.24186872742732693        1566923463.7602179     
 -0.25461064117854620       0.20245667550858232        1577412864.4983709     
 -0.14570057614617060       0.17630050350006687        1594211255.8479121     
  -174300295.65060693       -806817.33862824738        1541015730.0412359     
  -159489659.83809742       -4495141.1654283330        1538843212.6493187     
  -144240475.27390015       -6721635.8199365661        1542605652.9873939     
  -128552741.95799677       -7486301.3020903990        1552303051.0554566     
  -112426459.89041451       -6789137.6119791791        1567935406.8535118     
  -348922706.66967905       -1710269.8155938536        1513776500.2940660     
  -320370100.51704276       -9407517.0158348978        1512071686.2005198     
  -290940396.86500746       -14181105.884746373        1515927796.9555645     
  -260633595.71356773       -16031036.422309369        1525344832.5592029     
  -229449697.06272998       -14957308.628545985        1540322793.0114377     
  -523867233.61466628       -2710357.0703339577        1483153944.8765752     
  -482641322.49732643       -14737127.256647974        1482428474.2870567     
  -440099765.13287759       -22378409.952598751        1486889895.6647332     
  -396242561.52131987       -25634205.158187777        1496538209.0096064     
  -351069711.66264898       -24504512.873397171        1511373414.3216720     
  -699133876.48556626       -3807079.1028412879        1449148063.7887580     
  -646303325.77894557       -20483971.887858361        1449913576.9089310     
  -591718580.07750523       -31313548.023476720        1455491949.1148970     
  -535379639.38124174       -36295807.509685069        1465883180.4066706     
  -477286503.69016677       -35430750.346521333        1481087270.7842298     
 -0.14570057614617060       0.17630050350006687        1594211255.8479121     
 -0.12535686774331875       0.13410225311158033        1592474270.2931273     
 -0.10204616455873752       0.10179190366068722        1595232958.9429066     
  -7.5781711492109466E-002   7.9328427984035887E-002   1602487321.7972448     
  -4.6553969470606207E-002   6.6742582156968516E-002   1614237358.8561392     
  -112426459.89041451       -6789137.6119791791        1567935406.8535118     
  -99928723.272061184       -5751678.2561493590        1565074731.0753412     
  -86927430.372122914       -3035697.9617041685        1567092610.9223037     
  -73422581.190603405        1358803.2713469751        1573989046.3944025     
  -59414175.727493010        7431825.4430319332        1585764037.4916301     
  -229449697.06272998       -14957308.628545985        1540322793.0114377     
  -203360276.93044743       -12554205.799935527        1536925909.3349426     
  -176263744.23794973       -6794061.1039444059        1538790462.7041557     
  -148160098.98524287        2323125.4594137371        1545916453.1190741     
  -119049341.17232239        14797353.890147530        1558303880.5797112     
  -351069711.66264898       -24504512.873397171        1511373414.3216720     
  -310294661.10050243       -20407582.497210667        1508027805.0719185     
  -268008941.69951966       -11275089.324904680        1510326514.2884474     
  -224212553.45969537        2892966.6435398310        1518269541.9712574     
  -178905496.38103750        22096585.408097394        1531856888.1203573     
  -477286503.69016677       -35430750.346521333        1481087270.7842298     
  -420731875.78222966       -29311808.347987488        1478380418.2862804     
  -362163022.75683051       -16478782.624578878        1481700765.6751864     
  -301579944.61396295        3068326.8237234652        1491048312.9509528     
  -238982641.35363668        29329519.996888697        1506423060.1135793     
  -4.6553969470606207E-002   6.6742582156968516E-002   1614237358.8561392     
  -3.9707156976351271E-002   5.4194972685374945E-002   1583345208.2860253     
  -3.1347406355667927E-002   4.6692571970047218E-002   1555880757.3659811     
  -2.1483204409561724E-002   4.4203274282653048E-002   1531844006.0960062     
  -1.0118188338463615E-002   4.6718078124012678E-002   1511234954.4760919     
  -59414175.727493010        7431825.4430319332        1585764037.4916301     
  -48454198.169684052        15109209.517396007        1555371427.6134675     
  -36336970.119224869        26644095.233924367        1528210166.0274558     
  -23062491.576117065        42036482.592616543        1504280252.7336018     
  -8630762.5403423868        61286371.593531288        1483581687.7319026     
  -119049341.17232239        14797353.890147530        1558303880.5797112     
  -97690389.943305865        29983820.887470260        1529760936.9664898     
  -74016937.730491802        52885291.164118513        1504252990.2875171     
  -48028984.533871740        83501764.720120013        1481780040.5427856     
  -19726530.353448227        121833241.55546333        1462342087.7322979     
  -178905496.38103750        22096585.408097394        1531856888.1203573     
  -147708575.36056149        44623834.164457709        1506513736.3450947     
  -113039902.86513677        78723587.837309659        1484009230.1461701     
  -74899478.894760311        124395846.42667007        1464343369.5235717     
  -33287303.449434713        181640609.93252620        1447516154.4773123     
  -238982641.35363668        29329519.996888697        1506423060.1135793     
  -198508754.42144281        59029249.348380759        1485629825.7492778     
  -153405865.52316540        104158985.25348237        1467478885.6034019     
  -103673974.65877780        164718727.71228394        1451970239.6759481     
  -49313081.828290448        240708476.72475493        1439103887.9669099     
  -1.0118188338463615E-002   4.6718078124012678E-002   1511234954.4760919     
  -7.7997132562148026E-003   5.0124785274821955E-002   1402271026.3519123     
  -4.6084473233846471E-003   5.6442876929073571E-002   1290473732.0320282     
  -5.4269775486690680E-004   6.5672444588665169E-002   1175843071.5164492     
   4.3875159915474915E-003   7.7788416733645019E-002   1058379044.8051672     
  -8630762.5403423868        61286371.593531288        1483581687.7319026     
  -9280372.9281406775        80691649.279481784        1375224309.9434052     
  -8001657.6467451230        106524679.19607982        1264722457.0468547     
  -4794616.6961442977        138785461.34336296        1152076129.0422502     
   340749.92364471406        177473995.72127026        1037285325.9295950     
  -19726530.353448227        121833241.55546333        1462342087.7322979     
  -19057490.880945429        161234274.99909297        1356840973.5592055     
  -14531800.070928499        213490812.90110359        1249884275.3657045     
  -6149457.9233783484        278602855.26155400        1141471993.1517887     
   6089535.5616806448        356570402.08037245        1031604126.9174770     
  -33287303.449434713        181640609.93252620        1447516154.4773123     
  -29331353.866211921        241627877.20896903        1347121017.1993175     
  -19590427.277146503        320898401.17154986        1245959186.9885688     
  -4064523.6822417378        419452181.82026106        1144030663.8450520     
   17246356.918504983        537289219.15511787        1041335447.7687798     
  -49313081.828290448        240708476.72475493        1439103887.9669099     
  -40101961.883936509        321872455.90911424        1346064440.8637419     
  -23177539.265429437        428747444.00732005        1252947191.9154613     
   1460186.0272653103        561333441.01948500        1159752141.1220644     
   33811213.994115770        719630446.94549906        1066479288.4835316     
  -1103362800.2845192        1079295789.4495928        1078140808.6226168     
  -1171093776.1194277        723793557.15854621        1158297733.3065476     
  -1211455809.7297220        459521132.28288138        1230360599.7502935     
  -1224448901.1153982        286478514.82260853        1294329407.9538569     
  -1210073050.2764657        204665704.77769876        1350204157.9172409     
  -1517588822.1846728        546512771.59137273        1023955475.8237212     
  -1543645225.6667004        375200624.76683342        1099857983.8309515     
  -1557347256.1677299        245069721.21229136        1173406509.0883129     
  -1558694913.6877637        156120060.92773414        1244601051.5957959     
  -1547688198.2268004        108351643.91316712        1313441611.3534088     
  -2018375953.4899416       -12238579.088381886        1044562377.8120543     
  -1986357568.9324946        5559424.2595651150        1098693471.6917043     
  -1956999380.6376669        14490106.732113481        1156210658.3117869     
  -1930301388.6054602        14553468.329263449        1217113937.6723068     
  -1906263592.8358741        5749509.0510122776        1281403309.7732589     
  -2605724194.2003331       -596958262.58967507        1139961514.5876181     
  -2499230805.9168110       -385130044.36325365        1154804196.8887944     
  -2410412183.1395326       -232217711.15763676        1178773047.4207182     
  -2339268325.8684888       -138221262.97280657        1211868066.1833818     
  -2285799234.1036801       -103140699.80876672        1254089253.1767907     
  -3279633544.3158393       -1207646278.9124992        1310152886.1504107     
  -3082264936.6196523       -796867781.10164297        1268190159.4222324     
  -2917585663.6733227       -495053732.45696950        1241093676.4151037     
  -2785595725.4768472       -302204132.97847378        1228863437.1290278     
  -2686295122.0302248       -218318982.66616023        1231499441.5640037     
  -1210073050.2764657        204665704.77769876        1350204157.9172409     
  -1181497935.3101840        170646162.80580115        1356185464.7381320     
  -1151588363.3367934        141074810.85760111        1366012646.0030117     
  -1120344334.3562827        115951648.93313181        1379685701.7118831     
  -1087765848.3686657        95276677.032352686        1397204631.8647444     
  -1547688198.2268004        108351643.91316712        1313441611.3534088     
  -1503229024.4993124        90190757.236862063        1313619694.2473562     
  -1458219744.9451516        73863556.649459958        1318510719.7531040     
  -1412660359.5643189        59370042.150968373        1328114687.8706529     
  -1366550868.3568101        46710213.741388321        1342431598.6000047     
  -1906263592.8358741        5749509.0510122776        1281403309.7732589     
  -1843443022.7248588        4190478.9570001364        1274863092.3630805     
  -1780856697.9676118        1850631.0170881748        1273902885.7325158     
  -1718504618.5641365       -1270034.7687195539        1278522689.8815646     
  -1656386784.5144272       -5171518.4004195929        1288722504.8102231     
  -2285799234.1036801       -103140699.80876672        1254089253.1767907     
  -2202139929.9868221       -87354672.033790112        1239915659.0853076     
  -2119499222.4041722       -74963966.039512038        1232189143.9412463     
  -2037877111.3557348       -65968581.825939894        1230909707.7446086     
  -1957273596.8415046       -60368519.393059611        1236077350.4953923     
  -2686295122.0302248       -218318982.66616023        1231499441.5640037     
  -2579319746.2852030       -184444695.73550022        1208777394.4140327     
  -2474147318.2548356       -156580234.52034557        1193369494.3792951     
  -2370777837.9391203       -134725599.02069628        1185275741.4597933     
  -2269211305.3380518       -118880789.23654735        1184496135.6555231     
  -1087765848.3686657        95276677.032352686        1397204631.8647444     
  -1040593595.9310592        81792741.960562348        1399984219.5913107     
  -992901136.61441457        70042829.818899989        1406139483.3707533     
  -944688470.41874444        60026940.607323706        1415670423.2030795     
  -895955597.34403253        51745074.325884342        1428577039.0882847     
  -1366550868.3568101        46710213.741388321        1342431598.6000047     
  -1308480076.5062366        38720176.234798014        1341924013.5821569     
  -1250246379.0251372        31273157.496618867        1345156421.8525107     
  -1191849775.9135258        24369157.526819050        1352128823.4110703     
  -1133290267.1713836        18008176.325451195        1362841218.2578294     
  -1656386784.5144272       -5171518.4004195929        1288722504.8102231     
  -1586376546.8642471       -7355386.4258189797        1284510895.5913627     
  -1516560704.8320589       -10187239.844522357        1284403596.8960283     
  -1446939258.4178674       -13667078.656540453        1288400608.7242179     
  -1377512207.6216650       -17794902.861867845        1296501931.0759323     
  -1957273596.8415046       -60368519.393059611        1236077350.4953923     
  -1874283007.0050890       -56433946.021282315        1227744865.6189251     
  -1791844114.0351801       -54338362.204524875        1223881008.5013027     
  -1709956917.9317768       -54081767.942783415        1224485779.1425281     
  -1628621418.6948779       -55664163.236062765        1229559177.5425961     
  -2269211305.3380518       -118880789.23654735        1184496135.6555231     
  -2172199456.9287663       -108515502.55159938        1171625923.6648455     
  -2076096606.6344972       -101180209.58338118        1163588656.6683364     
  -1980902754.4552488       -96874910.331891656        1160384334.6659930     
  -1886617900.3910198       -95599604.797140002        1162012957.6578255     
  -895955597.34403253        51745074.325884342        1428577039.0882847     
  -845133895.78715742        43244607.109564841        1426653107.2894123     
  -795389708.45845437        31152425.799339116        1429440300.8065324     
  -746723035.35792613        15468530.395196885        1436938619.6396458     
  -699133876.48556626       -3807079.1028412879        1449148063.7887580     
  -1133290267.1713836        18008176.325451195        1362841218.2578294     
  -1069346822.6322349        12580390.088251054        1357502020.0638833     
  -1006015944.6741030        5110715.2476680875        1356836264.7758949     
  -943297633.29698741       -4400848.1963067651        1360843952.3938606     
  -881191888.50088763       -15954300.243665814        1369525082.9177847     
  -1377512207.6216650       -17794902.861867845        1296501931.0759323     
  -1300554684.1289222       -20182307.328537405        1288289905.4085963     
  -1223744779.5700417       -23061774.908077419        1284713640.2371776     
  -1147082493.9450233       -26433305.600492954        1285773135.5616782     
  -1070567827.2538658       -30296899.405780733        1291468391.3820939     
  -1628621418.6948779       -55664163.236062765        1229559177.5425961     
  -1538757480.2772248       -55043485.140817881        1219016763.3235524     
  -1448576213.1462784       -53365044.667925417        1213072427.1903892     
  -1358077617.3020358       -50628841.817377090        1211726169.1431019     
  -1267261692.7444994       -46834876.589188993        1214977989.1816959     
  -1886617900.3910198       -95599604.797140002        1162012957.6578255     
  -1783955211.0771356       -92003143.348577499        1149682593.8087533     
  -1680510245.4028065       -85799094.031851590        1141912625.6355226     
  -1576283003.3680227       -76987456.846954584        1138703053.1381307     
  -1471273484.9727950       -65568231.793902397        1140053876.3165798     
  -699133876.48556626       -3807079.1028412879        1449148063.7887580     
  -646303325.77894557       -20483971.887858361        1449913576.9089310     
  -591718580.07750523       -31313548.023476720        1455491949.1148970     
  -535379639.38124174       -36295807.509685069        1465883180.4066706     
  -477286503.69016677       -35430750.346521333        1481087270.7842298     
  -881191888.50088763       -15954300.243665814        1369525082.9177847     
  -813756695.17240977       -25505500.864741653        1369247208.8360004     
  -745442946.12011480       -32128182.406423241        1373746425.6474020     
  -676250641.34401059       -35822344.868740529        1383022733.3519840     
  -606179780.84409297       -36587988.251682997        1397076131.9497461     
  -1070567827.2538658       -30296899.405780733        1291468391.3820939     
  -988630186.13957357       -32753066.313719869        1289125550.9488528     
  -906689628.57247341       -35199511.712295324        1291524033.2161787     
  -824746154.55256832       -37636235.601522863        1298663838.1840711     
  -742799764.07985759       -40063237.981392950        1310544965.8525286     
  -1267261692.7444994       -46834876.589188993        1214977989.1816959     
  -1170923798.6804426       -42226668.234810412        1209548603.2474871     
  -1075458627.4345794       -40527535.941081166        1208824771.8212271     
  -980866179.00692546       -41737479.708043337        1212806494.9029205     
  -887146453.39746749       -45856499.535668045        1221493772.4925618     
  -1471273484.9727950       -65568231.793902397        1140053876.3165798     
  -1360637532.7950172       -53926306.628022671        1130516365.7318997     
  -1251749942.7064424       -48112255.092814147        1125648641.4625523     
  -1144610714.7070787       -48126077.188312471        1125450703.5085347     
  -1039219848.7969139       -53967772.914474189        1129922551.8698561     
  -477286503.69016677       -35430750.346521333        1481087270.7842298     
  -420731875.78222966       -29311808.347987488        1478380418.2862804     
  -362163022.75683051       -16478782.624578878        1481700765.6751864     
  -301579944.61396295        3068326.8237234652        1491048312.9509528     
  -238982641.35363668        29329519.996888697        1506423060.1135793     
  -606179780.84409297       -36587988.251682997        1397076131.9497461     
  -534536324.73542982       -32266108.292223275        1394086241.4308786     
  -460728076.22325873       -20728253.654391378        1397090648.5731878     
  -384755035.30757010       -1974424.3381760418        1406089353.3766725     
  -306617201.98837626        23995379.656393945        1421082355.8413312     
  -742799764.07985759       -40063237.981392950        1310544965.8525286     
  -656161486.12956381       -37566621.968729258        1307447699.1464624     
  -567207848.48971188       -27352140.324205518        1310311827.8758934     
  -475938851.16030198       -9419793.0478132069        1319137352.0408175     
  -382354494.14133000        16230419.860441595        1333924271.6412382     
  -887146453.39746749       -45856499.535668045        1221493772.4925618     
  -785607359.96463203       -45213349.377520531        1218464791.4330256     
  -681602339.55619192       -36350442.634020656        1221364303.5833032     
  -575131392.17214632       -19267779.305170655        1230192308.9433885     
  -466194517.81250238        6034640.6090070307        1244948807.5132904     
  -1039219848.7969139       -53967772.914474189        1129922551.8698561     
  -922873946.24063492       -55206290.518585443        1127137518.2905722     
  -803911549.42270529       -47723160.583864063        1130248075.6954126     
  -682332658.34312022       -31518383.110289872        1139254224.0843825     
  -558137273.00187910       -6591958.0978622139        1154155963.4574816     
  -238982641.35363668        29329519.996888697        1506423060.1135793     
  -198508754.42144281        59029249.348380759        1485629825.7492778     
  -153405865.52316540        104158985.25348237        1467478885.6034019     
  -103673974.65877780        164718727.71228394        1451970239.6759481     
  -49313081.828290448        240708476.72475493        1439103887.9669099     
  -306617201.98837626        23995379.656393945        1421082355.8413312     
  -257458761.77743557        54335164.023447186        1404539224.9127367     
  -201851620.58213502        106170618.33837034        1391886520.3611619     
  -139795778.40246281        179501742.60119855        1383124242.1866112     
  -71291235.238423333        274328536.81191552        1378252390.3890872     
  -382354494.14133000        16230419.860441595        1333924271.6412382     
  -320945408.76991308        48280086.807589874        1323754226.3363113     
  -251267923.39586735        107891087.09683116        1318722739.5670192     
  -173322038.01918504        195063420.72819573        1318829811.3333509     
  -87107752.639870450        309797087.70166862        1324075441.6353130     
  -466194517.81250238        6034640.6090070307        1244948807.5132904     
  -388968695.39887887        40864017.700781852        1243274830.0200155     
  -301654773.96435833        109320391.52888352        1247987543.2209823     
  -204252753.50893968        211403762.09330630        1259086947.1161749     
  -96762634.032634437        347114129.39402652        1276573041.7056034     
  -558137273.00187910       -6591958.0978622139        1154155963.4574816     
  -461528621.66433638        32086956.703016371        1163101035.9638486     
  -353012172.28761899        110458531.63448003        1179680931.3230431     
  -232587924.87174624        228522766.69646174        1203895649.5350783     
  -100255879.41670161        386279661.88901353        1235745190.5999522     
  -49313081.828290448        240708476.72475493        1439103887.9669099     
  -40101961.883936509        321872455.90911424        1346064440.8637419     
  -23177539.265429437        428747444.00732005        1252947191.9154613     
   1460186.0272653103        561333441.01948500        1159752141.1220644     
   33811213.994115770        719630446.94549906        1066479288.4835316     
  -71291235.238423333        274328536.81191552        1378252390.3890872     
  -57143071.511112586        376181340.90955693        1296670894.3711727     
  -34059263.459647536        507819626.08770889        1214190581.9745100     
  -2039811.0839865506        669243392.34651279        1130811453.1990957     
   38915285.615829021        860452639.68584228        1046533508.0449384     
  -87107752.639870450        309797087.70166862        1324075441.6353130     
  -70368300.939979672        431634989.96947575        1255377961.9609957     
  -43470863.265923083        587332845.48450208        1184960651.3742936     
  -6415439.6176847816        776890654.24680376        1112823509.8752096     
   40797970.004730165        1000308416.2563552        1038966537.4637471     
  -96762634.032634437        347114129.39402652        1276573041.7056034     
  -79777650.170542121        488233403.08887428        1222185643.6332142     
  -51412338.684266686        667287102.19765747        1165257400.1148119     
  -11666699.573804677        884275226.72039628        1105788311.1504021     
   39459267.160819888        1139197776.6570182        1043778376.7399716     
  -100255879.41670161        386279661.88901353        1235745190.5999522     
  -85371119.202781856        545976580.26779616        1197093939.3878293     
  -57883689.714680940        747682396.22718012        1155080828.1960666     
  -17793590.952386975        991397109.76720715        1109705857.0246656     
   34899177.084085941        1277120720.8878338        1060969025.8736106     
  -3279633544.3158393       -1207646278.9124992        1310152886.1504107     
  -3082264936.6196523       -796867781.10164297        1268190159.4222324     
  -2917585663.6733227       -495053732.45696950        1241093676.4151037     
  -2785595725.4768472       -302204132.97847378        1228863437.1290278     
  -2686295122.0302248       -218318982.66616023        1231499441.5640037     
  -3640252799.7703466       -776428638.32770228        1203235262.1587775     
  -3457410215.0563707       -519415657.94402635        1158714365.9501877     
  -3294500302.5967293       -328844918.40811992        1123637712.3635845     
  -3151523062.3914232       -204716419.72000337        1098005301.3989592     
  -3028478494.4404502       -147030161.87966597        1081817133.0563185     
  -3912732050.0203538       -318768996.18155503        1031411747.6604478     
  -3759906920.0002227       -220168962.73854125        999215454.88289940     
  -3614257799.7389050       -145488961.82491338        971041403.62825727     
  -3475784689.2363977       -94728993.440657616        946889593.89652681     
  -3344487588.4927058       -67889057.585778713        926760025.68770456     
  -4097071295.0658774        165332647.52593541        794682342.65543854     
  -3989755051.4512129        100872304.51479292        789693426.22035992     
  -3876858155.0998540        55014137.292665243        783304750.20912409     
  -3758380606.0117760        27758145.859572649        775516314.62172699     
  -3634322404.1869950        19104330.215502501        766328119.45816910     
  -4193270534.9068999        675876292.79477978        493047047.14373493     
  -4146954609.4093428        443708143.81599212        530148279.96257830     
  -4082301368.6795640        272664378.94461751        560427752.10618556     
  -3999310812.7175560        162744998.18067861        583885463.57456446     
  -3897982941.5233169        113950001.52416706        600521414.36770725     
  -2686295122.0302248       -218318982.66616023        1231499441.5640037     
  -2579319746.2852030       -184444695.73550022        1208777394.4140327     
  -2474147318.2548356       -156580234.52034557        1193369494.3792951     
  -2370777837.9391203       -134725599.02069628        1185275741.4597933     
  -2269211305.3380518       -118880789.23654735        1184496135.6555231     
  -3028478494.4404502       -147030161.87966597        1081817133.0563185     
  -2907306000.2245660       -122294456.52456570        1065575209.8563979     
  -2787556172.4563661       -102300972.66175210        1055048903.3439606     
  -2669229011.1358399       -87049710.291179419        1050238213.5190064     
  -2552324516.2629938       -76540669.412878990        1051143140.3815347     
  -3344487588.4927058       -67889057.585778713        926760025.68770456     
  -3213685205.5995398       -53662102.744328499        917441887.91597331     
  -3083925207.8870821       -42909765.171904802        912240836.40397263     
  -2955207595.3553257       -35632044.868499041        911156871.15170276     
  -2827532368.0042858       -31828941.834120512        914189992.15916264     
  -3634322404.1869950        19104330.215502501        766328119.45816910     
  -3498457362.4101238        21452365.605232477        764377428.59276021     
  -3363254424.5469866        21593387.949177980        764945293.55932784     
  -3228713590.5975800        19527397.247353911        768031714.35787439     
  -3094834860.5619102        15254393.499742150        773636690.98839974     
  -3897982941.5233169        113950001.52416706        600521414.36770725     
  -3761622470.6563148        103048948.52410984        606381831.88675630     
  -3625543822.4360738        91208486.701513290        613162274.81002772     
  -3489746996.8625979        78428616.056368589        620862743.13752747     
  -3354231993.9358783        64709336.588698626        629483236.86925280     
  -2269211305.3380518       -118880789.23654735        1184496135.6555231     
  -2172199456.9287663       -108515502.55159938        1171625923.6648455     
  -2076096606.6344972       -101180209.58338118        1163588656.6683364     
  -1980902754.4552488       -96874910.331891656        1160384334.6659930     
  -1886617900.3910198       -95599604.797140002        1162012957.6578255     
  -2552324516.2629938       -76540669.412878990        1051143140.3815347     
  -2444700012.8587632       -71590274.335373998        1040145912.0936000     
  -2337482281.4861097       -67995786.029793501        1033728909.9477828     
  -2230671322.1450386       -65757204.496155858        1031892133.9440880     
  -2124267134.8355489       -64874529.734460115        1034635584.0825195     
  -2827532368.0042858       -31828941.834120512        914189992.15916264     
  -2710017263.4680963       -32510054.522945881        905651678.00464404     
  -2592406704.8800516       -32872987.038915157        901440871.14020002     
  -2474700692.2401481       -32917739.382019877        901557571.56583107     
  -2356899225.5483837       -32644311.552263618        906001779.28153563     
  -3094834860.5619102        15254393.499742150        773636690.98839974     
  -2968151208.7567596        8725156.8856846094        768143221.39798045     
  -2840869876.8163180        4188187.3892660141        766724540.24558783     
  -2712990864.7405725        1643485.0105237961        769380647.53122175     
  -2584514172.5295315        1091049.7494348288        776111543.25488579     
  -3354231993.9358783        64709336.588698626        629483236.86925280     
  -3219101848.7247601        52115359.890505791        627620542.27360773     
  -3082871797.2949052        43187737.254760742        629579917.26394725     
  -2945541839.6463146        37926468.681476951        635361361.84026492     
  -2807111975.7789869        36331554.170640826        644964876.00256193     
  -1886617900.3910198       -95599604.797140002        1162012957.6578255     
  -1783955211.0771356       -92003143.348577499        1149682593.8087533     
  -1680510245.4028065       -85799094.031851590        1141912625.6355226     
  -1576283003.3680227       -76987456.846954584        1138703053.1381307     
  -1471273484.9727950       -65568231.793902397        1140053876.3165798     
  -2124267134.8355489       -64874529.734460115        1034635584.0825195     
  -2010496279.5797620       -62104890.120467901        1024437966.0259742     
  -1896531642.7527978       -58689311.935884714        1018415500.3645697     
  -1782373224.3546512       -54627795.180699646        1016568187.0983093     
  -1668021024.3853328       -49920339.854930043        1018896026.2271909     
  -2356899225.5483837       -32644311.552263618        906001779.28153563     
  -2233120899.4384022       -31031702.299161196        897250329.76336801     
  -2109737286.5465121       -30734803.773034453        892288789.35964394     
  -1986748386.8727162       -31753615.973882198        891117158.07036674     
  -1864154200.4170096       -34088138.901702762        893735435.89552712     
  -2584514172.5295315        1091049.7494348288        776111543.25488579     
  -2451829070.6530633        1216420.1153454781        768119685.02094519     
  -2320127176.7839580       -1935569.5432970524        763532492.62074983     
  -2189408490.9222164       -8364919.2264887094        762349966.05429745     
  -2059673013.0678415       -18071628.934223652        764572105.32159162     
  -2807111975.7789869        36331554.170640826        644964876.00256193     
  -2666620793.2237396        34639477.123044133        637046031.79869664     
  -2527701313.4651303        27708390.753313899        632146610.14788103     
  -2390353536.5031552        15538295.061467648        630266611.05010796     
  -2254577462.3378153       -1870809.9524871111        631406034.50538337     
  -1471273484.9727950       -65568231.793902397        1140053876.3165798     
  -1360637532.7950172       -53926306.628022671        1130516365.7318997     
  -1251749942.7064424       -48112255.092814147        1125648641.4625523     
  -1144610714.7070787       -48126077.188312471        1125450703.5085347     
  -1039219848.7969139       -53967772.914474189        1129922551.8698561     
  -1668021024.3853328       -49920339.854930043        1018896026.2271909     
  -1547922557.9148698       -44473038.757762432        1007746557.5807730     
  -1428666686.7599392       -41834388.712375283        1000635688.3984793     
  -1310253410.9205399       -42004389.718759060        997563418.68031430     
  -1192682730.3966861       -44983041.776945353        998529748.42627275     
  -1864154200.4170096       -34088138.901702762        893735435.89552712     
  -1736396610.6573069       -35376479.174272597        882030737.08998108     
  -1608575849.4394755       -36454247.919735014        873733450.89736152     
  -1480691916.7635067       -37321445.138083816        868843577.31765854     
  -1352744812.6294112       -37978070.829335690        867361116.35087252     
  -2059673013.0678415       -18071628.934223652        764572105.32159162     
  -1926059691.0223491       -26636627.877566934        753368904.25953794     
  -1791477430.7450538       -31971832.714903951        744941928.95919442     
  -1655926232.2359636       -34077243.446255803        739291179.42056215     
  -1519406095.4950697       -32952860.071596026        736416655.64364684     
  -2254577462.3378153       -1870809.9524871111        631406034.50538337     
  -2116911799.0099826       -18253484.867645025        621761059.08943355     
  -1977371430.6766822       -28387143.097906351        614261122.58398235     
  -1835956357.3379059       -32271784.643256068        608906224.98904097     
  -1692666578.9936707       -29907409.503732443        605696366.30460203     
  -1039219848.7969139       -53967772.914474189        1129922551.8698561     
  -922873946.24063492       -55206290.518585443        1127137518.2905722     
  -803911549.42270529       -47723160.583864063        1130248075.6954126     
  -682332658.34312022       -31518383.110289872        1139254224.0843825     
  -558137273.00187910       -6591958.0978622139        1154155963.4574816     
  -1192682730.3966861       -44983041.776945353        998529748.42627275     
  -1062394306.6461965       -43025154.545724809        994982135.15047908     
  -930524024.07152188       -35794404.567245930        995526315.30871987     
  -797071882.67267120       -23290791.841496944        1000162288.9009948     
  -662037882.44964314       -5514316.3684977293        1008890055.9273093     
  -1352744812.6294112       -37978070.829335690        867361116.35087252     
  -1213667574.9706717       -34369890.948534906        861843848.70150685     
  -1074043113.9252393       -28937633.112078846        858614576.93609095     
  -933871429.49311483       -21681297.319978714        857673301.05460918     
  -793152521.67428899       -12600883.572217822        859020021.05707181     
  -1519406095.4950697       -32952860.071596026        736416655.64364684     
  -1376693751.2140779       -29240499.727035940        727722658.94365776     
  -1234468818.9838588       -27152846.218395352        719512860.57751763     
  -1092731298.8044381       -26689899.545734167        711787260.54523098     
  -951481190.67578483       -27851659.708986223        704545858.84678721     
  -1692666578.9936707       -29907409.503732443        605696366.30460203     
  -1551472835.3764005       -27636980.881191850        592618565.87693453     
  -1411801139.2473836       -30440043.886173487        578221166.23301077     
  -1273651490.6066411       -38316598.518732727        562504167.37284565     
  -1137023889.4541554       -51266644.778810322        545467569.29644108     
  -558137273.00187910       -6591958.0978622139        1154155963.4574816     
  -461528621.66433638        32086956.703016371        1163101035.9638486     
  -353012172.28761899        110458531.63448003        1179680931.3230431     
  -232587924.87174624        228522766.69646174        1203895649.5350783     
  -100255879.41670161        386279661.88901353        1235745190.5999522     
  -662037882.44964314       -5514316.3684977293        1008890055.9273093     
  -546914718.89286470        25116224.261755645        1021989759.9423809     
  -420959799.11158961        91852618.973640919        1043553890.6972585     
  -284173123.10581768        194694867.76719016        1073582448.1919348     
  -136554690.87555844        333642970.64236104        1112075432.4264164     
  -793152521.67428899       -12600883.572217822        859020021.05707181     
  -657144549.07835686        10692371.933390796        875018974.46374035     
  -511380862.07261252        66504675.471705258        900311958.49717724     
  -355861460.65704209        154836027.04277921        934898973.15738404     
  -190586344.83166903        275686426.64652908        978780018.44435573     
  -951481190.67578483       -27851659.708986223        704545858.84678721     
  -792218112.22080934       -11184600.282064736        722188679.52792645     
  -624275361.17068636        34414701.128671378        749955134.72280252     
  -447652937.52543044        108946244.52318916        787845224.43140936     
  -262350841.28502935        212410029.90152395        835858948.65375340     
  -1137023889.4541554       -51266644.778810322        545467569.29644108     
  -952135408.32022572       -40514692.384599388        563498875.13493192     
  -759643296.40583313       -4417304.0555226803        592483419.37412775     
  -559547553.71095467        57025520.208512008        632421202.01402295     
  -351848180.23563480        143813780.40735191        683312223.05461407     
  -100255879.41670161        386279661.88901353        1235745190.5999522     
  -85371119.202781856        545976580.26779616        1197093939.3878293     
  -57883689.714680940        747682396.22718012        1155080828.1960666     
  -17793590.952386975        991397109.76720715        1109705857.0246656     
   34899177.084085941        1277120720.8878338        1060969025.8736106     
  -136554690.87555844        333642970.64236104        1112075432.4264164     
  -127412244.46946615        482576094.94888043        1090464364.1600952     
  -95127169.334923267        708651315.01690197        1070281943.8840780     
  -39699465.471943378        1011868630.8463843        1051528171.5983437     
   38870867.119483173        1392228042.4373581        1034203047.3029250     
  -190586344.83166903        275686426.64652908        978780018.44435573     
  -173499046.60498923        417961906.56932634        986505752.48713470     
  -122729160.19560474        672512680.43448448        1000450642.4901564     
  -38276685.603512883        1039338748.2419838        1020614688.4534179     
   79858377.171270847        1518440109.9917998        1046997890.3769243     
  -262350841.28502935        212410029.90152395        835858948.65375340     
  -223631525.60935384        352134015.12913311        885218104.36893678     
  -140689662.29673022        639266492.47993100        945586924.01429904     
  -13525251.347139597        1073807461.9539461        1016965407.5898474     
   157861707.23941547        1655756923.5511484        1099353555.0955763     
  -351848180.23563480        143813780.40735191        683312223.05461407     
  -277809681.48257589        285092420.62825602        786601419.80550528     
  -149008675.63829073        608912751.15324211        905690788.45652020     
   34554837.297222674        1115274771.9823108        1040580329.0076529     
   272880857.32394040        1804178483.1154110        1191270041.4589207     
  -4193270534.9068999        675876292.79477978        493047047.14373493     
  -4146954609.4093428        443708143.81599212        530148279.96257830     
  -4082301368.6795640        272664378.94461751        560427752.10618556     
  -3999310812.7175560        162744998.18067861        583885463.57456446     
  -3897982941.5233169        113950001.52416706        600521414.36770725     
  -4577593094.3904581        367797727.01556921        488877582.56365925     
  -4500590763.1145258        244378977.95670104        484533229.52207273     
  -4414415397.2265091        151537010.93810201        485519549.31140924     
  -4319066996.7264194        89271825.959764004        491836541.93167418     
  -4214545561.6142497        57583423.021676540        503484207.38286340     
  -5143542815.8435936        5231012.6454794407        528339901.49396336     
  -5001132840.2002544        978035.08325314522        471858301.86843687     
  -4858714110.5649872       -3245762.5058732033        432859808.57999343     
  -4716286626.9377918       -7440380.1219065189        411344421.62863380     
  -4573850389.3186731       -11605817.764862537        407312141.01436007     
  -5891119699.2663136       -411823850.31548476        611434003.93464506     
  -5648580840.6665459       -286494684.80435681        492123497.00166684     
  -5415197508.6950026       -191683941.38730955        402448529.91193283     
  -5190969703.3516827       -127391620.06432939        342409102.66544265     
  -4975897424.6365891       -93617720.835448503        312005215.26219553     
  -6820323744.6586170       -883366861.86732006        738159889.88570333     
  -6442934764.5134020       -618039181.70614982        545328814.92177033     
  -6083865591.6165543       -413777525.70619678        394285713.30723870     
  -5743116225.9680824       -270581893.86750388        285030585.04210699     
  -5420686667.5679932       -188452286.19008136        217563430.12637222     
  -3897982941.5233169        113950001.52416706        600521414.36770725     
  -3761622470.6563148        103048948.52410984        606381831.88675630     
  -3625543822.4360738        91208486.701513290        613162274.81002772     
  -3489746996.8625979        78428616.056368589        620862743.13752747     
  -3354231993.9358783        64709336.588698626        629483236.86925280     
  -4214545561.6142497        57583423.021676540        503484207.38286340     
  -4070762515.1661239        51275924.479683876        495506005.06235921     
  -3927183874.1024022        44287074.656332731        491257399.83278596     
  -3783809638.4230886        36616873.551634550        490738391.69414794     
  -3640639808.1281781        28265321.165577650        493948980.64643800     
  -4573850389.3186731       -11605817.764862537        407312141.01436007     
  -4414617419.6131210       -10911557.545899630        385585638.99372238     
  -4255511438.0296197       -10640591.067111969        370398305.75071675     
  -4096532444.5681720       -10792918.328490973        361750141.28535110     
  -3937680439.2287674       -11368539.330026865        359641145.59762311     
  -4975897424.6365891       -93617720.835448503        312005215.26219553     
  -4793187183.9973125       -83513497.552647591        276620733.68083304     
  -4610526514.2177296       -73574510.468820095        250584992.56381923     
  -4427915415.2978439       -63800759.583992958        233897991.91114378     
  -4245353887.2376490       -54192244.898130655        226559731.72281051     
  -5420686667.5679932       -188452286.19008136        217563430.12637222     
  -5206471808.3186893       -166529895.54054427        168611289.12371099     
  -4992229102.6667309       -144514683.54881144        131817460.27209127     
  -4777958550.6121044       -122406650.21485591        107181943.57152326     
  -4563660152.1548166       -100205795.53870678        94704739.021996751     
  -3354231993.9358783        64709336.588698626        629483236.86925280     
  -3219101848.7247601        52115359.890505791        627620542.27360773     
  -3082871797.2949052        43187737.254760742        629579917.26394725     
  -2945541839.6463146        37926468.681476951        635361361.84026492     
  -2807111975.7789869        36331554.170640826        644964876.00256193     
  -3640639808.1281781        28265321.165577650        493948980.64643800     
  -3493144032.7679348        21741340.229232788        489562971.04003406     
  -3345094541.3001308        17063079.651432037        489466146.78655028     
  -3196491333.7247686        14230539.432154179        493658507.88598418     
  -3047334410.0418515        13243719.571391463        502140054.33833730     
  -3937680439.2287674       -11368539.330026865        359641145.59762311     
  -3776484417.2424369       -11422139.561431408        352094599.18408823     
  -3615280869.2597198       -11450653.138218880        349304353.89040720     
  -3454069795.2806215       -11454080.060401678        351270409.71658254     
  -3292851195.3051391       -11432420.327978253        357992766.66261172     
  -4245353887.2376490       -54192244.898130655        226559731.72281051     
  -4069123002.1482539       -47375079.481477022        215215426.70576558     
  -3893430781.1736612       -42353461.114166021        209094538.57551730     
  -3718277224.3138585       -39127389.796152592        208197067.33206186     
  -3543662331.5688567       -37696865.527483463        212523012.97540155     
  -4563660152.1548166       -100205795.53870678        94704739.021996751     
  -4371059787.4854050       -86117479.530949354        78925453.605073795     
  -4179544277.0419626       -75645344.276422501        68836700.841874599     
  -3989113620.8244920       -68789389.775146246        64438480.732417114     
  -3799767818.8330021       -65549616.027117014        65730793.276693650     
  -2807111975.7789869        36331554.170640826        644964876.00256193     
  -2666620793.2237396        34639477.123044133        637046031.79869664     
  -2527701313.4651303        27708390.753313899        632146610.14788103     
  -2390353536.5031552        15538295.061467648        630266611.05010796     
  -2254577462.3378153       -1870809.9524871111        631406034.50538337     
  -3047334410.0418515        13243719.571391463        502140054.33833730     
  -2898469018.1550612        11938780.648301721        491196401.79511571     
  -2750309425.5781384        8281177.3589807749        483585686.61745864     
  -2602855632.3110919        2270909.7034089565        479307908.80536008     
  -2456107638.3539095       -6092022.3183777332        478363068.35882676     
  -3292851195.3051391       -11432420.327978253        357992766.66261172     
  -3134715837.4796243       -12081494.144408345        345034526.51460224     
  -2976420375.4772110       -12196887.371184111        335722738.54466552     
  -2817964809.2978992       -11778600.008304000        330057402.75280315     
  -2659349138.9416971       -10826632.055786610        328038519.13902062     
  -3543662331.5688567       -37696865.527483463        212523012.97540155     
  -3375361251.1974192       -37421347.255070210        198560405.95715439     
  -3206034163.1623344       -33725803.437154651        188557765.92949814     
  -3035681067.4635854       -26610234.073694110        182515092.89243218     
  -2864301964.1011734       -16074639.164697051        180432386.84595513     
  -3799767818.8330021       -65549616.027117014        65730793.276693650     
  -3620405259.3084755       -64080778.683750629        51774040.122776628     
  -3439150788.6335273       -56305570.838967681        42090768.771957390     
  -3256004406.8081508       -42223992.492761612        36680979.224242017     
  -3070966113.8323421       -21836043.645115256        35544671.479637876     
  -2254577462.3378153       -1870809.9524871111        631406034.50538337     
  -2116911799.0099826       -18253484.867645025        621761059.08943355     
  -1977371430.6766822       -28387143.097906351        614261122.58398235     
  -1835956357.3379059       -32271784.643256068        608906224.98904097     
  -1692666578.9936707       -29907409.503732443        605696366.30460203     
  -2456107638.3539095       -6092022.3183777332        478363068.35882676     
  -2310344334.2848349       -14470883.093274117        469777836.42872274     
  -2163690959.5564408       -19882841.670441508        463429485.97207993     
  -2016147514.1687374       -22327898.049887061        459318016.98890537     
  -1867713998.1216986       -21806052.231581569        457443429.47919720     
  -2659349138.9416971       -10826632.055786610        328038519.13902062     
  -2505225786.8086414       -11122956.493612528        319364290.62425071     
  -2351196998.3624105       -11734493.220840931        313018786.14590865     
  -2197262773.6030183       -12661242.237549663        309002005.70399487     
  -2043423112.5304470       -13903203.543650270        307313949.29850441     
  -2864301964.1011734       -16074639.164697051        180432386.84595513     
  -2701556156.5813990       -8209705.0686515570        170520421.67601699     
  -2539889547.0945892       -3942097.7491323948        163029023.10547367     
  -2379302135.6407695       -3271817.2062615156        157958191.13430932     
  -2219793922.2199173       -6198863.4399436712        155307925.76253638     
  -3070966113.8323421       -21836043.645115256        35544671.479637876     
  -2899335443.6030898       -5731128.8183035851        23246229.584028129     
  -2729768605.7529507        3494344.7447878122        13460196.850768346     
  -2562265600.2819734        5840377.0440156460        6186573.2798610944     
  -2396826427.1900988        1306968.0795559883        1425358.8712833151     
  -1692666578.9936707       -29907409.503732443        605696366.30460203     
  -1551472835.3764005       -27636980.881191850        592618565.87693453     
  -1411801139.2473836       -30440043.886173487        578221166.23301077     
  -1273651490.6066411       -38316598.518732727        562504167.37284565     
  -1137023889.4541554       -51266644.778810322        545467569.29644108     
  -1867713998.1216986       -21806052.231581569        457443429.47919720     
  -1729932121.3918874       -23542571.146592379        443557083.09074152     
  -1592422429.3465273       -26186372.343101501        429290503.12914830     
  -1455184921.9856262       -29737455.821145594        414643689.59441841     
  -1318219599.3091776       -34195821.580693424        399616642.48655677     
  -2043423112.5304470       -13903203.543650270        307313949.29850441     
  -1906369200.8506396       -18841499.444959164        294077230.22037339     
  -1768337611.0514750       -20520868.281745791        281399643.21221757     
  -1629328343.1329584       -18941310.054036319        269281188.27403605     
  -1489341397.0950933       -14102824.761831343        257721865.40582016     
  -2219793922.2199173       -6198863.4399436712        155307925.76253638     
  -2080784073.7526560       -13533765.776308417        144179007.26583999     
  -1939546684.3622375       -13443531.702150226        134548586.48221686     
  -1796081754.0486574       -5928161.2174568176        126416663.41168000     
  -1650389282.8119268        9012345.6777455807        119783238.05421524     
  -2396826427.1900988        1306968.0795559883        1425358.8712833151     
  -2253176740.0979404       -7619370.1406381130       -6137585.7728742994     
  -2106049649.2788103       -4954362.6042845249       -11262667.060859244     
  -1955445154.7327223        9301990.6886079311       -13949884.992631968     
  -1801363256.4596713        35149689.738042355       -14199239.568232981     
  -1137023889.4541554       -51266644.778810322        545467569.29644108     
  -952135408.32022572       -40514692.384599388        563498875.13493192     
  -759643296.40583313       -4417304.0555226803        592483419.37412775     
  -559547553.71095467        57025520.208512008        632421202.01402295     
  -351848180.23563480        143813780.40735191        683312223.05461407     
  -1318219599.3091776       -34195821.580693424        399616642.48655677     
  -1118434814.6949680       -14661109.682409942        421510464.33854383     
  -914984061.38982594        17093497.852349281        441882952.11986935     
  -707867339.39372778        61068001.023603290        460734105.83053356     
  -497084648.70668733        117262399.83134842        478063925.47053820     
  -1489341397.0950933       -14102824.761831343        257721865.40582016     
  -1310301944.6330805        3522155.9507801533        278884264.16685247     
  -1131534185.5696335        20241492.001495957        286050756.38586652     
  -953038119.90477788        36055183.390251219        279221342.06285703     
  -774813747.63848138        50963230.117119074        258396021.19782454     
  -1650389282.8119268        9012345.6777455807        119783238.05421524     
  -1527736798.1345646        14035104.514946163        135620274.61986470     
  -1409293668.9452817        5026678.3918708563        124986832.17213064     
  -1295059895.2441134       -18012932.691579759        87882910.710998178     
  -1185035477.0310366       -55083728.735336959        24308510.236494157     
  -1801363256.4596713        35149689.738042355       -14199239.568232981     
  -1770739375.1994154        16877736.010095716       -8281504.3024311652     
  -1748262511.5167542       -28550942.976488233       -41308820.521363832     
  -1733932665.4117417       -101136347.22190684       -113281188.22503515     
  -1727749836.8843360       -200878476.72601622       -224198607.41346848     
  -351848180.23563480        143813780.40735191        683312223.05461407     
  -277809681.48257589        285092420.62825602        786601419.80550528     
  -149008675.63829073        608912751.15324211        905690788.45652020     
   34554837.297222674        1115274771.9823108        1040580329.0076529     
   272880857.32394040        1804178483.1154110        1191270041.4589207     
  -497084648.70668733        117262399.83134842        478063925.47053820     
  -388280351.25745618        222933929.78220427        597263220.99288428     
  -230348187.91819614        492365012.69981754        735622292.13601696     
  -23288158.688902795        925555648.58420861        893141138.89993823     
   232899736.43040976        1522505837.4353359        1069819761.2846320     
  -774813747.63848138        50963230.117119074        258396021.19782454     
  -621644783.71977854        123907310.12989324        386931667.42357981     
  -424982595.11222446        341828805.77217531        537986692.99077487     
  -184827181.81584707        704727717.04387724        711561097.89941323     
   98821456.169372201        1212604043.9450088        907654882.14949155     
  -1185035477.0310366       -55083728.735336959        24308510.236494157     
  -977902978.86952996       -11987438.328593135        155606759.09758374     
  -732911897.22038472        157304130.37027735        312783991.02077812     
  -450062232.08359087        452790977.36127770        495840206.00608903     
  -129353983.45917135        874473102.64442992        704775404.05348980     
  -1727749836.8843360       -200878476.72601622       -224198607.41346848     
  -1457054936.7067277       -184750315.59336680       -96711503.985089317     
  -1154136094.2426629       -61209013.505862653        60014186.226059049     
  -818993309.49214602        169745429.53650308        245978463.21996441     
  -451626582.45519435        508113013.53360713        461181326.99663514     
 </DataArray>
 <DataArray  type="Float64" Name="VM" NumberOfComponents="1" format="ascii">
   6550339299.2696161     
   6229249162.7791014     
   5927364434.5967207     
   5634389280.1626787     
   5342267211.3032055     
   5793991817.5597229     
   5576451642.5313044     
   5367401126.0173244     
   5162638960.8798866     
   4959287153.1715012     
   5226891535.5367537     
   5067955474.1972961     
   4914615545.5161886     
   4766123860.9424753     
   4622214660.2707195     
   4846675750.0326977     
   4703105928.7709808     
   4570138045.6658049     
   4446750467.9497051     
   4332307369.4282999     
   4647982859.5961342     
   4480772082.4531269     
   4335304627.6633892     
   4206495857.2580967     
   4090636705.0028481     
   5342267211.3032055     
   5133550136.2580605     
   4926856304.3829889     
   4721597328.0227966     
   4517370582.4646845     
   4959287153.1715012     
   4776073614.6489782     
   4594728419.9828682     
   4414988780.0952425     
   4236730948.0385399     
   4622214660.2707195     
   4459464602.8769636     
   4298347868.0052691     
   4138848937.0253019     
   3981044596.8096194     
   4332307369.4282999     
   4185576111.9863162     
   4040131125.2202463     
   3896098042.9537549     
   3753653923.8096890     
   4090636705.0028481     
   3956153521.6890273     
   3822495423.5414991     
   3689795765.9873953     
   3558209819.0304947     
   4517370582.4646845     
   4330801650.2818956     
   4143955236.2913036     
   3956742059.3834472     
   3769140553.9564977     
   4236730948.0385399     
   4062780382.2756414     
   3889326212.1245861     
   3716405259.3944135     
   3544132744.3958654     
   3981044596.8096194     
   3819782888.7868080     
   3659922152.0122843     
   3501619463.4453163     
   3345120462.5064006     
   3753653923.8096890     
   3605203081.9657021     
   3459155617.3402390     
   3315771904.9776187     
   3175407746.7826223     
   3558209819.0304947     
   3422691923.1912575     
   3290625862.9644108     
   3162344277.4716821     
   3038276394.3962641     
   3769140553.9564977     
   3589914184.0198469     
   3412125438.6308556     
   3235722876.5674949     
   3060725763.6033092     
   3544132744.3958654     
   3374378768.7922502     
   3205983234.7194700     
   3038950927.5950646     
   2873344575.6757712     
   3345120462.5064006     
   3185257253.9766903     
   3026723183.1938796     
   2869614327.8787966     
   2714091205.7999592     
   3175407746.7826223     
   3026498156.8577242     
   2878994906.1368432     
   2733126720.0456753     
   2589214718.4056444     
   3038276394.3962641     
   2902054383.5310650     
   2767473258.5240560     
   2634934817.8042731     
   2504980217.8581066     
   3060725763.6033092     
   2896753968.3768935     
   2731616944.7792044     
   2565213155.8145170     
   2397481449.8711214     
   2873344575.6757712     
   2713581715.6795478     
   2553581278.2523913     
   2393356865.5393033     
   2232963264.2138972     
   2714091205.7999592     
   2560155287.3278522     
   2407201113.1089602     
   2255382593.9418168     
   2104919660.7453856     
   2589214718.4056444     
   2442650460.8494096     
   2298528711.2356930     
   2157139800.6181107     
   2018877679.8820961     
   2504980217.8581066     
   2367016726.2703547     
   2233074530.7136574     
   2103527513.0589221     
   1978887463.1527591     
   2397481449.8711214     
   2249401853.9189930     
   2103667293.3441803     
   1960261618.0177236     
   1819359034.7221148     
   2232963264.2138972     
   2089030262.7603321     
   1946858412.5624559     
   1806444260.5943706     
   1667868087.8336165     
   2104919660.7453856     
   1964210765.0320351     
   1824474846.8926253     
   1685747633.7643352     
   1548093810.4554534     
   2018877679.8820961     
   1882211732.1279616     
   1745756615.5972607     
   1609646589.8150885     
   1474067517.8221388     
   1978887463.1527591     
   1848930509.7566695     
   1718764938.9865737     
   1588737581.6819715     
   1459371372.1779459     
   1819359034.7221148     
   1779296100.8654213     
   1735638694.6179969     
   1697022485.3192472     
   1682022280.6623881     
   1667868087.8336165     
   1552674219.1923089     
   1428314777.4879730     
   1295124314.2358530     
   1159241060.8960247     
   1548093810.4554534     
   1398158781.4116421     
   1244651910.0001912     
   1085282116.3532546     
   918001153.04758632     
   1474067517.8221388     
   1329558987.8548670     
   1199545717.5923829     
   1088513327.0798190     
   1002381318.5403417     
   1459371372.1779459     
   1349896570.0830779     
   1275473120.7544663     
   1244236149.4158747     
   1263260442.2262187     
   1682022280.6623881     
   1384200040.9460847     
   1129574363.7543137     
   1010000067.3533303     
   1153120721.0971794     
   1159241060.8960247     
   1008640557.1625545     
   985239048.28830528     
   1161435460.7764199     
   1544240055.8329468     
   918001153.04758632     
   963311962.66502905     
   1144996714.8779442     
   1476486596.0586488     
   1957512479.0169535     
   1002381318.5403417     
   1164985878.9986839     
   1425594420.5724366     
   1808826516.2221556     
   2334784373.1118736     
   1263260442.2262187     
   1447025474.1981490     
   1715965914.4337704     
   2110667188.0936623     
   2663563613.8508854     
   4647982859.5961342     
   4480772082.4531269     
   4335304627.6633892     
   4206495857.2580967     
   4090636705.0028481     
   4402870383.0764236     
   4266336056.5090756     
   4133646887.5081372     
   4004347330.1885161     
   3878127370.1702714     
   4165964290.0888357     
   4043866220.2405677     
   3922621054.6210308     
   3801393795.8999457     
   3679647318.3219013     
   3920613523.9842801     
   3802039159.8232493     
   3696779207.3995762     
   3598011214.9399858     
   3501286478.1062961     
   3661047661.2900424     
   3536116010.3135467     
   3454556849.4478569     
   3396964565.7181582     
   3350693653.5714655     
   4090636705.0028481     
   3956153521.6890273     
   3822495423.5414991     
   3689795765.9873953     
   3558209819.0304947     
   3878127370.1702714     
   3750670980.9611325     
   3624913035.2245617     
   3501091150.7139397     
   3379495006.5883498     
   3679647318.3219013     
   3561361802.9609566     
   3446252369.7614145     
   3334642704.3620229     
   3226946699.0754490     
   3501286478.1062961     
   3393845636.3668113     
   3291678856.0391974     
   3195153582.3032618     
   3104765361.1183014     
   3350693653.5714655     
   3254934198.1724577     
   3167161495.0462084     
   3087712709.3041630     
   3017081405.0914636     
   3558209819.0304947     
   3422691923.1912575     
   3290625862.9644108     
   3162344277.4716821     
   3038276394.3962641     
   3379495006.5883498     
   3256689625.4974809     
   3137842705.2606635     
   3023345933.0448642     
   2913688713.1815557     
   3226946699.0754490     
   3117332597.2214379     
   3012344588.4893503     
   2912418873.9065232     
   2818087636.9068537     
   3104765361.1183014     
   3008716853.0027142     
   2918097711.9340973     
   2833361954.4238400     
   2755053739.2570395     
   3017081405.0914636     
   2934728380.1390638     
   2858700811.8756504     
   2789432934.4926243     
   2727439971.6099463     
   3038276394.3962641     
   2902054383.5310650     
   2767473258.5240560     
   2634934817.8042731     
   2504980217.8581066     
   2913688713.1815557     
   2790066895.4113941     
   2669728207.4657841     
   2553193628.3847442     
   2441120516.5051103     
   2818087636.9068537     
   2708074747.7829127     
   2603004329.5178194     
   2503469666.9299264     
   2410181825.4750266     
   2755053739.2570395     
   2658855034.8538513     
   2569140122.2400274     
   2486504379.7145729     
   2411631262.5002594     
   2727439971.6099463     
   2644265774.5384908     
   2568887551.0836501     
   2501834345.2719979     
   2443694864.4103065     
   2504980217.8581066     
   2367016726.2703547     
   2233074530.7136574     
   2103527513.0589221     
   1978887463.1527591     
   2441120516.5051103     
   2315557347.4532142     
   2194983416.9930034     
   2080018723.1132174     
   1971431071.4329355     
   2410181825.4750266     
   2299746019.6043272     
   2195549176.3122525     
   2098391614.4686146     
   2009211821.1917589     
   2411631262.5002594     
   2318590230.1247950     
   2233133799.6173348     
   2156128544.3638330     
   2088552141.7258368     
   2443694864.4103065     
   2369613924.4381242     
   2304392065.5773077     
   2248840155.4505286     
   2203855928.8409925     
   1978887463.1527591     
   1848930509.7566695     
   1718764938.9865737     
   1588737581.6819715     
   1459371372.1779459     
   1971431071.4329355     
   1855970442.4216149     
   1744771466.3499365     
   1638759429.1270928     
   1539073241.5153029     
   2009211821.1917589     
   1913316782.1038499     
   1826193502.0974000     
   1749042268.1298981     
   1683152242.7797925     
   2088552141.7258368     
   2013651284.6100795     
   1951170566.4544880     
   1902176496.7336986     
   1867686085.6110764     
   2203855928.8409925     
   2148281304.8124366     
   2107740073.6678619     
   2082970428.2450871     
   2074634766.9754629     
   1459371372.1779459     
   1349896570.0830779     
   1275473120.7544663     
   1244236149.4158747     
   1263260442.2262187     
   1539073241.5153029     
   1477681784.5620301     
   1449029489.2306123     
   1457097401.0622616     
   1505208451.0189874     
   1683152242.7797925     
   1654072046.9249079     
   1652763547.6071200     
   1681612327.3309298     
   1743243873.5714648     
   1867686085.6110764     
   1856575389.2096355     
   1868508625.8264337     
   1905708614.5402911     
   1971207911.5733528     
   2074634766.9754629     
   2070569812.9565520     
   2085845916.3564401     
   2123102832.8998628     
   2186135529.7328253     
   1263260442.2262187     
   1447025474.1981490     
   1715965914.4337704     
   2110667188.0936623     
   2663563613.8508854     
   1505208451.0189874     
   1613564677.3151758     
   1789077222.7837837     
   2066500625.2842312     
   2476046326.5108795     
   1743243873.5714648     
   1787985141.4423916     
   1884828144.1118264     
   2060688139.3377500     
   2340809969.2819915     
   1971207911.5733528     
   1969247891.8403590     
   2003785960.7633295     
   2093504073.1739516     
   2257082316.6768470     
   2186135529.7328253     
   2156638816.6047645     
   2146693565.0177977     
   2166833316.8710527     
   2228149601.6975284     
   3661047661.2900424     
   3536116010.3135467     
   3454556849.4478569     
   3396964565.7181582     
   3350693653.5714655     
   3080452210.1287684     
   3071265050.9163198     
   3077789655.8674622     
   3094158583.5383129     
   3117366947.9118805     
   2706034160.5888009     
   2752829871.5145698     
   2805152915.6293998     
   2863296489.4447517     
   2927595818.6754308     
   2564485945.1618400     
   2594581947.0908618     
   2645316006.8671813     
   2710044674.5703187     
   2783910906.7830095     
   2657123722.3424902     
   2601524315.2748742     
   2603235674.0358396     
   2637800059.9353619     
   2687560053.3685431     
   3350693653.5714655     
   3254934198.1724577     
   3167161495.0462084     
   3087712709.3041630     
   3017081405.0914636     
   3117366947.9118805     
   3045793222.1966305     
   2982261002.0092707     
   2927161627.2534323     
   2880983893.6980824     
   2927595818.6754308     
   2877820755.6450248     
   2836059828.6110353     
   2802666220.5320411     
   2778037966.3029151     
   2783910906.7830095     
   2753216172.1490359     
   2730381193.2158670     
   2715634297.5540128     
   2709214418.7379084     
   2687560053.3685431     
   2672899656.2792501     
   2665799989.1546636     
   2666293281.3686719     
   2674414557.7486668     
   3017081405.0914636     
   2934728380.1390638     
   2858700811.8756504     
   2789432934.4926243     
   2727439971.6099463     
   2880983893.6980824     
   2816455349.2640748     
   2758613105.2099538     
   2707858243.2944112     
   2664638377.9131470     
   2778037966.3029151     
   2730362785.1434164     
   2689551703.9731498     
   2655931654.0395803     
   2629847070.1177320     
   2709214418.7379084     
   2677043910.2995315     
   2651703331.0741372     
   2633420053.2805724     
   2622420288.4817743     
   2674414557.7486668     
   2656031911.8303986     
   2644236940.9878683     
   2639150343.1681304     
   2640884764.7306895     
   2727439971.6099463     
   2644265774.5384908     
   2568887551.0836501     
   2501834345.2719979     
   2443694864.4103065     
   2664638377.9131470     
   2596942702.7085156     
   2537430133.4852066     
   2486568142.8986115     
   2444853412.3634086     
   2629847070.1177320     
   2577726567.7169199     
   2534034099.7474699     
   2499162551.3896503     
   2473513758.4104309     
   2622420288.4817743     
   2585642840.0488963     
   2557391173.0265460     
   2537984884.8098207     
   2527744399.3284979     
   2640884764.7306895     
   2618909343.0166698     
   2605435146.8682318     
   2600723566.5984030     
   2605039606.5998511     
   2443694864.4103065     
   2369613924.4381242     
   2304392065.5773077     
   2248840155.4505286     
   2203855928.8409925     
   2444853412.3634086     
   2390067969.5716810     
   2344875272.4231195     
   2309891854.8922091     
   2285736495.8152094     
   2473513758.4104309     
   2435490874.8578601     
   2407387182.2110419     
   2389595292.5404811     
   2382473906.2768946     
   2527744399.3284979     
   2503319591.8825092     
   2488836155.5440855     
   2484477597.6085372     
   2490397331.2199717     
   2605039606.5998511     
   2590682703.4136648     
   2586107703.5667434     
   2591323447.0403924     
   2606339509.7449980     
   2203855928.8409925     
   2148281304.8124366     
   2107740073.6678619     
   2082970428.2450871     
   2074634766.9754629     
   2285736495.8152094     
   2244476013.8007698     
   2217277349.5175967     
   2204582775.1934738     
   2206780383.7820430     
   2382473906.2768946     
   2352778747.8954439     
   2336174179.0050306     
   2332915201.7965198     
   2343229832.4689503     
   2490397331.2199717     
   2469808115.0696387     
   2461450136.6110830     
   2465470031.4723735     
   2482009764.2805400     
   2606339509.7449980     
   2592752990.0370345     
   2590709763.4592361     
   2600300067.1929007     
   2621624206.2464581     
   2074634766.9754629     
   2070569812.9565520     
   2085845916.3564401     
   2123102832.8998628     
   2186135529.7328253     
   2206780383.7820430     
   2192272393.4271693     
   2192793262.7608137     
   2210314538.7139235     
   2247744446.4234228     
   2343229832.4689503     
   2319010122.9158926     
   2306290228.3659434     
   2306476809.0760350     
   2321653516.3543882     
   2482009764.2805400     
   2449779110.7996764     
   2426003142.1093583     
   2411629185.7392464     
   2408035456.9233189     
   2621624206.2464581     
   2583775520.2043715     
   2551635532.8934627     
   2525789050.7050962     
   2507050543.7814879     
   2186135529.7328253     
   2156638816.6047645     
   2146693565.0177977     
   2166833316.8710527     
   2228149601.6975284     
   2247744446.4234228     
   2182865017.7520390     
   2134407768.3250299     
   2112036630.6186881     
   2126686765.3166068     
   2321653516.3543882     
   2224759619.7287388     
   2141209165.2065477     
   2079353946.2906728     
   2049347517.3721631     
   2408035456.9233189     
   2282616944.2763329     
   2167743775.6034203     
   2070135173.6403329     
   1998525840.3579106     
   2507050543.7814879     
   2356647236.9214358     
   2214481627.1724663     
   2085510201.2219853     
   1976566168.2517107     
   2657123722.3424902     
   2601524315.2748742     
   2603235674.0358396     
   2637800059.9353619     
   2687560053.3685431     
   2720757461.6309700     
   2666084566.7060866     
   2642603796.3371592     
   2638456166.9414330     
   2645270766.4997568     
   2822256266.1162891     
   2749872216.8750687     
   2697463999.0297542     
   2660582559.9090829     
   2636114408.4025788     
   2956082405.6408968     
   2854090931.3213787     
   2771752317.1139030     
   2708147072.4892402     
   2662637657.8210831     
   3124911010.4742332     
   2984734858.0531745     
   2871541657.9253650     
   2785331410.0908031     
   2726104114.5494876     
   2687560053.3685431     
   2672899656.2792501     
   2665799989.1546636     
   2666293281.3686719     
   2674414557.7486668     
   2645270766.4997568     
   2633261174.4666877     
   2628287361.3757882     
   2630362383.2723060     
   2639501756.9372177     
   2636114408.4025788     
   2623988539.4247117     
   2618514225.4608355     
   2619695159.4763432     
   2627536565.5701032     
   2662637657.8210831     
   2647713095.2438827     
   2639188629.5936999     
   2637064676.8652725     
   2641342141.9623194     
   2726104114.5494876     
   2705974560.6934500     
   2692101184.8773847     
   2684483987.1012926     
   2683122967.3651795     
   2674414557.7486668     
   2656031911.8303986     
   2644236940.9878683     
   2639150343.1681304     
   2640884764.7306895     
   2639501756.9372177     
   2623515415.5171456     
   2615130082.2330308     
   2614439588.9804287     
   2621531317.1278253     
   2627536565.5701032     
   2612314310.5076351     
   2605800312.3582153     
   2608048876.3205009     
   2619110555.6084032     
   2641342141.9623194     
   2624598726.6118221     
   2617768883.1669688     
   2620869495.6380301     
   2633916334.2996697     
   2683122967.3651795     
   2662003955.4424663     
   2652097946.8591914     
   2653404941.6153560     
   2665924939.7109613     
   2640884764.7306895     
   2618909343.0166698     
   2605435146.8682318     
   2600723566.5984030     
   2605039606.5998511     
   2621531317.1278253     
   2608220090.6580882     
   2603676864.6355481     
   2608053317.5727372     
   2621499806.3537645     
   2619110555.6084032     
   2611976719.7578173     
   2613858140.1423745     
   2624823736.5367131     
   2644940662.8759561     
   2633916334.2996697     
   2630182291.6836543     
   2635736047.5188203     
   2650595135.6539617     
   2674776450.0901480     
   2665924939.7109613     
   2662626686.1080356     
   2668945974.5578699     
   2684882805.0604801     
   2710437177.6158495     
   2605039606.5998511     
   2590682703.4136648     
   2586107703.5667434     
   2591323447.0403924     
   2606339509.7449980     
   2621499806.3537645     
   2611288883.0447106     
   2610912589.9640522     
   2620379314.6933126     
   2639696273.5053053     
   2644940662.8759561     
   2637952609.6806607     
   2640990878.5896668     
   2654060891.4038973     
   2677166759.1519675     
   2674776450.0901480     
   2669991672.3012180     
   2675589199.8304043     
   2691570871.3637328     
   2717937976.4100032     
   2710437177.6158495     
   2706750368.0684814     
   2713991050.8045077     
   2732159225.8239393     
   2761254893.1267705     
   2606339509.7449980     
   2592752990.0370345     
   2590709763.4592361     
   2600300067.1929007     
   2621624206.2464581     
   2639696273.5053053     
   2629222407.2453580     
   2629104911.6458898     
   2639385437.0099039     
   2660113759.6111221     
   2677166759.1519675     
   2669341442.6046004     
   2670869855.5848083     
   2681766963.6174974     
   2702052234.0927901     
   2717937976.4100032     
   2712530334.5577583     
   2715628741.6232905     
   2727236154.7029181     
   2747356835.2481303     
   2761254893.1267705     
   2758246345.8938699     
   2763024534.7975512     
   2775589459.8378048     
   2795941121.0146275     
   2621624206.2464581     
   2583775520.2043715     
   2551635532.8934627     
   2525789050.7050962     
   2507050543.7814879     
   2660113759.6111221     
   2615177115.7523141     
   2575795899.4422612     
   2542303277.4601521     
   2515165349.3446827     
   2702052234.0927901     
   2652145762.6203070     
   2607780846.8297591     
   2569106089.4670038     
   2536329822.1500931     
   2747356835.2481303     
   2694596265.8445354     
   2647503991.2579174     
   2606116967.2207932     
   2570486983.0708685     
   2795941121.0146275     
   2742434346.6721225     
   2694864522.2766242     
   2653231647.8281317     
   2617535723.3266306     
   2507050543.7814879     
   2356647236.9214358     
   2214481627.1724663     
   2085510201.2219853     
   1976566168.2517107     
   2515165349.3446827     
   2347453244.9543767     
   2183320634.3789988     
   2025852908.2702286     
   1879587562.3203223     
   2536329822.1500931     
   2356371083.4283872     
   2176125918.1584969     
   1997059227.1536531     
   1821436084.4880922     
   2570486983.0708685     
   2383499910.6808023     
   2193361025.4387245     
   2000446959.3155501     
   1805358469.4289896     
   2617535723.3266306     
   2428804663.6232681     
   2235166069.7124972     
   2036619941.5943351     
   1833166279.2687669     
   3124911010.4742332     
   2984734858.0531745     
   2871541657.9253650     
   2785331410.0908031     
   2726104114.5494876     
   2956082406.0488448     
   2854090931.6713924     
   2771752317.6627669     
   2708147073.3416834     
   2662637658.9731979     
   2822256267.5743456     
   2749872218.2421041     
   2697464000.8268814     
   2660582562.3302484     
   2636114411.4211922     
   2720757464.8129101     
   2666084569.8830957     
   2642603800.2953444     
   2638456171.9408469     
   2645270772.4641671     
   2657123727.7195053     
   2601524321.0054474     
   2603235681.1464114     
   2637800068.7026935     
   2687560063.6182795     
   2726104114.5494876     
   2705974560.6934500     
   2692101184.8773847     
   2684483987.1012926     
   2683122967.3651795     
   2662637658.9731979     
   2647713096.1702828     
   2639188630.4140143     
   2637064677.6930141     
   2641342142.9058146     
   2636114411.4211922     
   2623988541.8475223     
   2618514227.5018458     
   2619695161.3425002     
   2627536567.4625654     
   2645270772.4641671     
   2633261179.2908292     
   2628287365.3353343     
   2630362386.6420474     
   2639501759.9921107     
   2687560063.6182795     
   2672899664.6614294     
   2665799995.9665432     
   2666293286.9211273     
   2674414562.3665495     
   2683122967.3651795     
   2662003955.4424663     
   2652097946.8591914     
   2653404941.6153560     
   2665924939.7109613     
   2641342142.9058146     
   2624598727.2963815     
   2617768883.6687307     
   2620869496.0312247     
   2633916334.6571546     
   2627536567.4625654     
   2612314311.8342071     
   2605800313.2742171     
   2608048876.9795117     
   2619110556.1630898     
   2639501759.9921107     
   2623515417.6095290     
   2615130083.5996242     
   2614439589.8593349     
   2621531317.7594171     
   2674414562.3665495     
   2656031914.9667683     
   2644236942.9611673     
   2639150344.3045812     
   2640884765.3650289     
   2665924939.7109613     
   2662626686.1080356     
   2668945974.5578699     
   2684882805.0604801     
   2710437177.6158495     
   2633916334.6571546     
   2630182291.8331966     
   2635736047.4847836     
   2650595135.4613895     
   2674776449.7656655     
   2619110556.1630898     
   2611976719.9338193     
   2613858139.9939508     
   2624823736.1191373     
   2644940662.2468858     
   2621531317.7594171     
   2608220090.7621155     
   2603676864.3023810     
   2608053316.8940978     
   2621499805.4241447     
   2640884765.3650289     
   2618909342.9796948     
   2605435146.2929811     
   2600723565.6200838     
   2605039605.3568730     
   2710437177.6158495     
   2706750368.0684814     
   2713991050.8045077     
   2732159225.8239393     
   2761254893.1267705     
   2674776449.7656655     
   2669991672.0290718     
   2675589199.6037135     
   2691570871.1755738     
   2717937976.2533665     
   2644940662.2468858     
   2637952609.1530862     
   2640990878.1488895     
   2654060891.0352421     
   2677166758.8406897     
   2621499805.4241447     
   2611288882.2656021     
   2610912589.3119206     
   2620379314.1447415     
   2639696273.0367684     
   2605039605.3568730     
   2590682702.3731594     
   2586107702.6953001     
   2591323446.3047466     
   2606339509.1116056     
   2761254893.1267705     
   2758246345.8938699     
   2763024534.7975512     
   2775589459.8378048     
   2795941121.0146275     
   2717937976.2533665     
   2712530334.4339566     
   2715628741.5278006     
   2727236154.6311340     
   2747356835.1954045     
   2677166758.8406897     
   2669341442.3605499     
   2670869855.3988194     
   2681766963.4802375     
   2702052233.9948926     
   2639696273.0367684     
   2629222406.8811846     
   2629104911.3720665     
   2639385436.8121328     
   2660113759.4749889     
   2606339509.1116056     
   2592752989.5491390     
   2590709763.0977082     
   2600300066.9380565     
   2621624206.0783582     
   2795941121.0146275     
   2742434346.6721225     
   2694864522.2766242     
   2653231647.8281317     
   2617535723.3266306     
   2747356835.1954045     
   2694596265.8019323     
   2647503991.2244968     
   2606116967.1956296     
   2570486983.0531397     
   2702052233.9948926     
   2652145762.5406928     
   2607780846.7665143     
   2569106089.4182553     
   2536329822.1140461     
   2660113759.4749889     
   2615177115.6408343     
   2575795899.3524985     
   2542303277.3892040     
   2515165349.2896881     
   2621624206.0783582     
   2583775520.0656757     
   2551635532.7801380     
   2525789050.6131468     
   2507050543.7067828     
   2617535723.3266306     
   2428804663.6232681     
   2235166069.7124972     
   2036619941.5943351     
   1833166279.2687669     
   2570486983.0531397     
   2383499910.6693025     
   2193361025.4339523     
   2000446959.3184962     
   1805358469.4414270     
   2536329822.1140461     
   2356371083.4047189     
   2176125918.1480951     
   1997059227.1583128     
   1821436084.5110416     
   2515165349.2896881     
   2347453244.9177485     
   2183320634.3619132     
   2025852908.2750227     
   1879587562.3510275     
   2507050543.7067828     
   2356647236.8709993     
   2214481627.1475730     
   2085510201.2252145     
   1976566168.2871633     
   2657123727.7195053     
   2601524321.0054474     
   2603235681.1464114     
   2637800068.7026935     
   2687560063.6182795     
   2564485945.6602073     
   2594581950.6093001     
   2645316013.0994635     
   2710044683.2428708     
   2783910917.6688833     
   2706034164.9965873     
   2752829878.0571804     
   2805152924.1898322     
   2863296499.8836823     
   2927595830.8653326     
   3080452226.5375319     
   3071265065.1830759     
   3077789669.5297771     
   3094158597.2636700     
   3117366961.8379512     
   3661047695.5713100     
   3536116036.0807548     
   3454556870.4596443     
   3396964583.8712516     
   3350693669.4318118     
   2687560063.6182795     
   2672899664.6614294     
   2665799995.9665432     
   2666293286.9211273     
   2674414562.3665495     
   2783910917.6688833     
   2753216181.1509986     
   2730381200.6015701     
   2715634303.6010981     
   2709214423.7367473     
   2927595830.8653326     
   2877820765.8140697     
   2836059836.9932904     
   2802666227.3672147     
   2778037971.8418694     
   3117366961.8379512     
   3045793233.8796148     
   2982261011.6465611     
   2927161635.0423484     
   2880983899.8441606     
   3350693669.4318118     
   3254934211.5152984     
   3167161506.0310860     
   3087712718.0831809     
   3017081411.8198814     
   2674414562.3665495     
   2656031914.9667683     
   2644236942.9611673     
   2639150344.3045812     
   2640884765.3650289     
   2709214423.7367473     
   2677043913.8177767     
   2651703333.3914366     
   2633420054.6852083     
   2622420289.2722116     
   2778037971.8418694     
   2730362789.1381278     
   2689551706.6633658     
   2655931655.6750145     
   2629847070.9605484     
   2880983899.8441606     
   2816455353.7605629     
   2758613108.2552328     
   2707858245.0980825     
   2664638378.6994781     
   3017081411.8198814     
   2934728385.0937934     
   2858700815.2126827     
   2789432936.3798785     
   2727439972.2315907     
   2640884765.3650289     
   2618909342.9796948     
   2605435146.2929811     
   2600723565.6200838     
   2605039605.3568730     
   2622420289.2722116     
   2585642840.1636109     
   2557391172.5838346     
   2537984883.9308128     
   2527744398.1378922     
   2629847070.9605484     
   2577726567.8770494     
   2534034099.3305202     
   2499162550.5046701     
   2473513757.1706471     
   2664638378.6994781     
   2596942702.8057604     
   2537430132.9878864     
   2486568141.9050417     
   2444853410.9767962     
   2727439972.2315907     
   2644265774.4681382     
   2568887550.4060354     
   2501834344.0756812     
   2443694862.7893443     
   2605039605.3568730     
   2590682702.3731594     
   2586107702.6953001     
   2591323446.3047466     
   2606339509.1116056     
   2527744398.1378922     
   2503319590.8903456     
   2488836154.7147870     
   2484477596.9050975     
   2490397330.6040063     
   2473513757.1706471     
   2435490873.8446331     
   2407387181.3877954     
   2389595291.8676963     
   2382473905.7118773     
   2444853410.9767962     
   2390067968.4697604     
   2344875271.5703983     
   2309891854.2489257     
   2285736495.3361115     
   2443694862.7893443     
   2369613923.1859984     
   2304392064.6624479     
   2248840154.8364415     
   2203855928.4833040     
   2606339509.1116056     
   2592752989.5491390     
   2590709763.0977082     
   2600300066.9380565     
   2621624206.0783582     
   2490397330.6040063     
   2469808114.5924206     
   2461450136.2575359     
   2465470031.2268524     
   2482009764.1269608     
   2382473905.7118773     
   2352778747.4550529     
   2336174178.6772141     
   2332915201.5689054     
   2343229832.3286991     
   2285736495.3361115     
   2244476013.4246659     
   2217277349.2343020     
   2204582774.9929852     
   2206780383.6541800     
   2203855928.4833040     
   2148281304.5290604     
   2107740073.4489427     
   2082970428.0818489     
   2074634766.8595688     
   2621624206.0783582     
   2583775520.0656757     
   2551635532.7801380     
   2525789050.6131468     
   2507050543.7067828     
   2482009764.1269608     
   2449779110.6692228     
   2426003141.9990172     
   2411629185.6461706     
   2408035456.8447194     
   2343229832.3286991     
   2319010122.7934046     
   2306290228.2591810     
   2306476808.9832592     
   2321653516.2740631     
   2206780383.6541800     
   2192272393.3126287     
   2192793262.6584034     
   2210314538.6229267     
   2247744446.3436017     
   2074634766.8595688     
   2070569812.8502994     
   2085845916.2593157     
   2123102832.8121779     
   2186135529.6556783     
   2507050543.7067828     
   2356647236.8709993     
   2214481627.1475730     
   2085510201.2252145     
   1976566168.2871633     
   2408035456.8447194     
   2282616944.2249804     
   2167743775.5807238     
   2070135173.6485887     
   1998525840.4001591     
   2321653516.2740631     
   2224759619.6770463     
   2141209165.1849008     
   2079353946.3007064     
   2049347517.4152679     
   2247744446.3436017     
   2182865017.7006083     
   2134407768.3032250     
   2112036630.6273274     
   2126686765.3551691     
   2186135529.6556783     
   2156638816.5541391     
   2146693564.9947059     
   2166833316.8753133     
   2228149601.7269087     
   3661047695.5713100     
   3536116036.0807548     
   3454556870.4596443     
   3396964583.8712516     
   3350693669.4318118     
   3920613554.0835776     
   3802039185.0736752     
   3696779228.8567686     
   3598011233.0273314     
   3501286492.7946939     
   4165964315.7265072     
   4043866242.6543651     
   3922621073.7994819     
   3801393811.7734156     
   3679647330.7736382     
   4402870404.9394283     
   4266336074.5650325     
   4133646902.1888752     
   4004347341.8395991     
   3878127379.0767355     
   4647982880.5612373     
   4480772096.1751738     
   4335304636.5412951     
   4206495863.0448132     
   4090636708.9640779     
   3350693669.4318118     
   3254934211.5152984     
   3167161506.0310860     
   3087712718.0831809     
   3017081411.8198814     
   3501286492.7946939     
   3393845649.0199800     
   3291678866.6510968     
   3195153590.8681431     
   3104765367.6358685     
   3679647330.7736382     
   3561361813.8821511     
   3446252379.0516849     
   3334642711.9220390     
   3226946704.8073187     
   3878127379.0767355     
   3750670988.9046044     
   3624913042.0762835     
   3501091156.3415184     
   3379495010.8530235     
   4090636708.9640779     
   3956153525.3338256     
   3822495426.7750010     
   3689795768.7015152     
   3558209821.1003752     
   3017081411.8198814     
   2934728385.0937934     
   2858700815.2126827     
   2789432936.3798785     
   2727439972.2315907     
   3104765367.6358685     
   3008716857.8977122     
   2918097715.2769318     
   2833361956.2944112     
   2755053739.7475944     
   3226946704.8073187     
   3117332601.5304499     
   3012344591.3873792     
   2912418875.4104829     
   2818087637.0395451     
   3379495010.8530235     
   3256689628.6110425     
   3137842707.2039514     
   3023345933.7984056     
   2913688712.7241912     
   3558209821.1003752     
   3422691924.4684615     
   3290625863.4252887     
   3162344277.0867815     
   3038276393.1269207     
   2727439972.2315907     
   2644265774.4681382     
   2568887550.4060354     
   2501834344.0756812     
   2443694862.7893443     
   2755053739.7475944     
   2658855034.7388883     
   2569140121.5715718     
   2486504378.5459380     
   2411631260.8864822     
   2818087637.0395451     
   2708074747.4706402     
   2603004328.7984829     
   2503469665.8392911     
   2410181824.0444555     
   2913688712.7241912     
   2790066894.7407551     
   2669728206.6240306     
   2553193627.4095187     
   2441120515.4235983     
   3038276393.1269207     
   2902054382.3441124     
   2767473257.4818158     
   2634934816.9644976     
   2504980217.2643495     
   2443694862.7893443     
   2369613923.1859984     
   2304392064.6624479     
   2248840154.8364415     
   2203855928.4833040     
   2411631260.8864822     
   2318590228.8920298     
   2233133798.7483687     
   2156128543.8371673     
   2088552141.5139799     
   2410181824.0444555     
   2299746018.5334034     
   2195549175.5889220     
   2098391614.0788705     
   2009211821.1189027     
   2441120515.4235983     
   2315557346.6838822     
   2194983416.5186939     
   2080018722.9182050     
   1971431071.5025806     
   2504980217.2643495     
   2367016725.9248862     
   2233074530.5841637     
   2103527513.1184573     
   1978887463.3788328     
   2203855928.4833040     
   2148281304.5290604     
   2107740073.4489427     
   2082970428.0818489     
   2074634766.8595688     
   2088552141.5139799     
   2013651284.4312949     
   1951170566.3042109     
   1902176496.6082807     
   1867686085.5075965     
   2009211821.1189027     
   1913316782.0236585     
   1826193502.0102491     
   1749042268.0373530     
   1683152242.6848772     
   1971431071.5025806     
   1855970442.4423549     
   1744771466.3265264     
   1638759429.0659258     
   1539073241.4250538     
   1978887463.3788328     
   1848930509.8894963     
   1718764939.0345242     
   1588737581.6552145     
   1459371372.0890815     
   2074634766.8595688     
   2070569812.8502994     
   2085845916.2593157     
   2123102832.8121779     
   2186135529.6556783     
   1867686085.5075965     
   1856575389.1172457     
   1868508625.7439544     
   1905708614.4670804     
   1971207911.5094006     
   1683152242.6848772     
   1654072046.8433149     
   1652763547.5370862     
   1681612327.2708623     
   1743243873.5201378     
   1539073241.4250538     
   1477681784.4880004     
   1449029489.1707828     
   1457097401.0141382     
   1505208450.9799452     
   1459371372.0890815     
   1349896570.0136302     
   1275473120.7027652     
   1244236149.3789341     
   1263260442.1997991     
   2186135529.6556783     
   2156638816.5541391     
   2146693564.9947059     
   2166833316.8753133     
   2228149601.7269087     
   1971207911.5094006     
   1969247891.7979949     
   2003785960.7444928     
   2093504073.1789825     
   2257082316.7031250     
   1743243873.5201378     
   1787985141.4073641     
   1884828144.0956395     
   2060688139.3409855     
   2340809969.3016129     
   1505208450.9799452     
   1613564677.2866616     
   1789077222.7687237     
   2066500625.2833540     
   2476046326.5211105     
   1263260442.1997991     
   1447025474.1755831     
   1715965914.4184887     
   2110667188.0868175     
   2663563613.8499022     
   4647982880.5612373     
   4480772096.1751738     
   4335304636.5412951     
   4206495863.0448132     
   4090636708.9640779     
   4846675759.0463867     
   4703105933.7764778     
   4570138047.9784241     
   4446750468.6343498     
   4332307369.3702393     
   5226891538.3766804     
   5067955474.9802513     
   4914615544.7544880     
   4766123859.1789989     
   4622214658.0862617     
   5793991820.9343109     
   5576451644.1309786     
   5367401126.0003452     
   5162638959.5368090     
   4959287150.9125614     
   6550339310.3311386     
   6229249170.5987616     
   5927364439.4082785     
   5634389282.2888527     
   5342267211.1456051     
   4090636708.9640779     
   3956153525.3338256     
   3822495426.7750010     
   3689795768.7015152     
   3558209821.1003752     
   4332307369.3702393     
   4185576112.0512233     
   4040131125.3577518     
   3896098043.1161418     
   3753653923.9490452     
   4622214658.0862617     
   4459464600.8929195     
   4298347866.2265921     
   4138848935.4579501     
   3981044595.4609981     
   4959287150.9125614     
   4776073612.2735567     
   4594728417.5566845     
   4414988777.6693487     
   4236730945.6548500     
   5342267211.1456051     
   5133550135.2389469     
   4926856302.6332111     
   4721597325.6326714     
   4517370579.4953299     
   3558209821.1003752     
   3422691924.4684615     
   3290625863.4252887     
   3162344277.0867815     
   3038276393.1269207     
   3753653923.9490452     
   3605203081.6951146     
   3459155616.6314802     
   3315771903.7991495     
   3175407745.0955458     
   3981044595.4609981     
   3819782887.4434223     
   3659922150.6477242     
   3501619462.0315261     
   3345120461.0093012     
   4236730945.6548500     
   4062780380.3304024     
   3889326210.5992193     
   3716405258.2696848     
   3544132743.6476040     
   4517370579.4953299     
   4330801648.1888990     
   4143955235.0692582     
   3956742059.0266166     
   3769140554.4550686     
   3038276393.1269207     
   2902054382.3441124     
   2767473257.4818158     
   2634934816.9644976     
   2504980217.2643495     
   3175407745.0955458     
   3026498155.4465203     
   2878994905.0617518     
   2733126719.3685961     
   2589214718.1869974     
   3345120461.0093012     
   3185257252.8247876     
   3026723182.4295135     
   2869614327.5480561     
   2714091205.9533277     
   3544132743.6476040     
   3374378768.3460541     
   3205983234.5879240     
   3038950927.7934418     
   2873344576.2238894     
   3769140554.4550686     
   3589914184.6776586     
   3412125439.4230967     
   3235722877.4691458     
   3060725764.5901670     
   2504980217.2643495     
   2367016725.9248862     
   2233074530.5841637     
   2103527513.1184573     
   1978887463.3788328     
   2589214718.1869974     
   2442650460.7601652     
   2298528711.2610917     
   2157139800.7459025     
   2018877680.1029918     
   2714091205.9533277     
   2560155287.4770274     
   2407201113.2521081     
   2255382594.0775023     
   2104919660.8738818     
   2873344576.2238894     
   2713581716.0671506     
   2553581278.4856782     
   2393356865.6231656     
   2232963264.1532097     
   3060725764.5901670     
   2896753969.0186868     
   2731616945.0857100     
   2565213155.7926636     
   2397481449.5254650     
   1978887463.3788328     
   1848930509.8894963     
   1718764939.0345242     
   1588737581.6552145     
   1459371372.0890815     
   2018877680.1029918     
   1882211732.2747953     
   1745756615.6685889     
   1609646589.8094838     
   1474067517.7382355     
   2104919660.8738818     
   1964210765.1206336     
   1824474846.9354463     
   1685747633.7550275     
   1548093810.3869615     
   2232963264.1532097     
   2089030262.7109151     
   1946858412.5198317     
   1806444260.5540352     
   1667868087.7907844     
   2397481449.5254650     
   2249401853.6539879     
   2103667293.1618803     
   1960261617.9208786     
   1819359034.7137880     
   1459371372.0890815     
   1349896570.0136302     
   1275473120.7027652     
   1244236149.3789341     
   1263260442.1997991     
   1474067517.7382355     
   1329558987.7883203     
   1199545717.5435467     
   1088513327.0486076     
   1002381318.5258529     
   1548093810.3869615     
   1398158781.3560529     
   1244651909.9589999     
   1085282116.3283556     
   918001153.04119635     
   1667868087.7907844     
   1552674219.1555343     
   1428314777.4589708     
   1295124314.2163460     
   1159241060.8862982     
   1819359034.7137880     
   1779296100.8534453     
   1735638694.6032481     
   1697022485.3017700     
   1682022280.6393147     
   1263260442.1997991     
   1447025474.1755831     
   1715965914.4184887     
   2110667188.0868175     
   2663563613.8499022     
   1002381318.5258529     
   1164985878.9857388     
   1425594420.5629289     
   1808826516.2163367     
   2334784373.1074820     
   918001153.04119635     
   963311962.65914202     
   1144996714.8732677     
   1476486596.0543137     
   1957512479.0103207     
   1159241060.8862982     
   1008640557.1558169     
   985239048.28507185     
   1161435460.7738023     
   1544240055.8257024     
   1682022280.6393147     
   1384200040.9294271     
   1129574363.7464049     
   1010000067.3529001     
   1153120721.0941474     
 </DataArray>
 <DataArray  type="Float64" Name="strain" NumberOfComponents="3" format="ascii">
  0.10925522795272680       -1.9378837547953554E-002   3.1986928337851328E-002
  0.10429205005563158       -2.1914020739570717E-002   2.3630915134028152E-002
   9.9328872158536363E-002  -2.3523035871334863E-002   1.7085714080861680E-002
   9.4365694261441257E-002  -2.4205882943245799E-002   1.2351325178352579E-002
   8.9402516364346041E-002  -2.3962561955303108E-002   9.4277484265004041E-003
   9.6126209054669842E-002  -2.2591867326677617E-002   2.6495473582977547E-002
   9.2710540588063883E-002  -2.3467992591142350E-002   2.1325351606862164E-002
   8.9294872121458091E-002  -2.3881255084509084E-002   1.7439436341068260E-002
   8.5879203654852215E-002  -2.3831654806777812E-002   1.4837727785595639E-002
   8.2463535188246284E-002  -2.3319191757948277E-002   1.3520225940445108E-002
   8.5751868689012578E-002  -2.5804897105401570E-002   2.2894729399633662E-002
   8.3357104212560623E-002  -2.5021964442713929E-002   2.0447193362470722E-002
   8.0962339736108613E-002  -2.4239474297683528E-002   1.8757258595294257E-002
   7.8567575259656686E-002  -2.3457426670310103E-002   1.7824925098103725E-002
   7.6172810783204620E-002  -2.2675821560593834E-002   1.7650192870899389E-002
   7.8132206855755421E-002  -2.9017926884125550E-002   2.1184695787819591E-002
   7.6231740929121772E-002  -2.6575936294285590E-002   2.0996440400854473E-002
   7.4331275002488262E-002  -2.4597693510857860E-002   2.1039180843539923E-002
   7.2430809075854669E-002  -2.3083198533842421E-002   2.1312917115876080E-002
   7.0530343149221103E-002  -2.2032451363239197E-002   2.1817649217862882E-002
   7.3267223554897953E-002  -3.2230956662849586E-002   2.1365372747535916E-002
   7.1334450737747468E-002  -2.8129908145857141E-002   2.2973092722012978E-002
   6.9401677920596844E-002  -2.4955912724032220E-002   2.4285203085805174E-002
   6.7468905103446233E-002  -2.2708970397374607E-002   2.5301703838912920E-002
   6.5536132286295679E-002  -2.1389081165884616E-002   2.6022594981335634E-002
   8.9402516364346041E-002  -2.3962561955303108E-002   9.4277484265004041E-003
   8.5941880674470950E-002  -2.3256860832178483E-002   7.3064890558671158E-003
   8.2481244984595914E-002  -2.2552567498543091E-002   5.7120898613068349E-003
   7.9020609294720850E-002  -2.1849681954396551E-002   4.6445508428204496E-003
   7.5559973604845787E-002  -2.1148204199739284E-002   4.1038720004069607E-003
   8.2463535188246284E-002  -2.3319191757948277E-002   1.3520225940445108E-002
   7.9468885625413238E-002  -2.2574044281957251E-002   1.1986898438706317E-002
   7.6474236062580164E-002  -2.1826390722741396E-002   1.0858683014978276E-002
   7.3479586499747132E-002  -2.1076231080300517E-002   1.0135579669260861E-002
   7.0484936936913989E-002  -2.0323565354634421E-002   9.8175884015538895E-003
   7.6172810783204620E-002  -2.2675821560593834E-002   1.7650192870899389E-002
   7.3522399249350862E-002  -2.1891227731736518E-002   1.6708711110769298E-002
   7.0871987715497006E-002  -2.1100213946939908E-002   1.6050593330587198E-002
   6.8221576181643179E-002  -2.0302780206204480E-002   1.5675839530353071E-002
   6.5571164647789337E-002  -1.9498926509529890E-002   1.5584449710066506E-002
   7.0530343149221103E-002  -2.2032451363239197E-002   2.1817649217862882E-002
   6.8102421546283751E-002  -2.1208411181515424E-002   2.1471927072055738E-002
   6.5674499943346468E-002  -2.0374037171138538E-002   2.1287820808133632E-002
   6.3246578340409115E-002  -1.9529329332108665E-002   2.1265330426096775E-002
   6.0818656737471832E-002  -1.8674287664425193E-002   2.1404455925945018E-002
   6.5536132286295679E-002  -2.1389081165884616E-002   2.6022594981335634E-002
   6.3208952516212114E-002  -2.0525594631294497E-002   2.6276546322565431E-002
   6.0881772746128493E-002  -1.9647860395337099E-002   2.6570365447617622E-002
   5.8554592976044886E-002  -1.8755878458012614E-002   2.6904052356492278E-002
   5.6227413205961307E-002  -1.7849648819320552E-002   2.7277607049189245E-002
   7.5559973604845787E-002  -2.1148204199739284E-002   4.1038720004069607E-003
   7.2420409092916915E-002  -2.0420007635868487E-002   3.4201029673892602E-003
   6.9280844580988099E-002  -1.9636965664081074E-002   2.9829236888271327E-003
   6.6141280069059283E-002  -1.8799078284377754E-002   2.7923341647202449E-003
   6.3001715557130411E-002  -1.7906345496758291E-002   2.8483343950691520E-003
   7.0484936936913989E-002  -2.0323565354634421E-002   9.8175884015538895E-003
   6.7581841338057225E-002  -1.9556030355263265E-002   9.3260018420108781E-003
   6.4678745739200433E-002  -1.8761262891706487E-002   9.0607633541567867E-003
   6.1775650140343627E-002  -1.7939262963963878E-002   9.0218729379913515E-003
   5.8872554541486821E-002  -1.7090030572036063E-002   9.2093305935145864E-003
   6.5571164647789337E-002  -1.9498926509529890E-002   1.5584449710066506E-002
   6.2884296279237833E-002  -1.8692053074658266E-002   1.5257432680267663E-002
   6.0197427910686385E-002  -1.7885560119331817E-002   1.5136522039390560E-002
   5.7510559542134854E-002  -1.7079447643550343E-002   1.5221717787435682E-002
   5.4823691173583405E-002  -1.6273715647314058E-002   1.5513019924402793E-002
   6.0818656737471832E-002  -1.8674287664425193E-002   2.1404455925945018E-002
   5.8327773916458880E-002  -1.7828075794053266E-002   2.1214395482159448E-002
   5.5836891095445942E-002  -1.7009857346956855E-002   2.1210199744529042E-002
   5.3346008274433018E-002  -1.6219632323136637E-002   2.1391868713053767E-002
   5.0855125453420108E-002  -1.5457400722591830E-002   2.1759402387733801E-002
   5.6227413205961307E-002  -1.7849648819320552E-002   2.7277607049189245E-002
   5.3912274249720227E-002  -1.6964098513448128E-002   2.7196890247686345E-002
   5.1597135293479118E-002  -1.6134154574582199E-002   2.7281796469571573E-002
   4.9281996337238065E-002  -1.5359817002722841E-002   2.7532325714845679E-002
   4.6966857380996929E-002  -1.4641085797869657E-002   2.7948477983508024E-002
   6.3001715557130411E-002  -1.7906345496758291E-002   2.8483343950691520E-003
   6.0019683750285324E-002  -1.7034013315897489E-002   2.2435417563660964E-003
   5.7037651943440293E-002  -1.6257327756472040E-002   1.8239333248628586E-003
   5.4055620136595206E-002  -1.5576288818480305E-002   1.5895091005598827E-003
   5.1073588329750175E-002  -1.4990896501924533E-002   1.5402690834580568E-003
   5.8872554541486821E-002  -1.7090030572036063E-002   9.2093305935145864E-003
   5.6068914122068658E-002  -1.6253117141448115E-002   8.6042842786272500E-003
   5.3265273702650551E-002  -1.5468074097726520E-002   8.1708365313936104E-003
   5.0461633283232332E-002  -1.4734901440870661E-002   7.9089873518132237E-003
   4.7657992863814169E-002  -1.4053599170880893E-002   7.8187367398860896E-003
   5.4823691173583405E-002  -1.6273715647314058E-002   1.5513019924402793E-002
   5.2184856502045129E-002  -1.5472220966998629E-002   1.4951496167900452E-002
   4.9546021830506881E-002  -1.4678820438981111E-002   1.4547985339504577E-002
   4.6907187158968675E-002  -1.3893514063260684E-002   1.4302487439215389E-002
   4.4268352487430440E-002  -1.3116301839837585E-002   1.4215002467032389E-002
   5.0855125453420108E-002  -1.5457400722591830E-002   2.1759402387733801E-002
   4.8367510890214793E-002  -1.4691324792549532E-002   2.1285177424185321E-002
   4.5879896327009534E-002  -1.3889566780235535E-002   2.0955379749196132E-002
   4.3392281763804205E-002  -1.3052126685650429E-002   2.0770009362766524E-002
   4.0904667200598953E-002  -1.2179004508794222E-002   2.0729066264896234E-002
   4.6966857380996929E-002  -1.4641085797869657E-002   2.7948477983508024E-002
   4.4616877286577650E-002  -1.3910428618100046E-002   2.7605328047481448E-002
   4.2266897192158343E-002  -1.3100313121490445E-002   2.7393019760467902E-002
   3.9916917097739035E-002  -1.2210739308040463E-002   2.7311553122466539E-002
   3.7566937003319756E-002  -1.1241707177750637E-002   2.7360928133477902E-002
   5.1073588329750175E-002  -1.4990896501924533E-002   1.5402690834580568E-003
   4.8293601738980119E-002  -1.4401158399682590E-002   1.0073366115005422E-003
   4.5513615148210174E-002  -1.3707082104633339E-002   5.8327519982037668E-004
   4.2733628557440145E-002  -1.2908667616778419E-002   2.6808484841761571E-004
   3.9953641966670173E-002  -1.2005914936116691E-002   6.1765557290760498E-005
   4.7657992863814169E-002  -1.4053599170880893E-002   7.8187367398860896E-003
   4.4984887411396834E-002  -1.3370952366546729E-002   7.3892182597378175E-003
   4.2311781958979555E-002  -1.2633746106657379E-002   7.0645909960180830E-003
   3.9638676506562220E-002  -1.1841980391213348E-002   6.8448549487262200E-003
   3.6965571054144886E-002  -1.0995655220213729E-002   6.7300101178631166E-003
   4.4268352487430440E-002  -1.3116301839837585E-002   1.4215002467032389E-002
   4.1698148329517237E-002  -1.2340746333411534E-002   1.3839119241441405E-002
   3.9127944171604076E-002  -1.1560410108681640E-002   1.3564147388430148E-002
   3.6557740013690922E-002  -1.0775293165647834E-002   1.3390086907998908E-002
   3.3987535855777740E-002  -9.9853955043108789E-003   1.3316937800147310E-002
   4.0904667200598953E-002  -1.2179004508794222E-002   2.0729066264896234E-002
   3.8433384493341299E-002  -1.1310540300276006E-002   2.0357039556611022E-002
   3.5962101786083722E-002  -1.0487074110705569E-002   2.0081944377057438E-002
   3.3490819078826069E-002  -9.7086059400825417E-003   1.9903780726234978E-002
   3.1019536371568492E-002  -8.9751357884075289E-003   1.9822548604143550E-002
   3.7566937003319756E-002  -1.1241707177750637E-002   2.7360928133477902E-002
   3.5190595902869104E-002  -1.0280334267140478E-002   2.6942979205247464E-002
   3.2814254802418480E-002  -9.4137381127294695E-003   2.6617981961899628E-002
   3.0437913701967856E-002  -8.6419187145175200E-003   2.6385936403434895E-002
   2.8061572601517204E-002  -7.9648760725045120E-003   2.6246842529852432E-002
   3.9953641966670173E-002  -1.2005914936116691E-002   6.1765557290760498E-005
   3.7514848822451596E-002  -1.1138894197609273E-002  -2.6596204810336310E-004
   3.5076055678232909E-002  -1.0447675536215006E-002  -4.8804890624964958E-004
   3.2637262534014305E-002  -9.9322589519352661E-003  -6.0449501714654463E-004
   3.0198469389795646E-002  -9.5926444447695935E-003  -6.1530038079560256E-004
   3.6965571054144886E-002  -1.0995655220213729E-002   6.7300101178631166E-003
   3.4612065734583586E-002  -1.0178357605842736E-002   6.2477569810722722E-003
   3.2258560415022175E-002  -9.4736745602836403E-003   5.8304387463473106E-003
   2.9905055095460875E-002  -8.8816060835370941E-003   5.4780554136884263E-003
   2.7551549775899409E-002  -8.4021521756021400E-003   5.1906069830953694E-003
   3.3987535855777740E-002  -9.9853955043108789E-003   1.3316937800147310E-002
   3.1678612515691013E-002  -9.2178210140765882E-003   1.2743346640262332E-002
   2.9369689175604244E-002  -8.4996735843527460E-003   1.2193984537260422E-002
   2.7060765835517551E-002  -7.8309532151382630E-003   1.1668851491142038E-002
   2.4751842495430831E-002  -7.2116599064344644E-003   1.1167947501906805E-002
   3.1019536371568492E-002  -8.9751357884075289E-003   1.9822548604143550E-002
   2.8714489165773759E-002  -8.2572844223103570E-003   1.9220806929466025E-002
   2.6409441959979078E-002  -7.5256726084212827E-003   1.8602588466489496E-002
   2.4104394754184411E-002  -6.7803003467399835E-003   1.7967893215213474E-002
   2.1799347548389782E-002  -6.0211676372668999E-003   1.7316721175638317E-002
   2.8061572601517204E-002  -7.9648760725045120E-003   2.6246842529852432E-002
   2.5719695684831900E-002  -7.2967478305440148E-003   2.5680137848684392E-002
   2.3377818768146652E-002  -6.5516716324901803E-003   2.5056250534034707E-002
   2.1035941851461362E-002  -5.7296474783412946E-003   2.4375180585902906E-002
   1.8694064934776100E-002  -4.8306753680993353E-003   2.3636928004289404E-002
   3.0198469389795646E-002  -9.5926444447695935E-003  -6.1530038079560256E-004
   2.9596711600229808E-002  -9.1349924762860191E-003  -3.5886518569205883E-004
   2.8994953810663804E-002  -8.2654635080557926E-003  -1.7900488884962096E-003
   2.8393196021097883E-002  -6.9840575400761662E-003  -4.9088514892084989E-003
   2.7791438231531962E-002  -5.2907745723489441E-003  -9.7152729878295929E-003
   2.7551549775899409E-002  -8.4021521756021400E-003   5.1906069830953694E-003
   2.5532455492008832E-002  -7.8726023994545313E-003   5.8768785677029145E-003
   2.3513361208118283E-002  -7.1302463180699105E-003   5.4160960615691756E-003
   2.1494266924227637E-002  -6.1750839314475836E-003   3.8082594646940970E-003
   1.9475172640337157E-002  -5.0071152395885221E-003   1.0533687770775124E-003
   2.4751842495430831E-002  -7.2116599064344644E-003   1.1167947501906805E-002
   2.1855976524382481E-002  -6.6102123226225995E-003   1.2084984781506769E-002
   1.8960110553334089E-002  -5.9950291280839729E-003   1.2395532777532914E-002
   1.6064244582285746E-002  -5.3661103228189871E-003   1.2099591489984143E-002
   1.3168378611237347E-002  -4.7234559068285442E-003   1.1197160918861915E-002
   2.1799347548389782E-002  -6.0211676372668999E-003   1.7316721175638317E-002
   1.8567274697350575E-002  -5.3478222457900015E-003   1.8265453455719990E-002
   1.5335201846311406E-002  -4.8598119380982852E-003   1.9148261259394520E-002
   1.2103128995272187E-002  -4.5571367141908417E-003   1.9965144586661751E-002
   8.8710561442330235E-003  -4.4397965740685663E-003   2.0716103437521699E-002
   1.8694064934776100E-002  -4.8306753680993353E-003   2.3636928004289404E-002
   1.5666350010913099E-002  -4.0854321689581807E-003   2.4418284590342010E-002
   1.2638635087050043E-002  -3.7245947481122088E-003   2.5674281507154117E-002
   9.6109201631870284E-003  -3.7481631055624881E-003   2.7404918754726143E-002
   6.5832052393239859E-003  -4.1561372413081443E-003   2.9610196333057948E-002
   2.7791438231531962E-002  -5.2907745723489441E-003  -9.7152729878295929E-003
   2.3360497367428179E-002  -4.2061027569961773E-003  -4.1908318394257016E-003
   1.8929556503324452E-002  -4.7505302461403609E-003   2.6006147363484278E-003
   1.4498615639220586E-002  -6.9240570397839374E-003   1.0659066739493350E-002
   1.0067674775116942E-002  -1.0726683137923132E-002   1.9984524170007845E-002
   1.9475172640337157E-002  -5.0071152395885221E-003   1.0533687770775124E-003
   1.6238445789633849E-002  -4.6897242555102858E-003   6.7429595609588278E-003
   1.3001718938930762E-002  -6.2862949922313227E-003   1.3553972944271186E-002
   9.7649920882277585E-003  -9.7968274497498564E-003   2.1486408927014200E-002
   6.5282652375244776E-003  -1.5221321628067663E-002   3.0540267509187924E-002
   1.3168378611237347E-002  -4.7234559068285442E-003   1.1197160918861915E-002
   1.0980282945995345E-002  -5.1733457540243943E-003   1.6767038921919164E-002
   8.7921872807532747E-003  -7.8220597383202861E-003   2.3312756696467374E-002
   6.6040916155111692E-003  -1.2669597859716553E-002   3.0834314242506794E-002
   4.4159959502692026E-003  -1.9715960118212195E-002   3.9331711560038229E-002
   8.8710561442330235E-003  -4.4397965740685663E-003   2.0716103437521699E-002
   7.5860088365123785E-003  -5.6569672525389469E-003   2.5881406243453836E-002
   6.3009615287916813E-003  -9.3578244844102487E-003   3.1876965992937822E-002
   5.0159142210709478E-003  -1.5542368269683082E-002   3.8702782685973033E-002
   3.7308669133503392E-003  -2.4210598608356726E-002   4.6358856322560205E-002
   6.5832052393239859E-003  -4.1561372413081443E-003   2.9610196333057948E-002
   6.0556234611851001E-003  -6.1405887510533885E-003   3.4086061525563593E-002
   5.5280416830462142E-003  -1.0893589230499934E-002   3.9246600833681922E-002
   5.0004599049072590E-003  -1.8415138679649376E-002   4.5091814257411378E-002
   4.4728781267684425E-003  -2.8705237098501257E-002   5.1621701796753516E-002
   7.3267223554897953E-002  -3.2230956662849586E-002   2.1365372747535916E-002
   7.1334450737747468E-002  -2.8129908145857141E-002   2.2973092722012978E-002
   6.9401677920596844E-002  -2.4955912724032220E-002   2.4285203085805174E-002
   6.7468905103446233E-002  -2.2708970397374607E-002   2.5301703838912920E-002
   6.5536132286295679E-002  -2.1389081165884616E-002   2.6022594981335634E-002
   6.9111184523127617E-002  -2.3240900101683115E-002   3.4436234932376242E-002
   6.7000278780531747E-002  -2.1629979949700312E-002   3.4220048563835814E-002
   6.4889373037936002E-002  -2.0301192770612153E-002   3.3943205955089789E-002
   6.2778467295340257E-002  -1.9254538564418500E-002   3.3605707106138000E-002
   6.0667561552744442E-002  -1.8490017331119157E-002   3.3207552016980668E-002
   6.3618355497131115E-002  -1.4250843540516533E-002   4.4694508691070389E-002
   6.1564270199569199E-002  -1.5130051753543539E-002   4.3299336101785380E-002
   5.9510184902007303E-002  -1.5646472817192128E-002   4.2078460642773832E-002
   5.7456099604445379E-002  -1.5800106731462250E-002   4.1031882314035768E-002
   5.5402014306883449E-002  -1.5590953496353893E-002   4.0159601115571056E-002
   5.6788736476908561E-002  -5.2607869793500350E-003   5.2140194023618365E-002
   5.5026424994859637E-002  -8.6301235573867652E-003   5.0210955335861895E-002
   5.3264113512810705E-002  -1.0991752863772054E-002   4.8690967148857817E-002
   5.1501802030761781E-002  -1.2345674898506043E-002   4.7580229462606358E-002
   4.9739490548712822E-002  -1.2691889661588587E-002   4.6878742277107255E-002
   4.8622327462459924E-002   3.7292695818165189E-003   5.6773290930020148E-002
   4.7386743166403067E-002  -2.1301953612299362E-003   5.4954906266064973E-002
   4.6151158870346237E-002  -6.3370329103520084E-003   5.3780725473341395E-002
   4.4915574574289324E-002  -8.8912430655498156E-003   5.3250748551849331E-002
   4.3679990278232494E-002  -9.7928258268232260E-003   5.3364975501588974E-002
   6.5536132286295679E-002  -2.1389081165884616E-002   2.6022594981335634E-002
   6.3208952516212114E-002  -2.0525594631294497E-002   2.6276546322565431E-002
   6.0881772746128493E-002  -1.9647860395337099E-002   2.6570365447617622E-002
   5.8554592976044886E-002  -1.8755878458012614E-002   2.6904052356492278E-002
   5.6227413205961307E-002  -1.7849648819320552E-002   2.7277607049189245E-002
   6.0667561552744442E-002  -1.8490017331119157E-002   3.3207552016980668E-002
   5.8414884389305963E-002  -1.7849826069266495E-002   3.3123022034407923E-002
   5.6162207225867497E-002  -1.7176161777412546E-002   3.3147629481303023E-002
   5.3909530062429017E-002  -1.6469024455557021E-002   3.3281374357665844E-002
   5.1656852898990552E-002  -1.5728414103700294E-002   3.3524256663496815E-002
   5.5402014306883449E-002  -1.5590953496353893E-002   4.0159601115571056E-002
   5.3293109395735644E-002  -1.5174057507238631E-002   3.9755815137829803E-002
   5.1184204484587791E-002  -1.4704463159487889E-002   3.9530436235201895E-002
   4.9075299573439951E-002  -1.4182170453101764E-002   3.9483464407687366E-002
   4.6966394662292132E-002  -1.3607179388080121E-002   3.9614899655286279E-002
   4.9739490548712822E-002  -1.2691889661588587E-002   4.6878742277107255E-002
   4.7843627535501088E-002  -1.2498288945210725E-002   4.6174925632831543E-002
   4.5947764522289401E-002  -1.2232764541563228E-002   4.5718785709314542E-002
   4.4051901509077694E-002  -1.1895316450646325E-002   4.5510322506556553E-002
   4.2156038495865980E-002  -1.1485944672459877E-002   4.5549536024557337E-002
   4.3679990278232494E-002  -9.7928258268232260E-003   5.3364975501588974E-002
   4.2066438808602405E-002  -9.8225203831827368E-003   5.2380353519412864E-002
   4.0452887338972315E-002  -9.7610659236387065E-003   5.1712677903641147E-002
   3.8839335869342226E-002  -9.6084624481910588E-003   5.1361948654273654E-002
   3.7225784399712136E-002  -9.3647099568396897E-003   5.1328165771310608E-002
   5.6227413205961307E-002  -1.7849648819320552E-002   2.7277607049189245E-002
   5.3912274249720227E-002  -1.6964098513448128E-002   2.7196890247686345E-002
   5.1597135293479118E-002  -1.6134154574582199E-002   2.7281796469571573E-002
   4.9281996337238065E-002  -1.5359817002722841E-002   2.7532325714845679E-002
   4.6966857380996929E-002  -1.4641085797869657E-002   2.7948477983508024E-002
   5.1656852898990552E-002  -1.5728414103700294E-002   3.3524256663496815E-002
   4.9512812539502404E-002  -1.4986175261416740E-002   3.3286206297553550E-002
   4.7368772180014326E-002  -1.4274152468281176E-002   3.3224730101727593E-002
   4.5224731820526214E-002  -1.3592345724293423E-002   3.3339828076019241E-002
   4.3080691461038073E-002  -1.2940755029453466E-002   3.3631500220428601E-002
   4.6966394662292132E-002  -1.3607179388080121E-002   3.9614899655286279E-002
   4.5004404046286028E-002  -1.3008252009385421E-002   3.9244906042761166E-002
   4.3042413430279966E-002  -1.2414150361980111E-002   3.9062437747082637E-002
   4.1080422814273931E-002  -1.1824874445864175E-002   3.9067494768250548E-002
   3.9118432198267800E-002  -1.1240424261037357E-002   3.9260077106265182E-002
   4.2156038495865980E-002  -1.1485944672459877E-002   4.5549536024557337E-002
   4.0387048770070981E-002  -1.1030328757354012E-002   4.5072989483309109E-002
   3.8618059044276010E-002  -1.0554148255679012E-002   4.4794919405636555E-002
   3.6849069318481059E-002  -1.0057403167434675E-002   4.4715325791539480E-002
   3.5080079592686046E-002  -9.5400934926212072E-003   4.4834208641018183E-002
   3.7225784399712136E-002  -9.3647099568396897E-003   5.1328165771310608E-002
   3.5660746710857338E-002  -9.0524055053227137E-003   5.0770456619197657E-002
   3.4095709022002541E-002  -8.6941461493780653E-003   5.0422175077389414E-002
   3.2530671333147729E-002  -8.2899318890055466E-003   5.0283321145885865E-002
   3.0965633644292917E-002  -7.8397627242050016E-003   5.0353894824687162E-002
   4.6966857380996929E-002  -1.4641085797869657E-002   2.7948477983508024E-002
   4.4616877286577650E-002  -1.3910428618100046E-002   2.7605328047481448E-002
   4.2266897192158343E-002  -1.3100313121490445E-002   2.7393019760467902E-002
   3.9916917097739035E-002  -1.2210739308040463E-002   2.7311553122466539E-002
   3.7566937003319756E-002  -1.1241707177750637E-002   2.7360928133477902E-002
   4.3080691461038073E-002  -1.2940755029453466E-002   3.3631500220428601E-002
   4.0869899952465927E-002  -1.2279419042098921E-002   3.3285186353934154E-002
   3.8659108443893725E-002  -1.1568376420566823E-002   3.3086408010121554E-002
   3.6448316935321495E-002  -1.0807627164856858E-002   3.3035165188990315E-002
   3.4237525426749404E-002  -9.9971712749699071E-003   3.3131457890541172E-002
   3.9118432198267800E-002  -1.1240424261037357E-002   3.9260077106265182E-002
   3.7063523149211949E-002  -1.0648409466097825E-002   3.8880847626640236E-002
   3.5008614100156044E-002  -1.0036439719643318E-002   3.8665847543366168E-002
   3.2953705051100179E-002  -9.4045150216737535E-003   3.8615076856442929E-002
   3.0898796002044301E-002  -8.7526353721891770E-003   3.8728535565870831E-002
   3.5080079592686046E-002  -9.5400934926212072E-003   4.4834208641018183E-002
   3.3197746876815717E-002  -9.0173998900968250E-003   4.4392311865600019E-002
   3.1315414160945326E-002  -8.5045030187197272E-003   4.4131338360202284E-002
   2.9433081445074939E-002  -8.0014028784903997E-003   4.4051288124824284E-002
   2.7550748729204551E-002  -7.5080994694083913E-003   4.4152161159466415E-002
   3.0965633644292917E-002  -7.8397627242050016E-003   5.0353894824687162E-002
   2.9272571135277203E-002  -7.3863903140957698E-003   4.9819579070813580E-002
   2.7579508626261517E-002  -6.9725663177964831E-003   4.9482880460629125E-002
   2.5886446117245832E-002  -6.5982907353069505E-003   4.9343798994134089E-002
   2.4193383608230090E-002  -6.2635635666276057E-003   4.9402334671328263E-002
   3.7566937003319756E-002  -1.1241707177750637E-002   2.7360928133477902E-002
   3.5190595902869104E-002  -1.0280334267140478E-002   2.6942979205247464E-002
   3.2814254802418480E-002  -9.4137381127294695E-003   2.6617981961899628E-002
   3.0437913701967856E-002  -8.6419187145175200E-003   2.6385936403434895E-002
   2.8061572601517204E-002  -7.9648760725045120E-003   2.6246842529852432E-002
   3.4237525426749404E-002  -9.9971712749699071E-003   3.3131457890541172E-002
   3.1967811726633738E-002  -9.1863546742311231E-003   3.2645985845291881E-002
   2.9698098026518058E-002  -8.4245232859660180E-003   3.2280816915829735E-002
   2.7428384326402412E-002  -7.7116771101749873E-003   3.2035951102155028E-002
   2.5158670626286711E-002  -7.0478161468583433E-003   3.1911388404267216E-002
   3.0898796002044301E-002  -8.7526353721891770E-003   3.8728535565870831E-002
   2.8763061133168177E-002  -8.0923750813214346E-003   3.8221331947327603E-002
   2.6627326264292137E-002  -7.4353084592026913E-003   3.7861782875476202E-002
   2.4491591395416082E-002  -6.7814355058325691E-003   3.7649888350316747E-002
   2.2355856526540013E-002  -6.1307562212117861E-003   3.7585648371849356E-002
   2.7550748729204551E-002  -7.5080994694083913E-003   4.4152161159466415E-002
   2.5576344122472616E-002  -6.9983954884120236E-003   4.3669017511354512E-002
   2.3601939515740685E-002  -6.4460936324391913E-003   4.3360879840839167E-002
   2.1627534909008747E-002  -5.8511939014903157E-003   4.3227748147919999E-002
   1.9653130302276816E-002  -5.2136962955653121E-003   4.3269622432597583E-002
   2.4193383608230090E-002  -6.2635635666276057E-003   4.9402334671328263E-002
   2.2407660694546916E-002  -5.9044158955023907E-003   4.8989042537372907E-002
   2.0621937780863742E-002  -5.4568788056759965E-003   4.8778107811918325E-002
   1.8836214867180540E-002  -4.9209522971479167E-003   4.8769530494964797E-002
   1.7050491953497338E-002  -4.2966363699190602E-003   4.8963310586512487E-002
   2.8061572601517204E-002  -7.9648760725045120E-003   2.6246842529852432E-002
   2.5719695684831900E-002  -7.2967478305440148E-003   2.5680137848684392E-002
   2.3377818768146652E-002  -6.5516716324901803E-003   2.5056250534034707E-002
   2.1035941851461362E-002  -5.7296474783412946E-003   2.4375180585902906E-002
   1.8694064934776100E-002  -4.8306753680993353E-003   2.3636928004289404E-002
   2.5158670626286711E-002  -7.0478161468583433E-003   3.1911388404267216E-002
   2.2798693356469751E-002  -6.3961270964612571E-003   3.1534648550296918E-002
   2.0438716086652639E-002  -5.7197966594310090E-003   3.1178890623544703E-002
   1.8078738816835575E-002  -5.0188248357672938E-003   3.0844114624010960E-002
   1.5718761547018512E-002  -4.2932116254699171E-003   3.0530320551695911E-002
   2.2355856526540013E-002  -6.1307562212117861E-003   3.7585648371849356E-002
   2.0055943464291348E-002  -5.4955063623785549E-003   3.7346566775615819E-002
   1.7756030402042731E-002  -4.8879216863724900E-003   3.7206631667301107E-002
   1.5456117339794091E-002  -4.3080021931929564E-003   3.7165843046904949E-002
   1.3156204277545464E-002  -3.7557478828403879E-003   3.7224200914427297E-002
   1.9653130302276816E-002  -5.2136962955653121E-003   4.3269622432597583E-002
   1.7491446008296857E-002  -4.5948856282958805E-003   4.3115892524640737E-002
   1.5329761714316900E-002  -4.0560467133135894E-003   4.3139473665302963E-002
   1.3168077420336922E-002  -3.5971795506185653E-003   4.3340365854583882E-002
   1.1006393126356987E-002  -3.2182841402108586E-003   4.3718569092483506E-002
   1.7050491953497338E-002  -4.2966363699190602E-003   4.8963310586512487E-002
   1.5105200988486250E-002  -3.6942648942129841E-003   4.8842625797372086E-002
   1.3159910023475163E-002  -3.2241717402551329E-003   4.8977416617550729E-002
   1.1214619058464076E-002  -2.8863569080445350E-003   4.9367683047048277E-002
   9.2693280934530442E-003  -2.6808203975814404E-003   5.0013425085865038E-002
   1.8694064934776100E-002  -4.8306753680993353E-003   2.3636928004289404E-002
   1.5666350010913099E-002  -4.0854321689581807E-003   2.4418284590342010E-002
   1.2638635087050043E-002  -3.7245947481122088E-003   2.5674281507154117E-002
   9.6109201631870284E-003  -3.7481631055624881E-003   2.7404918754726143E-002
   6.5832052393239859E-003  -4.1561372413081443E-003   2.9610196333057948E-002
   1.5718761547018512E-002  -4.2932116254699171E-003   3.0530320551695911E-002
   1.3147712203024020E-002  -3.7746805568794617E-003   3.1294842780970333E-002
   1.0576662859029487E-002  -3.6949551583370099E-003   3.2498055839221995E-002
   8.0056135150349678E-003  -4.0540354298418541E-003   3.4139959726451341E-002
   5.4345641710404624E-003  -4.8519213713946741E-003   3.6220554442658037E-002
   1.3156204277545464E-002  -3.7557478828403879E-003   3.7224200914427297E-002
   1.1005871011637233E-002  -3.4639289448011312E-003   3.7917488895171741E-002
   8.8555377457290446E-003  -3.6653155685615613E-003   3.9013518203110914E-002
   6.7052044798208386E-003  -4.3599077541217682E-003   4.0512288838245397E-002
   4.5548712139126257E-003  -5.5477055014814258E-003   4.2413800800575274E-002
   1.1006393126356987E-002  -3.2182841402108586E-003   4.3718569092483506E-002
   9.2408264367528602E-003  -3.1531773327225510E-003   4.4286222932945790E-002
   7.4752597471487246E-003  -3.6356759787861820E-003   4.5220668598820450E-002
   5.7096930575445950E-003  -4.6657800784012972E-003   4.6521906090108145E-002
   3.9441263679404620E-003  -6.2434896315682886E-003   4.8189935406809326E-002
   9.2693280934530442E-003  -2.6808203975814404E-003   5.0013425085865038E-002
   7.8525784783707586E-003  -2.8424257206440817E-003   5.0401044894292757E-002
   6.4358288632885008E-003  -3.6060363890108027E-003   5.1119507026351207E-002
   5.0190792482062430E-003  -4.9716524026808540E-003   5.2168811482040389E-002
   3.6023296331240129E-003  -6.9392737616547073E-003   5.3548958261360191E-002
   6.5832052393239859E-003  -4.1561372413081443E-003   2.9610196333057948E-002
   6.0556234611851001E-003  -6.1405887510533885E-003   3.4086061525563593E-002
   5.5280416830462142E-003  -1.0893589230499934E-002   3.9246600833681922E-002
   5.0004599049072590E-003  -1.8415138679649376E-002   4.5091814257411378E-002
   4.4728781267684425E-003  -2.8705237098501257E-002   5.1621701796753516E-002
   5.4345641710404624E-003  -4.8519213713946741E-003   3.6220554442658037E-002
   5.4878621691744900E-003  -6.9870578799475225E-003   3.8359451190153326E-002
   5.5411601673085870E-003  -1.1357889852452174E-002   4.0975433374582981E-002
   5.5944581654425868E-003  -1.7964417288908893E-002   4.4068500995946253E-002
   5.6477561635767115E-003  -2.6806640189317887E-002   4.7638654054243279E-002
   4.5548712139126257E-003  -5.5477055014814258E-003   4.2413800800575274E-002
   4.9814603096415139E-003  -7.8335270088420450E-003   4.2748582608810176E-002
   5.4080494053704159E-003  -1.1822190474404554E-002   4.3352861175301349E-002
   5.8346385010993006E-003  -1.7513695898168417E-002   4.4226636500048100E-002
   6.2612275968282616E-003  -2.4908043280134518E-002   4.5369908583050789E-002
   3.9441263679404620E-003  -6.2434896315682886E-003   4.8189935406809326E-002
   4.5364178825862377E-003  -8.6799961377368173E-003   4.7253455781534531E-002
   5.1287093972319907E-003  -1.2286491096356864E-002   4.6378884235837615E-002
   5.7210009118776250E-003  -1.7062974507428271E-002   4.5566220769717822E-002
   6.3132924265235160E-003  -2.3009446370951148E-002   4.4815465383176795E-002
   3.6023296331240129E-003  -6.9392737616547073E-003   5.3548958261360191E-002
   4.1527348880084913E-003  -9.5264652666312566E-003   5.1874070708325837E-002
   4.7031401428930253E-003  -1.2750791718309062E-002   5.0053502556190788E-002
   5.2535453977775037E-003  -1.6612253116687320E-002   4.8087253804956154E-002
   5.8039506526620377E-003  -2.1110849461767778E-002   4.5975324454620381E-002
   4.8622327462459924E-002   3.7292695818165189E-003   5.6773290930020148E-002
   4.7386743166403067E-002  -2.1301953612299362E-003   5.4954906266064973E-002
   4.6151158870346237E-002  -6.3370329103520084E-003   5.3780725473341395E-002
   4.4915574574289324E-002  -8.8912430655498156E-003   5.3250748551849331E-002
   4.3679990278232494E-002  -9.7928258268232260E-003   5.3364975501588974E-002
   4.0443945185955205E-002  -3.0793170841266204E-003   4.9398331777182780E-002
   3.9728196462803414E-002  -6.0773202284116201E-003   5.0041514748008858E-002
   3.9012447739651596E-002  -8.1817658406332372E-003   5.1080164993413196E-002
   3.8296699016499777E-002  -9.3926539207915688E-003   5.2514282513396085E-002
   3.7580950293347959E-002  -9.7099844688865733E-003   5.4343867307957455E-002
   3.3578406379564371E-002  -9.8879037500697320E-003   4.5264369354037826E-002
   3.3133756632664449E-002  -1.0024445095593248E-002   4.7610050097783602E-002
   3.2689106885764575E-002  -1.0026498770914424E-002   5.0102461519455063E-002
   3.2244457138864646E-002  -9.8940647760333462E-003   5.2741603619051759E-002
   3.1799807391964752E-002  -9.6271431109499483E-003   5.5527476396573794E-002
   2.8025711043287282E-002  -1.6696490416012871E-002   4.4371403660584542E-002
   2.7603423675986231E-002  -1.3971569962774849E-002   4.7660512315389522E-002
   2.7181136308685107E-002  -1.1871231701195605E-002   5.0847615051466719E-002
   2.6758848941384021E-002  -1.0395475631275112E-002   5.3932711868816249E-002
   2.6336561574082939E-002  -9.5443017530133650E-003   5.6915802767437969E-002
   2.3785859177124086E-002  -2.3505077081955983E-002   4.6719434696823159E-002
   2.3137197592768666E-002  -1.7918694829956505E-002   5.0192901400826384E-002
   2.2488536008413260E-002  -1.3715964631476812E-002   5.3315625589448468E-002
   2.1839874424057847E-002  -1.0896886486516870E-002   5.6087607262689604E-002
   2.1191212839702434E-002  -9.4614603950766707E-003   5.8508846420550042E-002
   4.3679990278232494E-002  -9.7928258268232260E-003   5.3364975501588974E-002
   4.2066438808602405E-002  -9.8225203831827368E-003   5.2380353519412864E-002
   4.0452887338972315E-002  -9.7610659236387065E-003   5.1712677903641147E-002
   3.8839335869342226E-002  -9.6084624481910588E-003   5.1361948654273654E-002
   3.7225784399712136E-002  -9.3647099568396897E-003   5.1328165771310608E-002
   3.7580950293347959E-002  -9.7099844688865733E-003   5.4343867307957455E-002
   3.6265558712797435E-002  -9.5547883972168929E-003   5.3729678293642627E-002
   3.4950167132246940E-002  -9.3480966180811628E-003   5.3394862691082581E-002
   3.3634775551696437E-002  -9.0899091314792773E-003   5.3339420500277200E-002
   3.2319383971145907E-002  -8.7802259374114566E-003   5.3563351721226782E-002
   3.1799807391964752E-002  -9.6271431109499483E-003   5.5527476396573794E-002
   3.0745002745844196E-002  -9.2870564112511461E-003   5.5244067041682866E-002
   2.9690198099723654E-002  -8.9351273125237857E-003   5.5202458143897057E-002
   2.8635393453603119E-002  -8.5713558147677178E-003   5.5402649703216435E-002
   2.7580588807482556E-002  -8.1957419179831126E-003   5.5844641719640917E-002
   2.6336561574082939E-002  -9.5443017530133650E-003   5.6915802767437969E-002
   2.5504770907742693E-002  -9.0193244252854340E-003   5.6923519763533464E-002
   2.4672980241402465E-002  -8.5221580069662697E-003   5.7135464262084393E-002
   2.3841189575062240E-002  -8.0528024980562277E-003   5.7551636263090844E-002
   2.3009398908722018E-002  -7.6112578985548796E-003   5.8172035766552888E-002
   2.1191212839702434E-002  -9.4614603950766707E-003   5.8508846420550042E-002
   2.0544863198492913E-002  -8.7515924393195832E-003   5.8768036459194456E-002
   1.9898513557283393E-002  -8.1091887014088926E-003   5.9193881045644714E-002
   1.9252163916073865E-002  -7.5342491813445781E-003   5.9786380179900844E-002
   1.8605814274864338E-002  -7.0267738791265355E-003   6.0545533861962819E-002
   3.7225784399712136E-002  -9.3647099568396897E-003   5.1328165771310608E-002
   3.5660746710857338E-002  -9.0524055053227137E-003   5.0770456619197657E-002
   3.4095709022002541E-002  -8.6941461493780653E-003   5.0422175077389414E-002
   3.2530671333147729E-002  -8.2899318890055466E-003   5.0283321145885865E-002
   3.0965633644292917E-002  -7.8397627242050016E-003   5.0353894824687162E-002
   3.2319383971145907E-002  -8.7802259374114566E-003   5.3563351721226782E-002
   3.0955880351940926E-002  -8.4308492190220408E-003   5.3202277416164179E-002
   2.9592376732735980E-002  -8.0535811594557583E-003   5.3034843640096696E-002
   2.8228873113531002E-002  -7.6484217587126091E-003   5.3061050393024056E-002
   2.6865369494326052E-002  -7.2153710167925933E-003   5.3280897674946537E-002
   2.7580588807482556E-002  -8.1957419179831126E-003   5.5844641719640917E-002
   2.6402832176617728E-002  -7.8092929327212568E-003   5.5662138698377633E-002
   2.5225075545752894E-002  -7.4130161695335137E-003   5.5657489124799793E-002
   2.4047318914888056E-002  -7.0069116284197288E-003   5.5830692998907222E-002
   2.2869562284023259E-002  -6.5909793093801017E-003   5.6181750320699872E-002
   2.3009398908722018E-002  -7.6112578985548796E-003   5.8172035766552888E-002
   2.2001602184887635E-002  -7.1877366464204728E-003   5.8150040465838285E-002
   2.0993805461053248E-002  -6.7724511796111823E-003   5.8290111531499149E-002
   1.9986008737218879E-002  -6.3654014981268199E-003   5.8592248963535619E-002
   1.8978212013384475E-002  -5.9665876019675407E-003   5.9056452761947584E-002
   1.8605814274864338E-002  -7.0267738791265355E-003   6.0545533861962819E-002
   1.7752190376750701E-002  -6.5661803601198276E-003   6.0665982718545675E-002
   1.6898566478637071E-002  -6.1318861896889343E-003   6.0932710860194417E-002
   1.6044942580523445E-002  -5.7238913678339873E-003   6.1345718286908962E-002
   1.5191318682409805E-002  -5.3421958945550907E-003   6.1905004998689450E-002
   3.0965633644292917E-002  -7.8397627242050016E-003   5.0353894824687162E-002
   2.9272571135277203E-002  -7.3863903140957698E-003   4.9819579070813580E-002
   2.7579508626261517E-002  -6.9725663177964831E-003   4.9482880460629125E-002
   2.5886446117245832E-002  -6.5982907353069505E-003   4.9343798994134089E-002
   2.4193383608230090E-002  -6.2635635666276057E-003   4.9402334671328263E-002
   2.6865369494326052E-002  -7.2153710167925933E-003   5.3280897674946537E-002
   2.5370740580959561E-002  -6.7763959682358987E-003   5.2824059741840096E-002
   2.3876111667593097E-002  -6.3534636475828798E-003   5.2566471856342750E-002
   2.2381482754226620E-002  -5.9465740548337170E-003   5.2508134018454763E-002
   2.0886853840860142E-002  -5.5557271899878691E-003   5.2649046228175789E-002
   2.2869562284023259E-002  -6.5909793093801017E-003   5.6181750320699872E-002
   2.1574999870225868E-002  -6.1664016223762219E-003   5.5825895894267008E-002
   2.0280437456428491E-002  -5.7343609773694917E-003   5.5670924419363214E-002
   1.8985875042631106E-002  -5.2948573743602598E-003   5.5716835895988470E-002
   1.7691312628833722E-002  -4.8478908133482990E-003   5.5963630324142560E-002
   1.8978212013384475E-002  -5.9665876019675407E-003   5.9056452761947584E-002
   1.7885349003076079E-002  -5.5564072765163369E-003   5.8825087528094649E-002
   1.6792485992767701E-002  -5.1152583071559961E-003   5.8796238149690462E-002
   1.5699622982459308E-002  -4.6431406938869145E-003   5.8969904626735133E-002
   1.4606759972150898E-002  -4.1400544367085901E-003   5.9346086959228890E-002
   1.5191318682409805E-002  -5.3421958945550907E-003   6.1905004998689450E-002
   1.4301787979510261E-002  -4.9464129306566185E-003   6.1821634643322521E-002
   1.3412257276610717E-002  -4.4961556369425282E-003   6.1942413047324341E-002
   1.2522726573711174E-002  -3.9914240134136594E-003   6.2267340210695049E-002
   1.1633195870811630E-002  -3.4322180600691032E-003   6.2796416133434452E-002
   2.4193383608230090E-002  -6.2635635666276057E-003   4.9402334671328263E-002
   2.2407660694546916E-002  -5.9044158955023907E-003   4.8989042537372907E-002
   2.0621937780863742E-002  -5.4568788056759965E-003   4.8778107811918325E-002
   1.8836214867180540E-002  -4.9209522971479167E-003   4.8769530494964797E-002
   1.7050491953497338E-002  -4.2966363699190602E-003   4.8963310586512487E-002
   2.0886853840860142E-002  -5.5557271899878691E-003   5.2649046228175789E-002
   1.9304263313124931E-002  -5.1508411949436894E-003   5.2413772830511851E-002
   1.7721672785389705E-002  -4.7018342115984213E-003   5.2382406796242953E-002
   1.6139082257654473E-002  -4.2087062399526198E-003   5.2554948125368900E-002
   1.4556491729919269E-002  -3.6714572800060630E-003   5.2931396817889609E-002
   1.7691312628833722E-002  -4.8478908133482990E-003   5.5963630324142560E-002
   1.6313404441940425E-002  -4.3972664943848772E-003   5.5862107232369729E-002
   1.4935496255047087E-002  -3.9467896175211931E-003   5.5966041458885687E-002
   1.3557588068153777E-002  -3.4964601827573265E-003   5.6275433003690610E-002
   1.2179679881260452E-002  -3.0462781900930658E-003   5.6790281866784309E-002
   1.4606759972150898E-002  -4.1400544367085901E-003   5.9346086959228890E-002
   1.3435084080993405E-002  -3.6436917938261204E-003   5.9334045742946512E-002
   1.2263408189835897E-002  -3.1917450234439024E-003   5.9529011799846723E-002
   1.1091732298678368E-002  -2.7842141255619759E-003   5.9930985129930080E-002
   9.9200564075208678E-003  -2.4210991001801241E-003   6.0539965733195894E-002
   1.1633195870811630E-002  -3.4322180600691032E-003   6.2796416133434452E-002
   1.0669302230283853E-002  -2.8901170932675302E-003   6.2829588362241895E-002
   9.7054085897560899E-003  -2.4367004293666672E-003   6.3071317819126449E-002
   8.7415149492283337E-003  -2.0719680683665836E-003   6.3521604504087337E-002
   7.7776213087005774E-003  -1.7959200102671824E-003   6.4180448417125224E-002
   1.7050491953497338E-002  -4.2966363699190602E-003   4.8963310586512487E-002
   1.5105200988486250E-002  -3.6942648942129841E-003   4.8842625797372086E-002
   1.3159910023475163E-002  -3.2241717402551329E-003   4.8977416617550729E-002
   1.1214619058464076E-002  -2.8863569080445350E-003   4.9367683047048277E-002
   9.2693280934530442E-003  -2.6808203975814404E-003   5.0013425085865038E-002
   1.4556491729919269E-002  -3.6714572800060630E-003   5.2931396817889609E-002
   1.2867389255849640E-002  -3.1744809802476959E-003   5.2800140970078235E-002
   1.1178286781780039E-002  -2.8021709891672131E-003   5.2925786494830984E-002
   9.4891843077104313E-003  -2.5545273067640803E-003   5.3308333392147633E-002
   7.8000818336408095E-003  -2.4315499330387347E-003   5.3947781662028182E-002
   1.2179679881260452E-002  -3.0462781900930658E-003   5.6790281866784309E-002
   1.0748191661377200E-002  -2.6546970662823521E-003   5.6656066973371916E-002
   9.3167034414939759E-003  -2.3801702380794043E-003   5.6780179215768722E-002
   7.8852152216107446E-003  -2.2226977054841807E-003   5.7162618593974104E-002
   6.4537270017274995E-003  -2.1822794684962510E-003   5.7803385107988547E-002
   9.9200564075208678E-003  -2.4210991001801241E-003   6.0539965733195894E-002
   8.7476082050689189E-003  -2.1349131523173692E-003   6.0410403807253078E-002
   7.5751600026170117E-003  -1.9581694869918731E-003   6.0540594780363874E-002
   6.4027118001650975E-003  -1.8908681042041145E-003   6.0930538652528447E-002
   5.2302635977131556E-003  -1.9330090039536563E-003   6.1580235423746577E-002
   7.7776213087005774E-003  -1.7959200102671824E-003   6.4180448417125224E-002
   6.8656388869248325E-003  -1.6151292383516647E-003   6.4063151471721591E-002
   5.9536564651491153E-003  -1.5361687359040921E-003   6.4207033188616314E-002
   5.0416740433733842E-003  -1.5590385029238193E-003   6.4612093567809809E-002
   4.1296916215976809E-003  -1.6837385394110616E-003   6.5278332609301937E-002
   9.2693280934530442E-003  -2.6808203975814404E-003   5.0013425085865038E-002
   7.8525784783707586E-003  -2.8424257206440817E-003   5.0401044894292757E-002
   6.4358288632885008E-003  -3.6060363890108027E-003   5.1119507026351207E-002
   5.0190792482062430E-003  -4.9716524026808540E-003   5.2168811482040389E-002
   3.6023296331240129E-003  -6.9392737616547073E-003   5.3548958261360191E-002
   7.8000818336408095E-003  -2.4315499330387347E-003   5.3947781662028182E-002
   6.6871316787664448E-003  -2.6259104389074750E-003   5.3875242637024923E-002
   5.5741815238921077E-003  -3.3302803952864612E-003   5.4079460208806496E-002
   4.4612313690177569E-003  -4.5446598021757420E-003   5.4560434377373346E-002
   3.3482812141434060E-003  -6.2690486595752271E-003   5.5318165142725029E-002
   6.4537270017274995E-003  -2.1822794684962510E-003   5.7803385107988547E-002
   5.5904905802153376E-003  -2.4093951571706462E-003   5.7362683144347670E-002
   4.7272541587032035E-003  -3.0545244015620088E-003   5.7144652050646255E-002
   3.8640177371910556E-003  -4.1176672016704080E-003   5.7149291826884108E-002
   3.0007813156789354E-003  -5.5988235574955247E-003   5.7376602473061422E-002
   5.2302635977131556E-003  -1.9330090039536563E-003   6.1580235423746577E-002
   4.5626551827174823E-003  -2.1928798754340395E-003   6.0863366416261298E-002
   3.8950467677218367E-003  -2.7787684078376118E-003   6.0315082551870042E-002
   3.2274383527261911E-003  -3.6906746011651850E-003   5.9935383830572612E-002
   2.5598299377305178E-003  -4.9285984554160445E-003   5.9724270252368178E-002
   4.1296916215976809E-003  -1.6837385394110616E-003   6.5278332609301937E-002
   3.6036254862728129E-003  -1.9763645936972662E-003   6.4377292452766133E-002
   3.0775593509479449E-003  -2.5030124141131593E-003   6.3590751712478299E-002
   2.5514932156230768E-003  -3.2636820006598927E-003   6.2918710388438159E-002
   2.0254270802982088E-003  -4.2583733533361201E-003   6.2361168480646434E-002
   3.6023296331240129E-003  -6.9392737616547073E-003   5.3548958261360191E-002
   4.1527348880084913E-003  -9.5264652666312566E-003   5.1874070708325837E-002
   4.7031401428930253E-003  -1.2750791718309062E-002   5.0053502556190788E-002
   5.2535453977775037E-003  -1.6612253116687320E-002   4.8087253804956154E-002
   5.8039506526620377E-003  -2.1110849461767778E-002   4.5975324454620381E-002
   3.3482812141434060E-003  -6.2690486595752271E-003   5.5318165142725029E-002
   3.7707945181578439E-003  -8.5361116349638722E-003   5.2961377892352279E-002
   4.1933078221722958E-003  -1.1378513395820661E-002   5.0494487339339755E-002
   4.6158211261867199E-003  -1.4796253942144906E-002   4.7917493483686902E-002
   5.0383344302011857E-003  -1.8789333273937281E-002   4.5230396325394828E-002
   3.0007813156789354E-003  -5.5988235574955247E-003   5.7376602473061422E-002
   3.3309799652836633E-003  -7.5457580032965432E-003   5.4399711686583779E-002
   3.6611786148883774E-003  -1.0006235073332037E-002   5.1348294893926116E-002
   3.9913772644931400E-003  -1.2980254767602270E-002   4.8222352095089377E-002
   4.3215759140978471E-003  -1.6467817086107006E-002   4.5021883290072839E-002
   2.5598299377305178E-003  -4.9285984554160445E-003   5.9724270252368178E-002
   2.8332912293859060E-003  -6.5554043716292976E-003   5.6189072091018859E-002
   3.1067525210413498E-003  -8.6339567508435244E-003   5.2614925219950634E-002
   3.3802138126967779E-003  -1.1164255593059745E-002   4.9001829639163087E-002
   3.6536751043521540E-003  -1.4146300898276731E-002   4.5349785348656108E-002
   2.0254270802982088E-003  -4.2583733533361201E-003   6.2361168480646434E-002
   2.2777283104646745E-003  -5.5650507399620519E-003   5.8329459105658676E-002
   2.5300295406311263E-003  -7.2616784283551228E-003   5.4294378317412351E-002
   2.7823307707975989E-003  -9.3482564185169148E-003   5.0255926115906790E-002
   3.0346320009640437E-003  -1.1824784710446234E-002   4.6214102501143106E-002
   2.3785859177124086E-002  -2.3505077081955983E-002   4.6719434696823159E-002
   2.3137197592768666E-002  -1.7918694829956505E-002   5.0192901400826384E-002
   2.2488536008413260E-002  -1.3715964631476812E-002   5.3315625589448468E-002
   2.1839874424057847E-002  -1.0896886486516870E-002   5.6087607262689604E-002
   2.1191212839702434E-002  -9.4614603950766707E-003   5.8508846420550042E-002
   1.9611670391318892E-002  -1.7628807806731983E-002   5.6939059789185342E-002
   1.8740493269342906E-002  -1.3439021129639989E-002   5.8148540616289851E-002
   1.7869316147366920E-002  -1.0286973489550072E-002   5.9263732883534231E-002
   1.6998139025390956E-002  -8.1726648864624205E-003   6.0284636590918331E-002
   1.6126961903414977E-002  -7.0960953203767774E-003   6.1211251738442135E-002
   1.4255964296115926E-002  -1.1752538531508039E-002   6.5589132798380884E-002
   1.3418725592040007E-002  -8.9593474293235276E-003   6.4880540765104744E-002
   1.2581486887964077E-002  -6.8579823476235119E-003   6.4334114127488989E-002
   1.1744248183888152E-002  -5.4484432864079189E-003   6.3949852885533565E-002
   1.0907009479812227E-002  -4.7307302456768285E-003   6.3727757039238470E-002
   7.7187408915151984E-003  -5.8762692562840946E-003   7.2669653724410338E-002
   7.1718945608599434E-003  -4.4796737290070110E-003   7.0388901847271063E-002
   6.6250482302046788E-003  -3.4289912056968894E-003   6.8526769321312686E-002
   6.0782018995494212E-003  -2.7242216863534435E-003   6.7083256146535403E-002
   5.5313555688941661E-003  -2.3653651709769352E-003   6.6058362322939046E-002
   1.7751671660404256E-010   1.8939905199744089E-011   7.8180622567273372E-002
   1.7580274042083843E-010  -2.8690577691392605E-011   7.4673623862788585E-002
   1.7408876423763431E-010  -6.3770252967110252E-011   7.1841698465005460E-002
   1.7237478458498323E-010  -8.6299020013447247E-011   6.9684846373923956E-002
   1.7066080493233216E-010  -9.6276930872107869E-011   6.8203067589544031E-002
   2.1191212839702434E-002  -9.4614603950766707E-003   5.8508846420550042E-002
   2.0544863198492913E-002  -8.7515924393195832E-003   5.8768036459194456E-002
   1.9898513557283393E-002  -8.1091887014088926E-003   5.9193881045644714E-002
   1.9252163916073865E-002  -7.5342491813445781E-003   5.9786380179900844E-002
   1.8605814274864338E-002  -7.0267738791265355E-003   6.0545533861962819E-002
   1.6126961903414977E-002  -7.0960953203767774E-003   6.1211251738442135E-002
   1.5646000024444440E-002  -6.5636943538208703E-003   6.1254442314252533E-002
   1.5165038145473902E-002  -6.0818915493219758E-003   6.1461753866735067E-002
   1.4684076266503372E-002  -5.6506869068803211E-003   6.1833186395889674E-002
   1.4203114387532842E-002  -5.2700804264957934E-003   6.2368739901716347E-002
   1.0907009479812227E-002  -4.7307302456768285E-003   6.3727757039238470E-002
   1.0588901791946870E-002  -4.3757962683219770E-003   6.3571814208004090E-002
   1.0270794104081524E-002  -4.0545943972350035E-003   6.3577458782308097E-002
   9.9526864162161714E-003  -3.7671246324160086E-003   6.3744690762150336E-002
   9.6345787283508254E-003  -3.5133869738650514E-003   6.4073510147530793E-002
   5.5313555688941661E-003  -2.3653651709769352E-003   6.6058362322939046E-002
   5.3735685010001992E-003  -2.1878981828231461E-003   6.5720152140449226E-002
   5.2157814331062376E-003  -2.0272972451481144E-003   6.5540995792363763E-002
   5.0579943652122811E-003  -1.8835623579518349E-003   6.5520893278682935E-002
   4.9002072973183168E-003  -1.7566935212343093E-003   6.5659844599406408E-002
   1.7066080493233216E-010  -9.6276930872107869E-011   6.8203067589544031E-002
   1.5160443733730489E-010  -9.7324343029114857E-011   6.7699456111587841E-002
   1.3254805933393676E-010  -9.3061100492342064E-011   6.7352364896902300E-002
   1.1349169000418602E-010  -8.3487546737037732E-011   6.7161793945487422E-002
   9.4435313735541371E-011  -6.8603511760301217E-011   6.7127743257343331E-002
   1.8605814274864338E-002  -7.0267738791265355E-003   6.0545533861962819E-002
   1.7752190376750701E-002  -6.5661803601198276E-003   6.0665982718545675E-002
   1.6898566478637071E-002  -6.1318861896889343E-003   6.0932710860194417E-002
   1.6044942580523445E-002  -5.7238913678339873E-003   6.1345718286908962E-002
   1.5191318682409805E-002  -5.3421958945550907E-003   6.1905004998689450E-002
   1.4203114387532842E-002  -5.2700804264957934E-003   6.2368739901716347E-002
   1.3512551445707628E-002  -4.9246352830470130E-003   6.2317122727476026E-002
   1.2821988503882421E-002  -4.5989146514124890E-003   6.2445348180746721E-002
   1.2131425562057218E-002  -4.2929185315920826E-003   6.2753416261528222E-002
   1.1440862620232015E-002  -4.0066469235860436E-003   6.3241326969820932E-002
   9.6345787283508254E-003  -3.5133869738650514E-003   6.4073510147530793E-002
   9.1406400852591073E-003  -3.2830902059742956E-003   6.3856401779229272E-002
   8.6467014421673944E-003  -3.0659431131360576E-003   6.3852699380883643E-002
   8.1527627990756815E-003  -2.8619456953501814E-003   6.4062402952493935E-002
   7.6588241559839634E-003  -2.6710979526170520E-003   6.4485512494060482E-002
   4.9002072973183168E-003  -1.7566935212343093E-003   6.5659844599406408E-002
   4.6364562954051480E-003  -1.6415451289015018E-003   6.5283819873805188E-002
   4.3727052934919748E-003  -1.5329715748594527E-003   6.5154764460605016E-002
   4.1089542915788094E-003  -1.4309728591082784E-003   6.5272678359805950E-002
   3.8452032896656354E-003  -1.3355489816480881E-003   6.5637561571407793E-002
   9.4435313735541371E-011  -6.8603511760301217E-011   6.7127743257343331E-002
   7.6145745958600131E-011  -5.1828819014332339E-011   6.6599377011204108E-002
   5.7856181651105842E-011  -3.6583069906725996E-011   6.6351543419911008E-002
   3.9566613874164602E-011  -2.2866430970935880E-011   6.6384242483464057E-002
   2.1277049566670314E-011  -1.0679068740415687E-011   6.6697474201863283E-002
   1.5191318682409805E-002  -5.3421958945550907E-003   6.1905004998689450E-002
   1.4301787979510261E-002  -4.9464129306566185E-003   6.1821634643322521E-002
   1.3412257276610717E-002  -4.4961556369425282E-003   6.1942413047324341E-002
   1.2522726573711174E-002  -3.9914240134136594E-003   6.2267340210695049E-002
   1.1633195870811630E-002  -3.4322180600691032E-003   6.2796416133434452E-002
   1.1440862620232015E-002  -4.0066469235860436E-003   6.3241326969820932E-002
   1.0760039155284493E-002  -3.7098096982160489E-003   6.3178597729145691E-002
   1.0079215690336971E-002  -3.3721167263038310E-003   6.3329134205005660E-002
   9.3983922253894452E-003  -2.9935680078494037E-003   6.3692936397400854E-002
   8.7175687604419266E-003  -2.5741635428527254E-003   6.4270004306331507E-002
   7.6588241559839634E-003  -2.6710979526170520E-003   6.4485512494060482E-002
   7.1958248861549272E-003  -2.4732064657756181E-003   6.4429805784803812E-002
   6.7328256163258909E-003  -2.2480778156650644E-003   6.4596481749248910E-002
   6.2698263464968512E-003  -1.9957120022852555E-003   6.4985540387395707E-002
   5.8068270766678184E-003  -1.7161090256362921E-003   6.5596981699244050E-002
   3.8452032896656354E-003  -1.3355489816480881E-003   6.5637561571407793E-002
   3.6091451721215534E-003  -1.2366032333350624E-003   6.5575258810296688E-002
   3.3730870545774679E-003  -1.1240389050261659E-003   6.5744455680053868E-002
   3.1370289370333815E-003  -9.9785599672099802E-004   6.6145152180679193E-002
   2.9009708194893003E-003  -8.5805450841988651E-004   6.6777348312172566E-002
   2.1277049566670314E-011  -1.0679068740415687E-011   6.6697474201863283E-002
   1.3184377201103104E-011  -8.9467322439418240E-013   6.6614956805624737E-002
   5.0917048355358929E-012   5.6123578007216679E-012   6.6773055997420699E-002
  -3.0009657953078417E-012   8.8430825162522098E-012   6.7171771777251518E-002
  -1.1093639895598528E-011   8.7965190687100403E-012   6.7811104145116818E-002
   1.1633195870811630E-002  -3.4322180600691032E-003   6.2796416133434452E-002
   1.0669302230283853E-002  -2.8901170932675302E-003   6.2829588362241895E-002
   9.7054085897560899E-003  -2.4367004293666672E-003   6.3071317819126449E-002
   8.7415149492283337E-003  -2.0719680683665836E-003   6.3521604504087337E-002
   7.7776213087005774E-003  -1.7959200102671824E-003   6.4180448417125224E-002
   8.7175687604419266E-003  -2.5741635428527254E-003   6.4270004306331507E-002
   7.9703363936262928E-003  -2.1675878181475761E-003   6.4238567242357159E-002
   7.2231040268106658E-003  -1.8275253205677217E-003   6.4431895497730401E-002
   6.4758716599950215E-003  -1.5539760501129506E-003   6.4849989072451111E-002
   5.7286392931794050E-003  -1.3469400067837034E-003   6.5492847966519552E-002
   5.8068270766678184E-003  -1.7161090256362921E-003   6.5596981699244050E-002
   5.2924640748351834E-003  -1.4450585430277607E-003   6.5523106418263463E-002
   4.7781010730025449E-003  -1.2183502117688871E-003   6.5690204547901004E-002
   4.2637380711699046E-003  -1.0359840318595950E-003   6.6098276088157076E-002
   3.7493750693372574E-003  -8.9796000330016890E-004   6.6747321039031526E-002
   2.9009708194893003E-003  -8.5805450841988651E-004   6.6777348312172566E-002
   2.6356852739105197E-003  -7.2252926790787597E-004   6.6683205889960948E-002
   2.3703997283317435E-003  -6.0917510296983057E-004   6.6846244969638591E-002
   2.1051141827529650E-003  -5.1799201360604522E-004   6.7266465551205412E-002
   1.8398286371741866E-003  -4.4897999981660663E-004   6.7943867634661731E-002
  -1.1093639895598528E-011   8.7965190687100403E-012   6.7811104145116818E-002
  -9.1476964891867851E-012   7.2121197902674794E-012   6.7718865657449778E-002
  -7.2017426744341861E-012   5.8288651683113812E-012   6.7900016762942772E-002
  -5.2557940638520151E-012   4.6473311310357701E-012   6.8354557461596077E-002
  -3.3098454532698440E-012   3.6668446057319670E-012   6.9082487753409527E-002
   7.7776213087005774E-003  -1.7959200102671824E-003   6.4180448417125224E-002
   6.8656388869248325E-003  -1.6151292383516647E-003   6.4063151471721591E-002
   5.9536564651491153E-003  -1.5361687359040921E-003   6.4207033188616314E-002
   5.0416740433733842E-003  -1.5590385029238193E-003   6.4612093567809809E-002
   4.1296916215976809E-003  -1.6837385394110616E-003   6.5278332609301937E-002
   5.7286392931794050E-003  -1.3469400067837034E-003   6.5492847966519552E-002
   5.0695397695230474E-003  -1.2113469280483069E-003   6.5347871562850157E-002
   4.4104402458666758E-003  -1.1521265513766143E-003   6.5447482293120834E-002
   3.7513407222103182E-003  -1.1692788767676474E-003   6.5791680157331320E-002
   3.0922411985539466E-003  -1.2628039042218431E-003   6.6380465155482182E-002
   3.7493750693372574E-003  -8.9796000330016890E-004   6.6747321039031526E-002
   3.3265669154416595E-003  -8.0756461774497690E-004   6.6600122744500917E-002
   2.9037587615460513E-003  -7.6808436684870640E-004   6.6680920055551693E-002
   2.4809506076504534E-003  -7.7951925061136781E-004   6.6989712972183868E-002
   2.0581424537548451E-003  -8.4186926903295767E-004   6.7526501494397484E-002
   1.8398286371741866E-003  -4.4897999981660663E-004   6.7943867634661731E-002
   1.6367203246807288E-003  -4.0378230744135546E-004   6.7819905016673981E-002
   1.4336120121872563E-003  -3.8404218232101356E-004   6.7907346475908945E-002
   1.2305036996937907E-003  -3.8975962445514205E-004   6.8206192012366787E-002
   1.0273953872003121E-003  -4.2093463384373919E-004   6.8716441626047384E-002
  -3.3098454532698440E-012   3.6668446057319670E-012   6.9082487753409527E-002
  -2.7597923946132141E-012   2.8618218905762660E-012   6.9007218379368851E-002
  -2.2097289276157284E-012   2.2067625504718080E-012   6.9126761554192617E-002
  -1.6596706647886705E-012   1.7010490238611453E-012   6.9441117277880604E-002
  -1.1096124019616127E-012   1.3451462166358397E-012   6.9950285550432700E-002
   4.1296916215976809E-003  -1.6837385394110616E-003   6.5278332609301937E-002
   3.6036254862728129E-003  -1.9763645936972662E-003   6.4377292452766133E-002
   3.0775593509479449E-003  -2.5030124141131593E-003   6.3590751712478299E-002
   2.5514932156230768E-003  -3.2636820006598927E-003   6.2918710388438159E-002
   2.0254270802982088E-003  -4.2583733533361201E-003   6.2361168480646434E-002
   3.0922411985539466E-003  -1.2628039042218431E-003   6.6380465155482182E-002
   2.6849287588839171E-003  -1.4822734449973507E-003   6.5282261911243367E-002
   2.2776163192138529E-003  -1.8772593103510982E-003   6.4307066642066341E-002
   1.8703038795438026E-003  -2.4477615002838071E-003   6.3454879347950924E-002
   1.4629914398737454E-003  -3.1937800147948670E-003   6.2725700028897213E-002
   2.0581424537548451E-003  -8.4186926903295767E-004   6.7526501494397484E-002
   1.7780922685533482E-003  -9.8818229629774046E-004   6.6289640604007216E-002
   1.4980420833518512E-003  -1.2515062065890648E-003   6.5184296247492529E-002
   1.2179918981503578E-003  -1.6318409999078395E-003   6.4210468424853145E-002
   9.3794171294885736E-004  -2.1291866762535028E-003   6.3368157136089287E-002
   1.0273953872003121E-003  -4.2093463384373919E-004   6.8716441626047384E-002
   8.8311601528112509E-004  -4.9409114759808859E-004   6.7399428531057626E-002
   7.3883664336192416E-004  -6.2575310282723950E-004   6.6222440528756810E-002
   5.9455727144272670E-004  -8.1592049953170195E-004   6.5185477619145518E-002
   4.5027789952352230E-004  -1.0645933377121941E-003   6.4288539802222822E-002
  -1.1096124019616127E-012   1.3451462166358397E-012   6.9950285550432700E-002
  -9.3276081303272917E-013   1.1017853296380054E-012   6.8611625692394429E-002
  -7.5591963244470151E-013   9.3494656461245995E-013   6.7421499485859182E-002
  -5.7906977823929395E-013   8.4413726009202605E-013   6.6379906930826932E-002
  -4.0222686292779031E-013   8.2922557709252942E-013   6.5486848027297317E-002
   2.0254270802982088E-003  -4.2583733533361201E-003   6.2361168480646434E-002
   2.2777283104646745E-003  -5.5650507399620519E-003   5.8329459105658676E-002
   2.5300295406311263E-003  -7.2616784283551228E-003   5.4294378317412351E-002
   2.7823307707975989E-003  -9.3482564185169148E-003   5.0255926115906790E-002
   3.0346320009640437E-003  -1.1824784710446234E-002   4.6214102501143106E-002
   1.4629914398737454E-003  -3.1937800147948670E-003   6.2725700028897213E-002
   1.6969952832120716E-003  -4.1737880547525474E-003   5.8375244079798549E-002
   1.9309991265503978E-003  -5.4462588210254237E-003   5.3991564770302147E-002
   2.1650029698887206E-003  -7.0111923136133222E-003   4.9574662100408173E-002
   2.3990068132270503E-003  -8.8685885325159308E-003   4.5124536070117127E-002
   9.3794171294885736E-004  -2.1291866762535028E-003   6.3368157136089287E-002
   1.1237962223203286E-003  -2.7825253695438201E-003   5.8796442188332326E-002
   1.3096507316918173E-003  -3.6308392136957246E-003   5.4161651933038873E-002
   1.4955052410632764E-003  -4.6741282087097852E-003   4.9463786370209248E-002
   1.6813597504347633E-003  -5.9123923545858492E-003   4.4702845499844046E-002
   4.5027789952352230E-004  -1.0645933377121941E-003   6.4288539802222822E-002
   5.5813112778941697E-004  -1.3912626843348153E-003   5.9593053431260708E-002
   6.6598435605532465E-004  -1.8154196063660255E-003   5.4804639805623209E-002
   7.7383758432121629E-004  -2.3370641038062204E-003   4.9923298925310673E-002
   8.8169081258712700E-004  -2.9561961766555456E-003   4.4949030790324196E-002
  -4.0222686292779031E-013   8.2922557709252942E-013   6.5486848027297317E-002
  -3.8061914731102320E-013   8.7441165419477329E-013   6.0765077808582868E-002
  -3.5902184003511195E-013   9.6375685210148276E-013   5.5920528388054558E-002
  -3.3740718552444093E-013   1.0972542319187539E-012   5.0953199765712803E-002
  -3.1581681714243359E-013   1.2745360322696797E-012   4.5863091941557244E-002
   1.7751671660404256E-010   1.8939905199744089E-011   7.8180622567273372E-002
   1.7580274042083843E-010  -2.8690577691392605E-011   7.4673623862788585E-002
   1.7408876423763431E-010  -6.3770252967110252E-011   7.1841698465005460E-002
   1.7237478458498323E-010  -8.6299020013447247E-011   6.9684846373923956E-002
   1.7066080493233216E-010  -9.6276930872107869E-011   6.8203067589544031E-002
  -7.7187405446004706E-003   5.8762693039338676E-003   7.2669653802284712E-002
  -7.1718942184182278E-003   4.4796736867919462E-003   7.0388901933028603E-002
  -6.6250478922359538E-003   3.4289910988465483E-003   6.8526769412863411E-002
  -6.0782015660536953E-003   2.7242215400975385E-003   6.7083256241789235E-002
  -5.5313552398714300E-003   2.3653650105449064E-003   6.6058362419805755E-002
  -1.4255963973557316E-002   1.1752538588927858E-002   6.5589132959461907E-002
  -1.3418725277089516E-002   8.9593474022744840E-003   6.4880540942080109E-002
  -1.2581486580621725E-002   6.8579822614632038E-003   6.4334114316178470E-002
  -1.1744247884153930E-002   5.4484431664940398E-003   6.3949853081757005E-002
  -1.0907009187686128E-002   4.7307301173668270E-003   6.3727757238815783E-002
  -1.9611670109353802E-002   1.7628807873921806E-002   5.6939060038804737E-002
  -1.8740493000211189E-002   1.3439021117757001E-002   5.8148540889942840E-002
  -1.7869315891068542E-002   1.0286973424079932E-002   5.9263733174950414E-002
  -1.6998138781925923E-002   8.1726647928905410E-003   6.0284636893827556E-002
  -1.6126961672783293E-002   7.0960952241887615E-003   6.1211252046574002E-002
  -2.3785858951989952E-002   2.3505077158915810E-002   4.6719435040313395E-002
  -2.3137197387783193E-002   1.7918694833239573E-002   5.0192901776617060E-002
  -2.2488535823576440E-002   1.3715964586696633E-002   5.3315625989179383E-002
  -2.1839874259369681E-002   1.0896886419287134E-002   5.6087607678000473E-002
  -2.1191212695162921E-002   9.4614603310106404E-003   5.8508846843080442E-002
   1.7066080493233216E-010  -9.6276930872107869E-011   6.8203067589544031E-002
   1.5160443733730489E-010  -9.7324343029114857E-011   6.7699456111587841E-002
   1.3254805933393676E-010  -9.3061100492342064E-011   6.7352364896902300E-002
   1.1349169000418602E-010  -8.3487546737037732E-011   6.7161793945487422E-002
   9.4435313735541371E-011  -6.8603511760301217E-011   6.7127743257343331E-002
  -5.5313552398714300E-003   2.3653650105449064E-003   6.6058362419805755E-002
  -5.3735682086610021E-003   2.1878980245020052E-003   6.5720152223129852E-002
  -5.2157811774505743E-003   2.0272970962818132E-003   6.5540995863716769E-002
  -5.0579941462401534E-003   1.8835622258843200E-003   6.5520893341566661E-002
  -4.9002071150297186E-003   1.7566934133097512E-003   6.5659844656679400E-002
  -1.0907009187686128E-002   4.7307301173668270E-003   6.3727757238815783E-002
  -1.0588901532216677E-002   4.3757961463282841E-003   6.3571814375932401E-002
  -1.0270793876747222E-002   4.0545942856247755E-003   6.3577458924304081E-002
  -9.9526862212777657E-003   3.7671245352563516E-003   6.3744690883930935E-002
  -9.6345785658083164E-003   3.5133868952228753E-003   6.4073510254812949E-002
  -1.6126961672783293E-002   7.0960952241887615E-003   6.1211252046574002E-002
  -1.5645999819062593E-002   6.5636942681544866E-003   6.1254442569995390E-002
  -1.5165037965341889E-002   6.0818914749676857E-003   6.1461754078664277E-002
  -1.4684076111621184E-002   5.6506868446281897E-003   6.1833186572580398E-002
  -1.4203114257900485E-002   5.2700803771359855E-003   6.2368740051743948E-002
  -2.1191212695162921E-002   9.4614603310106404E-003   5.8508846843080442E-002
  -2.0544863069198737E-002   8.7515923899809389E-003   5.8768036805319057E-002
  -1.9898513443234560E-002   8.1091886643106514E-003   5.9193881326797176E-002
  -1.9252163817270372E-002   7.5342491540002776E-003   5.9786380407514939E-002
  -1.8605814191306191E-002   7.0267738590492068E-003   6.0545534047472260E-002
   9.4435313735541371E-011  -6.8603511760301217E-011   6.7127743257343331E-002
   7.6145745958600131E-011  -5.1828819014332339E-011   6.6599377011204108E-002
   5.7856181651105842E-011  -3.6583069906725996E-011   6.6351543419911008E-002
   3.9566613874164602E-011  -2.2866430970935880E-011   6.6384242483464057E-002
   2.1277049566670314E-011  -1.0679068740415687E-011   6.6697474201863283E-002
  -4.9002071150297186E-003   1.7566934133097512E-003   6.5659844656679400E-002
  -4.6364561483758105E-003   1.6415450475445459E-003   6.5283819916457791E-002
  -4.3727051817219094E-003   1.5329715175760872E-003   6.5154764491276773E-002
  -4.1089542150679979E-003   1.4309728234040836E-003   6.5272678381136789E-002
  -3.8452032484141002E-003   1.3355489650286323E-003   6.5637561586037341E-002
  -9.6345785658083164E-003   3.5133868952228753E-003   6.4073510254812949E-002
  -9.1406399540162626E-003   3.2830901469179385E-003   6.3856401857834422E-002
  -8.6467013422242070E-003   3.0659430717353553E-003   6.3852699436091204E-002
  -8.1527627304321532E-003   2.8619456696746537E-003   6.4062402989583628E-002
  -7.6588241186400993E-003   2.6710979407362501E-003   6.4485512518311403E-002
  -1.4203114257900485E-002   5.2700803771359855E-003   6.2368740051743948E-002
  -1.3512551340775593E-002   4.9246352462913173E-003   6.2317122835333999E-002
  -1.2821988423650706E-002   4.5989146258945957E-003   6.2445348254354271E-002
  -1.2131425506525817E-002   4.2929185159453070E-003   6.2753416308804724E-002
  -1.1440862589400929E-002   4.0066469164439095E-003   6.3241326998685371E-002
  -1.8605814191306191E-002   7.0267738590492068E-003   6.0545534047472260E-002
  -1.7752190308653798E-002   6.5661803456646683E-003   6.0665982848956801E-002
  -1.6898566426001408E-002   6.1318861800537389E-003   6.0932710946065977E-002
  -1.6044942543349025E-002   5.7238913622157835E-003   6.1345718338800106E-002
  -1.5191318660696632E-002   5.3421958921515689E-003   6.1905005027159010E-002
   2.1277049566670314E-011  -1.0679068740415687E-011   6.6697474201863283E-002
   1.3184377201103104E-011  -8.9467322439418240E-013   6.6614956805624737E-002
   5.0917048355358929E-012   5.6123578007216679E-012   6.6773055997420699E-002
  -3.0009657953078417E-012   8.8430825162522098E-012   6.7171771777251518E-002
  -1.1093639895598528E-011   8.7965190687100403E-012   6.7811104145116818E-002
  -3.8452032484141002E-003   1.3355489650286323E-003   6.5637561586037341E-002
  -3.6091451465148170E-003   1.2366032320193787E-003   6.5575258817050869E-002
  -3.3730870446155338E-003   1.1240389139464402E-003   6.5744455680013608E-002
  -3.1370289427162489E-003   9.9785601080979586E-004   6.6145152174925601E-002
  -2.9009708408169743E-003   8.5805452260923065E-004   6.6777348301786887E-002
  -7.6588241186400993E-003   2.6710979407362501E-003   6.4485512518311403E-002
  -7.1958248628342424E-003   2.4732064649336249E-003   6.4429805794790213E-002
  -6.7328256070283837E-003   2.2480778222801825E-003   6.4596481747132728E-002
  -6.2698263512225329E-003   1.9957120127763409E-003   6.4985540375339199E-002
  -5.8068270954166820E-003   1.7161090364218312E-003   6.5596981679409527E-002
  -1.1440862589400929E-002   4.0066469164439095E-003   6.3241326998685371E-002
  -1.0760039135773893E-002   3.7098096978478295E-003   6.3178597738842462E-002
  -1.0079215682146852E-002   3.3721167306140949E-003   6.3329134198778086E-002
  -9.3983922285198040E-003   2.9935680147429146E-003   6.3692936378492174E-002
  -8.7175687748927682E-003   2.5741635502344318E-003   6.4270004277984932E-002
  -1.5191318660696632E-002   5.3421958921515689E-003   6.1905005027159010E-002
  -1.4301787965333781E-002   4.9464129307618676E-003   6.1821634649207868E-002
  -1.3412257269970935E-002   4.4961556389479240E-003   6.1942413034949739E-002
  -1.2522726574608086E-002   3.9914240167095785E-003   6.2267340184384651E-002
  -1.1633195879245231E-002   3.4322180640471434E-003   6.2796416097512853E-002
  -1.1093639895598528E-011   8.7965190687100403E-012   6.7811104145116818E-002
  -9.1476964891867851E-012   7.2121197902674794E-012   6.7718865657449778E-002
  -7.2017426744341861E-012   5.8288651683113812E-012   6.7900016762942772E-002
  -5.2557940638520151E-012   4.6473311310357701E-012   6.8354557461596077E-002
  -3.3098454532698440E-012   3.6668446057319670E-012   6.9082487753409527E-002
  -2.9009708408169743E-003   8.5805452260923065E-004   6.6777348301786887E-002
  -2.6356852914744822E-003   7.2252927976668158E-004   6.6683205881470475E-002
  -2.3703997421319865E-003   6.0917511270389135E-004   6.6846244962787071E-002
  -2.1051141927894944E-003   5.1799202142181061E-004   6.7266465545736454E-002
  -1.8398286434470126E-003   4.4898000591908627E-004   6.7943867630318844E-002
  -5.8068270954166820E-003   1.7161090364218312E-003   6.5596981679409527E-002
  -5.2924640902048715E-003   1.4450585523212989E-003   6.5523106402022524E-002
  -4.7781010849930593E-003   1.2183502195792645E-003   6.5690204534741128E-002
  -4.2637380797812489E-003   1.0359840381960160E-003   6.6098276077565465E-002
  -3.7493750745694367E-003   8.9796000817121691E-004   6.6747321030495632E-002
  -8.7175687748927682E-003   2.5741635502344318E-003   6.4270004277984932E-002
  -7.9703364053388681E-003   2.1675878248758329E-003   6.4238567219105785E-002
  -7.2231040357849654E-003   1.8275253264544086E-003   6.4431895478805110E-002
  -6.4758716662310584E-003   1.5539760549701364E-003   6.4849989057082946E-002
  -5.7286392966771635E-003   1.3469400104232920E-003   6.5492847953939115E-002
  -1.1633195879245231E-002   3.4322180640471434E-003   6.2796416097512853E-002
  -1.0669302236876468E-002   2.8901170974304224E-003   6.2829588332720343E-002
  -9.7054085945077022E-003   2.4367004333295805E-003   6.3071317794978876E-002
  -8.7415149521389377E-003   2.0719680717447911E-003   6.3521604484289063E-002
  -7.7776213097701732E-003   1.7959200126754782E-003   6.4180448400649959E-002
  -3.3098454532698440E-012   3.6668446057319670E-012   6.9082487753409527E-002
  -2.7597923946132141E-012   2.8618218905762660E-012   6.9007218379368851E-002
  -2.2097289276157284E-012   2.2067625504718080E-012   6.9126761554192617E-002
  -1.6596706647886705E-012   1.7010490238611453E-012   6.9441117277880604E-002
  -1.1096124019616127E-012   1.3451462166358397E-012   6.9950285550432700E-002
  -1.8398286434470126E-003   4.4898000591908627E-004   6.7943867630318844E-002
  -1.6367203299202729E-003   4.0378231209114990E-004   6.7819905013264792E-002
  -1.4336120163935279E-003   3.8404218583221184E-004   6.7907346473299823E-002
  -1.2305037028667917E-003   3.8975962714213330E-004   6.8206192010424105E-002
  -1.0273953893400432E-003   4.2093463602133063E-004   6.8716441624637303E-002
  -3.7493750745694367E-003   8.9796000817121691E-004   6.6747321030495632E-002
  -3.3265669198411126E-003   8.0756462131997830E-004   6.6600122737847517E-002
  -2.9037587651127737E-003   7.6808436945734193E-004   6.6680920050513418E-002
  -2.4809506103844500E-003   7.7951925258311003E-004   6.6989712968493209E-002
  -2.0581424556561107E-003   8.4186927069740403E-004   6.7526501491787488E-002
  -5.7286392966771635E-003   1.3469400104232920E-003   6.5492847953939115E-002
  -5.0695397725223201E-003   1.2113469305490010E-003   6.5347871553116471E-002
  -4.4104402483674714E-003   1.1521265530825206E-003   6.5447482285832720E-002
  -3.7513407242126219E-003   1.1692788780241405E-003   6.5791680152087820E-002
  -3.0922412000577789E-003   1.2628039053734774E-003   6.6380465151882145E-002
  -7.7776213097701732E-003   1.7959200126754782E-003   6.4180448400649959E-002
  -6.8656388879638902E-003   1.6151292397780237E-003   6.4063151459072154E-002
  -5.9536564661576141E-003   1.5361687367078380E-003   6.4207033179258077E-002
  -5.0416740443513328E-003   1.5590385034652057E-003   6.4612093561207951E-002
  -4.1296916225450550E-003   1.6837385400496618E-003   6.5278332604921774E-002
  -1.1096124019616127E-012   1.3451462166358397E-012   6.9950285550432700E-002
  -9.3276081303272917E-013   1.1017853296380054E-012   6.8611625692394429E-002
  -7.5591963244470151E-013   9.3494656461245995E-013   6.7421499485859182E-002
  -5.7906977823929395E-013   8.4413726009202605E-013   6.6379906930826932E-002
  -4.0222686292779031E-013   8.2922557709252942E-013   6.5486848027297317E-002
  -1.0273953893400432E-003   4.2093463602133063E-004   6.8716441624637303E-002
  -8.8311601708171428E-004   4.9409114947168709E-004   6.7399428529916927E-002
  -7.3883664482336971E-004   6.2575310449486388E-004   6.6222440527856419E-002
  -5.9455727256503381E-004   8.1592050109086101E-004   6.5185477618456084E-002
  -4.5027790030669618E-004   1.0645933392605667E-003   6.4288539801715783E-002
  -2.0581424556561107E-003   8.4186927069740403E-004   6.7526501491787488E-002
  -1.7780922701591158E-003   9.8818229784103373E-004   6.6289640601881222E-002
  -1.4980420846621226E-003   1.2515062080544342E-003   6.5184296245792403E-002
  -1.2179918991651289E-003   1.6318410013380254E-003   6.4210468423520711E-002
  -9.3794171366812056E-004   2.1291866776916302E-003   6.3368157135066244E-002
  -3.0922412000577789E-003   1.2628039053734774E-003   6.6380465151882145E-002
  -2.6849287601649801E-003   1.4822734462104359E-003   6.5282261908287439E-002
  -2.2776163202721609E-003   1.8772593116141781E-003   6.4307066639667371E-002
  -1.8703038803793556E-003   2.4477615015849694E-003   6.3454879346021439E-002
  -1.4629914404865429E-003   3.1937800161226104E-003   6.2725700027350201E-002
  -4.1296916225450550E-003   1.6837385400496618E-003   6.5278332604921774E-002
  -3.6036254870992837E-003   1.9763645945802266E-003   6.4377292449135370E-002
  -3.0775593516535020E-003   2.5030124151738664E-003   6.3590751709480753E-002
  -2.5514932162077168E-003   3.2636820018319551E-003   6.2918710385957755E-002
  -2.0254270807619490E-003   4.2583733545540348E-003   6.2361168478566098E-002
  -4.0222686292779031E-013   8.2922557709252942E-013   6.5486848027297317E-002
  -3.8061914731102320E-013   8.7441165419477329E-013   6.0765077808582868E-002
  -3.5902184003511195E-013   9.6375685210148276E-013   5.5920528388054558E-002
  -3.3740718552444093E-013   1.0972542319187539E-012   5.0953199765712803E-002
  -3.1581681714243359E-013   1.2745360322696797E-012   4.5863091941557244E-002
  -4.5027790030669618E-004   1.0645933392605667E-003   6.4288539801715783E-002
  -5.5813112853308686E-004   1.3912626859653998E-003   5.9593053430880893E-002
  -6.6598435675948447E-004   1.8154196081683893E-003   5.4804639805363708E-002
  -7.7383758498588643E-004   2.3370641058701042E-003   4.9923298925164172E-002
  -8.8169081321227277E-004   2.9561961790696145E-003   4.4949030790282452E-002
  -9.3794171366812056E-004   2.1291866776916302E-003   6.3368157135066244E-002
  -1.1237962230112222E-003   2.7825253710562770E-003   5.8796442187565578E-002
  -1.3096507323543264E-003   3.6308392153730357E-003   5.4161651932513863E-002
  -1.4955052416974089E-003   4.6741282106427910E-003   4.9463786369910841E-002
  -1.6813597510405183E-003   5.9123923568644710E-003   4.4702845499757338E-002
  -1.4629914404865429E-003   3.1937800161226104E-003   6.2725700027350201E-002
  -1.6969952838150437E-003   4.1737880561472096E-003   5.8375244078637090E-002
  -1.9309991271435243E-003   5.4462588225782302E-003   5.3991564769504646E-002
  -2.1650029704720006E-003   7.0111923154155594E-003   4.9574662099952253E-002
  -2.3990068138005057E-003   8.8685885346594384E-003   4.5124536069980459E-002
  -2.0254270807619490E-003   4.2583733545540348E-003   6.2361168478566098E-002
  -2.2777283109445129E-003   5.5650507412382533E-003   5.8329459104095482E-002
  -2.5300295411270907E-003   7.2616784297824810E-003   5.4294378316336656E-002
  -2.7823307713096702E-003   9.3482564201884250E-003   5.0255926115289451E-002
  -3.0346320014922323E-003   1.1824784712454406E-002   4.6214102500953036E-002
  -2.3785858951989952E-002   2.3505077158915810E-002   4.6719435040313395E-002
  -2.3137197387783193E-002   1.7918694833239573E-002   5.0192901776617060E-002
  -2.2488535823576440E-002   1.3715964586696633E-002   5.3315625989179383E-002
  -2.1839874259369681E-002   1.0896886419287134E-002   5.6087607678000473E-002
  -2.1191212695162921E-002   9.4614603310106404E-003   5.8508846843080442E-002
  -2.8025710894368075E-002   1.6696490304112910E-002   4.4371403952361249E-002
  -2.7603423551612508E-002   1.3971569874447393E-002   4.7660512632674568E-002
  -2.7181136208856954E-002   1.1871231634376839E-002   5.0847615393826887E-002
  -2.6758848866101401E-002   1.0395475583901054E-002   5.3932712235817824E-002
  -2.6336561523345840E-002   9.5443017230201210E-003   5.6915803158647721E-002
  -3.3578406329390451E-002   9.8879034493100093E-003   4.5264369705189017E-002
  -3.3133756603506072E-002   1.0024444915655226E-002   4.7610050439973850E-002
  -3.2689106877621679E-002   1.0026498682056892E-002   5.0102461860177430E-002
  -3.2244457151737321E-002   9.8940647485150253E-003   5.2741603965799959E-002
  -3.1799807425852963E-002   9.6271431150295739E-003   5.5527476756841221E-002
  -4.0443945257057176E-002   3.0793165945070811E-003   4.9398332298796789E-002
  -3.9728196543463920E-002   6.0773199568631628E-003   5.0041515198514422E-002
  -3.9012447829870692E-002   8.1817657297370491E-003   5.1080165388231125E-002
  -3.8296699116277443E-002   9.3926539131289986E-003   5.2514282867946543E-002
  -3.7580950402684173E-002   9.7099845070389573E-003   5.4343867637660928E-002
  -4.8622327677368155E-002  -3.7292702602957917E-003   5.6773291733184461E-002
  -4.7386743371485990E-002   2.1301949980708779E-003   5.4954906908296741E-002
  -4.6151159065603867E-002   6.3370327774171231E-003   5.3780725977987831E-002
  -4.4915574759721751E-002   8.8912430777430065E-003   5.3250748942257869E-002
  -4.3679990453839607E-002   9.7928258990484518E-003   5.3364975801106829E-002
  -2.1191212695162921E-002   9.4614603310106404E-003   5.8508846843080442E-002
  -2.0544863069198737E-002   8.7515923899809389E-003   5.8768036805319057E-002
  -1.9898513443234560E-002   8.1091886643106514E-003   5.9193881326797176E-002
  -1.9252163817270372E-002   7.5342491540002776E-003   5.9786380407514939E-002
  -1.8605814191306191E-002   7.0267738590492068E-003   6.0545534047472260E-002
  -2.6336561523345840E-002   9.5443017230201210E-003   5.6915803158647721E-002
  -2.5504770861172851E-002   9.0193244097775960E-003   5.6923520084052104E-002
  -2.4672980198999824E-002   8.5221580022167565E-003   5.7135464522634502E-002
  -2.3841189536826825E-002   8.0528025003377343E-003   5.7551636474394964E-002
  -2.3009398874653777E-002   7.6112579041405226E-003   5.8172035939333538E-002
  -3.1799807425852963E-002   9.6271431150295739E-003   5.5527476756841221E-002
  -3.0745002773532645E-002   9.2870564295742947E-003   5.5244067335733490E-002
  -2.9690198121212305E-002   8.9351273401228615E-003   5.5202458381742356E-002
  -2.8635393468892014E-002   8.5713558466753575E-003   5.5402649894867803E-002
  -2.7580588816571688E-002   8.1957419492318107E-003   5.5844641875109666E-002
  -3.7580950402684173E-002   9.7099845070389573E-003   5.4343867637660928E-002
  -3.6265558806278089E-002   9.5547884493709448E-003   5.3729678560363335E-002
  -3.4950167209871978E-002   9.3480966780289942E-003   5.3394862904120675E-002
  -3.3634775613465881E-002   9.0899091930130085E-003   5.3339420668933039E-002
  -3.2319384017059777E-002   8.7802259943231958E-003   5.3563351854800337E-002
  -4.3679990453839607E-002   9.7928258990484518E-003   5.3364975801106829E-002
  -4.2066438959409216E-002   9.8225204691676782E-003   5.2380353757941422E-002
  -4.0452887464978868E-002   9.7610660159350854E-003   5.1712678089769454E-002
  -3.8839335970548519E-002   9.6084625393506630E-003   5.1361948796591048E-002
  -3.7225784476118129E-002   9.3647100394144700E-003   5.1328165878405996E-002
  -1.8605814191306191E-002   7.0267738590492068E-003   6.0545534047472260E-002
  -1.7752190308653798E-002   6.5661803456646683E-003   6.0665982848956801E-002
  -1.6898566426001408E-002   6.1318861800537389E-003   6.0932710946065977E-002
  -1.6044942543349025E-002   5.7238913622157835E-003   6.1345718338800106E-002
  -1.5191318660696632E-002   5.3421958921515689E-003   6.1905005027159010E-002
  -2.3009398874653777E-002   7.6112579041405226E-003   5.8172035939333538E-002
  -2.2001602156277930E-002   7.1877366531111486E-003   5.8150040588560131E-002
  -2.0993805437902045E-002   6.7724511867360004E-003   5.8290111613608794E-002
  -1.9986008719526192E-002   6.3654015050146132E-003   5.8592249014479715E-002
  -1.8978212001150314E-002   5.9665876079477709E-003   5.9056452791172609E-002
  -2.7580588816571688E-002   8.1957419492318107E-003   5.5844641875109666E-002
  -2.6402832182275026E-002   7.8092929605575873E-003   5.5662138808959052E-002
  -2.5225075547978371E-002   7.4130161934182551E-003   5.5657489198827896E-002
  -2.4047318913681757E-002   7.0069116478136632E-003   5.5830693044716106E-002
  -2.2869562279385081E-002   6.5909793237438619E-003   5.6181750346623732E-002
  -3.2319384017059777E-002   8.7802259943231958E-003   5.3563351854800337E-002
  -3.0955880386645075E-002   8.4308492680040745E-003   5.3202277510153419E-002
  -2.9592376756230377E-002   8.0535812001004854E-003   5.3034843701723115E-002
  -2.8228873125815693E-002   7.6484217906124920E-003   5.3061050429509551E-002
  -2.6865369495400981E-002   7.2153710395400084E-003   5.3280897693512498E-002
  -3.7225784476118129E-002   9.3647100394144700E-003   5.1328165878405996E-002
  -3.5660746769388102E-002   9.0524055754505062E-003   5.0770456692143306E-002
  -3.4095709062658047E-002   8.6941462067827990E-003   5.0422175122294577E-002
  -3.2530671355928020E-002   8.2899319334113833E-003   5.0283321168859696E-002
  -3.0965633649197966E-002   7.8397627553360993E-003   5.0353894831839108E-002
  -1.5191318660696632E-002   5.3421958921515689E-003   6.1905005027159010E-002
  -1.4301787965333781E-002   4.9464129307618676E-003   6.1821634649207868E-002
  -1.3412257269970935E-002   4.4961556389479240E-003   6.1942413034949739E-002
  -1.2522726574608086E-002   3.9914240167095785E-003   6.2267340184384651E-002
  -1.1633195879245231E-002   3.4322180640471434E-003   6.2796416097512853E-002
  -1.8978212001150314E-002   5.9665876079477709E-003   5.9056452791172609E-002
  -1.7885348994311837E-002   5.5564072812986920E-003   5.8825087536101606E-002
  -1.6792485987473391E-002   5.1152583108316496E-003   5.8796238140288781E-002
  -1.5699622980634924E-002   4.6431406965464911E-003   5.8969904603733955E-002
  -1.4606759973796464E-002   4.1400544384433413E-003   5.9346086926437336E-002
  -2.2869562279385081E-002   6.5909793237438619E-003   5.6181750346623732E-002
  -2.1574999865506019E-002   6.1664016318356552E-003   5.5825895901039174E-002
  -2.0280437451626970E-002   5.7343609827155834E-003   5.5670924410277697E-002
  -1.8985875037747922E-002   5.2948573763835667E-003   5.5716835874339392E-002
  -1.7691312623868860E-002   4.8478908128396503E-003   5.5963630293224070E-002
  -2.6865369495400981E-002   7.2153710395400084E-003   5.3280897693512498E-002
  -2.5370740578916327E-002   6.7763959823724934E-003   5.2824059744020602E-002
  -2.3876111662431681E-002   6.3534636545993020E-003   5.2566471844916862E-002
  -2.2381482745947045E-002   5.9465740562205608E-003   5.2508133996201085E-002
  -2.0886853829462381E-002   5.5557271872360148E-003   5.2649046197873493E-002
  -3.0965633649197966E-002   7.8397627553360993E-003   5.0353894831839108E-002
  -2.9272571134542708E-002   7.3863903329093872E-003   4.9819579065045971E-002
  -2.7579508619887519E-002   6.9725663264831733E-003   4.9482880444205984E-002
  -2.5886446105232275E-002   6.5982907360575375E-003   4.9343798969318994E-002
  -2.4193383590577072E-002   6.2635635616322682E-003   4.9402334640385126E-002
  -1.1633195879245231E-002   3.4322180640471434E-003   6.2796416097512853E-002
  -1.0669302236876468E-002   2.8901170974304224E-003   6.2829588332720343E-002
  -9.7054085945077022E-003   2.4367004333295805E-003   6.3071317794978876E-002
  -8.7415149521389377E-003   2.0719680717447911E-003   6.3521604484289063E-002
  -7.7776213097701732E-003   1.7959200126754782E-003   6.4180448400649959E-002
  -1.4606759973796464E-002   4.1400544384433413E-003   5.9346086926437336E-002
  -1.3435084081883122E-002   3.6436917947830216E-003   5.9334045716226691E-002
  -1.2263408189969797E-002   3.1917450238268530E-003   5.9529011778054086E-002
  -1.1091732298056474E-002   2.7842141255743774E-003   5.9930985111919313E-002
  -9.9200564061431330E-003   2.4210991000257476E-003   6.0539965717822330E-002
  -1.7691312623868860E-002   4.8478908128396503E-003   5.5963630293224070E-002
  -1.6313404437424295E-002   4.3972664921358706E-003   5.5862107207783618E-002
  -1.4935496250979747E-002   3.9467896143241116E-003   5.5966041439367745E-002
  -1.3557588064535190E-002   3.4964601794041268E-003   5.6275432987976416E-002
  -1.2179679878090663E-002   3.0462781873760725E-003   5.6790281853609570E-002
  -2.0886853829462381E-002   5.5557271872360148E-003   5.2649046197873493E-002
  -1.9304263303499991E-002   5.1508411894887057E-003   5.2413772807391110E-002
  -1.7721672777537584E-002   4.7018342048215436E-003   5.2382406778919838E-002
  -1.6139082251575208E-002   4.2087062332339057E-003   5.2554948112459893E-002
  -1.4556491725612785E-002   3.6714572747262031E-003   5.2931396808011018E-002
  -2.4193383590577072E-002   6.2635635616322682E-003   4.9402334640385126E-002
  -2.2407660680110172E-002   5.9044158868413743E-003   4.8989042515048986E-002
  -2.0621937769643300E-002   5.4568787953186426E-003   4.8778107796710601E-002
  -1.8836214859176414E-002   4.9209522870635181E-003   4.8769530485369833E-002
  -1.7050491948709529E-002   4.2966363620766668E-003   4.8963310581027097E-002
  -7.7776213097701732E-003   1.7959200126754782E-003   6.4180448400649959E-002
  -6.8656388879638902E-003   1.6151292397780237E-003   6.4063151459072154E-002
  -5.9536564661576141E-003   1.5361687367078380E-003   6.4207033179258077E-002
  -5.0416740443513328E-003   1.5590385034652057E-003   6.4612093561207951E-002
  -4.1296916225450550E-003   1.6837385400496618E-003   6.5278332604921774E-002
  -9.9200564061431330E-003   2.4210991000257476E-003   6.0539965717822330E-002
  -8.7476082041293805E-003   2.1349131521400944E-003   6.0410403795338075E-002
  -7.5751600021156888E-003   1.9581694868764377E-003   6.0540594771504808E-002
  -6.4027118001019545E-003   1.8908681042349162E-003   6.0930538646322474E-002
  -5.2302635980882410E-003   1.9330090042151138E-003   6.1580235419791018E-002
  -1.2179679878090663E-002   3.0462781873760725E-003   5.6790281853609570E-002
  -1.0748191658982418E-002   2.6546970645023316E-003   5.6656066963013368E-002
  -9.3167034398741709E-003   2.3801702370451344E-003   5.6780179207955375E-002
  -7.8852152207659672E-003   2.2226977050046233E-003   5.7162618588435431E-002
  -6.4537270016577081E-003   2.1822794683806768E-003   5.7803385104453653E-002
  -1.4556491725612785E-002   3.6714572747262031E-003   5.2931396808011018E-002
  -1.2867389252522933E-002   3.1744809768644855E-003   5.2800140962097772E-002
  -1.1178286779433097E-002   2.8021709872139491E-003   5.2925786488609808E-002
  -9.4891843063432523E-003   2.5545273057745541E-003   5.3308333387546834E-002
  -7.8000818332534076E-003   2.4315499325459622E-003   5.3947781658909247E-002
  -1.7050491948709529E-002   4.2966363620766668E-003   4.8963310581027097E-002
  -1.5105200984750988E-002   3.6942648892267504E-003   4.8842625792591465E-002
  -1.3159910020792434E-002   3.2241717373824585E-003   4.8977416613467883E-002
  -1.1214619056833887E-002   2.8863569065441033E-003   4.9367683043656574E-002
  -9.2693280928753397E-003   2.6808203967116917E-003   5.0013425083157537E-002
  -4.1296916225450550E-003   1.6837385400496618E-003   6.5278332604921774E-002
  -3.6036254870992837E-003   1.9763645945802266E-003   6.4377292449135370E-002
  -3.0775593516535020E-003   2.5030124151738664E-003   6.3590751709480753E-002
  -2.5514932162077168E-003   3.2636820018319551E-003   6.2918710385957755E-002
  -2.0254270807619490E-003   4.2583733545540348E-003   6.2361168478566098E-002
  -5.2302635980882410E-003   1.9330090042151138E-003   6.1580235419791018E-002
  -4.5626551830744953E-003   2.1928798759446311E-003   6.0863366412885256E-002
  -3.8950467680607687E-003   2.7787684085501807E-003   6.0315082548983684E-002
  -3.2274383530470395E-003   3.6906746020322900E-003   5.9935383828086483E-002
  -2.5598299380332999E-003   4.9285984563907093E-003   5.9724270250193778E-002
  -6.4537270016577081E-003   2.1822794683806768E-003   5.7803385104453653E-002
  -5.5904905802031668E-003   2.4093951573093964E-003   5.7362683141240156E-002
  -4.7272541587486117E-003   3.0545244019265227E-003   5.7144652047904171E-002
  -3.8640177372940626E-003   4.1176672022325209E-003   5.7149291824445211E-002
  -3.0007813158395170E-003   5.5988235582271617E-003   5.7376602470863569E-002
  -7.8000818332534076E-003   2.4315499325459622E-003   5.3947781658909247E-002
  -6.6871316784852244E-003   2.6259104386740922E-003   5.3875242634200668E-002
  -5.5741815237170568E-003   3.3302803953031840E-003   5.4079460206242567E-002
  -4.4612313689488597E-003   4.5446598024331368E-003   5.4560434375034245E-002
  -3.3482812141807064E-003   6.2690486600636142E-003   5.5318165140576150E-002
  -9.2693280928753397E-003   2.6808203967116917E-003   5.0013425083157537E-002
  -7.8525784779206881E-003   2.8424257200386216E-003   5.0401044891766777E-002
  -6.4358288629660504E-003   3.6060363886794289E-003   5.1119507023998534E-002
  -5.0190792480114127E-003   4.9716524026330935E-003   5.2168811479853389E-002
  -3.6023296330567611E-003   6.9392737619003997E-003   5.3548958259331259E-002
  -2.0254270807619490E-003   4.2583733545540348E-003   6.2361168478566098E-002
  -2.2777283109445129E-003   5.5650507412382533E-003   5.8329459104095482E-002
  -2.5300295411270907E-003   7.2616784297824810E-003   5.4294378316336656E-002
  -2.7823307713096702E-003   9.3482564201884250E-003   5.0255926115289451E-002
  -3.0346320014922323E-003   1.1824784712454406E-002   4.6214102500953036E-002
  -2.5598299380332999E-003   4.9285984563907093E-003   5.9724270250193778E-002
  -2.8332912297329947E-003   6.5554043727148459E-003   5.6189072089417480E-002
  -3.1067525214326704E-003   8.6339567520933858E-003   5.2614925218895436E-002
  -3.3802138131323401E-003   1.1164255594528480E-002   4.9001829638627481E-002
  -3.6536751048320618E-003   1.4146300900018227E-002   4.5349785348614002E-002
  -3.0007813158395170E-003   5.5988235582271617E-003   5.7376602470863569E-002
  -3.3309799655137067E-003   7.5457580041911609E-003   5.4399711684976482E-002
  -3.6611786151878956E-003   1.0006235074404651E-002   5.1348294892886059E-002
  -3.9913772648620983E-003   1.2980254768868486E-002   4.8222352094592413E-002
  -4.3215759145362742E-003   1.6467817087582270E-002   4.5021883290095710E-002
  -3.3482812141807064E-003   6.2690486600636142E-003   5.5318165140576150E-002
  -3.7707945182867404E-003   8.5361116356672817E-003   5.2961377890772612E-002
  -4.1933078223927323E-003   1.1378513396715625E-002   5.0494487338308518E-002
  -4.6158211264987255E-003   1.4796253943208961E-002   4.7917493483184095E-002
  -5.0383344306047595E-003   1.8789333275146203E-002   4.5230396325398770E-002
  -3.6023296330567611E-003   6.9392737619003997E-003   5.3548958259331259E-002
  -4.1527348880520121E-003   9.5264652671438466E-003   5.1874070706805941E-002
  -4.7031401430472491E-003   1.2750791719026405E-002   5.0053502555162888E-002
  -5.2535453980424862E-003   1.6612253117548721E-002   4.8087253804402180E-002
  -5.8039506530377372E-003   2.1110849462710135E-002   4.5975324454523125E-002
  -4.8622327677368155E-002  -3.7292702602957917E-003   5.6773291733184461E-002
  -4.7386743371485990E-002   2.1301949980708779E-003   5.4954906908296741E-002
  -4.6151159065603867E-002   6.3370327774171231E-003   5.3780725977987831E-002
  -4.4915574759721751E-002   8.8912430777430065E-003   5.3250748942257869E-002
  -4.3679990453839607E-002   9.7928258990484518E-003   5.3364975801106829E-002
  -5.6788736804533932E-002   5.2607866933900294E-003   5.2140194693547026E-002
  -5.5026425294552719E-002   8.6301234428814155E-003   5.0210955857841466E-002
  -5.3264113784571555E-002   1.0991752872848315E-002   4.8690967535755331E-002
  -5.1501802274590378E-002   1.2345674983290394E-002   4.7580229727288231E-002
  -4.9739490764609179E-002   1.2691889774207821E-002   4.6878742432440473E-002
  -6.3618355852764791E-002   1.4250843647075850E-002   4.4694509065286075E-002
  -6.1564270519644339E-002   1.5130051887692092E-002   4.3299336378258974E-002
  -5.9510185186523845E-002   1.5646472968279299E-002   4.2078460823891148E-002
  -5.7456099853403345E-002   1.5800106888837696E-002   4.1031882402182827E-002
  -5.5402014520282872E-002   1.5590953649367217E-002   4.0159601113133866E-002
  -6.9111184822060967E-002   2.3240900600761644E-002   3.4436234848402338E-002
  -6.7000279046760855E-002   2.1629980332502616E-002   3.4220048469548930E-002
  -6.4889373271460896E-002   2.0301193063710359E-002   3.3943205842395380E-002
  -6.2778467496160797E-002   1.9254538794385094E-002   3.3605706966941505E-002
  -6.0667561720860769E-002   1.8490017524526683E-002   3.3207551843187327E-002
  -7.3267223712422225E-002   3.2230957554447492E-002   2.1365372042895181E-002
  -7.1334450875902344E-002   2.8129908777313251E-002   2.2973092131711725E-002
  -6.9401678039382492E-002   2.4955913159141446E-002   2.4285202591268040E-002
  -6.7468905202862653E-002   2.2708970699932420E-002   2.5301703421564459E-002
  -6.5536132366342786E-002   2.1389081399686038E-002   2.6022594622600648E-002
  -4.3679990453839607E-002   9.7928258990484518E-003   5.3364975801106829E-002
  -4.2066438959409216E-002   9.8225204691676782E-003   5.2380353757941422E-002
  -4.0452887464978868E-002   9.7610660159350854E-003   5.1712678089769454E-002
  -3.8839335970548519E-002   9.6084625393506630E-003   5.1361948796591048E-002
  -3.7225784476118129E-002   9.3647100394144700E-003   5.1328165878405996E-002
  -4.9739490764609179E-002   1.2691889774207821E-002   4.6878742432440473E-002
  -4.7843627721119941E-002   1.2498289059046735E-002   4.6174925760443908E-002
  -4.5947764677630676E-002   1.2232764651252628E-002   4.5718785811571627E-002
  -4.4051901634141438E-002   1.1895316550826211E-002   4.5510322585823611E-002
  -4.2156038590652173E-002   1.1485944757766986E-002   4.5549536083199837E-002
  -5.5402014520282872E-002   1.5590953649367217E-002   4.0159601113133866E-002
  -5.3293109579604023E-002   1.5174057648925557E-002   3.9755815143025508E-002
  -5.1184204638925181E-002   1.4704463286570331E-002   3.9530436244172150E-002
  -4.9075299698246269E-002   1.4182170562301645E-002   3.9483464416573785E-002
  -4.6966394757567489E-002   1.3607179476119419E-002   3.9614899660230379E-002
  -6.0667561720860769E-002   1.8490017524526683E-002   3.3207551843187327E-002
  -5.8414884534861565E-002   1.7849826238804496E-002   3.3123021905686278E-002
  -5.6162207348862334E-002   1.7176161921887898E-002   3.3147629387570876E-002
  -5.3909530162863109E-002   1.6469024573777136E-002   3.3281374288841224E-002
  -5.1656852976863885E-002   1.5728414194471921E-002   3.3524256609497323E-002
  -6.5536132366342786E-002   2.1389081399686038E-002   2.6022594622600648E-002
  -6.3208952586892464E-002   2.0525594828683408E-002   2.6276546048426108E-002
  -6.0881772807442128E-002   1.9647860557205590E-002   2.6570365241767868E-002
  -5.8554593027991812E-002   1.8755878585252465E-002   2.6904052202626191E-002
  -5.6227413248541469E-002   1.7849648912824367E-002   2.7277606931000953E-002
  -3.7225784476118129E-002   9.3647100394144700E-003   5.1328165878405996E-002
  -3.5660746769388102E-002   9.0524055754505062E-003   5.0770456692143306E-002
  -3.4095709062658047E-002   8.6941462067827990E-003   5.0422175122294577E-002
  -3.2530671355928020E-002   8.2899319334113833E-003   5.0283321168859696E-002
  -3.0965633649197966E-002   7.8397627553360993E-003   5.0353894831839108E-002
  -4.2156038590652173E-002   1.1485944757766986E-002   4.5549536083199837E-002
  -4.0387048842635852E-002   1.1030328825370916E-002   4.5072989524056001E-002
  -3.8618059094619531E-002   1.0554148306933991E-002   4.4794919431070584E-002
  -3.6849069346603196E-002   1.0057403202455927E-002   4.4715325804243811E-002
  -3.5080079598586847E-002   9.5400935119367425E-003   4.4834208643575846E-002
  -4.6966394757567489E-002   1.3607179476119419E-002   3.9614899660230379E-002
  -4.5004404118520205E-002   1.3008252075291382E-002   3.9244906046867908E-002
  -4.3042413479472949E-002   1.2414150407085003E-002   3.9062437749408666E-002
  -4.1080422840425707E-002   1.1824874471500411E-002   3.9067494767852678E-002
  -3.9118432201378409E-002   1.1240424268537524E-002   3.9260077102199878E-002
  -5.1656852976863885E-002   1.5728414194471921E-002   3.3524256609497323E-002
  -4.9512812597041087E-002   1.4986175325211876E-002   3.3286206260579154E-002
  -4.7368772217218295E-002   1.4274152507236022E-002   3.3224730077308806E-002
  -4.5224731837395490E-002   1.3592345740544924E-002   3.3339828059686279E-002
  -4.3080691457572699E-002   1.2940755025138237E-002   3.3631500207711718E-002
  -5.6227413248541469E-002   1.7849648912824367E-002   2.7277606931000953E-002
  -5.3912274278198530E-002   1.6964098575132230E-002   2.7196890165189669E-002
  -5.1597135307855563E-002   1.6134154607387208E-002   2.7281796414771048E-002
  -4.9281996337512624E-002   1.5359817009589521E-002   2.7532325679744812E-002
  -4.6966857367169657E-002   1.4641085781738949E-002   2.7948477960111018E-002
  -3.0965633649197966E-002   7.8397627553360993E-003   5.0353894831839108E-002
  -2.9272571134542708E-002   7.3863903329093872E-003   4.9819579065045971E-002
  -2.7579508619887519E-002   6.9725663264831733E-003   4.9482880444205984E-002
  -2.5886446105232275E-002   6.5982907360575375E-003   4.9343798969318994E-002
  -2.4193383590577072E-002   6.2635635616322682E-003   4.9402334640385126E-002
  -3.5080079598586847E-002   9.5400935119367425E-003   4.4834208643575846E-002
  -3.3197746875727026E-002   9.0173998958910095E-003   4.4392311861125550E-002
  -3.1315414152867205E-002   8.5045030148325762E-003   4.4131338349131355E-002
  -2.9433081430007356E-002   8.0014028687615951E-003   4.4051288107593400E-002
  -2.7550748707147563E-002   7.5080994576778304E-003   4.4152161136511603E-002
  -3.9118432201378409E-002   1.1240424268537524E-002   3.9260077102199878E-002
  -3.7063523145810899E-002   1.0648409458872660E-002   3.8880847623079279E-002
  -3.5008614090243362E-002   1.0036439703181986E-002   3.8665847538917907E-002
  -3.2953705034675859E-002   9.4045150014655434E-003   3.8615076849715893E-002
  -3.0898795979108315E-002   8.7526353537233370E-003   3.8728535555472843E-002
  -4.3080691457572699E-002   1.2940755025138237E-002   3.3631500207711718E-002
  -4.0869899944794445E-002   1.2279419021854407E-002   3.3285186350907624E-002
  -3.8659108432016143E-002   1.1568376391531503E-002   3.3086408013565827E-002
  -3.6448316919237826E-002   1.0807627134169603E-002   3.3035165195686222E-002
  -3.4237525406459579E-002   9.9971712497688159E-003   3.3131457897268971E-002
  -4.6966857367169657E-002   1.4641085781738949E-002   2.7948477960111018E-002
  -4.4616877272677546E-002   1.3910428584836099E-002   2.7605328044610189E-002
  -4.2266897178185409E-002   1.3100313079880882E-002   2.7393019773074845E-002
  -3.9916917083693257E-002   1.2210739266873570E-002   2.7311553145504680E-002
  -3.7566936989201161E-002   1.1241707145814295E-002   2.7360928161899944E-002
  -2.4193383590577072E-002   6.2635635616322682E-003   4.9402334640385126E-002
  -2.2407660680110172E-002   5.9044158868413743E-003   4.8989042515048986E-002
  -2.0621937769643300E-002   5.4568787953186426E-003   4.8778107796710601E-002
  -1.8836214859176414E-002   4.9209522870635181E-003   4.8769530485369833E-002
  -1.7050491948709529E-002   4.2966363620766668E-003   4.8963310581027097E-002
  -2.7550748707147563E-002   7.5080994576778304E-003   4.4152161136511603E-002
  -2.5576344104792349E-002   6.9983954769449741E-003   4.3669017495166829E-002
  -2.3601939502437108E-002   6.4460936219267739E-003   4.3360879830600774E-002
  -2.1627534900081870E-002   5.8511938926233825E-003   4.3227748142813618E-002
  -1.9653130297726709E-002   5.2136962890343419E-003   4.3269622431805155E-002
  -3.0898795979108315E-002   8.7526353537233370E-003   3.8728535555472843E-002
  -2.8763061115083751E-002   8.0923750670486572E-003   3.8221331940565845E-002
  -2.6627326251059250E-002   7.4353084485351273E-003   3.7861782872219002E-002
  -2.4491591387034693E-002   6.7814354981828029E-003   3.7649888350431870E-002
  -2.2355856523010177E-002   6.1307562159914619E-003   3.7585648375204478E-002
  -3.4237525406459579E-002   9.9971712497688159E-003   3.3131457897268971E-002
  -3.1967811710984652E-002   9.1863546571522986E-003   3.2645985851246645E-002
  -2.9698098015509711E-002   8.4245232751435362E-003   3.2280816921565092E-002
  -2.7428384320034783E-002   7.7116771037422233E-003   3.2035951108224360E-002
  -2.5158670624559849E-002   7.0478161429487485E-003   3.1911388411224699E-002
  -3.7566936989201161E-002   1.1241707145814295E-002   2.7360928161899944E-002
  -3.5190595892494819E-002   1.0280334247255829E-002   2.6942979227208785E-002
  -3.2814254795788506E-002   9.4137381017516397E-003   2.6617981978639238E-002
  -3.0437913699082150E-002   8.6419187093019281E-003   2.6385936416191774E-002
  -2.8061572602375850E-002   7.9648760699061460E-003   2.6246842539866089E-002
  -1.7050491948709529E-002   4.2966363620766668E-003   4.8963310581027097E-002
  -1.5105200984750988E-002   3.6942648892267504E-003   4.8842625792591465E-002
  -1.3159910020792434E-002   3.2241717373824585E-003   4.8977416613467883E-002
  -1.1214619056833887E-002   2.8863569065441033E-003   4.9367683043656574E-002
  -9.2693280928753397E-003   2.6808203967116917E-003   5.0013425083157537E-002
  -1.9653130297726709E-002   5.2136962890343419E-003   4.3269622431805155E-002
  -1.7491446004707985E-002   4.5948856241355696E-003   4.3115892523187427E-002
  -1.5329761711689135E-002   4.0560467109035103E-003   4.3139473663377864E-002
  -1.3168077418670369E-002   3.5971795493384071E-003   4.3340365852376439E-002
  -1.1006393125651562E-002   3.2182841394399198E-003   4.3718569090183401E-002
  -2.2355856523010177E-002   6.1307562159914619E-003   3.7585648375204478E-002
  -2.0055943461435188E-002   5.4955063590444442E-003   3.7346566777065299E-002
  -1.7756030399860259E-002   4.8879216844248813E-003   3.7206631667230608E-002
  -1.5456117338285355E-002   4.3080021921325963E-003   3.7165843045699733E-002
  -1.3156204276710395E-002   3.7557478821678147E-003   3.7224200912473110E-002
  -2.5158670624559849E-002   7.0478161429487485E-003   3.1911388411224699E-002
  -2.2798693354932786E-002   6.3961270939531245E-003   3.1534648554225171E-002
  -2.0438716085305668E-002   5.7197966579460371E-003   3.1178890625025765E-002
  -1.8078738815678629E-002   5.0188248349266208E-003   3.0844114623626677E-002
  -1.5718761546051483E-002   4.2932116248958208E-003   3.0530320550027447E-002
  -2.8061572602375850E-002   7.9648760699061460E-003   2.6246842539866089E-002
  -2.5719695685200716E-002   7.2967478288621379E-003   2.5680137854667162E-002
  -2.3377818768025527E-002   6.5516716314673595E-003   2.5056250536763802E-002
  -2.1035941850850351E-002   5.7296474777209921E-003   2.4375180586156647E-002
  -1.8694064933675203E-002   4.8306753676239378E-003   2.3636928002845781E-002
  -9.2693280928753397E-003   2.6808203967116917E-003   5.0013425083157537E-002
  -7.8525784779206881E-003   2.8424257200386216E-003   5.0401044891766777E-002
  -6.4358288629660504E-003   3.6060363886794289E-003   5.1119507023998534E-002
  -5.0190792480114127E-003   4.9716524026330935E-003   5.2168811479853389E-002
  -3.6023296330567611E-003   6.9392737619003997E-003   5.3548958259331259E-002
  -1.1006393125651562E-002   3.2182841394399198E-003   4.3718569090183401E-002
  -9.2408264361898557E-003   3.1531773321602508E-003   4.4286222930836505E-002
  -7.4752597467280316E-003   3.6356759784519632E-003   4.5220668596881203E-002
  -5.7096930572662456E-003   4.6657800783155914E-003   4.6521906088317175E-002
  -3.9441263678044458E-003   6.2434896317504762E-003   4.8189935405144713E-002
  -1.3156204276710395E-002   3.7557478821678147E-003   3.7224200912473110E-002
  -1.1005871010972900E-002   3.4639289442816301E-003   3.7917488893428747E-002
  -8.8555377452354013E-003   3.6653155682248167E-003   3.9013518201544348E-002
  -6.7052044794979303E-003   4.3599077539981969E-003   4.0512288836819975E-002
  -4.5548712137604627E-003   5.5477055016004972E-003   4.2413800799255413E-002
  -1.5718761546051483E-002   4.2932116248958208E-003   3.0530320550027447E-002
  -1.3147712202269832E-002   3.7746805564029678E-003   3.1294842779543482E-002
  -1.0576662858488130E-002   3.6949551579979548E-003   3.2498055837988107E-002
  -8.0056135147064528E-003   4.0540354296803045E-003   3.4139959725361074E-002
  -5.4345641709247754E-003   4.8519213714505460E-003   3.6220554441662646E-002
  -1.8694064933675203E-002   4.8306753676239378E-003   2.3636928002845781E-002
  -1.5666350010080765E-002   4.0854321685244721E-003   2.4418284589180383E-002
  -1.2638635086486272E-002   3.7245947477704544E-003   2.5674281506212204E-002
  -9.6109201628918062E-003   3.7481631053633072E-003   2.7404918753940993E-002
  -6.5832052392973406E-003   4.1561372413007058E-003   2.9610196332366612E-002
  -3.6023296330567611E-003   6.9392737619003997E-003   5.3548958259331259E-002
  -4.1527348880520121E-003   9.5264652671438466E-003   5.1874070706805941E-002
  -4.7031401430472491E-003   1.2750791719026405E-002   5.0053502555162888E-002
  -5.2535453980424862E-003   1.6612253117548721E-002   4.8087253804402180E-002
  -5.8039506530377372E-003   2.1110849462710135E-002   4.5975324454523125E-002
  -3.9441263678044458E-003   6.2434896317504762E-003   4.8189935405144713E-002
  -4.5364178825688384E-003   8.6799961381620050E-003   4.7253455780270792E-002
  -5.1287093973332309E-003   1.2286491096956315E-002   4.6378884234976714E-002
  -5.7210009120976443E-003   1.7062974508132787E-002   4.5566220769261562E-002
  -6.3132924268620716E-003   2.3009446371691888E-002   4.4815465383126751E-002
  -4.5548712137604627E-003   5.5477055016004972E-003   4.2413800799255413E-002
  -4.9814603095964527E-003   7.8335270091803855E-003   4.2748582607775837E-002
  -5.4080494054325016E-003   1.1822190474886099E-002   4.3352861174573445E-002
  -5.8346385012684673E-003   1.7513695898717294E-002   4.4226636499648107E-002
  -6.2612275971044851E-003   2.4908043280673642E-002   4.5369908583000051E-002
  -5.4345641709247754E-003   4.8519213714505460E-003   3.6220554441662646E-002
  -5.4878621691348967E-003   6.9870578801989880E-003   3.8359451189320597E-002
  -5.5411601673451584E-003   1.1357889852815835E-002   4.0975433373952957E-002
  -5.5944581655553906E-003   1.7964417289301468E-002   4.4068500995560055E-002
  -5.6477561637654841E-003   2.6806640189655395E-002   4.7638654054141638E-002
  -6.5832052392973406E-003   4.1561372413007058E-003   2.9610196332366612E-002
  -6.0556234611842119E-003   6.1405887512171464E-003   3.4086061524905231E-002
  -5.5280416830710555E-003   1.0893589230745487E-002   3.9246600833115874E-002
  -5.0004599049578435E-003   1.8415138679885736E-002   4.5091814256998292E-002
  -4.4728781268447149E-003   2.8705237098637149E-002   5.1621701796553232E-002
  -7.3267223712422225E-002   3.2230957554447492E-002   2.1365372042895181E-002
  -7.1334450875902344E-002   2.8129908777313251E-002   2.2973092131711725E-002
  -6.9401678039382492E-002   2.4955913159141446E-002   2.4285202591268040E-002
  -6.7468905202862653E-002   2.2708970699932420E-002   2.5301703421564459E-002
  -6.5536132366342786E-002   2.1389081399686038E-002   2.6022594622600648E-002
  -7.8132206874918814E-002   2.9017927588878445E-002   2.1184695244425233E-002
  -7.6231740941692272E-002   2.6575936781517651E-002   2.0996439945956485E-002
  -7.4331275008465647E-002   2.4597693835100909E-002   2.1039180470161067E-002
  -7.2430809075239147E-002   2.3083198749628164E-002   2.1312916817039215E-002
  -7.0530343142012550E-002   2.2032451525099195E-002   2.1817648986590749E-002
  -8.5751868660620609E-002   2.5804897623309286E-002   2.2894729064738412E-002
  -8.3357104178753846E-002   2.5021964785722162E-002   2.0447193080965598E-002
  -8.0962339696887098E-002   2.4239474511060385E-002   1.8757258371799715E-002
  -7.8567575215020335E-002   2.3457426799323850E-002   1.7824924937240798E-002
  -7.6172810733153573E-002   2.2675821650512323E-002   1.7650192777288937E-002
  -9.6126209069527804E-002   2.2591867657740156E-002   2.6495473503834618E-002
  -9.2710540587087317E-002   2.3467992789926784E-002   2.1325351536738896E-002
  -8.9294872104646830E-002   2.3881255187019855E-002   1.7439436296183757E-002
  -8.5879203622206399E-002   2.3831654849019591E-002   1.4837727782169180E-002
  -8.2463535139765898E-002   2.3319191775925466E-002   1.3520225994695139E-002
 -0.10925522810164034        1.9378837692171080E-002   3.1986928561713812E-002
 -0.10429205016669263        2.1914020794131184E-002   2.3630915313276712E-002
  -9.9328872231744914E-002   2.3523035862979491E-002   1.7085714243313677E-002
  -9.4365694296797198E-002   2.4205882898715350E-002   1.2351325351824635E-002
  -8.9402516361849482E-002   2.3962561901338608E-002   9.4277486388094633E-003
  -6.5536132366342786E-002   2.1389081399686038E-002   2.6022594622600648E-002
  -6.3208952586892464E-002   2.0525594828683408E-002   2.6276546048426108E-002
  -6.0881772807442128E-002   1.9647860557205590E-002   2.6570365241767868E-002
  -5.8554593027991812E-002   1.8755878585252465E-002   2.6904052202626191E-002
  -5.6227413248541469E-002   1.7849648912824367E-002   2.7277606931000953E-002
  -7.0530343142012550E-002   2.2032451525099195E-002   2.1817648986590749E-002
  -6.8102421541833824E-002   2.1208411317158685E-002   2.1471926886035567E-002
  -6.5674499941655029E-002   2.0374037281450888E-002   2.1287820659420725E-002
  -6.3246578341476317E-002   1.9529329417976016E-002   2.1265330306746412E-002
  -6.0818656741297522E-002   1.8674287726733851E-002   2.1404455828012314E-002
  -7.6172810733153573E-002   2.2675821650512323E-002   1.7650192777288937E-002
  -7.3522399205822528E-002   2.1891227805633948E-002   1.6708711023061304E-002
  -7.0871987678491441E-002   2.1100214005696234E-002   1.6050593249197727E-002
  -6.8221576151160410E-002   2.0302780250699343E-002   1.5675839455698549E-002
  -6.5571164623829323E-002   1.9498926540643391E-002   1.5584449642563669E-002
  -8.2463535139765898E-002   2.3319191775925466E-002   1.3520225994695139E-002
  -7.9468885578858645E-002   2.2574044294109107E-002   1.1986898459502765E-002
  -7.6474236017951377E-002   2.1826390729941639E-002   1.0858683011098833E-002
  -7.3479586457044110E-002   2.1076231083422672E-002   1.0135579649482897E-002
  -7.0484936896136829E-002   2.0323565354552736E-002   9.8175883746551215E-003
  -8.9402516361849482E-002   2.3962561901338608E-002   9.4277486388094633E-003
  -8.5941880660942105E-002   2.3256860782584377E-002   7.3064891953608102E-003
  -8.2481244960034783E-002   2.2552567454186795E-002   5.7120899451239548E-003
  -7.9020609259127461E-002   2.1849681916146259E-002   4.6445508880993414E-003
  -7.5559973558220084E-002   2.1148204168462303E-002   4.1038720242865256E-003
  -5.6227413248541469E-002   1.7849648912824367E-002   2.7277606931000953E-002
  -5.3912274278198530E-002   1.6964098575132230E-002   2.7196890165189669E-002
  -5.1597135307855563E-002   1.6134154607387208E-002   2.7281796414771048E-002
  -4.9281996337512624E-002   1.5359817009589521E-002   2.7532325679744812E-002
  -4.6966857367169657E-002   1.4641085781738949E-002   2.7948477960111018E-002
  -6.0818656741297522E-002   1.8674287726733851E-002   2.1404455828012314E-002
  -5.8327773913945072E-002   1.7828075834326884E-002   2.1214395411734810E-002
  -5.5836891086592677E-002   1.7009857367357856E-002   2.1210199694083845E-002
  -5.3346008259240248E-002   1.6219632325826412E-002   2.1391868675059315E-002
  -5.0855125431887818E-002   1.5457400709732450E-002   2.1759402354661284E-002
  -6.5571164623829323E-002   1.9498926540643391E-002   1.5584449642563669E-002
  -6.2884296256233457E-002   1.8692053093521663E-002   1.5257432631310491E-002
  -6.0197427888637564E-002   1.7885560127328282E-002   1.5136522001917646E-002
  -5.7510559521041692E-002   1.7079447642063081E-002   1.5221717754385244E-002
  -5.4823691153445764E-002   1.6273715637726061E-002   1.5513019888713175E-002
  -7.0484936896136829E-002   2.0323565354552736E-002   9.8175883746551215E-003
  -6.7581841305063520E-002   1.9556030352716657E-002   9.3260018239165084E-003
  -6.4678745713990196E-002   1.8761262887298874E-002   9.0607633382724165E-003
  -6.1775650122916879E-002   1.7939262958300083E-002   9.0218729177226811E-003
  -5.8872554531843535E-002   1.7090030565719561E-002   9.2093305622674010E-003
  -7.5559973558220084E-002   2.1148204168462303E-002   4.1038720242865256E-003
  -7.2420409060435342E-002   2.0420007611911206E-002   3.4201029895531976E-003
  -6.9280844562650601E-002   1.9636965647269439E-002   2.9829237031478995E-003
  -6.6141280064865804E-002   1.8799078274536689E-002   2.7923341650714084E-003
  -6.3001715567081118E-002   1.7906345493713061E-002   2.8483343753233914E-003
  -4.6966857367169657E-002   1.4641085781738949E-002   2.7948477960111018E-002
  -4.4616877272677546E-002   1.3910428584836099E-002   2.7605328044610189E-002
  -4.2266897178185409E-002   1.3100313079880882E-002   2.7393019773074845E-002
  -3.9916917083693257E-002   1.2210739266873570E-002   2.7311553145504680E-002
  -3.7566936989201161E-002   1.1241707145814295E-002   2.7360928161899944E-002
  -5.0855125431887818E-002   1.5457400709732450E-002   2.1759402354661284E-002
  -4.8367510872492525E-002   1.4691324768246999E-002   2.1285177411121681E-002
  -4.5879896313097211E-002   1.3889566750540372E-002   2.0955379753423209E-002
  -4.3392281753701911E-002   1.3052126656612276E-002   2.0770009381565605E-002
  -4.0904667194306604E-002   1.2179004486463252E-002   2.0729066295549159E-002
  -5.4823691153445764E-002   1.6273715637726061E-002   1.5513019888713175E-002
  -5.2184856487271697E-002   1.5472220951657983E-002   1.4951496148966098E-002
  -4.9546021821097595E-002   1.4678820421199654E-002   1.4547985336935507E-002
  -4.6907187154923466E-002   1.3893514046351096E-002   1.4302487452621471E-002
  -4.4268352488749357E-002   1.3116301827112042E-002   1.4215002496024226E-002
  -5.8872554531843535E-002   1.7090030565719561E-002   9.2093305622674010E-003
  -5.6068914117014972E-002   1.6253117135069259E-002   8.6042842581433576E-003
  -5.3265273702186471E-002   1.5468074091859095E-002   8.1708365236115854E-003
  -5.0461633287357956E-002   1.4734901436089692E-002   7.9089873586720618E-003
  -4.7657992872529406E-002   1.4053599167760916E-002   7.8187367633247226E-003
  -6.3001715567081118E-002   1.7906345493713061E-002   2.8483343753233914E-003
  -6.0019683761722509E-002   1.7034013318479868E-002   2.2435417386536538E-003
  -5.7037651956363955E-002   1.6257327762518176E-002   1.8239333134514868E-003
  -5.4055620151005374E-002   1.5576288825828059E-002   1.5895090997171540E-003
  -5.1073588345646792E-002   1.4990896508409790E-002   1.5402690974509747E-003
  -3.7566936989201161E-002   1.1241707145814295E-002   2.7360928161899944E-002
  -3.5190595892494819E-002   1.0280334247255829E-002   2.6942979227208785E-002
  -3.2814254795788506E-002   9.4137381017516397E-003   2.6617981978639238E-002
  -3.0437913699082150E-002   8.6419187093019281E-003   2.6385936416191774E-002
  -2.8061572602375850E-002   7.9648760699061460E-003   2.6246842539866089E-002
  -4.0904667194306604E-002   1.2179004486463252E-002   2.0729066295549159E-002
  -3.8433384489280881E-002   1.1310540286536275E-002   2.0357039578577985E-002
  -3.5962101784255143E-002   1.0487074103274846E-002   2.0081944392123463E-002
  -3.3490819079229524E-002   9.7086059366789032E-003   1.9903780736185900E-002
  -3.1019536374203738E-002   8.9751357867488002E-003   1.9822548610765212E-002
  -4.4268352488749357E-002   1.3116301827112042E-002   1.4215002496024226E-002
  -4.1698148331009294E-002   1.2340746325816332E-002   1.3839119260384197E-002
  -3.9127944173269306E-002   1.1560410104798038E-002   1.3564147399656043E-002
  -3.6557740015529222E-002   1.0775293164055930E-002   1.3390086913839777E-002
  -3.3987535857789200E-002   9.9853955035913988E-003   1.3316937802935191E-002
  -4.7657992872529406E-002   1.4053599167760916E-002   7.8187367633247226E-003
  -4.4984887417680065E-002   1.3370952365096139E-002   7.3892182726274028E-003
  -4.2311781962830822E-002   1.2633746106320738E-002   7.0645910012371929E-003
  -3.9638676507981516E-002   1.1841980391432820E-002   6.8448549491534044E-003
  -3.6965571053132237E-002   1.0995655220433859E-002   6.7300101163765766E-003
  -5.1073588345646792E-002   1.4990896508409790E-002   1.5402690974509747E-003
  -4.8293601749293313E-002   1.4401158404377057E-002   1.0073366153078855E-003
  -4.5513615152939779E-002   1.3707082107844548E-002   5.8327519686662832E-004
  -4.2733628556586301E-002   1.2908667618810127E-002   2.6808484212731409E-004
  -3.9953641960232766E-002   1.2005914937276430E-002   6.1765551088943660E-005
  -2.8061572602375850E-002   7.9648760699061460E-003   2.6246842539866089E-002
  -2.5719695685200716E-002   7.2967478288621379E-003   2.5680137854667162E-002
  -2.3377818768025527E-002   6.5516716314673595E-003   2.5056250536763802E-002
  -2.1035941850850351E-002   5.7296474777209921E-003   2.4375180586156647E-002
  -1.8694064933675203E-002   4.8306753676239378E-003   2.3636928002845781E-002
  -3.1019536374203738E-002   8.9751357867488002E-003   1.9822548610765212E-002
  -2.8714489167465163E-002   8.2572844211828977E-003   1.9220806933932133E-002
  -2.6409441960726615E-002   7.5256726076809444E-003   1.8602588468929759E-002
  -2.4104394753988040E-002   6.7803003462423711E-003   1.7967893215758132E-002
  -2.1799347547249492E-002   6.0211676368676637E-003   1.7316721174417460E-002
  -3.3987535857789200E-002   9.9853955035913988E-003   1.3316937802935191E-002
  -3.1678612516952531E-002   9.2178210135038796E-003   1.2743346642882847E-002
  -2.9369689176115855E-002   8.4996735838949455E-003   1.2193984539196095E-002
  -2.7060765835279128E-002   7.8309532147641872E-003   1.1668851491874896E-002
  -2.4751842494442400E-002   7.2116599061116116E-003   1.1167947500918873E-002
  -3.6965571053132237E-002   1.0995655220433859E-002   6.7300101163765766E-003
  -3.4612065733662725E-002   1.0178357605824806E-002   6.2477569815197337E-003
  -3.2258560414193206E-002   9.4736745601086830E-003   5.8304387475627308E-003
  -2.9905055094723673E-002   8.8816060832856737E-003   5.4780554145061333E-003
  -2.7551549775254175E-002   8.4021521753553929E-003   5.1906069823493273E-003
  -3.9953641960232766E-002   1.2005914937276430E-002   6.1765551088943660E-005
  -3.7514848817595814E-002   1.1138894198145732E-002  -2.6596205015788632E-004
  -3.5076055674958750E-002   1.0447675536322643E-002  -4.8804890597056727E-004
  -3.2637262532321742E-002   9.9322589518070770E-003  -6.0449501634738528E-004
  -3.0198469389684734E-002   9.5926444445990633E-003  -6.1530038129009590E-004
  -1.8694064933675203E-002   4.8306753676239378E-003   2.3636928002845781E-002
  -1.5666350010080765E-002   4.0854321685244721E-003   2.4418284589180383E-002
  -1.2638635086486272E-002   3.7245947477704544E-003   2.5674281506212204E-002
  -9.6109201628918062E-003   3.7481631053633072E-003   2.7404918753940993E-002
  -6.5832052392973406E-003   4.1561372413007058E-003   2.9610196332366612E-002
  -2.1799347547249492E-002   6.0211676368676637E-003   1.7316721174417460E-002
  -1.8567274696504085E-002   5.3478222454346747E-003   1.8265453454670233E-002
  -1.5335201845758845E-002   4.8598119378216176E-003   1.9148261258527671E-002
  -1.2103128995013479E-002   4.5571367140286936E-003   1.9965144585989789E-002
  -8.8710561442681968E-003   4.4397965740559098E-003   2.0716103437056654E-002
  -2.4751842494442400E-002   7.2116599061116116E-003   1.1167947500918873E-002
  -2.1855976523638576E-002   6.6102123223450715E-003   1.2084984780563607E-002
  -1.8960110552834704E-002   5.9950291278730999E-003   1.2395532776720883E-002
  -1.6064244582030887E-002   5.3661103226947428E-003   1.2099591489390472E-002
  -1.3168378611226952E-002   4.7234559068110582E-003   1.1197160918572396E-002
  -2.7551549775254175E-002   8.4021521753553929E-003   5.1906069823493273E-003
  -2.5532455491484144E-002   7.8726023992552602E-003   5.8768785668608034E-003
  -2.3513361207714051E-002   7.1302463179242562E-003   5.4160960607923282E-003
  -2.1494266923943992E-002   6.1750839313609047E-003   3.8082594641432547E-003
  -1.9475172640173927E-002   5.0071152395662344E-003   1.0533687769147468E-003
  -3.0198469389684734E-002   9.5926444445990633E-003  -6.1530038129009590E-004
  -2.9596711600040737E-002   9.1349924761653378E-003  -3.5886518643868381E-004
  -2.8994953810396795E-002   8.2654635079756344E-003  -1.7900488892590993E-003
  -2.8393196020752826E-002   6.9840575400269278E-003  -4.9088514897515229E-003
  -2.7791438231108856E-002   5.2907745723214106E-003  -9.7152729879169675E-003
  -6.5832052392973406E-003   4.1561372413007058E-003   2.9610196332366612E-002
  -6.0556234611842119E-003   6.1405887512171464E-003   3.4086061524905231E-002
  -5.5280416830710555E-003   1.0893589230745487E-002   3.9246600833115874E-002
  -5.0004599049578435E-003   1.8415138679885736E-002   4.5091814256998292E-002
  -4.4728781268447149E-003   2.8705237098637149E-002   5.1621701796553232E-002
  -8.8710561442681968E-003   4.4397965740559098E-003   2.0716103437056654E-002
  -7.5860088365352907E-003   5.6569672526573522E-003   2.5881406243024985E-002
  -6.3009615288023568E-003   9.3578244845879399E-003   3.1876965992560735E-002
  -5.0159142210694230E-003   1.5542368269847992E-002   3.8702782685663989E-002
  -3.7308669133365169E-003   2.4210598608436884E-002   4.6358856322334052E-002
  -1.3168378611226952E-002   4.7234559068110582E-003   1.1197160918572396E-002
  -1.0980282945979108E-002   5.1733457540971139E-003   1.6767038921688460E-002
  -8.7921872807312854E-003   7.8220597384307117E-003   2.3312756696266909E-002
  -6.6040916154835039E-003   1.2669597859810523E-002   3.0834314242307904E-002
  -4.4159959502355073E-003   1.9715960118236620E-002   3.9331711559811300E-002
  -1.9475172640173927E-002   5.0071152395662344E-003   1.0533687769147468E-003
  -1.6238445789515867E-002   4.6897242555377638E-003   6.7429595608952952E-003
  -1.3001718938857799E-002   6.2862949922732128E-003   1.3553972944233720E-002
  -9.7649920881995693E-003   9.7968274497725830E-003   2.1486408926930524E-002
  -6.5282652375416722E-003   1.5221321628036355E-002   3.0540267508984559E-002
  -2.7791438231108856E-002   5.2907745723214106E-003  -9.7152729879169675E-003
  -2.3360497367145294E-002   4.2061027569775256E-003  -4.1908318393538702E-003
  -1.8929556503181733E-002   4.7505302461156029E-003   2.6006147364625587E-003
  -1.4498615639218282E-002   6.9240570397357815E-003   1.0659066739531792E-002
  -1.0067674775254609E-002   1.0726683137836091E-002   1.9984524169854190E-002
 </DataArray>
 </PointData>
 </Piece>
 </UnstructuredGrid>
 </VTKFile>
