 <VTKFile type="UnstructuredGrid"  version="0.1"   >
 <UnstructuredGrid>
 <Piece  NumberOfPoints="          1600 "  NumberOfCells="         1024 ">
 <Points>
 <DataArray  type="Float64" NumberOfComponents="3"  format="ascii" >
   0.0000000000000000        0.0000000000000000        0.0000000000000000     
   3.1250000000000000E-002   0.0000000000000000        0.0000000000000000     
   6.2500000000000000E-002   0.0000000000000000        0.0000000000000000     
   9.3750000000000000E-002   0.0000000000000000        0.0000000000000000     
  0.12500000000000000        0.0000000000000000        0.0000000000000000     
   0.0000000000000000        3.1250000000000000E-002   0.0000000000000000     
   3.1250000000000000E-002   3.1250000000000000E-002   0.0000000000000000     
   6.2500000000000000E-002   3.1250000000000000E-002   0.0000000000000000     
   9.3750000000000000E-002   3.1250000000000000E-002   0.0000000000000000     
  0.12500000000000000        3.1250000000000000E-002   0.0000000000000000     
   0.0000000000000000        6.2500000000000000E-002   0.0000000000000000     
   3.1250000000000000E-002   6.2500000000000000E-002   0.0000000000000000     
   6.2500000000000000E-002   6.2500000000000000E-002   0.0000000000000000     
   9.3750000000000000E-002   6.2500000000000000E-002   0.0000000000000000     
  0.12500000000000000        6.2500000000000000E-002   0.0000000000000000     
   0.0000000000000000        9.3750000000000000E-002   0.0000000000000000     
   3.1250000000000000E-002   9.3750000000000000E-002   0.0000000000000000     
   6.2500000000000000E-002   9.3750000000000000E-002   0.0000000000000000     
   9.3750000000000000E-002   9.3750000000000000E-002   0.0000000000000000     
  0.12500000000000000        9.3750000000000000E-002   0.0000000000000000     
   0.0000000000000000       0.12500000000000000        0.0000000000000000     
   3.1250000000000000E-002  0.12500000000000000        0.0000000000000000     
   6.2500000000000000E-002  0.12500000000000000        0.0000000000000000     
   9.3750000000000000E-002  0.12500000000000000        0.0000000000000000     
  0.12500000000000000       0.12500000000000000        0.0000000000000000     
  0.12500000000000000        0.0000000000000000        0.0000000000000000     
  0.15625000000000000        0.0000000000000000        0.0000000000000000     
  0.18750000000000000        0.0000000000000000        0.0000000000000000     
  0.21875000000000000        0.0000000000000000        0.0000000000000000     
  0.25000000000000000        0.0000000000000000        0.0000000000000000     
  0.12500000000000000        3.1250000000000000E-002   0.0000000000000000     
  0.15625000000000000        3.1250000000000000E-002   0.0000000000000000     
  0.18750000000000000        3.1250000000000000E-002   0.0000000000000000     
  0.21875000000000000        3.1250000000000000E-002   0.0000000000000000     
  0.25000000000000000        3.1250000000000000E-002   0.0000000000000000     
  0.12500000000000000        6.2500000000000000E-002   0.0000000000000000     
  0.15625000000000000        6.2500000000000000E-002   0.0000000000000000     
  0.18750000000000000        6.2500000000000000E-002   0.0000000000000000     
  0.21875000000000000        6.2500000000000000E-002   0.0000000000000000     
  0.25000000000000000        6.2500000000000000E-002   0.0000000000000000     
  0.12500000000000000        9.3750000000000000E-002   0.0000000000000000     
  0.15625000000000000        9.3750000000000000E-002   0.0000000000000000     
  0.18750000000000000        9.3750000000000000E-002   0.0000000000000000     
  0.21875000000000000        9.3750000000000000E-002   0.0000000000000000     
  0.25000000000000000        9.3750000000000000E-002   0.0000000000000000     
  0.12500000000000000       0.12500000000000000        0.0000000000000000     
  0.15625000000000000       0.12500000000000000        0.0000000000000000     
  0.18750000000000000       0.12500000000000000        0.0000000000000000     
  0.21875000000000000       0.12500000000000000        0.0000000000000000     
  0.25000000000000000       0.12500000000000000        0.0000000000000000     
  0.25000000000000000        0.0000000000000000        0.0000000000000000     
  0.28125000000000000        0.0000000000000000        0.0000000000000000     
  0.31250000000000000        0.0000000000000000        0.0000000000000000     
  0.34375000000000000        0.0000000000000000        0.0000000000000000     
  0.37500000000000000        0.0000000000000000        0.0000000000000000     
  0.25000000000000000        3.1250000000000000E-002   0.0000000000000000     
  0.28125000000000000        3.1250000000000000E-002   0.0000000000000000     
  0.31250000000000000        3.1250000000000000E-002   0.0000000000000000     
  0.34375000000000000        3.1250000000000000E-002   0.0000000000000000     
  0.37500000000000000        3.1250000000000000E-002   0.0000000000000000     
  0.25000000000000000        6.2500000000000000E-002   0.0000000000000000     
  0.28125000000000000        6.2500000000000000E-002   0.0000000000000000     
  0.31250000000000000        6.2500000000000000E-002   0.0000000000000000     
  0.34375000000000000        6.2500000000000000E-002   0.0000000000000000     
  0.37500000000000000        6.2500000000000000E-002   0.0000000000000000     
  0.25000000000000000        9.3750000000000000E-002   0.0000000000000000     
  0.28125000000000000        9.3750000000000000E-002   0.0000000000000000     
  0.31250000000000000        9.3750000000000000E-002   0.0000000000000000     
  0.34375000000000000        9.3750000000000000E-002   0.0000000000000000     
  0.37500000000000000        9.3750000000000000E-002   0.0000000000000000     
  0.25000000000000000       0.12500000000000000        0.0000000000000000     
  0.28125000000000000       0.12500000000000000        0.0000000000000000     
  0.31250000000000000       0.12500000000000000        0.0000000000000000     
  0.34375000000000000       0.12500000000000000        0.0000000000000000     
  0.37500000000000000       0.12500000000000000        0.0000000000000000     
  0.37500000000000000        0.0000000000000000        0.0000000000000000     
  0.40625000000000000        0.0000000000000000        0.0000000000000000     
  0.43750000000000000        0.0000000000000000        0.0000000000000000     
  0.46875000000000000        0.0000000000000000        0.0000000000000000     
  0.50000000000000000        0.0000000000000000        0.0000000000000000     
  0.37500000000000000        3.1250000000000000E-002   0.0000000000000000     
  0.40625000000000000        3.1250000000000000E-002   0.0000000000000000     
  0.43750000000000000        3.1250000000000000E-002   0.0000000000000000     
  0.46875000000000000        3.1250000000000000E-002   0.0000000000000000     
  0.50000000000000000        3.1250000000000000E-002   0.0000000000000000     
  0.37500000000000000        6.2500000000000000E-002   0.0000000000000000     
  0.40625000000000000        6.2500000000000000E-002   0.0000000000000000     
  0.43750000000000000        6.2500000000000000E-002   0.0000000000000000     
  0.46875000000000000        6.2500000000000000E-002   0.0000000000000000     
  0.50000000000000000        6.2500000000000000E-002   0.0000000000000000     
  0.37500000000000000        9.3750000000000000E-002   0.0000000000000000     
  0.40625000000000000        9.3750000000000000E-002   0.0000000000000000     
  0.43750000000000000        9.3750000000000000E-002   0.0000000000000000     
  0.46875000000000000        9.3750000000000000E-002   0.0000000000000000     
  0.50000000000000000        9.3750000000000000E-002   0.0000000000000000     
  0.37500000000000000       0.12500000000000000        0.0000000000000000     
  0.40625000000000000       0.12500000000000000        0.0000000000000000     
  0.43750000000000000       0.12500000000000000        0.0000000000000000     
  0.46875000000000000       0.12500000000000000        0.0000000000000000     
  0.50000000000000000       0.12500000000000000        0.0000000000000000     
  0.50000000000000000        0.0000000000000000        0.0000000000000000     
  0.53125000000000000        0.0000000000000000        0.0000000000000000     
  0.56250000000000000        0.0000000000000000        0.0000000000000000     
  0.59375000000000000        0.0000000000000000        0.0000000000000000     
  0.62500000000000000        0.0000000000000000        0.0000000000000000     
  0.50000000000000000        3.1250000000000000E-002   0.0000000000000000     
  0.53125000000000000        3.1250000000000000E-002   0.0000000000000000     
  0.56250000000000000        3.1250000000000000E-002   0.0000000000000000     
  0.59375000000000000        3.1250000000000000E-002   0.0000000000000000     
  0.62500000000000000        3.1250000000000000E-002   0.0000000000000000     
  0.50000000000000000        6.2500000000000000E-002   0.0000000000000000     
  0.53125000000000000        6.2500000000000000E-002   0.0000000000000000     
  0.56250000000000000        6.2500000000000000E-002   0.0000000000000000     
  0.59375000000000000        6.2500000000000000E-002   0.0000000000000000     
  0.62500000000000000        6.2500000000000000E-002   0.0000000000000000     
  0.50000000000000000        9.3750000000000000E-002   0.0000000000000000     
  0.53125000000000000        9.3750000000000000E-002   0.0000000000000000     
  0.56250000000000000        9.3750000000000000E-002   0.0000000000000000     
  0.59375000000000000        9.3750000000000000E-002   0.0000000000000000     
  0.62500000000000000        9.3750000000000000E-002   0.0000000000000000     
  0.50000000000000000       0.12500000000000000        0.0000000000000000     
  0.53125000000000000       0.12500000000000000        0.0000000000000000     
  0.56250000000000000       0.12500000000000000        0.0000000000000000     
  0.59375000000000000       0.12500000000000000        0.0000000000000000     
  0.62500000000000000       0.12500000000000000        0.0000000000000000     
  0.62500000000000000        0.0000000000000000        0.0000000000000000     
  0.65625000000000000        0.0000000000000000        0.0000000000000000     
  0.68750000000000000        0.0000000000000000        0.0000000000000000     
  0.71875000000000000        0.0000000000000000        0.0000000000000000     
  0.75000000000000000        0.0000000000000000        0.0000000000000000     
  0.62500000000000000        3.1250000000000000E-002   0.0000000000000000     
  0.65625000000000000        3.1250000000000000E-002   0.0000000000000000     
  0.68750000000000000        3.1250000000000000E-002   0.0000000000000000     
  0.71875000000000000        3.1250000000000000E-002   0.0000000000000000     
  0.75000000000000000        3.1250000000000000E-002   0.0000000000000000     
  0.62500000000000000        6.2500000000000000E-002   0.0000000000000000     
  0.65625000000000000        6.2500000000000000E-002   0.0000000000000000     
  0.68750000000000000        6.2500000000000000E-002   0.0000000000000000     
  0.71875000000000000        6.2500000000000000E-002   0.0000000000000000     
  0.75000000000000000        6.2500000000000000E-002   0.0000000000000000     
  0.62500000000000000        9.3750000000000000E-002   0.0000000000000000     
  0.65625000000000000        9.3750000000000000E-002   0.0000000000000000     
  0.68750000000000000        9.3750000000000000E-002   0.0000000000000000     
  0.71875000000000000        9.3750000000000000E-002   0.0000000000000000     
  0.75000000000000000        9.3750000000000000E-002   0.0000000000000000     
  0.62500000000000000       0.12500000000000000        0.0000000000000000     
  0.65625000000000000       0.12500000000000000        0.0000000000000000     
  0.68750000000000000       0.12500000000000000        0.0000000000000000     
  0.71875000000000000       0.12500000000000000        0.0000000000000000     
  0.75000000000000000       0.12500000000000000        0.0000000000000000     
  0.75000000000000000        0.0000000000000000        0.0000000000000000     
  0.78125000000000000        0.0000000000000000        0.0000000000000000     
  0.81250000000000000        0.0000000000000000        0.0000000000000000     
  0.84375000000000000        0.0000000000000000        0.0000000000000000     
  0.87500000000000000        0.0000000000000000        0.0000000000000000     
  0.75000000000000000        3.1250000000000000E-002   0.0000000000000000     
  0.78125000000000000        3.1250000000000000E-002   0.0000000000000000     
  0.81250000000000000        3.1250000000000000E-002   0.0000000000000000     
  0.84375000000000000        3.1250000000000000E-002   0.0000000000000000     
  0.87500000000000000        3.1250000000000000E-002   0.0000000000000000     
  0.75000000000000000        6.2500000000000000E-002   0.0000000000000000     
  0.78125000000000000        6.2500000000000000E-002   0.0000000000000000     
  0.81250000000000000        6.2500000000000000E-002   0.0000000000000000     
  0.84375000000000000        6.2500000000000000E-002   0.0000000000000000     
  0.87500000000000000        6.2500000000000000E-002   0.0000000000000000     
  0.75000000000000000        9.3750000000000000E-002   0.0000000000000000     
  0.78125000000000000        9.3750000000000000E-002   0.0000000000000000     
  0.81250000000000000        9.3750000000000000E-002   0.0000000000000000     
  0.84375000000000000        9.3750000000000000E-002   0.0000000000000000     
  0.87500000000000000        9.3750000000000000E-002   0.0000000000000000     
  0.75000000000000000       0.12500000000000000        0.0000000000000000     
  0.78125000000000000       0.12500000000000000        0.0000000000000000     
  0.81250000000000000       0.12500000000000000        0.0000000000000000     
  0.84375000000000000       0.12500000000000000        0.0000000000000000     
  0.87500000000000000       0.12500000000000000        0.0000000000000000     
  0.87500000000000000        0.0000000000000000        0.0000000000000000     
  0.90625000000000000        0.0000000000000000        0.0000000000000000     
  0.93750000000000000        0.0000000000000000        0.0000000000000000     
  0.96875000000000000        0.0000000000000000        0.0000000000000000     
   1.0000000000000000        0.0000000000000000        0.0000000000000000     
  0.87500000000000000        3.1250000000000000E-002   0.0000000000000000     
  0.90625000000000000        3.1250000000000000E-002   0.0000000000000000     
  0.93750000000000000        3.1250000000000000E-002   0.0000000000000000     
  0.96875000000000000        3.1250000000000000E-002   0.0000000000000000     
   1.0000000000000000        3.1250000000000000E-002   0.0000000000000000     
  0.87500000000000000        6.2500000000000000E-002   0.0000000000000000     
  0.90625000000000000        6.2500000000000000E-002   0.0000000000000000     
  0.93750000000000000        6.2500000000000000E-002   0.0000000000000000     
  0.96875000000000000        6.2500000000000000E-002   0.0000000000000000     
   1.0000000000000000        6.2500000000000000E-002   0.0000000000000000     
  0.87500000000000000        9.3750000000000000E-002   0.0000000000000000     
  0.90625000000000000        9.3750000000000000E-002   0.0000000000000000     
  0.93750000000000000        9.3750000000000000E-002   0.0000000000000000     
  0.96875000000000000        9.3750000000000000E-002   0.0000000000000000     
   1.0000000000000000        9.3750000000000000E-002   0.0000000000000000     
  0.87500000000000000       0.12500000000000000        0.0000000000000000     
  0.90625000000000000       0.12500000000000000        0.0000000000000000     
  0.93750000000000000       0.12500000000000000        0.0000000000000000     
  0.96875000000000000       0.12500000000000000        0.0000000000000000     
   1.0000000000000000       0.12500000000000000        0.0000000000000000     
   0.0000000000000000       0.12500000000000000        0.0000000000000000     
   3.1250000000000000E-002  0.12500000000000000        0.0000000000000000     
   6.2500000000000000E-002  0.12500000000000000        0.0000000000000000     
   9.3750000000000000E-002  0.12500000000000000        0.0000000000000000     
  0.12500000000000000       0.12500000000000000        0.0000000000000000     
   0.0000000000000000       0.15625000000000000        0.0000000000000000     
   3.1250000000000000E-002  0.15625000000000000        0.0000000000000000     
   6.2500000000000000E-002  0.15625000000000000        0.0000000000000000     
   9.3750000000000000E-002  0.15625000000000000        0.0000000000000000     
  0.12500000000000000       0.15625000000000000        0.0000000000000000     
   0.0000000000000000       0.18750000000000000        0.0000000000000000     
   3.1250000000000000E-002  0.18750000000000000        0.0000000000000000     
   6.2500000000000000E-002  0.18750000000000000        0.0000000000000000     
   9.3750000000000000E-002  0.18750000000000000        0.0000000000000000     
  0.12500000000000000       0.18750000000000000        0.0000000000000000     
   0.0000000000000000       0.21875000000000000        0.0000000000000000     
   3.1250000000000000E-002  0.21875000000000000        0.0000000000000000     
   6.2500000000000000E-002  0.21875000000000000        0.0000000000000000     
   9.3750000000000000E-002  0.21875000000000000        0.0000000000000000     
  0.12500000000000000       0.21875000000000000        0.0000000000000000     
   0.0000000000000000       0.25000000000000000        0.0000000000000000     
   3.1250000000000000E-002  0.25000000000000000        0.0000000000000000     
   6.2500000000000000E-002  0.25000000000000000        0.0000000000000000     
   9.3750000000000000E-002  0.25000000000000000        0.0000000000000000     
  0.12500000000000000       0.25000000000000000        0.0000000000000000     
  0.12500000000000000       0.12500000000000000        0.0000000000000000     
  0.15625000000000000       0.12500000000000000        0.0000000000000000     
  0.18750000000000000       0.12500000000000000        0.0000000000000000     
  0.21875000000000000       0.12500000000000000        0.0000000000000000     
  0.25000000000000000       0.12500000000000000        0.0000000000000000     
  0.12500000000000000       0.15625000000000000        0.0000000000000000     
  0.15625000000000000       0.15625000000000000        0.0000000000000000     
  0.18750000000000000       0.15625000000000000        0.0000000000000000     
  0.21875000000000000       0.15625000000000000        0.0000000000000000     
  0.25000000000000000       0.15625000000000000        0.0000000000000000     
  0.12500000000000000       0.18750000000000000        0.0000000000000000     
  0.15625000000000000       0.18750000000000000        0.0000000000000000     
  0.18750000000000000       0.18750000000000000        0.0000000000000000     
  0.21875000000000000       0.18750000000000000        0.0000000000000000     
  0.25000000000000000       0.18750000000000000        0.0000000000000000     
  0.12500000000000000       0.21875000000000000        0.0000000000000000     
  0.15625000000000000       0.21875000000000000        0.0000000000000000     
  0.18750000000000000       0.21875000000000000        0.0000000000000000     
  0.21875000000000000       0.21875000000000000        0.0000000000000000     
  0.25000000000000000       0.21875000000000000        0.0000000000000000     
  0.12500000000000000       0.25000000000000000        0.0000000000000000     
  0.15625000000000000       0.25000000000000000        0.0000000000000000     
  0.18750000000000000       0.25000000000000000        0.0000000000000000     
  0.21875000000000000       0.25000000000000000        0.0000000000000000     
  0.25000000000000000       0.25000000000000000        0.0000000000000000     
  0.25000000000000000       0.12500000000000000        0.0000000000000000     
  0.28125000000000000       0.12500000000000000        0.0000000000000000     
  0.31250000000000000       0.12500000000000000        0.0000000000000000     
  0.34375000000000000       0.12500000000000000        0.0000000000000000     
  0.37500000000000000       0.12500000000000000        0.0000000000000000     
  0.25000000000000000       0.15625000000000000        0.0000000000000000     
  0.28125000000000000       0.15625000000000000        0.0000000000000000     
  0.31250000000000000       0.15625000000000000        0.0000000000000000     
  0.34375000000000000       0.15625000000000000        0.0000000000000000     
  0.37500000000000000       0.15625000000000000        0.0000000000000000     
  0.25000000000000000       0.18750000000000000        0.0000000000000000     
  0.28125000000000000       0.18750000000000000        0.0000000000000000     
  0.31250000000000000       0.18750000000000000        0.0000000000000000     
  0.34375000000000000       0.18750000000000000        0.0000000000000000     
  0.37500000000000000       0.18750000000000000        0.0000000000000000     
  0.25000000000000000       0.21875000000000000        0.0000000000000000     
  0.28125000000000000       0.21875000000000000        0.0000000000000000     
  0.31250000000000000       0.21875000000000000        0.0000000000000000     
  0.34375000000000000       0.21875000000000000        0.0000000000000000     
  0.37500000000000000       0.21875000000000000        0.0000000000000000     
  0.25000000000000000       0.25000000000000000        0.0000000000000000     
  0.28125000000000000       0.25000000000000000        0.0000000000000000     
  0.31250000000000000       0.25000000000000000        0.0000000000000000     
  0.34375000000000000       0.25000000000000000        0.0000000000000000     
  0.37500000000000000       0.25000000000000000        0.0000000000000000     
  0.37500000000000000       0.12500000000000000        0.0000000000000000     
  0.40625000000000000       0.12500000000000000        0.0000000000000000     
  0.43750000000000000       0.12500000000000000        0.0000000000000000     
  0.46875000000000000       0.12500000000000000        0.0000000000000000     
  0.50000000000000000       0.12500000000000000        0.0000000000000000     
  0.37500000000000000       0.15625000000000000        0.0000000000000000     
  0.40625000000000000       0.15625000000000000        0.0000000000000000     
  0.43750000000000000       0.15625000000000000        0.0000000000000000     
  0.46875000000000000       0.15625000000000000        0.0000000000000000     
  0.50000000000000000       0.15625000000000000        0.0000000000000000     
  0.37500000000000000       0.18750000000000000        0.0000000000000000     
  0.40625000000000000       0.18750000000000000        0.0000000000000000     
  0.43750000000000000       0.18750000000000000        0.0000000000000000     
  0.46875000000000000       0.18750000000000000        0.0000000000000000     
  0.50000000000000000       0.18750000000000000        0.0000000000000000     
  0.37500000000000000       0.21875000000000000        0.0000000000000000     
  0.40625000000000000       0.21875000000000000        0.0000000000000000     
  0.43750000000000000       0.21875000000000000        0.0000000000000000     
  0.46875000000000000       0.21875000000000000        0.0000000000000000     
  0.50000000000000000       0.21875000000000000        0.0000000000000000     
  0.37500000000000000       0.25000000000000000        0.0000000000000000     
  0.40625000000000000       0.25000000000000000        0.0000000000000000     
  0.43750000000000000       0.25000000000000000        0.0000000000000000     
  0.46875000000000000       0.25000000000000000        0.0000000000000000     
  0.50000000000000000       0.25000000000000000        0.0000000000000000     
  0.50000000000000000       0.12500000000000000        0.0000000000000000     
  0.53125000000000000       0.12500000000000000        0.0000000000000000     
  0.56250000000000000       0.12500000000000000        0.0000000000000000     
  0.59375000000000000       0.12500000000000000        0.0000000000000000     
  0.62500000000000000       0.12500000000000000        0.0000000000000000     
  0.50000000000000000       0.15625000000000000        0.0000000000000000     
  0.53125000000000000       0.15625000000000000        0.0000000000000000     
  0.56250000000000000       0.15625000000000000        0.0000000000000000     
  0.59375000000000000       0.15625000000000000        0.0000000000000000     
  0.62500000000000000       0.15625000000000000        0.0000000000000000     
  0.50000000000000000       0.18750000000000000        0.0000000000000000     
  0.53125000000000000       0.18750000000000000        0.0000000000000000     
  0.56250000000000000       0.18750000000000000        0.0000000000000000     
  0.59375000000000000       0.18750000000000000        0.0000000000000000     
  0.62500000000000000       0.18750000000000000        0.0000000000000000     
  0.50000000000000000       0.21875000000000000        0.0000000000000000     
  0.53125000000000000       0.21875000000000000        0.0000000000000000     
  0.56250000000000000       0.21875000000000000        0.0000000000000000     
  0.59375000000000000       0.21875000000000000        0.0000000000000000     
  0.62500000000000000       0.21875000000000000        0.0000000000000000     
  0.50000000000000000       0.25000000000000000        0.0000000000000000     
  0.53125000000000000       0.25000000000000000        0.0000000000000000     
  0.56250000000000000       0.25000000000000000        0.0000000000000000     
  0.59375000000000000       0.25000000000000000        0.0000000000000000     
  0.62500000000000000       0.25000000000000000        0.0000000000000000     
  0.62500000000000000       0.12500000000000000        0.0000000000000000     
  0.65625000000000000       0.12500000000000000        0.0000000000000000     
  0.68750000000000000       0.12500000000000000        0.0000000000000000     
  0.71875000000000000       0.12500000000000000        0.0000000000000000     
  0.75000000000000000       0.12500000000000000        0.0000000000000000     
  0.62500000000000000       0.15625000000000000        0.0000000000000000     
  0.65625000000000000       0.15625000000000000        0.0000000000000000     
  0.68750000000000000       0.15625000000000000        0.0000000000000000     
  0.71875000000000000       0.15625000000000000        0.0000000000000000     
  0.75000000000000000       0.15625000000000000        0.0000000000000000     
  0.62500000000000000       0.18750000000000000        0.0000000000000000     
  0.65625000000000000       0.18750000000000000        0.0000000000000000     
  0.68750000000000000       0.18750000000000000        0.0000000000000000     
  0.71875000000000000       0.18750000000000000        0.0000000000000000     
  0.75000000000000000       0.18750000000000000        0.0000000000000000     
  0.62500000000000000       0.21875000000000000        0.0000000000000000     
  0.65625000000000000       0.21875000000000000        0.0000000000000000     
  0.68750000000000000       0.21875000000000000        0.0000000000000000     
  0.71875000000000000       0.21875000000000000        0.0000000000000000     
  0.75000000000000000       0.21875000000000000        0.0000000000000000     
  0.62500000000000000       0.25000000000000000        0.0000000000000000     
  0.65625000000000000       0.25000000000000000        0.0000000000000000     
  0.68750000000000000       0.25000000000000000        0.0000000000000000     
  0.71875000000000000       0.25000000000000000        0.0000000000000000     
  0.75000000000000000       0.25000000000000000        0.0000000000000000     
  0.75000000000000000       0.12500000000000000        0.0000000000000000     
  0.78125000000000000       0.12500000000000000        0.0000000000000000     
  0.81250000000000000       0.12500000000000000        0.0000000000000000     
  0.84375000000000000       0.12500000000000000        0.0000000000000000     
  0.87500000000000000       0.12500000000000000        0.0000000000000000     
  0.75000000000000000       0.15625000000000000        0.0000000000000000     
  0.78125000000000000       0.15625000000000000        0.0000000000000000     
  0.81250000000000000       0.15625000000000000        0.0000000000000000     
  0.84375000000000000       0.15625000000000000        0.0000000000000000     
  0.87500000000000000       0.15625000000000000        0.0000000000000000     
  0.75000000000000000       0.18750000000000000        0.0000000000000000     
  0.78125000000000000       0.18750000000000000        0.0000000000000000     
  0.81250000000000000       0.18750000000000000        0.0000000000000000     
  0.84375000000000000       0.18750000000000000        0.0000000000000000     
  0.87500000000000000       0.18750000000000000        0.0000000000000000     
  0.75000000000000000       0.21875000000000000        0.0000000000000000     
  0.78125000000000000       0.21875000000000000        0.0000000000000000     
  0.81250000000000000       0.21875000000000000        0.0000000000000000     
  0.84375000000000000       0.21875000000000000        0.0000000000000000     
  0.87500000000000000       0.21875000000000000        0.0000000000000000     
  0.75000000000000000       0.25000000000000000        0.0000000000000000     
  0.78125000000000000       0.25000000000000000        0.0000000000000000     
  0.81250000000000000       0.25000000000000000        0.0000000000000000     
  0.84375000000000000       0.25000000000000000        0.0000000000000000     
  0.87500000000000000       0.25000000000000000        0.0000000000000000     
  0.87500000000000000       0.12500000000000000        0.0000000000000000     
  0.90625000000000000       0.12500000000000000        0.0000000000000000     
  0.93750000000000000       0.12500000000000000        0.0000000000000000     
  0.96875000000000000       0.12500000000000000        0.0000000000000000     
   1.0000000000000000       0.12500000000000000        0.0000000000000000     
  0.87500000000000000       0.15625000000000000        0.0000000000000000     
  0.90625000000000000       0.15625000000000000        0.0000000000000000     
  0.93750000000000000       0.15625000000000000        0.0000000000000000     
  0.96875000000000000       0.15625000000000000        0.0000000000000000     
   1.0000000000000000       0.15625000000000000        0.0000000000000000     
  0.87500000000000000       0.18750000000000000        0.0000000000000000     
  0.90625000000000000       0.18750000000000000        0.0000000000000000     
  0.93750000000000000       0.18750000000000000        0.0000000000000000     
  0.96875000000000000       0.18750000000000000        0.0000000000000000     
   1.0000000000000000       0.18750000000000000        0.0000000000000000     
  0.87500000000000000       0.21875000000000000        0.0000000000000000     
  0.90625000000000000       0.21875000000000000        0.0000000000000000     
  0.93750000000000000       0.21875000000000000        0.0000000000000000     
  0.96875000000000000       0.21875000000000000        0.0000000000000000     
   1.0000000000000000       0.21875000000000000        0.0000000000000000     
  0.87500000000000000       0.25000000000000000        0.0000000000000000     
  0.90625000000000000       0.25000000000000000        0.0000000000000000     
  0.93750000000000000       0.25000000000000000        0.0000000000000000     
  0.96875000000000000       0.25000000000000000        0.0000000000000000     
   1.0000000000000000       0.25000000000000000        0.0000000000000000     
   0.0000000000000000       0.25000000000000000        0.0000000000000000     
   3.1250000000000000E-002  0.25000000000000000        0.0000000000000000     
   6.2500000000000000E-002  0.25000000000000000        0.0000000000000000     
   9.3750000000000000E-002  0.25000000000000000        0.0000000000000000     
  0.12500000000000000       0.25000000000000000        0.0000000000000000     
   0.0000000000000000       0.28125000000000000        0.0000000000000000     
   3.1250000000000000E-002  0.28125000000000000        0.0000000000000000     
   6.2500000000000000E-002  0.28125000000000000        0.0000000000000000     
   9.3750000000000000E-002  0.28125000000000000        0.0000000000000000     
  0.12500000000000000       0.28125000000000000        0.0000000000000000     
   0.0000000000000000       0.31250000000000000        0.0000000000000000     
   3.1250000000000000E-002  0.31250000000000000        0.0000000000000000     
   6.2500000000000000E-002  0.31250000000000000        0.0000000000000000     
   9.3750000000000000E-002  0.31250000000000000        0.0000000000000000     
  0.12500000000000000       0.31250000000000000        0.0000000000000000     
   0.0000000000000000       0.34375000000000000        0.0000000000000000     
   3.1250000000000000E-002  0.34375000000000000        0.0000000000000000     
   6.2500000000000000E-002  0.34375000000000000        0.0000000000000000     
   9.3750000000000000E-002  0.34375000000000000        0.0000000000000000     
  0.12500000000000000       0.34375000000000000        0.0000000000000000     
   0.0000000000000000       0.37500000000000000        0.0000000000000000     
   3.1250000000000000E-002  0.37500000000000000        0.0000000000000000     
   6.2500000000000000E-002  0.37500000000000000        0.0000000000000000     
   9.3750000000000000E-002  0.37500000000000000        0.0000000000000000     
  0.12500000000000000       0.37500000000000000        0.0000000000000000     
  0.12500000000000000       0.25000000000000000        0.0000000000000000     
  0.15625000000000000       0.25000000000000000        0.0000000000000000     
  0.18750000000000000       0.25000000000000000        0.0000000000000000     
  0.21875000000000000       0.25000000000000000        0.0000000000000000     
  0.25000000000000000       0.25000000000000000        0.0000000000000000     
  0.12500000000000000       0.28125000000000000        0.0000000000000000     
  0.15625000000000000       0.28125000000000000        0.0000000000000000     
  0.18750000000000000       0.28125000000000000        0.0000000000000000     
  0.21875000000000000       0.28125000000000000        0.0000000000000000     
  0.25000000000000000       0.28125000000000000        0.0000000000000000     
  0.12500000000000000       0.31250000000000000        0.0000000000000000     
  0.15625000000000000       0.31250000000000000        0.0000000000000000     
  0.18750000000000000       0.31250000000000000        0.0000000000000000     
  0.21875000000000000       0.31250000000000000        0.0000000000000000     
  0.25000000000000000       0.31250000000000000        0.0000000000000000     
  0.12500000000000000       0.34375000000000000        0.0000000000000000     
  0.15625000000000000       0.34375000000000000        0.0000000000000000     
  0.18750000000000000       0.34375000000000000        0.0000000000000000     
  0.21875000000000000       0.34375000000000000        0.0000000000000000     
  0.25000000000000000       0.34375000000000000        0.0000000000000000     
  0.12500000000000000       0.37500000000000000        0.0000000000000000     
  0.15625000000000000       0.37500000000000000        0.0000000000000000     
  0.18750000000000000       0.37500000000000000        0.0000000000000000     
  0.21875000000000000       0.37500000000000000        0.0000000000000000     
  0.25000000000000000       0.37500000000000000        0.0000000000000000     
  0.25000000000000000       0.25000000000000000        0.0000000000000000     
  0.28125000000000000       0.25000000000000000        0.0000000000000000     
  0.31250000000000000       0.25000000000000000        0.0000000000000000     
  0.34375000000000000       0.25000000000000000        0.0000000000000000     
  0.37500000000000000       0.25000000000000000        0.0000000000000000     
  0.25000000000000000       0.28125000000000000        0.0000000000000000     
  0.28125000000000000       0.28125000000000000        0.0000000000000000     
  0.31250000000000000       0.28125000000000000        0.0000000000000000     
  0.34375000000000000       0.28125000000000000        0.0000000000000000     
  0.37500000000000000       0.28125000000000000        0.0000000000000000     
  0.25000000000000000       0.31250000000000000        0.0000000000000000     
  0.28125000000000000       0.31250000000000000        0.0000000000000000     
  0.31250000000000000       0.31250000000000000        0.0000000000000000     
  0.34375000000000000       0.31250000000000000        0.0000000000000000     
  0.37500000000000000       0.31250000000000000        0.0000000000000000     
  0.25000000000000000       0.34375000000000000        0.0000000000000000     
  0.28125000000000000       0.34375000000000000        0.0000000000000000     
  0.31250000000000000       0.34375000000000000        0.0000000000000000     
  0.34375000000000000       0.34375000000000000        0.0000000000000000     
  0.37500000000000000       0.34375000000000000        0.0000000000000000     
  0.25000000000000000       0.37500000000000000        0.0000000000000000     
  0.28125000000000000       0.37500000000000000        0.0000000000000000     
  0.31250000000000000       0.37500000000000000        0.0000000000000000     
  0.34375000000000000       0.37500000000000000        0.0000000000000000     
  0.37500000000000000       0.37500000000000000        0.0000000000000000     
  0.37500000000000000       0.25000000000000000        0.0000000000000000     
  0.40625000000000000       0.25000000000000000        0.0000000000000000     
  0.43750000000000000       0.25000000000000000        0.0000000000000000     
  0.46875000000000000       0.25000000000000000        0.0000000000000000     
  0.50000000000000000       0.25000000000000000        0.0000000000000000     
  0.37500000000000000       0.28125000000000000        0.0000000000000000     
  0.40625000000000000       0.28125000000000000        0.0000000000000000     
  0.43750000000000000       0.28125000000000000        0.0000000000000000     
  0.46875000000000000       0.28125000000000000        0.0000000000000000     
  0.50000000000000000       0.28125000000000000        0.0000000000000000     
  0.37500000000000000       0.31250000000000000        0.0000000000000000     
  0.40625000000000000       0.31250000000000000        0.0000000000000000     
  0.43750000000000000       0.31250000000000000        0.0000000000000000     
  0.46875000000000000       0.31250000000000000        0.0000000000000000     
  0.50000000000000000       0.31250000000000000        0.0000000000000000     
  0.37500000000000000       0.34375000000000000        0.0000000000000000     
  0.40625000000000000       0.34375000000000000        0.0000000000000000     
  0.43750000000000000       0.34375000000000000        0.0000000000000000     
  0.46875000000000000       0.34375000000000000        0.0000000000000000     
  0.50000000000000000       0.34375000000000000        0.0000000000000000     
  0.37500000000000000       0.37500000000000000        0.0000000000000000     
  0.40625000000000000       0.37500000000000000        0.0000000000000000     
  0.43750000000000000       0.37500000000000000        0.0000000000000000     
  0.46875000000000000       0.37500000000000000        0.0000000000000000     
  0.50000000000000000       0.37500000000000000        0.0000000000000000     
  0.50000000000000000       0.25000000000000000        0.0000000000000000     
  0.53125000000000000       0.25000000000000000        0.0000000000000000     
  0.56250000000000000       0.25000000000000000        0.0000000000000000     
  0.59375000000000000       0.25000000000000000        0.0000000000000000     
  0.62500000000000000       0.25000000000000000        0.0000000000000000     
  0.50000000000000000       0.28125000000000000        0.0000000000000000     
  0.53125000000000000       0.28125000000000000        0.0000000000000000     
  0.56250000000000000       0.28125000000000000        0.0000000000000000     
  0.59375000000000000       0.28125000000000000        0.0000000000000000     
  0.62500000000000000       0.28125000000000000        0.0000000000000000     
  0.50000000000000000       0.31250000000000000        0.0000000000000000     
  0.53125000000000000       0.31250000000000000        0.0000000000000000     
  0.56250000000000000       0.31250000000000000        0.0000000000000000     
  0.59375000000000000       0.31250000000000000        0.0000000000000000     
  0.62500000000000000       0.31250000000000000        0.0000000000000000     
  0.50000000000000000       0.34375000000000000        0.0000000000000000     
  0.53125000000000000       0.34375000000000000        0.0000000000000000     
  0.56250000000000000       0.34375000000000000        0.0000000000000000     
  0.59375000000000000       0.34375000000000000        0.0000000000000000     
  0.62500000000000000       0.34375000000000000        0.0000000000000000     
  0.50000000000000000       0.37500000000000000        0.0000000000000000     
  0.53125000000000000       0.37500000000000000        0.0000000000000000     
  0.56250000000000000       0.37500000000000000        0.0000000000000000     
  0.59375000000000000       0.37500000000000000        0.0000000000000000     
  0.62500000000000000       0.37500000000000000        0.0000000000000000     
  0.62500000000000000       0.25000000000000000        0.0000000000000000     
  0.65625000000000000       0.25000000000000000        0.0000000000000000     
  0.68750000000000000       0.25000000000000000        0.0000000000000000     
  0.71875000000000000       0.25000000000000000        0.0000000000000000     
  0.75000000000000000       0.25000000000000000        0.0000000000000000     
  0.62500000000000000       0.28125000000000000        0.0000000000000000     
  0.65625000000000000       0.28125000000000000        0.0000000000000000     
  0.68750000000000000       0.28125000000000000        0.0000000000000000     
  0.71875000000000000       0.28125000000000000        0.0000000000000000     
  0.75000000000000000       0.28125000000000000        0.0000000000000000     
  0.62500000000000000       0.31250000000000000        0.0000000000000000     
  0.65625000000000000       0.31250000000000000        0.0000000000000000     
  0.68750000000000000       0.31250000000000000        0.0000000000000000     
  0.71875000000000000       0.31250000000000000        0.0000000000000000     
  0.75000000000000000       0.31250000000000000        0.0000000000000000     
  0.62500000000000000       0.34375000000000000        0.0000000000000000     
  0.65625000000000000       0.34375000000000000        0.0000000000000000     
  0.68750000000000000       0.34375000000000000        0.0000000000000000     
  0.71875000000000000       0.34375000000000000        0.0000000000000000     
  0.75000000000000000       0.34375000000000000        0.0000000000000000     
  0.62500000000000000       0.37500000000000000        0.0000000000000000     
  0.65625000000000000       0.37500000000000000        0.0000000000000000     
  0.68750000000000000       0.37500000000000000        0.0000000000000000     
  0.71875000000000000       0.37500000000000000        0.0000000000000000     
  0.75000000000000000       0.37500000000000000        0.0000000000000000     
  0.75000000000000000       0.25000000000000000        0.0000000000000000     
  0.78125000000000000       0.25000000000000000        0.0000000000000000     
  0.81250000000000000       0.25000000000000000        0.0000000000000000     
  0.84375000000000000       0.25000000000000000        0.0000000000000000     
  0.87500000000000000       0.25000000000000000        0.0000000000000000     
  0.75000000000000000       0.28125000000000000        0.0000000000000000     
  0.78125000000000000       0.28125000000000000        0.0000000000000000     
  0.81250000000000000       0.28125000000000000        0.0000000000000000     
  0.84375000000000000       0.28125000000000000        0.0000000000000000     
  0.87500000000000000       0.28125000000000000        0.0000000000000000     
  0.75000000000000000       0.31250000000000000        0.0000000000000000     
  0.78125000000000000       0.31250000000000000        0.0000000000000000     
  0.81250000000000000       0.31250000000000000        0.0000000000000000     
  0.84375000000000000       0.31250000000000000        0.0000000000000000     
  0.87500000000000000       0.31250000000000000        0.0000000000000000     
  0.75000000000000000       0.34375000000000000        0.0000000000000000     
  0.78125000000000000       0.34375000000000000        0.0000000000000000     
  0.81250000000000000       0.34375000000000000        0.0000000000000000     
  0.84375000000000000       0.34375000000000000        0.0000000000000000     
  0.87500000000000000       0.34375000000000000        0.0000000000000000     
  0.75000000000000000       0.37500000000000000        0.0000000000000000     
  0.78125000000000000       0.37500000000000000        0.0000000000000000     
  0.81250000000000000       0.37500000000000000        0.0000000000000000     
  0.84375000000000000       0.37500000000000000        0.0000000000000000     
  0.87500000000000000       0.37500000000000000        0.0000000000000000     
  0.87500000000000000       0.25000000000000000        0.0000000000000000     
  0.90625000000000000       0.25000000000000000        0.0000000000000000     
  0.93750000000000000       0.25000000000000000        0.0000000000000000     
  0.96875000000000000       0.25000000000000000        0.0000000000000000     
   1.0000000000000000       0.25000000000000000        0.0000000000000000     
  0.87500000000000000       0.28125000000000000        0.0000000000000000     
  0.90625000000000000       0.28125000000000000        0.0000000000000000     
  0.93750000000000000       0.28125000000000000        0.0000000000000000     
  0.96875000000000000       0.28125000000000000        0.0000000000000000     
   1.0000000000000000       0.28125000000000000        0.0000000000000000     
  0.87500000000000000       0.31250000000000000        0.0000000000000000     
  0.90625000000000000       0.31250000000000000        0.0000000000000000     
  0.93750000000000000       0.31250000000000000        0.0000000000000000     
  0.96875000000000000       0.31250000000000000        0.0000000000000000     
   1.0000000000000000       0.31250000000000000        0.0000000000000000     
  0.87500000000000000       0.34375000000000000        0.0000000000000000     
  0.90625000000000000       0.34375000000000000        0.0000000000000000     
  0.93750000000000000       0.34375000000000000        0.0000000000000000     
  0.96875000000000000       0.34375000000000000        0.0000000000000000     
   1.0000000000000000       0.34375000000000000        0.0000000000000000     
  0.87500000000000000       0.37500000000000000        0.0000000000000000     
  0.90625000000000000       0.37500000000000000        0.0000000000000000     
  0.93750000000000000       0.37500000000000000        0.0000000000000000     
  0.96875000000000000       0.37500000000000000        0.0000000000000000     
   1.0000000000000000       0.37500000000000000        0.0000000000000000     
   0.0000000000000000       0.37500000000000000        0.0000000000000000     
   3.1250000000000000E-002  0.37500000000000000        0.0000000000000000     
   6.2500000000000000E-002  0.37500000000000000        0.0000000000000000     
   9.3750000000000000E-002  0.37500000000000000        0.0000000000000000     
  0.12500000000000000       0.37500000000000000        0.0000000000000000     
   0.0000000000000000       0.40625000000000000        0.0000000000000000     
   3.1250000000000000E-002  0.40625000000000000        0.0000000000000000     
   6.2500000000000000E-002  0.40625000000000000        0.0000000000000000     
   9.3750000000000000E-002  0.40625000000000000        0.0000000000000000     
  0.12500000000000000       0.40625000000000000        0.0000000000000000     
   0.0000000000000000       0.43750000000000000        0.0000000000000000     
   3.1250000000000000E-002  0.43750000000000000        0.0000000000000000     
   6.2500000000000000E-002  0.43750000000000000        0.0000000000000000     
   9.3750000000000000E-002  0.43750000000000000        0.0000000000000000     
  0.12500000000000000       0.43750000000000000        0.0000000000000000     
   0.0000000000000000       0.46875000000000000        0.0000000000000000     
   3.1250000000000000E-002  0.46875000000000000        0.0000000000000000     
   6.2500000000000000E-002  0.46875000000000000        0.0000000000000000     
   9.3750000000000000E-002  0.46875000000000000        0.0000000000000000     
  0.12500000000000000       0.46875000000000000        0.0000000000000000     
   0.0000000000000000       0.50000000000000000        0.0000000000000000     
   3.1250000000000000E-002  0.50000000000000000        0.0000000000000000     
   6.2500000000000000E-002  0.50000000000000000        0.0000000000000000     
   9.3750000000000000E-002  0.50000000000000000        0.0000000000000000     
  0.12500000000000000       0.50000000000000000        0.0000000000000000     
  0.12500000000000000       0.37500000000000000        0.0000000000000000     
  0.15625000000000000       0.37500000000000000        0.0000000000000000     
  0.18750000000000000       0.37500000000000000        0.0000000000000000     
  0.21875000000000000       0.37500000000000000        0.0000000000000000     
  0.25000000000000000       0.37500000000000000        0.0000000000000000     
  0.12500000000000000       0.40625000000000000        0.0000000000000000     
  0.15625000000000000       0.40625000000000000        0.0000000000000000     
  0.18750000000000000       0.40625000000000000        0.0000000000000000     
  0.21875000000000000       0.40625000000000000        0.0000000000000000     
  0.25000000000000000       0.40625000000000000        0.0000000000000000     
  0.12500000000000000       0.43750000000000000        0.0000000000000000     
  0.15625000000000000       0.43750000000000000        0.0000000000000000     
  0.18750000000000000       0.43750000000000000        0.0000000000000000     
  0.21875000000000000       0.43750000000000000        0.0000000000000000     
  0.25000000000000000       0.43750000000000000        0.0000000000000000     
  0.12500000000000000       0.46875000000000000        0.0000000000000000     
  0.15625000000000000       0.46875000000000000        0.0000000000000000     
  0.18750000000000000       0.46875000000000000        0.0000000000000000     
  0.21875000000000000       0.46875000000000000        0.0000000000000000     
  0.25000000000000000       0.46875000000000000        0.0000000000000000     
  0.12500000000000000       0.50000000000000000        0.0000000000000000     
  0.15625000000000000       0.50000000000000000        0.0000000000000000     
  0.18750000000000000       0.50000000000000000        0.0000000000000000     
  0.21875000000000000       0.50000000000000000        0.0000000000000000     
  0.25000000000000000       0.50000000000000000        0.0000000000000000     
  0.25000000000000000       0.37500000000000000        0.0000000000000000     
  0.28125000000000000       0.37500000000000000        0.0000000000000000     
  0.31250000000000000       0.37500000000000000        0.0000000000000000     
  0.34375000000000000       0.37500000000000000        0.0000000000000000     
  0.37500000000000000       0.37500000000000000        0.0000000000000000     
  0.25000000000000000       0.40625000000000000        0.0000000000000000     
  0.28125000000000000       0.40625000000000000        0.0000000000000000     
  0.31250000000000000       0.40625000000000000        0.0000000000000000     
  0.34375000000000000       0.40625000000000000        0.0000000000000000     
  0.37500000000000000       0.40625000000000000        0.0000000000000000     
  0.25000000000000000       0.43750000000000000        0.0000000000000000     
  0.28125000000000000       0.43750000000000000        0.0000000000000000     
  0.31250000000000000       0.43750000000000000        0.0000000000000000     
  0.34375000000000000       0.43750000000000000        0.0000000000000000     
  0.37500000000000000       0.43750000000000000        0.0000000000000000     
  0.25000000000000000       0.46875000000000000        0.0000000000000000     
  0.28125000000000000       0.46875000000000000        0.0000000000000000     
  0.31250000000000000       0.46875000000000000        0.0000000000000000     
  0.34375000000000000       0.46875000000000000        0.0000000000000000     
  0.37500000000000000       0.46875000000000000        0.0000000000000000     
  0.25000000000000000       0.50000000000000000        0.0000000000000000     
  0.28125000000000000       0.50000000000000000        0.0000000000000000     
  0.31250000000000000       0.50000000000000000        0.0000000000000000     
  0.34375000000000000       0.50000000000000000        0.0000000000000000     
  0.37500000000000000       0.50000000000000000        0.0000000000000000     
  0.37500000000000000       0.37500000000000000        0.0000000000000000     
  0.40625000000000000       0.37500000000000000        0.0000000000000000     
  0.43750000000000000       0.37500000000000000        0.0000000000000000     
  0.46875000000000000       0.37500000000000000        0.0000000000000000     
  0.50000000000000000       0.37500000000000000        0.0000000000000000     
  0.37500000000000000       0.40625000000000000        0.0000000000000000     
  0.40625000000000000       0.40625000000000000        0.0000000000000000     
  0.43750000000000000       0.40625000000000000        0.0000000000000000     
  0.46875000000000000       0.40625000000000000        0.0000000000000000     
  0.50000000000000000       0.40625000000000000        0.0000000000000000     
  0.37500000000000000       0.43750000000000000        0.0000000000000000     
  0.40625000000000000       0.43750000000000000        0.0000000000000000     
  0.43750000000000000       0.43750000000000000        0.0000000000000000     
  0.46875000000000000       0.43750000000000000        0.0000000000000000     
  0.50000000000000000       0.43750000000000000        0.0000000000000000     
  0.37500000000000000       0.46875000000000000        0.0000000000000000     
  0.40625000000000000       0.46875000000000000        0.0000000000000000     
  0.43750000000000000       0.46875000000000000        0.0000000000000000     
  0.46875000000000000       0.46875000000000000        0.0000000000000000     
  0.50000000000000000       0.46875000000000000        0.0000000000000000     
  0.37500000000000000       0.50000000000000000        0.0000000000000000     
  0.40625000000000000       0.50000000000000000        0.0000000000000000     
  0.43750000000000000       0.50000000000000000        0.0000000000000000     
  0.46875000000000000       0.50000000000000000        0.0000000000000000     
  0.50000000000000000       0.50000000000000000        0.0000000000000000     
  0.50000000000000000       0.37500000000000000        0.0000000000000000     
  0.53125000000000000       0.37500000000000000        0.0000000000000000     
  0.56250000000000000       0.37500000000000000        0.0000000000000000     
  0.59375000000000000       0.37500000000000000        0.0000000000000000     
  0.62500000000000000       0.37500000000000000        0.0000000000000000     
  0.50000000000000000       0.40625000000000000        0.0000000000000000     
  0.53125000000000000       0.40625000000000000        0.0000000000000000     
  0.56250000000000000       0.40625000000000000        0.0000000000000000     
  0.59375000000000000       0.40625000000000000        0.0000000000000000     
  0.62500000000000000       0.40625000000000000        0.0000000000000000     
  0.50000000000000000       0.43750000000000000        0.0000000000000000     
  0.53125000000000000       0.43750000000000000        0.0000000000000000     
  0.56250000000000000       0.43750000000000000        0.0000000000000000     
  0.59375000000000000       0.43750000000000000        0.0000000000000000     
  0.62500000000000000       0.43750000000000000        0.0000000000000000     
  0.50000000000000000       0.46875000000000000        0.0000000000000000     
  0.53125000000000000       0.46875000000000000        0.0000000000000000     
  0.56250000000000000       0.46875000000000000        0.0000000000000000     
  0.59375000000000000       0.46875000000000000        0.0000000000000000     
  0.62500000000000000       0.46875000000000000        0.0000000000000000     
  0.50000000000000000       0.50000000000000000        0.0000000000000000     
  0.53125000000000000       0.50000000000000000        0.0000000000000000     
  0.56250000000000000       0.50000000000000000        0.0000000000000000     
  0.59375000000000000       0.50000000000000000        0.0000000000000000     
  0.62500000000000000       0.50000000000000000        0.0000000000000000     
  0.62500000000000000       0.37500000000000000        0.0000000000000000     
  0.65625000000000000       0.37500000000000000        0.0000000000000000     
  0.68750000000000000       0.37500000000000000        0.0000000000000000     
  0.71875000000000000       0.37500000000000000        0.0000000000000000     
  0.75000000000000000       0.37500000000000000        0.0000000000000000     
  0.62500000000000000       0.40625000000000000        0.0000000000000000     
  0.65625000000000000       0.40625000000000000        0.0000000000000000     
  0.68750000000000000       0.40625000000000000        0.0000000000000000     
  0.71875000000000000       0.40625000000000000        0.0000000000000000     
  0.75000000000000000       0.40625000000000000        0.0000000000000000     
  0.62500000000000000       0.43750000000000000        0.0000000000000000     
  0.65625000000000000       0.43750000000000000        0.0000000000000000     
  0.68750000000000000       0.43750000000000000        0.0000000000000000     
  0.71875000000000000       0.43750000000000000        0.0000000000000000     
  0.75000000000000000       0.43750000000000000        0.0000000000000000     
  0.62500000000000000       0.46875000000000000        0.0000000000000000     
  0.65625000000000000       0.46875000000000000        0.0000000000000000     
  0.68750000000000000       0.46875000000000000        0.0000000000000000     
  0.71875000000000000       0.46875000000000000        0.0000000000000000     
  0.75000000000000000       0.46875000000000000        0.0000000000000000     
  0.62500000000000000       0.50000000000000000        0.0000000000000000     
  0.65625000000000000       0.50000000000000000        0.0000000000000000     
  0.68750000000000000       0.50000000000000000        0.0000000000000000     
  0.71875000000000000       0.50000000000000000        0.0000000000000000     
  0.75000000000000000       0.50000000000000000        0.0000000000000000     
  0.75000000000000000       0.37500000000000000        0.0000000000000000     
  0.78125000000000000       0.37500000000000000        0.0000000000000000     
  0.81250000000000000       0.37500000000000000        0.0000000000000000     
  0.84375000000000000       0.37500000000000000        0.0000000000000000     
  0.87500000000000000       0.37500000000000000        0.0000000000000000     
  0.75000000000000000       0.40625000000000000        0.0000000000000000     
  0.78125000000000000       0.40625000000000000        0.0000000000000000     
  0.81250000000000000       0.40625000000000000        0.0000000000000000     
  0.84375000000000000       0.40625000000000000        0.0000000000000000     
  0.87500000000000000       0.40625000000000000        0.0000000000000000     
  0.75000000000000000       0.43750000000000000        0.0000000000000000     
  0.78125000000000000       0.43750000000000000        0.0000000000000000     
  0.81250000000000000       0.43750000000000000        0.0000000000000000     
  0.84375000000000000       0.43750000000000000        0.0000000000000000     
  0.87500000000000000       0.43750000000000000        0.0000000000000000     
  0.75000000000000000       0.46875000000000000        0.0000000000000000     
  0.78125000000000000       0.46875000000000000        0.0000000000000000     
  0.81250000000000000       0.46875000000000000        0.0000000000000000     
  0.84375000000000000       0.46875000000000000        0.0000000000000000     
  0.87500000000000000       0.46875000000000000        0.0000000000000000     
  0.75000000000000000       0.50000000000000000        0.0000000000000000     
  0.78125000000000000       0.50000000000000000        0.0000000000000000     
  0.81250000000000000       0.50000000000000000        0.0000000000000000     
  0.84375000000000000       0.50000000000000000        0.0000000000000000     
  0.87500000000000000       0.50000000000000000        0.0000000000000000     
  0.87500000000000000       0.37500000000000000        0.0000000000000000     
  0.90625000000000000       0.37500000000000000        0.0000000000000000     
  0.93750000000000000       0.37500000000000000        0.0000000000000000     
  0.96875000000000000       0.37500000000000000        0.0000000000000000     
   1.0000000000000000       0.37500000000000000        0.0000000000000000     
  0.87500000000000000       0.40625000000000000        0.0000000000000000     
  0.90625000000000000       0.40625000000000000        0.0000000000000000     
  0.93750000000000000       0.40625000000000000        0.0000000000000000     
  0.96875000000000000       0.40625000000000000        0.0000000000000000     
   1.0000000000000000       0.40625000000000000        0.0000000000000000     
  0.87500000000000000       0.43750000000000000        0.0000000000000000     
  0.90625000000000000       0.43750000000000000        0.0000000000000000     
  0.93750000000000000       0.43750000000000000        0.0000000000000000     
  0.96875000000000000       0.43750000000000000        0.0000000000000000     
   1.0000000000000000       0.43750000000000000        0.0000000000000000     
  0.87500000000000000       0.46875000000000000        0.0000000000000000     
  0.90625000000000000       0.46875000000000000        0.0000000000000000     
  0.93750000000000000       0.46875000000000000        0.0000000000000000     
  0.96875000000000000       0.46875000000000000        0.0000000000000000     
   1.0000000000000000       0.46875000000000000        0.0000000000000000     
  0.87500000000000000       0.50000000000000000        0.0000000000000000     
  0.90625000000000000       0.50000000000000000        0.0000000000000000     
  0.93750000000000000       0.50000000000000000        0.0000000000000000     
  0.96875000000000000       0.50000000000000000        0.0000000000000000     
   1.0000000000000000       0.50000000000000000        0.0000000000000000     
   0.0000000000000000       0.50000000000000000        0.0000000000000000     
   3.1250000000000000E-002  0.50000000000000000        0.0000000000000000     
   6.2500000000000000E-002  0.50000000000000000        0.0000000000000000     
   9.3750000000000000E-002  0.50000000000000000        0.0000000000000000     
  0.12500000000000000       0.50000000000000000        0.0000000000000000     
   0.0000000000000000       0.53125000000000000        0.0000000000000000     
   3.1250000000000000E-002  0.53125000000000000        0.0000000000000000     
   6.2500000000000000E-002  0.53125000000000000        0.0000000000000000     
   9.3750000000000000E-002  0.53125000000000000        0.0000000000000000     
  0.12500000000000000       0.53125000000000000        0.0000000000000000     
   0.0000000000000000       0.56250000000000000        0.0000000000000000     
   3.1250000000000000E-002  0.56250000000000000        0.0000000000000000     
   6.2500000000000000E-002  0.56250000000000000        0.0000000000000000     
   9.3750000000000000E-002  0.56250000000000000        0.0000000000000000     
  0.12500000000000000       0.56250000000000000        0.0000000000000000     
   0.0000000000000000       0.59375000000000000        0.0000000000000000     
   3.1250000000000000E-002  0.59375000000000000        0.0000000000000000     
   6.2500000000000000E-002  0.59375000000000000        0.0000000000000000     
   9.3750000000000000E-002  0.59375000000000000        0.0000000000000000     
  0.12500000000000000       0.59375000000000000        0.0000000000000000     
   0.0000000000000000       0.62500000000000000        0.0000000000000000     
   3.1250000000000000E-002  0.62500000000000000        0.0000000000000000     
   6.2500000000000000E-002  0.62500000000000000        0.0000000000000000     
   9.3750000000000000E-002  0.62500000000000000        0.0000000000000000     
  0.12500000000000000       0.62500000000000000        0.0000000000000000     
  0.12500000000000000       0.50000000000000000        0.0000000000000000     
  0.15625000000000000       0.50000000000000000        0.0000000000000000     
  0.18750000000000000       0.50000000000000000        0.0000000000000000     
  0.21875000000000000       0.50000000000000000        0.0000000000000000     
  0.25000000000000000       0.50000000000000000        0.0000000000000000     
  0.12500000000000000       0.53125000000000000        0.0000000000000000     
  0.15625000000000000       0.53125000000000000        0.0000000000000000     
  0.18750000000000000       0.53125000000000000        0.0000000000000000     
  0.21875000000000000       0.53125000000000000        0.0000000000000000     
  0.25000000000000000       0.53125000000000000        0.0000000000000000     
  0.12500000000000000       0.56250000000000000        0.0000000000000000     
  0.15625000000000000       0.56250000000000000        0.0000000000000000     
  0.18750000000000000       0.56250000000000000        0.0000000000000000     
  0.21875000000000000       0.56250000000000000        0.0000000000000000     
  0.25000000000000000       0.56250000000000000        0.0000000000000000     
  0.12500000000000000       0.59375000000000000        0.0000000000000000     
  0.15625000000000000       0.59375000000000000        0.0000000000000000     
  0.18750000000000000       0.59375000000000000        0.0000000000000000     
  0.21875000000000000       0.59375000000000000        0.0000000000000000     
  0.25000000000000000       0.59375000000000000        0.0000000000000000     
  0.12500000000000000       0.62500000000000000        0.0000000000000000     
  0.15625000000000000       0.62500000000000000        0.0000000000000000     
  0.18750000000000000       0.62500000000000000        0.0000000000000000     
  0.21875000000000000       0.62500000000000000        0.0000000000000000     
  0.25000000000000000       0.62500000000000000        0.0000000000000000     
  0.25000000000000000       0.50000000000000000        0.0000000000000000     
  0.28125000000000000       0.50000000000000000        0.0000000000000000     
  0.31250000000000000       0.50000000000000000        0.0000000000000000     
  0.34375000000000000       0.50000000000000000        0.0000000000000000     
  0.37500000000000000       0.50000000000000000        0.0000000000000000     
  0.25000000000000000       0.53125000000000000        0.0000000000000000     
  0.28125000000000000       0.53125000000000000        0.0000000000000000     
  0.31250000000000000       0.53125000000000000        0.0000000000000000     
  0.34375000000000000       0.53125000000000000        0.0000000000000000     
  0.37500000000000000       0.53125000000000000        0.0000000000000000     
  0.25000000000000000       0.56250000000000000        0.0000000000000000     
  0.28125000000000000       0.56250000000000000        0.0000000000000000     
  0.31250000000000000       0.56250000000000000        0.0000000000000000     
  0.34375000000000000       0.56250000000000000        0.0000000000000000     
  0.37500000000000000       0.56250000000000000        0.0000000000000000     
  0.25000000000000000       0.59375000000000000        0.0000000000000000     
  0.28125000000000000       0.59375000000000000        0.0000000000000000     
  0.31250000000000000       0.59375000000000000        0.0000000000000000     
  0.34375000000000000       0.59375000000000000        0.0000000000000000     
  0.37500000000000000       0.59375000000000000        0.0000000000000000     
  0.25000000000000000       0.62500000000000000        0.0000000000000000     
  0.28125000000000000       0.62500000000000000        0.0000000000000000     
  0.31250000000000000       0.62500000000000000        0.0000000000000000     
  0.34375000000000000       0.62500000000000000        0.0000000000000000     
  0.37500000000000000       0.62500000000000000        0.0000000000000000     
  0.37500000000000000       0.50000000000000000        0.0000000000000000     
  0.40625000000000000       0.50000000000000000        0.0000000000000000     
  0.43750000000000000       0.50000000000000000        0.0000000000000000     
  0.46875000000000000       0.50000000000000000        0.0000000000000000     
  0.50000000000000000       0.50000000000000000        0.0000000000000000     
  0.37500000000000000       0.53125000000000000        0.0000000000000000     
  0.40625000000000000       0.53125000000000000        0.0000000000000000     
  0.43750000000000000       0.53125000000000000        0.0000000000000000     
  0.46875000000000000       0.53125000000000000        0.0000000000000000     
  0.50000000000000000       0.53125000000000000        0.0000000000000000     
  0.37500000000000000       0.56250000000000000        0.0000000000000000     
  0.40625000000000000       0.56250000000000000        0.0000000000000000     
  0.43750000000000000       0.56250000000000000        0.0000000000000000     
  0.46875000000000000       0.56250000000000000        0.0000000000000000     
  0.50000000000000000       0.56250000000000000        0.0000000000000000     
  0.37500000000000000       0.59375000000000000        0.0000000000000000     
  0.40625000000000000       0.59375000000000000        0.0000000000000000     
  0.43750000000000000       0.59375000000000000        0.0000000000000000     
  0.46875000000000000       0.59375000000000000        0.0000000000000000     
  0.50000000000000000       0.59375000000000000        0.0000000000000000     
  0.37500000000000000       0.62500000000000000        0.0000000000000000     
  0.40625000000000000       0.62500000000000000        0.0000000000000000     
  0.43750000000000000       0.62500000000000000        0.0000000000000000     
  0.46875000000000000       0.62500000000000000        0.0000000000000000     
  0.50000000000000000       0.62500000000000000        0.0000000000000000     
  0.50000000000000000       0.50000000000000000        0.0000000000000000     
  0.53125000000000000       0.50000000000000000        0.0000000000000000     
  0.56250000000000000       0.50000000000000000        0.0000000000000000     
  0.59375000000000000       0.50000000000000000        0.0000000000000000     
  0.62500000000000000       0.50000000000000000        0.0000000000000000     
  0.50000000000000000       0.53125000000000000        0.0000000000000000     
  0.53125000000000000       0.53125000000000000        0.0000000000000000     
  0.56250000000000000       0.53125000000000000        0.0000000000000000     
  0.59375000000000000       0.53125000000000000        0.0000000000000000     
  0.62500000000000000       0.53125000000000000        0.0000000000000000     
  0.50000000000000000       0.56250000000000000        0.0000000000000000     
  0.53125000000000000       0.56250000000000000        0.0000000000000000     
  0.56250000000000000       0.56250000000000000        0.0000000000000000     
  0.59375000000000000       0.56250000000000000        0.0000000000000000     
  0.62500000000000000       0.56250000000000000        0.0000000000000000     
  0.50000000000000000       0.59375000000000000        0.0000000000000000     
  0.53125000000000000       0.59375000000000000        0.0000000000000000     
  0.56250000000000000       0.59375000000000000        0.0000000000000000     
  0.59375000000000000       0.59375000000000000        0.0000000000000000     
  0.62500000000000000       0.59375000000000000        0.0000000000000000     
  0.50000000000000000       0.62500000000000000        0.0000000000000000     
  0.53125000000000000       0.62500000000000000        0.0000000000000000     
  0.56250000000000000       0.62500000000000000        0.0000000000000000     
  0.59375000000000000       0.62500000000000000        0.0000000000000000     
  0.62500000000000000       0.62500000000000000        0.0000000000000000     
  0.62500000000000000       0.50000000000000000        0.0000000000000000     
  0.65625000000000000       0.50000000000000000        0.0000000000000000     
  0.68750000000000000       0.50000000000000000        0.0000000000000000     
  0.71875000000000000       0.50000000000000000        0.0000000000000000     
  0.75000000000000000       0.50000000000000000        0.0000000000000000     
  0.62500000000000000       0.53125000000000000        0.0000000000000000     
  0.65625000000000000       0.53125000000000000        0.0000000000000000     
  0.68750000000000000       0.53125000000000000        0.0000000000000000     
  0.71875000000000000       0.53125000000000000        0.0000000000000000     
  0.75000000000000000       0.53125000000000000        0.0000000000000000     
  0.62500000000000000       0.56250000000000000        0.0000000000000000     
  0.65625000000000000       0.56250000000000000        0.0000000000000000     
  0.68750000000000000       0.56250000000000000        0.0000000000000000     
  0.71875000000000000       0.56250000000000000        0.0000000000000000     
  0.75000000000000000       0.56250000000000000        0.0000000000000000     
  0.62500000000000000       0.59375000000000000        0.0000000000000000     
  0.65625000000000000       0.59375000000000000        0.0000000000000000     
  0.68750000000000000       0.59375000000000000        0.0000000000000000     
  0.71875000000000000       0.59375000000000000        0.0000000000000000     
  0.75000000000000000       0.59375000000000000        0.0000000000000000     
  0.62500000000000000       0.62500000000000000        0.0000000000000000     
  0.65625000000000000       0.62500000000000000        0.0000000000000000     
  0.68750000000000000       0.62500000000000000        0.0000000000000000     
  0.71875000000000000       0.62500000000000000        0.0000000000000000     
  0.75000000000000000       0.62500000000000000        0.0000000000000000     
  0.75000000000000000       0.50000000000000000        0.0000000000000000     
  0.78125000000000000       0.50000000000000000        0.0000000000000000     
  0.81250000000000000       0.50000000000000000        0.0000000000000000     
  0.84375000000000000       0.50000000000000000        0.0000000000000000     
  0.87500000000000000       0.50000000000000000        0.0000000000000000     
  0.75000000000000000       0.53125000000000000        0.0000000000000000     
  0.78125000000000000       0.53125000000000000        0.0000000000000000     
  0.81250000000000000       0.53125000000000000        0.0000000000000000     
  0.84375000000000000       0.53125000000000000        0.0000000000000000     
  0.87500000000000000       0.53125000000000000        0.0000000000000000     
  0.75000000000000000       0.56250000000000000        0.0000000000000000     
  0.78125000000000000       0.56250000000000000        0.0000000000000000     
  0.81250000000000000       0.56250000000000000        0.0000000000000000     
  0.84375000000000000       0.56250000000000000        0.0000000000000000     
  0.87500000000000000       0.56250000000000000        0.0000000000000000     
  0.75000000000000000       0.59375000000000000        0.0000000000000000     
  0.78125000000000000       0.59375000000000000        0.0000000000000000     
  0.81250000000000000       0.59375000000000000        0.0000000000000000     
  0.84375000000000000       0.59375000000000000        0.0000000000000000     
  0.87500000000000000       0.59375000000000000        0.0000000000000000     
  0.75000000000000000       0.62500000000000000        0.0000000000000000     
  0.78125000000000000       0.62500000000000000        0.0000000000000000     
  0.81250000000000000       0.62500000000000000        0.0000000000000000     
  0.84375000000000000       0.62500000000000000        0.0000000000000000     
  0.87500000000000000       0.62500000000000000        0.0000000000000000     
  0.87500000000000000       0.50000000000000000        0.0000000000000000     
  0.90625000000000000       0.50000000000000000        0.0000000000000000     
  0.93750000000000000       0.50000000000000000        0.0000000000000000     
  0.96875000000000000       0.50000000000000000        0.0000000000000000     
   1.0000000000000000       0.50000000000000000        0.0000000000000000     
  0.87500000000000000       0.53125000000000000        0.0000000000000000     
  0.90625000000000000       0.53125000000000000        0.0000000000000000     
  0.93750000000000000       0.53125000000000000        0.0000000000000000     
  0.96875000000000000       0.53125000000000000        0.0000000000000000     
   1.0000000000000000       0.53125000000000000        0.0000000000000000     
  0.87500000000000000       0.56250000000000000        0.0000000000000000     
  0.90625000000000000       0.56250000000000000        0.0000000000000000     
  0.93750000000000000       0.56250000000000000        0.0000000000000000     
  0.96875000000000000       0.56250000000000000        0.0000000000000000     
   1.0000000000000000       0.56250000000000000        0.0000000000000000     
  0.87500000000000000       0.59375000000000000        0.0000000000000000     
  0.90625000000000000       0.59375000000000000        0.0000000000000000     
  0.93750000000000000       0.59375000000000000        0.0000000000000000     
  0.96875000000000000       0.59375000000000000        0.0000000000000000     
   1.0000000000000000       0.59375000000000000        0.0000000000000000     
  0.87500000000000000       0.62500000000000000        0.0000000000000000     
  0.90625000000000000       0.62500000000000000        0.0000000000000000     
  0.93750000000000000       0.62500000000000000        0.0000000000000000     
  0.96875000000000000       0.62500000000000000        0.0000000000000000     
   1.0000000000000000       0.62500000000000000        0.0000000000000000     
   0.0000000000000000       0.62500000000000000        0.0000000000000000     
   3.1250000000000000E-002  0.62500000000000000        0.0000000000000000     
   6.2500000000000000E-002  0.62500000000000000        0.0000000000000000     
   9.3750000000000000E-002  0.62500000000000000        0.0000000000000000     
  0.12500000000000000       0.62500000000000000        0.0000000000000000     
   0.0000000000000000       0.65625000000000000        0.0000000000000000     
   3.1250000000000000E-002  0.65625000000000000        0.0000000000000000     
   6.2500000000000000E-002  0.65625000000000000        0.0000000000000000     
   9.3750000000000000E-002  0.65625000000000000        0.0000000000000000     
  0.12500000000000000       0.65625000000000000        0.0000000000000000     
   0.0000000000000000       0.68750000000000000        0.0000000000000000     
   3.1250000000000000E-002  0.68750000000000000        0.0000000000000000     
   6.2500000000000000E-002  0.68750000000000000        0.0000000000000000     
   9.3750000000000000E-002  0.68750000000000000        0.0000000000000000     
  0.12500000000000000       0.68750000000000000        0.0000000000000000     
   0.0000000000000000       0.71875000000000000        0.0000000000000000     
   3.1250000000000000E-002  0.71875000000000000        0.0000000000000000     
   6.2500000000000000E-002  0.71875000000000000        0.0000000000000000     
   9.3750000000000000E-002  0.71875000000000000        0.0000000000000000     
  0.12500000000000000       0.71875000000000000        0.0000000000000000     
   0.0000000000000000       0.75000000000000000        0.0000000000000000     
   3.1250000000000000E-002  0.75000000000000000        0.0000000000000000     
   6.2500000000000000E-002  0.75000000000000000        0.0000000000000000     
   9.3750000000000000E-002  0.75000000000000000        0.0000000000000000     
  0.12500000000000000       0.75000000000000000        0.0000000000000000     
  0.12500000000000000       0.62500000000000000        0.0000000000000000     
  0.15625000000000000       0.62500000000000000        0.0000000000000000     
  0.18750000000000000       0.62500000000000000        0.0000000000000000     
  0.21875000000000000       0.62500000000000000        0.0000000000000000     
  0.25000000000000000       0.62500000000000000        0.0000000000000000     
  0.12500000000000000       0.65625000000000000        0.0000000000000000     
  0.15625000000000000       0.65625000000000000        0.0000000000000000     
  0.18750000000000000       0.65625000000000000        0.0000000000000000     
  0.21875000000000000       0.65625000000000000        0.0000000000000000     
  0.25000000000000000       0.65625000000000000        0.0000000000000000     
  0.12500000000000000       0.68750000000000000        0.0000000000000000     
  0.15625000000000000       0.68750000000000000        0.0000000000000000     
  0.18750000000000000       0.68750000000000000        0.0000000000000000     
  0.21875000000000000       0.68750000000000000        0.0000000000000000     
  0.25000000000000000       0.68750000000000000        0.0000000000000000     
  0.12500000000000000       0.71875000000000000        0.0000000000000000     
  0.15625000000000000       0.71875000000000000        0.0000000000000000     
  0.18750000000000000       0.71875000000000000        0.0000000000000000     
  0.21875000000000000       0.71875000000000000        0.0000000000000000     
  0.25000000000000000       0.71875000000000000        0.0000000000000000     
  0.12500000000000000       0.75000000000000000        0.0000000000000000     
  0.15625000000000000       0.75000000000000000        0.0000000000000000     
  0.18750000000000000       0.75000000000000000        0.0000000000000000     
  0.21875000000000000       0.75000000000000000        0.0000000000000000     
  0.25000000000000000       0.75000000000000000        0.0000000000000000     
  0.25000000000000000       0.62500000000000000        0.0000000000000000     
  0.28125000000000000       0.62500000000000000        0.0000000000000000     
  0.31250000000000000       0.62500000000000000        0.0000000000000000     
  0.34375000000000000       0.62500000000000000        0.0000000000000000     
  0.37500000000000000       0.62500000000000000        0.0000000000000000     
  0.25000000000000000       0.65625000000000000        0.0000000000000000     
  0.28125000000000000       0.65625000000000000        0.0000000000000000     
  0.31250000000000000       0.65625000000000000        0.0000000000000000     
  0.34375000000000000       0.65625000000000000        0.0000000000000000     
  0.37500000000000000       0.65625000000000000        0.0000000000000000     
  0.25000000000000000       0.68750000000000000        0.0000000000000000     
  0.28125000000000000       0.68750000000000000        0.0000000000000000     
  0.31250000000000000       0.68750000000000000        0.0000000000000000     
  0.34375000000000000       0.68750000000000000        0.0000000000000000     
  0.37500000000000000       0.68750000000000000        0.0000000000000000     
  0.25000000000000000       0.71875000000000000        0.0000000000000000     
  0.28125000000000000       0.71875000000000000        0.0000000000000000     
  0.31250000000000000       0.71875000000000000        0.0000000000000000     
  0.34375000000000000       0.71875000000000000        0.0000000000000000     
  0.37500000000000000       0.71875000000000000        0.0000000000000000     
  0.25000000000000000       0.75000000000000000        0.0000000000000000     
  0.28125000000000000       0.75000000000000000        0.0000000000000000     
  0.31250000000000000       0.75000000000000000        0.0000000000000000     
  0.34375000000000000       0.75000000000000000        0.0000000000000000     
  0.37500000000000000       0.75000000000000000        0.0000000000000000     
  0.37500000000000000       0.62500000000000000        0.0000000000000000     
  0.40625000000000000       0.62500000000000000        0.0000000000000000     
  0.43750000000000000       0.62500000000000000        0.0000000000000000     
  0.46875000000000000       0.62500000000000000        0.0000000000000000     
  0.50000000000000000       0.62500000000000000        0.0000000000000000     
  0.37500000000000000       0.65625000000000000        0.0000000000000000     
  0.40625000000000000       0.65625000000000000        0.0000000000000000     
  0.43750000000000000       0.65625000000000000        0.0000000000000000     
  0.46875000000000000       0.65625000000000000        0.0000000000000000     
  0.50000000000000000       0.65625000000000000        0.0000000000000000     
  0.37500000000000000       0.68750000000000000        0.0000000000000000     
  0.40625000000000000       0.68750000000000000        0.0000000000000000     
  0.43750000000000000       0.68750000000000000        0.0000000000000000     
  0.46875000000000000       0.68750000000000000        0.0000000000000000     
  0.50000000000000000       0.68750000000000000        0.0000000000000000     
  0.37500000000000000       0.71875000000000000        0.0000000000000000     
  0.40625000000000000       0.71875000000000000        0.0000000000000000     
  0.43750000000000000       0.71875000000000000        0.0000000000000000     
  0.46875000000000000       0.71875000000000000        0.0000000000000000     
  0.50000000000000000       0.71875000000000000        0.0000000000000000     
  0.37500000000000000       0.75000000000000000        0.0000000000000000     
  0.40625000000000000       0.75000000000000000        0.0000000000000000     
  0.43750000000000000       0.75000000000000000        0.0000000000000000     
  0.46875000000000000       0.75000000000000000        0.0000000000000000     
  0.50000000000000000       0.75000000000000000        0.0000000000000000     
  0.50000000000000000       0.62500000000000000        0.0000000000000000     
  0.53125000000000000       0.62500000000000000        0.0000000000000000     
  0.56250000000000000       0.62500000000000000        0.0000000000000000     
  0.59375000000000000       0.62500000000000000        0.0000000000000000     
  0.62500000000000000       0.62500000000000000        0.0000000000000000     
  0.50000000000000000       0.65625000000000000        0.0000000000000000     
  0.53125000000000000       0.65625000000000000        0.0000000000000000     
  0.56250000000000000       0.65625000000000000        0.0000000000000000     
  0.59375000000000000       0.65625000000000000        0.0000000000000000     
  0.62500000000000000       0.65625000000000000        0.0000000000000000     
  0.50000000000000000       0.68750000000000000        0.0000000000000000     
  0.53125000000000000       0.68750000000000000        0.0000000000000000     
  0.56250000000000000       0.68750000000000000        0.0000000000000000     
  0.59375000000000000       0.68750000000000000        0.0000000000000000     
  0.62500000000000000       0.68750000000000000        0.0000000000000000     
  0.50000000000000000       0.71875000000000000        0.0000000000000000     
  0.53125000000000000       0.71875000000000000        0.0000000000000000     
  0.56250000000000000       0.71875000000000000        0.0000000000000000     
  0.59375000000000000       0.71875000000000000        0.0000000000000000     
  0.62500000000000000       0.71875000000000000        0.0000000000000000     
  0.50000000000000000       0.75000000000000000        0.0000000000000000     
  0.53125000000000000       0.75000000000000000        0.0000000000000000     
  0.56250000000000000       0.75000000000000000        0.0000000000000000     
  0.59375000000000000       0.75000000000000000        0.0000000000000000     
  0.62500000000000000       0.75000000000000000        0.0000000000000000     
  0.62500000000000000       0.62500000000000000        0.0000000000000000     
  0.65625000000000000       0.62500000000000000        0.0000000000000000     
  0.68750000000000000       0.62500000000000000        0.0000000000000000     
  0.71875000000000000       0.62500000000000000        0.0000000000000000     
  0.75000000000000000       0.62500000000000000        0.0000000000000000     
  0.62500000000000000       0.65625000000000000        0.0000000000000000     
  0.65625000000000000       0.65625000000000000        0.0000000000000000     
  0.68750000000000000       0.65625000000000000        0.0000000000000000     
  0.71875000000000000       0.65625000000000000        0.0000000000000000     
  0.75000000000000000       0.65625000000000000        0.0000000000000000     
  0.62500000000000000       0.68750000000000000        0.0000000000000000     
  0.65625000000000000       0.68750000000000000        0.0000000000000000     
  0.68750000000000000       0.68750000000000000        0.0000000000000000     
  0.71875000000000000       0.68750000000000000        0.0000000000000000     
  0.75000000000000000       0.68750000000000000        0.0000000000000000     
  0.62500000000000000       0.71875000000000000        0.0000000000000000     
  0.65625000000000000       0.71875000000000000        0.0000000000000000     
  0.68750000000000000       0.71875000000000000        0.0000000000000000     
  0.71875000000000000       0.71875000000000000        0.0000000000000000     
  0.75000000000000000       0.71875000000000000        0.0000000000000000     
  0.62500000000000000       0.75000000000000000        0.0000000000000000     
  0.65625000000000000       0.75000000000000000        0.0000000000000000     
  0.68750000000000000       0.75000000000000000        0.0000000000000000     
  0.71875000000000000       0.75000000000000000        0.0000000000000000     
  0.75000000000000000       0.75000000000000000        0.0000000000000000     
  0.75000000000000000       0.62500000000000000        0.0000000000000000     
  0.78125000000000000       0.62500000000000000        0.0000000000000000     
  0.81250000000000000       0.62500000000000000        0.0000000000000000     
  0.84375000000000000       0.62500000000000000        0.0000000000000000     
  0.87500000000000000       0.62500000000000000        0.0000000000000000     
  0.75000000000000000       0.65625000000000000        0.0000000000000000     
  0.78125000000000000       0.65625000000000000        0.0000000000000000     
  0.81250000000000000       0.65625000000000000        0.0000000000000000     
  0.84375000000000000       0.65625000000000000        0.0000000000000000     
  0.87500000000000000       0.65625000000000000        0.0000000000000000     
  0.75000000000000000       0.68750000000000000        0.0000000000000000     
  0.78125000000000000       0.68750000000000000        0.0000000000000000     
  0.81250000000000000       0.68750000000000000        0.0000000000000000     
  0.84375000000000000       0.68750000000000000        0.0000000000000000     
  0.87500000000000000       0.68750000000000000        0.0000000000000000     
  0.75000000000000000       0.71875000000000000        0.0000000000000000     
  0.78125000000000000       0.71875000000000000        0.0000000000000000     
  0.81250000000000000       0.71875000000000000        0.0000000000000000     
  0.84375000000000000       0.71875000000000000        0.0000000000000000     
  0.87500000000000000       0.71875000000000000        0.0000000000000000     
  0.75000000000000000       0.75000000000000000        0.0000000000000000     
  0.78125000000000000       0.75000000000000000        0.0000000000000000     
  0.81250000000000000       0.75000000000000000        0.0000000000000000     
  0.84375000000000000       0.75000000000000000        0.0000000000000000     
  0.87500000000000000       0.75000000000000000        0.0000000000000000     
  0.87500000000000000       0.62500000000000000        0.0000000000000000     
  0.90625000000000000       0.62500000000000000        0.0000000000000000     
  0.93750000000000000       0.62500000000000000        0.0000000000000000     
  0.96875000000000000       0.62500000000000000        0.0000000000000000     
   1.0000000000000000       0.62500000000000000        0.0000000000000000     
  0.87500000000000000       0.65625000000000000        0.0000000000000000     
  0.90625000000000000       0.65625000000000000        0.0000000000000000     
  0.93750000000000000       0.65625000000000000        0.0000000000000000     
  0.96875000000000000       0.65625000000000000        0.0000000000000000     
   1.0000000000000000       0.65625000000000000        0.0000000000000000     
  0.87500000000000000       0.68750000000000000        0.0000000000000000     
  0.90625000000000000       0.68750000000000000        0.0000000000000000     
  0.93750000000000000       0.68750000000000000        0.0000000000000000     
  0.96875000000000000       0.68750000000000000        0.0000000000000000     
   1.0000000000000000       0.68750000000000000        0.0000000000000000     
  0.87500000000000000       0.71875000000000000        0.0000000000000000     
  0.90625000000000000       0.71875000000000000        0.0000000000000000     
  0.93750000000000000       0.71875000000000000        0.0000000000000000     
  0.96875000000000000       0.71875000000000000        0.0000000000000000     
   1.0000000000000000       0.71875000000000000        0.0000000000000000     
  0.87500000000000000       0.75000000000000000        0.0000000000000000     
  0.90625000000000000       0.75000000000000000        0.0000000000000000     
  0.93750000000000000       0.75000000000000000        0.0000000000000000     
  0.96875000000000000       0.75000000000000000        0.0000000000000000     
   1.0000000000000000       0.75000000000000000        0.0000000000000000     
   0.0000000000000000       0.75000000000000000        0.0000000000000000     
   3.1250000000000000E-002  0.75000000000000000        0.0000000000000000     
   6.2500000000000000E-002  0.75000000000000000        0.0000000000000000     
   9.3750000000000000E-002  0.75000000000000000        0.0000000000000000     
  0.12500000000000000       0.75000000000000000        0.0000000000000000     
   0.0000000000000000       0.78125000000000000        0.0000000000000000     
   3.1250000000000000E-002  0.78125000000000000        0.0000000000000000     
   6.2500000000000000E-002  0.78125000000000000        0.0000000000000000     
   9.3750000000000000E-002  0.78125000000000000        0.0000000000000000     
  0.12500000000000000       0.78125000000000000        0.0000000000000000     
   0.0000000000000000       0.81250000000000000        0.0000000000000000     
   3.1250000000000000E-002  0.81250000000000000        0.0000000000000000     
   6.2500000000000000E-002  0.81250000000000000        0.0000000000000000     
   9.3750000000000000E-002  0.81250000000000000        0.0000000000000000     
  0.12500000000000000       0.81250000000000000        0.0000000000000000     
   0.0000000000000000       0.84375000000000000        0.0000000000000000     
   3.1250000000000000E-002  0.84375000000000000        0.0000000000000000     
   6.2500000000000000E-002  0.84375000000000000        0.0000000000000000     
   9.3750000000000000E-002  0.84375000000000000        0.0000000000000000     
  0.12500000000000000       0.84375000000000000        0.0000000000000000     
   0.0000000000000000       0.87500000000000000        0.0000000000000000     
   3.1250000000000000E-002  0.87500000000000000        0.0000000000000000     
   6.2500000000000000E-002  0.87500000000000000        0.0000000000000000     
   9.3750000000000000E-002  0.87500000000000000        0.0000000000000000     
  0.12500000000000000       0.87500000000000000        0.0000000000000000     
  0.12500000000000000       0.75000000000000000        0.0000000000000000     
  0.15625000000000000       0.75000000000000000        0.0000000000000000     
  0.18750000000000000       0.75000000000000000        0.0000000000000000     
  0.21875000000000000       0.75000000000000000        0.0000000000000000     
  0.25000000000000000       0.75000000000000000        0.0000000000000000     
  0.12500000000000000       0.78125000000000000        0.0000000000000000     
  0.15625000000000000       0.78125000000000000        0.0000000000000000     
  0.18750000000000000       0.78125000000000000        0.0000000000000000     
  0.21875000000000000       0.78125000000000000        0.0000000000000000     
  0.25000000000000000       0.78125000000000000        0.0000000000000000     
  0.12500000000000000       0.81250000000000000        0.0000000000000000     
  0.15625000000000000       0.81250000000000000        0.0000000000000000     
  0.18750000000000000       0.81250000000000000        0.0000000000000000     
  0.21875000000000000       0.81250000000000000        0.0000000000000000     
  0.25000000000000000       0.81250000000000000        0.0000000000000000     
  0.12500000000000000       0.84375000000000000        0.0000000000000000     
  0.15625000000000000       0.84375000000000000        0.0000000000000000     
  0.18750000000000000       0.84375000000000000        0.0000000000000000     
  0.21875000000000000       0.84375000000000000        0.0000000000000000     
  0.25000000000000000       0.84375000000000000        0.0000000000000000     
  0.12500000000000000       0.87500000000000000        0.0000000000000000     
  0.15625000000000000       0.87500000000000000        0.0000000000000000     
  0.18750000000000000       0.87500000000000000        0.0000000000000000     
  0.21875000000000000       0.87500000000000000        0.0000000000000000     
  0.25000000000000000       0.87500000000000000        0.0000000000000000     
  0.25000000000000000       0.75000000000000000        0.0000000000000000     
  0.28125000000000000       0.75000000000000000        0.0000000000000000     
  0.31250000000000000       0.75000000000000000        0.0000000000000000     
  0.34375000000000000       0.75000000000000000        0.0000000000000000     
  0.37500000000000000       0.75000000000000000        0.0000000000000000     
  0.25000000000000000       0.78125000000000000        0.0000000000000000     
  0.28125000000000000       0.78125000000000000        0.0000000000000000     
  0.31250000000000000       0.78125000000000000        0.0000000000000000     
  0.34375000000000000       0.78125000000000000        0.0000000000000000     
  0.37500000000000000       0.78125000000000000        0.0000000000000000     
  0.25000000000000000       0.81250000000000000        0.0000000000000000     
  0.28125000000000000       0.81250000000000000        0.0000000000000000     
  0.31250000000000000       0.81250000000000000        0.0000000000000000     
  0.34375000000000000       0.81250000000000000        0.0000000000000000     
  0.37500000000000000       0.81250000000000000        0.0000000000000000     
  0.25000000000000000       0.84375000000000000        0.0000000000000000     
  0.28125000000000000       0.84375000000000000        0.0000000000000000     
  0.31250000000000000       0.84375000000000000        0.0000000000000000     
  0.34375000000000000       0.84375000000000000        0.0000000000000000     
  0.37500000000000000       0.84375000000000000        0.0000000000000000     
  0.25000000000000000       0.87500000000000000        0.0000000000000000     
  0.28125000000000000       0.87500000000000000        0.0000000000000000     
  0.31250000000000000       0.87500000000000000        0.0000000000000000     
  0.34375000000000000       0.87500000000000000        0.0000000000000000     
  0.37500000000000000       0.87500000000000000        0.0000000000000000     
  0.37500000000000000       0.75000000000000000        0.0000000000000000     
  0.40625000000000000       0.75000000000000000        0.0000000000000000     
  0.43750000000000000       0.75000000000000000        0.0000000000000000     
  0.46875000000000000       0.75000000000000000        0.0000000000000000     
  0.50000000000000000       0.75000000000000000        0.0000000000000000     
  0.37500000000000000       0.78125000000000000        0.0000000000000000     
  0.40625000000000000       0.78125000000000000        0.0000000000000000     
  0.43750000000000000       0.78125000000000000        0.0000000000000000     
  0.46875000000000000       0.78125000000000000        0.0000000000000000     
  0.50000000000000000       0.78125000000000000        0.0000000000000000     
  0.37500000000000000       0.81250000000000000        0.0000000000000000     
  0.40625000000000000       0.81250000000000000        0.0000000000000000     
  0.43750000000000000       0.81250000000000000        0.0000000000000000     
  0.46875000000000000       0.81250000000000000        0.0000000000000000     
  0.50000000000000000       0.81250000000000000        0.0000000000000000     
  0.37500000000000000       0.84375000000000000        0.0000000000000000     
  0.40625000000000000       0.84375000000000000        0.0000000000000000     
  0.43750000000000000       0.84375000000000000        0.0000000000000000     
  0.46875000000000000       0.84375000000000000        0.0000000000000000     
  0.50000000000000000       0.84375000000000000        0.0000000000000000     
  0.37500000000000000       0.87500000000000000        0.0000000000000000     
  0.40625000000000000       0.87500000000000000        0.0000000000000000     
  0.43750000000000000       0.87500000000000000        0.0000000000000000     
  0.46875000000000000       0.87500000000000000        0.0000000000000000     
  0.50000000000000000       0.87500000000000000        0.0000000000000000     
  0.50000000000000000       0.75000000000000000        0.0000000000000000     
  0.53125000000000000       0.75000000000000000        0.0000000000000000     
  0.56250000000000000       0.75000000000000000        0.0000000000000000     
  0.59375000000000000       0.75000000000000000        0.0000000000000000     
  0.62500000000000000       0.75000000000000000        0.0000000000000000     
  0.50000000000000000       0.78125000000000000        0.0000000000000000     
  0.53125000000000000       0.78125000000000000        0.0000000000000000     
  0.56250000000000000       0.78125000000000000        0.0000000000000000     
  0.59375000000000000       0.78125000000000000        0.0000000000000000     
  0.62500000000000000       0.78125000000000000        0.0000000000000000     
  0.50000000000000000       0.81250000000000000        0.0000000000000000     
  0.53125000000000000       0.81250000000000000        0.0000000000000000     
  0.56250000000000000       0.81250000000000000        0.0000000000000000     
  0.59375000000000000       0.81250000000000000        0.0000000000000000     
  0.62500000000000000       0.81250000000000000        0.0000000000000000     
  0.50000000000000000       0.84375000000000000        0.0000000000000000     
  0.53125000000000000       0.84375000000000000        0.0000000000000000     
  0.56250000000000000       0.84375000000000000        0.0000000000000000     
  0.59375000000000000       0.84375000000000000        0.0000000000000000     
  0.62500000000000000       0.84375000000000000        0.0000000000000000     
  0.50000000000000000       0.87500000000000000        0.0000000000000000     
  0.53125000000000000       0.87500000000000000        0.0000000000000000     
  0.56250000000000000       0.87500000000000000        0.0000000000000000     
  0.59375000000000000       0.87500000000000000        0.0000000000000000     
  0.62500000000000000       0.87500000000000000        0.0000000000000000     
  0.62500000000000000       0.75000000000000000        0.0000000000000000     
  0.65625000000000000       0.75000000000000000        0.0000000000000000     
  0.68750000000000000       0.75000000000000000        0.0000000000000000     
  0.71875000000000000       0.75000000000000000        0.0000000000000000     
  0.75000000000000000       0.75000000000000000        0.0000000000000000     
  0.62500000000000000       0.78125000000000000        0.0000000000000000     
  0.65625000000000000       0.78125000000000000        0.0000000000000000     
  0.68750000000000000       0.78125000000000000        0.0000000000000000     
  0.71875000000000000       0.78125000000000000        0.0000000000000000     
  0.75000000000000000       0.78125000000000000        0.0000000000000000     
  0.62500000000000000       0.81250000000000000        0.0000000000000000     
  0.65625000000000000       0.81250000000000000        0.0000000000000000     
  0.68750000000000000       0.81250000000000000        0.0000000000000000     
  0.71875000000000000       0.81250000000000000        0.0000000000000000     
  0.75000000000000000       0.81250000000000000        0.0000000000000000     
  0.62500000000000000       0.84375000000000000        0.0000000000000000     
  0.65625000000000000       0.84375000000000000        0.0000000000000000     
  0.68750000000000000       0.84375000000000000        0.0000000000000000     
  0.71875000000000000       0.84375000000000000        0.0000000000000000     
  0.75000000000000000       0.84375000000000000        0.0000000000000000     
  0.62500000000000000       0.87500000000000000        0.0000000000000000     
  0.65625000000000000       0.87500000000000000        0.0000000000000000     
  0.68750000000000000       0.87500000000000000        0.0000000000000000     
  0.71875000000000000       0.87500000000000000        0.0000000000000000     
  0.75000000000000000       0.87500000000000000        0.0000000000000000     
  0.75000000000000000       0.75000000000000000        0.0000000000000000     
  0.78125000000000000       0.75000000000000000        0.0000000000000000     
  0.81250000000000000       0.75000000000000000        0.0000000000000000     
  0.84375000000000000       0.75000000000000000        0.0000000000000000     
  0.87500000000000000       0.75000000000000000        0.0000000000000000     
  0.75000000000000000       0.78125000000000000        0.0000000000000000     
  0.78125000000000000       0.78125000000000000        0.0000000000000000     
  0.81250000000000000       0.78125000000000000        0.0000000000000000     
  0.84375000000000000       0.78125000000000000        0.0000000000000000     
  0.87500000000000000       0.78125000000000000        0.0000000000000000     
  0.75000000000000000       0.81250000000000000        0.0000000000000000     
  0.78125000000000000       0.81250000000000000        0.0000000000000000     
  0.81250000000000000       0.81250000000000000        0.0000000000000000     
  0.84375000000000000       0.81250000000000000        0.0000000000000000     
  0.87500000000000000       0.81250000000000000        0.0000000000000000     
  0.75000000000000000       0.84375000000000000        0.0000000000000000     
  0.78125000000000000       0.84375000000000000        0.0000000000000000     
  0.81250000000000000       0.84375000000000000        0.0000000000000000     
  0.84375000000000000       0.84375000000000000        0.0000000000000000     
  0.87500000000000000       0.84375000000000000        0.0000000000000000     
  0.75000000000000000       0.87500000000000000        0.0000000000000000     
  0.78125000000000000       0.87500000000000000        0.0000000000000000     
  0.81250000000000000       0.87500000000000000        0.0000000000000000     
  0.84375000000000000       0.87500000000000000        0.0000000000000000     
  0.87500000000000000       0.87500000000000000        0.0000000000000000     
  0.87500000000000000       0.75000000000000000        0.0000000000000000     
  0.90625000000000000       0.75000000000000000        0.0000000000000000     
  0.93750000000000000       0.75000000000000000        0.0000000000000000     
  0.96875000000000000       0.75000000000000000        0.0000000000000000     
   1.0000000000000000       0.75000000000000000        0.0000000000000000     
  0.87500000000000000       0.78125000000000000        0.0000000000000000     
  0.90625000000000000       0.78125000000000000        0.0000000000000000     
  0.93750000000000000       0.78125000000000000        0.0000000000000000     
  0.96875000000000000       0.78125000000000000        0.0000000000000000     
   1.0000000000000000       0.78125000000000000        0.0000000000000000     
  0.87500000000000000       0.81250000000000000        0.0000000000000000     
  0.90625000000000000       0.81250000000000000        0.0000000000000000     
  0.93750000000000000       0.81250000000000000        0.0000000000000000     
  0.96875000000000000       0.81250000000000000        0.0000000000000000     
   1.0000000000000000       0.81250000000000000        0.0000000000000000     
  0.87500000000000000       0.84375000000000000        0.0000000000000000     
  0.90625000000000000       0.84375000000000000        0.0000000000000000     
  0.93750000000000000       0.84375000000000000        0.0000000000000000     
  0.96875000000000000       0.84375000000000000        0.0000000000000000     
   1.0000000000000000       0.84375000000000000        0.0000000000000000     
  0.87500000000000000       0.87500000000000000        0.0000000000000000     
  0.90625000000000000       0.87500000000000000        0.0000000000000000     
  0.93750000000000000       0.87500000000000000        0.0000000000000000     
  0.96875000000000000       0.87500000000000000        0.0000000000000000     
   1.0000000000000000       0.87500000000000000        0.0000000000000000     
   0.0000000000000000       0.87500000000000000        0.0000000000000000     
   3.1250000000000000E-002  0.87500000000000000        0.0000000000000000     
   6.2500000000000000E-002  0.87500000000000000        0.0000000000000000     
   9.3750000000000000E-002  0.87500000000000000        0.0000000000000000     
  0.12500000000000000       0.87500000000000000        0.0000000000000000     
   0.0000000000000000       0.90625000000000000        0.0000000000000000     
   3.1250000000000000E-002  0.90625000000000000        0.0000000000000000     
   6.2500000000000000E-002  0.90625000000000000        0.0000000000000000     
   9.3750000000000000E-002  0.90625000000000000        0.0000000000000000     
  0.12500000000000000       0.90625000000000000        0.0000000000000000     
   0.0000000000000000       0.93750000000000000        0.0000000000000000     
   3.1250000000000000E-002  0.93750000000000000        0.0000000000000000     
   6.2500000000000000E-002  0.93750000000000000        0.0000000000000000     
   9.3750000000000000E-002  0.93750000000000000        0.0000000000000000     
  0.12500000000000000       0.93750000000000000        0.0000000000000000     
   0.0000000000000000       0.96875000000000000        0.0000000000000000     
   3.1250000000000000E-002  0.96875000000000000        0.0000000000000000     
   6.2500000000000000E-002  0.96875000000000000        0.0000000000000000     
   9.3750000000000000E-002  0.96875000000000000        0.0000000000000000     
  0.12500000000000000       0.96875000000000000        0.0000000000000000     
   0.0000000000000000        1.0000000000000000        0.0000000000000000     
   3.1250000000000000E-002   1.0000000000000000        0.0000000000000000     
   6.2500000000000000E-002   1.0000000000000000        0.0000000000000000     
   9.3750000000000000E-002   1.0000000000000000        0.0000000000000000     
  0.12500000000000000        1.0000000000000000        0.0000000000000000     
  0.12500000000000000       0.87500000000000000        0.0000000000000000     
  0.15625000000000000       0.87500000000000000        0.0000000000000000     
  0.18750000000000000       0.87500000000000000        0.0000000000000000     
  0.21875000000000000       0.87500000000000000        0.0000000000000000     
  0.25000000000000000       0.87500000000000000        0.0000000000000000     
  0.12500000000000000       0.90625000000000000        0.0000000000000000     
  0.15625000000000000       0.90625000000000000        0.0000000000000000     
  0.18750000000000000       0.90625000000000000        0.0000000000000000     
  0.21875000000000000       0.90625000000000000        0.0000000000000000     
  0.25000000000000000       0.90625000000000000        0.0000000000000000     
  0.12500000000000000       0.93750000000000000        0.0000000000000000     
  0.15625000000000000       0.93750000000000000        0.0000000000000000     
  0.18750000000000000       0.93750000000000000        0.0000000000000000     
  0.21875000000000000       0.93750000000000000        0.0000000000000000     
  0.25000000000000000       0.93750000000000000        0.0000000000000000     
  0.12500000000000000       0.96875000000000000        0.0000000000000000     
  0.15625000000000000       0.96875000000000000        0.0000000000000000     
  0.18750000000000000       0.96875000000000000        0.0000000000000000     
  0.21875000000000000       0.96875000000000000        0.0000000000000000     
  0.25000000000000000       0.96875000000000000        0.0000000000000000     
  0.12500000000000000        1.0000000000000000        0.0000000000000000     
  0.15625000000000000        1.0000000000000000        0.0000000000000000     
  0.18750000000000000        1.0000000000000000        0.0000000000000000     
  0.21875000000000000        1.0000000000000000        0.0000000000000000     
  0.25000000000000000        1.0000000000000000        0.0000000000000000     
  0.25000000000000000       0.87500000000000000        0.0000000000000000     
  0.28125000000000000       0.87500000000000000        0.0000000000000000     
  0.31250000000000000       0.87500000000000000        0.0000000000000000     
  0.34375000000000000       0.87500000000000000        0.0000000000000000     
  0.37500000000000000       0.87500000000000000        0.0000000000000000     
  0.25000000000000000       0.90625000000000000        0.0000000000000000     
  0.28125000000000000       0.90625000000000000        0.0000000000000000     
  0.31250000000000000       0.90625000000000000        0.0000000000000000     
  0.34375000000000000       0.90625000000000000        0.0000000000000000     
  0.37500000000000000       0.90625000000000000        0.0000000000000000     
  0.25000000000000000       0.93750000000000000        0.0000000000000000     
  0.28125000000000000       0.93750000000000000        0.0000000000000000     
  0.31250000000000000       0.93750000000000000        0.0000000000000000     
  0.34375000000000000       0.93750000000000000        0.0000000000000000     
  0.37500000000000000       0.93750000000000000        0.0000000000000000     
  0.25000000000000000       0.96875000000000000        0.0000000000000000     
  0.28125000000000000       0.96875000000000000        0.0000000000000000     
  0.31250000000000000       0.96875000000000000        0.0000000000000000     
  0.34375000000000000       0.96875000000000000        0.0000000000000000     
  0.37500000000000000       0.96875000000000000        0.0000000000000000     
  0.25000000000000000        1.0000000000000000        0.0000000000000000     
  0.28125000000000000        1.0000000000000000        0.0000000000000000     
  0.31250000000000000        1.0000000000000000        0.0000000000000000     
  0.34375000000000000        1.0000000000000000        0.0000000000000000     
  0.37500000000000000        1.0000000000000000        0.0000000000000000     
  0.37500000000000000       0.87500000000000000        0.0000000000000000     
  0.40625000000000000       0.87500000000000000        0.0000000000000000     
  0.43750000000000000       0.87500000000000000        0.0000000000000000     
  0.46875000000000000       0.87500000000000000        0.0000000000000000     
  0.50000000000000000       0.87500000000000000        0.0000000000000000     
  0.37500000000000000       0.90625000000000000        0.0000000000000000     
  0.40625000000000000       0.90625000000000000        0.0000000000000000     
  0.43750000000000000       0.90625000000000000        0.0000000000000000     
  0.46875000000000000       0.90625000000000000        0.0000000000000000     
  0.50000000000000000       0.90625000000000000        0.0000000000000000     
  0.37500000000000000       0.93750000000000000        0.0000000000000000     
  0.40625000000000000       0.93750000000000000        0.0000000000000000     
  0.43750000000000000       0.93750000000000000        0.0000000000000000     
  0.46875000000000000       0.93750000000000000        0.0000000000000000     
  0.50000000000000000       0.93750000000000000        0.0000000000000000     
  0.37500000000000000       0.96875000000000000        0.0000000000000000     
  0.40625000000000000       0.96875000000000000        0.0000000000000000     
  0.43750000000000000       0.96875000000000000        0.0000000000000000     
  0.46875000000000000       0.96875000000000000        0.0000000000000000     
  0.50000000000000000       0.96875000000000000        0.0000000000000000     
  0.37500000000000000        1.0000000000000000        0.0000000000000000     
  0.40625000000000000        1.0000000000000000        0.0000000000000000     
  0.43750000000000000        1.0000000000000000        0.0000000000000000     
  0.46875000000000000        1.0000000000000000        0.0000000000000000     
  0.50000000000000000        1.0000000000000000        0.0000000000000000     
  0.50000000000000000       0.87500000000000000        0.0000000000000000     
  0.53125000000000000       0.87500000000000000        0.0000000000000000     
  0.56250000000000000       0.87500000000000000        0.0000000000000000     
  0.59375000000000000       0.87500000000000000        0.0000000000000000     
  0.62500000000000000       0.87500000000000000        0.0000000000000000     
  0.50000000000000000       0.90625000000000000        0.0000000000000000     
  0.53125000000000000       0.90625000000000000        0.0000000000000000     
  0.56250000000000000       0.90625000000000000        0.0000000000000000     
  0.59375000000000000       0.90625000000000000        0.0000000000000000     
  0.62500000000000000       0.90625000000000000        0.0000000000000000     
  0.50000000000000000       0.93750000000000000        0.0000000000000000     
  0.53125000000000000       0.93750000000000000        0.0000000000000000     
  0.56250000000000000       0.93750000000000000        0.0000000000000000     
  0.59375000000000000       0.93750000000000000        0.0000000000000000     
  0.62500000000000000       0.93750000000000000        0.0000000000000000     
  0.50000000000000000       0.96875000000000000        0.0000000000000000     
  0.53125000000000000       0.96875000000000000        0.0000000000000000     
  0.56250000000000000       0.96875000000000000        0.0000000000000000     
  0.59375000000000000       0.96875000000000000        0.0000000000000000     
  0.62500000000000000       0.96875000000000000        0.0000000000000000     
  0.50000000000000000        1.0000000000000000        0.0000000000000000     
  0.53125000000000000        1.0000000000000000        0.0000000000000000     
  0.56250000000000000        1.0000000000000000        0.0000000000000000     
  0.59375000000000000        1.0000000000000000        0.0000000000000000     
  0.62500000000000000        1.0000000000000000        0.0000000000000000     
  0.62500000000000000       0.87500000000000000        0.0000000000000000     
  0.65625000000000000       0.87500000000000000        0.0000000000000000     
  0.68750000000000000       0.87500000000000000        0.0000000000000000     
  0.71875000000000000       0.87500000000000000        0.0000000000000000     
  0.75000000000000000       0.87500000000000000        0.0000000000000000     
  0.62500000000000000       0.90625000000000000        0.0000000000000000     
  0.65625000000000000       0.90625000000000000        0.0000000000000000     
  0.68750000000000000       0.90625000000000000        0.0000000000000000     
  0.71875000000000000       0.90625000000000000        0.0000000000000000     
  0.75000000000000000       0.90625000000000000        0.0000000000000000     
  0.62500000000000000       0.93750000000000000        0.0000000000000000     
  0.65625000000000000       0.93750000000000000        0.0000000000000000     
  0.68750000000000000       0.93750000000000000        0.0000000000000000     
  0.71875000000000000       0.93750000000000000        0.0000000000000000     
  0.75000000000000000       0.93750000000000000        0.0000000000000000     
  0.62500000000000000       0.96875000000000000        0.0000000000000000     
  0.65625000000000000       0.96875000000000000        0.0000000000000000     
  0.68750000000000000       0.96875000000000000        0.0000000000000000     
  0.71875000000000000       0.96875000000000000        0.0000000000000000     
  0.75000000000000000       0.96875000000000000        0.0000000000000000     
  0.62500000000000000        1.0000000000000000        0.0000000000000000     
  0.65625000000000000        1.0000000000000000        0.0000000000000000     
  0.68750000000000000        1.0000000000000000        0.0000000000000000     
  0.71875000000000000        1.0000000000000000        0.0000000000000000     
  0.75000000000000000        1.0000000000000000        0.0000000000000000     
  0.75000000000000000       0.87500000000000000        0.0000000000000000     
  0.78125000000000000       0.87500000000000000        0.0000000000000000     
  0.81250000000000000       0.87500000000000000        0.0000000000000000     
  0.84375000000000000       0.87500000000000000        0.0000000000000000     
  0.87500000000000000       0.87500000000000000        0.0000000000000000     
  0.75000000000000000       0.90625000000000000        0.0000000000000000     
  0.78125000000000000       0.90625000000000000        0.0000000000000000     
  0.81250000000000000       0.90625000000000000        0.0000000000000000     
  0.84375000000000000       0.90625000000000000        0.0000000000000000     
  0.87500000000000000       0.90625000000000000        0.0000000000000000     
  0.75000000000000000       0.93750000000000000        0.0000000000000000     
  0.78125000000000000       0.93750000000000000        0.0000000000000000     
  0.81250000000000000       0.93750000000000000        0.0000000000000000     
  0.84375000000000000       0.93750000000000000        0.0000000000000000     
  0.87500000000000000       0.93750000000000000        0.0000000000000000     
  0.75000000000000000       0.96875000000000000        0.0000000000000000     
  0.78125000000000000       0.96875000000000000        0.0000000000000000     
  0.81250000000000000       0.96875000000000000        0.0000000000000000     
  0.84375000000000000       0.96875000000000000        0.0000000000000000     
  0.87500000000000000       0.96875000000000000        0.0000000000000000     
  0.75000000000000000        1.0000000000000000        0.0000000000000000     
  0.78125000000000000        1.0000000000000000        0.0000000000000000     
  0.81250000000000000        1.0000000000000000        0.0000000000000000     
  0.84375000000000000        1.0000000000000000        0.0000000000000000     
  0.87500000000000000        1.0000000000000000        0.0000000000000000     
  0.87500000000000000       0.87500000000000000        0.0000000000000000     
  0.90625000000000000       0.87500000000000000        0.0000000000000000     
  0.93750000000000000       0.87500000000000000        0.0000000000000000     
  0.96875000000000000       0.87500000000000000        0.0000000000000000     
   1.0000000000000000       0.87500000000000000        0.0000000000000000     
  0.87500000000000000       0.90625000000000000        0.0000000000000000     
  0.90625000000000000       0.90625000000000000        0.0000000000000000     
  0.93750000000000000       0.90625000000000000        0.0000000000000000     
  0.96875000000000000       0.90625000000000000        0.0000000000000000     
   1.0000000000000000       0.90625000000000000        0.0000000000000000     
  0.87500000000000000       0.93750000000000000        0.0000000000000000     
  0.90625000000000000       0.93750000000000000        0.0000000000000000     
  0.93750000000000000       0.93750000000000000        0.0000000000000000     
  0.96875000000000000       0.93750000000000000        0.0000000000000000     
   1.0000000000000000       0.93750000000000000        0.0000000000000000     
  0.87500000000000000       0.96875000000000000        0.0000000000000000     
  0.90625000000000000       0.96875000000000000        0.0000000000000000     
  0.93750000000000000       0.96875000000000000        0.0000000000000000     
  0.96875000000000000       0.96875000000000000        0.0000000000000000     
   1.0000000000000000       0.96875000000000000        0.0000000000000000     
  0.87500000000000000        1.0000000000000000        0.0000000000000000     
  0.90625000000000000        1.0000000000000000        0.0000000000000000     
  0.93750000000000000        1.0000000000000000        0.0000000000000000     
  0.96875000000000000        1.0000000000000000        0.0000000000000000     
   1.0000000000000000        1.0000000000000000        0.0000000000000000     
 </DataArray>
 </Points>
 <Cells>
 <DataArray  type="Int32"  Name="connectivity"  format="ascii">
           0           1           6           5
           1           2           7           6
           2           3           8           7
           3           4           9           8
           5           6          11          10
           6           7          12          11
           7           8          13          12
           8           9          14          13
          10          11          16          15
          11          12          17          16
          12          13          18          17
          13          14          19          18
          15          16          21          20
          16          17          22          21
          17          18          23          22
          18          19          24          23
          25          26          31          30
          26          27          32          31
          27          28          33          32
          28          29          34          33
          30          31          36          35
          31          32          37          36
          32          33          38          37
          33          34          39          38
          35          36          41          40
          36          37          42          41
          37          38          43          42
          38          39          44          43
          40          41          46          45
          41          42          47          46
          42          43          48          47
          43          44          49          48
          50          51          56          55
          51          52          57          56
          52          53          58          57
          53          54          59          58
          55          56          61          60
          56          57          62          61
          57          58          63          62
          58          59          64          63
          60          61          66          65
          61          62          67          66
          62          63          68          67
          63          64          69          68
          65          66          71          70
          66          67          72          71
          67          68          73          72
          68          69          74          73
          75          76          81          80
          76          77          82          81
          77          78          83          82
          78          79          84          83
          80          81          86          85
          81          82          87          86
          82          83          88          87
          83          84          89          88
          85          86          91          90
          86          87          92          91
          87          88          93          92
          88          89          94          93
          90          91          96          95
          91          92          97          96
          92          93          98          97
          93          94          99          98
         100         101         106         105
         101         102         107         106
         102         103         108         107
         103         104         109         108
         105         106         111         110
         106         107         112         111
         107         108         113         112
         108         109         114         113
         110         111         116         115
         111         112         117         116
         112         113         118         117
         113         114         119         118
         115         116         121         120
         116         117         122         121
         117         118         123         122
         118         119         124         123
         125         126         131         130
         126         127         132         131
         127         128         133         132
         128         129         134         133
         130         131         136         135
         131         132         137         136
         132         133         138         137
         133         134         139         138
         135         136         141         140
         136         137         142         141
         137         138         143         142
         138         139         144         143
         140         141         146         145
         141         142         147         146
         142         143         148         147
         143         144         149         148
         150         151         156         155
         151         152         157         156
         152         153         158         157
         153         154         159         158
         155         156         161         160
         156         157         162         161
         157         158         163         162
         158         159         164         163
         160         161         166         165
         161         162         167         166
         162         163         168         167
         163         164         169         168
         165         166         171         170
         166         167         172         171
         167         168         173         172
         168         169         174         173
         175         176         181         180
         176         177         182         181
         177         178         183         182
         178         179         184         183
         180         181         186         185
         181         182         187         186
         182         183         188         187
         183         184         189         188
         185         186         191         190
         186         187         192         191
         187         188         193         192
         188         189         194         193
         190         191         196         195
         191         192         197         196
         192         193         198         197
         193         194         199         198
         200         201         206         205
         201         202         207         206
         202         203         208         207
         203         204         209         208
         205         206         211         210
         206         207         212         211
         207         208         213         212
         208         209         214         213
         210         211         216         215
         211         212         217         216
         212         213         218         217
         213         214         219         218
         215         216         221         220
         216         217         222         221
         217         218         223         222
         218         219         224         223
         225         226         231         230
         226         227         232         231
         227         228         233         232
         228         229         234         233
         230         231         236         235
         231         232         237         236
         232         233         238         237
         233         234         239         238
         235         236         241         240
         236         237         242         241
         237         238         243         242
         238         239         244         243
         240         241         246         245
         241         242         247         246
         242         243         248         247
         243         244         249         248
         250         251         256         255
         251         252         257         256
         252         253         258         257
         253         254         259         258
         255         256         261         260
         256         257         262         261
         257         258         263         262
         258         259         264         263
         260         261         266         265
         261         262         267         266
         262         263         268         267
         263         264         269         268
         265         266         271         270
         266         267         272         271
         267         268         273         272
         268         269         274         273
         275         276         281         280
         276         277         282         281
         277         278         283         282
         278         279         284         283
         280         281         286         285
         281         282         287         286
         282         283         288         287
         283         284         289         288
         285         286         291         290
         286         287         292         291
         287         288         293         292
         288         289         294         293
         290         291         296         295
         291         292         297         296
         292         293         298         297
         293         294         299         298
         300         301         306         305
         301         302         307         306
         302         303         308         307
         303         304         309         308
         305         306         311         310
         306         307         312         311
         307         308         313         312
         308         309         314         313
         310         311         316         315
         311         312         317         316
         312         313         318         317
         313         314         319         318
         315         316         321         320
         316         317         322         321
         317         318         323         322
         318         319         324         323
         325         326         331         330
         326         327         332         331
         327         328         333         332
         328         329         334         333
         330         331         336         335
         331         332         337         336
         332         333         338         337
         333         334         339         338
         335         336         341         340
         336         337         342         341
         337         338         343         342
         338         339         344         343
         340         341         346         345
         341         342         347         346
         342         343         348         347
         343         344         349         348
         350         351         356         355
         351         352         357         356
         352         353         358         357
         353         354         359         358
         355         356         361         360
         356         357         362         361
         357         358         363         362
         358         359         364         363
         360         361         366         365
         361         362         367         366
         362         363         368         367
         363         364         369         368
         365         366         371         370
         366         367         372         371
         367         368         373         372
         368         369         374         373
         375         376         381         380
         376         377         382         381
         377         378         383         382
         378         379         384         383
         380         381         386         385
         381         382         387         386
         382         383         388         387
         383         384         389         388
         385         386         391         390
         386         387         392         391
         387         388         393         392
         388         389         394         393
         390         391         396         395
         391         392         397         396
         392         393         398         397
         393         394         399         398
         400         401         406         405
         401         402         407         406
         402         403         408         407
         403         404         409         408
         405         406         411         410
         406         407         412         411
         407         408         413         412
         408         409         414         413
         410         411         416         415
         411         412         417         416
         412         413         418         417
         413         414         419         418
         415         416         421         420
         416         417         422         421
         417         418         423         422
         418         419         424         423
         425         426         431         430
         426         427         432         431
         427         428         433         432
         428         429         434         433
         430         431         436         435
         431         432         437         436
         432         433         438         437
         433         434         439         438
         435         436         441         440
         436         437         442         441
         437         438         443         442
         438         439         444         443
         440         441         446         445
         441         442         447         446
         442         443         448         447
         443         444         449         448
         450         451         456         455
         451         452         457         456
         452         453         458         457
         453         454         459         458
         455         456         461         460
         456         457         462         461
         457         458         463         462
         458         459         464         463
         460         461         466         465
         461         462         467         466
         462         463         468         467
         463         464         469         468
         465         466         471         470
         466         467         472         471
         467         468         473         472
         468         469         474         473
         475         476         481         480
         476         477         482         481
         477         478         483         482
         478         479         484         483
         480         481         486         485
         481         482         487         486
         482         483         488         487
         483         484         489         488
         485         486         491         490
         486         487         492         491
         487         488         493         492
         488         489         494         493
         490         491         496         495
         491         492         497         496
         492         493         498         497
         493         494         499         498
         500         501         506         505
         501         502         507         506
         502         503         508         507
         503         504         509         508
         505         506         511         510
         506         507         512         511
         507         508         513         512
         508         509         514         513
         510         511         516         515
         511         512         517         516
         512         513         518         517
         513         514         519         518
         515         516         521         520
         516         517         522         521
         517         518         523         522
         518         519         524         523
         525         526         531         530
         526         527         532         531
         527         528         533         532
         528         529         534         533
         530         531         536         535
         531         532         537         536
         532         533         538         537
         533         534         539         538
         535         536         541         540
         536         537         542         541
         537         538         543         542
         538         539         544         543
         540         541         546         545
         541         542         547         546
         542         543         548         547
         543         544         549         548
         550         551         556         555
         551         552         557         556
         552         553         558         557
         553         554         559         558
         555         556         561         560
         556         557         562         561
         557         558         563         562
         558         559         564         563
         560         561         566         565
         561         562         567         566
         562         563         568         567
         563         564         569         568
         565         566         571         570
         566         567         572         571
         567         568         573         572
         568         569         574         573
         575         576         581         580
         576         577         582         581
         577         578         583         582
         578         579         584         583
         580         581         586         585
         581         582         587         586
         582         583         588         587
         583         584         589         588
         585         586         591         590
         586         587         592         591
         587         588         593         592
         588         589         594         593
         590         591         596         595
         591         592         597         596
         592         593         598         597
         593         594         599         598
         600         601         606         605
         601         602         607         606
         602         603         608         607
         603         604         609         608
         605         606         611         610
         606         607         612         611
         607         608         613         612
         608         609         614         613
         610         611         616         615
         611         612         617         616
         612         613         618         617
         613         614         619         618
         615         616         621         620
         616         617         622         621
         617         618         623         622
         618         619         624         623
         625         626         631         630
         626         627         632         631
         627         628         633         632
         628         629         634         633
         630         631         636         635
         631         632         637         636
         632         633         638         637
         633         634         639         638
         635         636         641         640
         636         637         642         641
         637         638         643         642
         638         639         644         643
         640         641         646         645
         641         642         647         646
         642         643         648         647
         643         644         649         648
         650         651         656         655
         651         652         657         656
         652         653         658         657
         653         654         659         658
         655         656         661         660
         656         657         662         661
         657         658         663         662
         658         659         664         663
         660         661         666         665
         661         662         667         666
         662         663         668         667
         663         664         669         668
         665         666         671         670
         666         667         672         671
         667         668         673         672
         668         669         674         673
         675         676         681         680
         676         677         682         681
         677         678         683         682
         678         679         684         683
         680         681         686         685
         681         682         687         686
         682         683         688         687
         683         684         689         688
         685         686         691         690
         686         687         692         691
         687         688         693         692
         688         689         694         693
         690         691         696         695
         691         692         697         696
         692         693         698         697
         693         694         699         698
         700         701         706         705
         701         702         707         706
         702         703         708         707
         703         704         709         708
         705         706         711         710
         706         707         712         711
         707         708         713         712
         708         709         714         713
         710         711         716         715
         711         712         717         716
         712         713         718         717
         713         714         719         718
         715         716         721         720
         716         717         722         721
         717         718         723         722
         718         719         724         723
         725         726         731         730
         726         727         732         731
         727         728         733         732
         728         729         734         733
         730         731         736         735
         731         732         737         736
         732         733         738         737
         733         734         739         738
         735         736         741         740
         736         737         742         741
         737         738         743         742
         738         739         744         743
         740         741         746         745
         741         742         747         746
         742         743         748         747
         743         744         749         748
         750         751         756         755
         751         752         757         756
         752         753         758         757
         753         754         759         758
         755         756         761         760
         756         757         762         761
         757         758         763         762
         758         759         764         763
         760         761         766         765
         761         762         767         766
         762         763         768         767
         763         764         769         768
         765         766         771         770
         766         767         772         771
         767         768         773         772
         768         769         774         773
         775         776         781         780
         776         777         782         781
         777         778         783         782
         778         779         784         783
         780         781         786         785
         781         782         787         786
         782         783         788         787
         783         784         789         788
         785         786         791         790
         786         787         792         791
         787         788         793         792
         788         789         794         793
         790         791         796         795
         791         792         797         796
         792         793         798         797
         793         794         799         798
         800         801         806         805
         801         802         807         806
         802         803         808         807
         803         804         809         808
         805         806         811         810
         806         807         812         811
         807         808         813         812
         808         809         814         813
         810         811         816         815
         811         812         817         816
         812         813         818         817
         813         814         819         818
         815         816         821         820
         816         817         822         821
         817         818         823         822
         818         819         824         823
         825         826         831         830
         826         827         832         831
         827         828         833         832
         828         829         834         833
         830         831         836         835
         831         832         837         836
         832         833         838         837
         833         834         839         838
         835         836         841         840
         836         837         842         841
         837         838         843         842
         838         839         844         843
         840         841         846         845
         841         842         847         846
         842         843         848         847
         843         844         849         848
         850         851         856         855
         851         852         857         856
         852         853         858         857
         853         854         859         858
         855         856         861         860
         856         857         862         861
         857         858         863         862
         858         859         864         863
         860         861         866         865
         861         862         867         866
         862         863         868         867
         863         864         869         868
         865         866         871         870
         866         867         872         871
         867         868         873         872
         868         869         874         873
         875         876         881         880
         876         877         882         881
         877         878         883         882
         878         879         884         883
         880         881         886         885
         881         882         887         886
         882         883         888         887
         883         884         889         888
         885         886         891         890
         886         887         892         891
         887         888         893         892
         888         889         894         893
         890         891         896         895
         891         892         897         896
         892         893         898         897
         893         894         899         898
         900         901         906         905
         901         902         907         906
         902         903         908         907
         903         904         909         908
         905         906         911         910
         906         907         912         911
         907         908         913         912
         908         909         914         913
         910         911         916         915
         911         912         917         916
         912         913         918         917
         913         914         919         918
         915         916         921         920
         916         917         922         921
         917         918         923         922
         918         919         924         923
         925         926         931         930
         926         927         932         931
         927         928         933         932
         928         929         934         933
         930         931         936         935
         931         932         937         936
         932         933         938         937
         933         934         939         938
         935         936         941         940
         936         937         942         941
         937         938         943         942
         938         939         944         943
         940         941         946         945
         941         942         947         946
         942         943         948         947
         943         944         949         948
         950         951         956         955
         951         952         957         956
         952         953         958         957
         953         954         959         958
         955         956         961         960
         956         957         962         961
         957         958         963         962
         958         959         964         963
         960         961         966         965
         961         962         967         966
         962         963         968         967
         963         964         969         968
         965         966         971         970
         966         967         972         971
         967         968         973         972
         968         969         974         973
         975         976         981         980
         976         977         982         981
         977         978         983         982
         978         979         984         983
         980         981         986         985
         981         982         987         986
         982         983         988         987
         983         984         989         988
         985         986         991         990
         986         987         992         991
         987         988         993         992
         988         989         994         993
         990         991         996         995
         991         992         997         996
         992         993         998         997
         993         994         999         998
        1000        1001        1006        1005
        1001        1002        1007        1006
        1002        1003        1008        1007
        1003        1004        1009        1008
        1005        1006        1011        1010
        1006        1007        1012        1011
        1007        1008        1013        1012
        1008        1009        1014        1013
        1010        1011        1016        1015
        1011        1012        1017        1016
        1012        1013        1018        1017
        1013        1014        1019        1018
        1015        1016        1021        1020
        1016        1017        1022        1021
        1017        1018        1023        1022
        1018        1019        1024        1023
        1025        1026        1031        1030
        1026        1027        1032        1031
        1027        1028        1033        1032
        1028        1029        1034        1033
        1030        1031        1036        1035
        1031        1032        1037        1036
        1032        1033        1038        1037
        1033        1034        1039        1038
        1035        1036        1041        1040
        1036        1037        1042        1041
        1037        1038        1043        1042
        1038        1039        1044        1043
        1040        1041        1046        1045
        1041        1042        1047        1046
        1042        1043        1048        1047
        1043        1044        1049        1048
        1050        1051        1056        1055
        1051        1052        1057        1056
        1052        1053        1058        1057
        1053        1054        1059        1058
        1055        1056        1061        1060
        1056        1057        1062        1061
        1057        1058        1063        1062
        1058        1059        1064        1063
        1060        1061        1066        1065
        1061        1062        1067        1066
        1062        1063        1068        1067
        1063        1064        1069        1068
        1065        1066        1071        1070
        1066        1067        1072        1071
        1067        1068        1073        1072
        1068        1069        1074        1073
        1075        1076        1081        1080
        1076        1077        1082        1081
        1077        1078        1083        1082
        1078        1079        1084        1083
        1080        1081        1086        1085
        1081        1082        1087        1086
        1082        1083        1088        1087
        1083        1084        1089        1088
        1085        1086        1091        1090
        1086        1087        1092        1091
        1087        1088        1093        1092
        1088        1089        1094        1093
        1090        1091        1096        1095
        1091        1092        1097        1096
        1092        1093        1098        1097
        1093        1094        1099        1098
        1100        1101        1106        1105
        1101        1102        1107        1106
        1102        1103        1108        1107
        1103        1104        1109        1108
        1105        1106        1111        1110
        1106        1107        1112        1111
        1107        1108        1113        1112
        1108        1109        1114        1113
        1110        1111        1116        1115
        1111        1112        1117        1116
        1112        1113        1118        1117
        1113        1114        1119        1118
        1115        1116        1121        1120
        1116        1117        1122        1121
        1117        1118        1123        1122
        1118        1119        1124        1123
        1125        1126        1131        1130
        1126        1127        1132        1131
        1127        1128        1133        1132
        1128        1129        1134        1133
        1130        1131        1136        1135
        1131        1132        1137        1136
        1132        1133        1138        1137
        1133        1134        1139        1138
        1135        1136        1141        1140
        1136        1137        1142        1141
        1137        1138        1143        1142
        1138        1139        1144        1143
        1140        1141        1146        1145
        1141        1142        1147        1146
        1142        1143        1148        1147
        1143        1144        1149        1148
        1150        1151        1156        1155
        1151        1152        1157        1156
        1152        1153        1158        1157
        1153        1154        1159        1158
        1155        1156        1161        1160
        1156        1157        1162        1161
        1157        1158        1163        1162
        1158        1159        1164        1163
        1160        1161        1166        1165
        1161        1162        1167        1166
        1162        1163        1168        1167
        1163        1164        1169        1168
        1165        1166        1171        1170
        1166        1167        1172        1171
        1167        1168        1173        1172
        1168        1169        1174        1173
        1175        1176        1181        1180
        1176        1177        1182        1181
        1177        1178        1183        1182
        1178        1179        1184        1183
        1180        1181        1186        1185
        1181        1182        1187        1186
        1182        1183        1188        1187
        1183        1184        1189        1188
        1185        1186        1191        1190
        1186        1187        1192        1191
        1187        1188        1193        1192
        1188        1189        1194        1193
        1190        1191        1196        1195
        1191        1192        1197        1196
        1192        1193        1198        1197
        1193        1194        1199        1198
        1200        1201        1206        1205
        1201        1202        1207        1206
        1202        1203        1208        1207
        1203        1204        1209        1208
        1205        1206        1211        1210
        1206        1207        1212        1211
        1207        1208        1213        1212
        1208        1209        1214        1213
        1210        1211        1216        1215
        1211        1212        1217        1216
        1212        1213        1218        1217
        1213        1214        1219        1218
        1215        1216        1221        1220
        1216        1217        1222        1221
        1217        1218        1223        1222
        1218        1219        1224        1223
        1225        1226        1231        1230
        1226        1227        1232        1231
        1227        1228        1233        1232
        1228        1229        1234        1233
        1230        1231        1236        1235
        1231        1232        1237        1236
        1232        1233        1238        1237
        1233        1234        1239        1238
        1235        1236        1241        1240
        1236        1237        1242        1241
        1237        1238        1243        1242
        1238        1239        1244        1243
        1240        1241        1246        1245
        1241        1242        1247        1246
        1242        1243        1248        1247
        1243        1244        1249        1248
        1250        1251        1256        1255
        1251        1252        1257        1256
        1252        1253        1258        1257
        1253        1254        1259        1258
        1255        1256        1261        1260
        1256        1257        1262        1261
        1257        1258        1263        1262
        1258        1259        1264        1263
        1260        1261        1266        1265
        1261        1262        1267        1266
        1262        1263        1268        1267
        1263        1264        1269        1268
        1265        1266        1271        1270
        1266        1267        1272        1271
        1267        1268        1273        1272
        1268        1269        1274        1273
        1275        1276        1281        1280
        1276        1277        1282        1281
        1277        1278        1283        1282
        1278        1279        1284        1283
        1280        1281        1286        1285
        1281        1282        1287        1286
        1282        1283        1288        1287
        1283        1284        1289        1288
        1285        1286        1291        1290
        1286        1287        1292        1291
        1287        1288        1293        1292
        1288        1289        1294        1293
        1290        1291        1296        1295
        1291        1292        1297        1296
        1292        1293        1298        1297
        1293        1294        1299        1298
        1300        1301        1306        1305
        1301        1302        1307        1306
        1302        1303        1308        1307
        1303        1304        1309        1308
        1305        1306        1311        1310
        1306        1307        1312        1311
        1307        1308        1313        1312
        1308        1309        1314        1313
        1310        1311        1316        1315
        1311        1312        1317        1316
        1312        1313        1318        1317
        1313        1314        1319        1318
        1315        1316        1321        1320
        1316        1317        1322        1321
        1317        1318        1323        1322
        1318        1319        1324        1323
        1325        1326        1331        1330
        1326        1327        1332        1331
        1327        1328        1333        1332
        1328        1329        1334        1333
        1330        1331        1336        1335
        1331        1332        1337        1336
        1332        1333        1338        1337
        1333        1334        1339        1338
        1335        1336        1341        1340
        1336        1337        1342        1341
        1337        1338        1343        1342
        1338        1339        1344        1343
        1340        1341        1346        1345
        1341        1342        1347        1346
        1342        1343        1348        1347
        1343        1344        1349        1348
        1350        1351        1356        1355
        1351        1352        1357        1356
        1352        1353        1358        1357
        1353        1354        1359        1358
        1355        1356        1361        1360
        1356        1357        1362        1361
        1357        1358        1363        1362
        1358        1359        1364        1363
        1360        1361        1366        1365
        1361        1362        1367        1366
        1362        1363        1368        1367
        1363        1364        1369        1368
        1365        1366        1371        1370
        1366        1367        1372        1371
        1367        1368        1373        1372
        1368        1369        1374        1373
        1375        1376        1381        1380
        1376        1377        1382        1381
        1377        1378        1383        1382
        1378        1379        1384        1383
        1380        1381        1386        1385
        1381        1382        1387        1386
        1382        1383        1388        1387
        1383        1384        1389        1388
        1385        1386        1391        1390
        1386        1387        1392        1391
        1387        1388        1393        1392
        1388        1389        1394        1393
        1390        1391        1396        1395
        1391        1392        1397        1396
        1392        1393        1398        1397
        1393        1394        1399        1398
        1400        1401        1406        1405
        1401        1402        1407        1406
        1402        1403        1408        1407
        1403        1404        1409        1408
        1405        1406        1411        1410
        1406        1407        1412        1411
        1407        1408        1413        1412
        1408        1409        1414        1413
        1410        1411        1416        1415
        1411        1412        1417        1416
        1412        1413        1418        1417
        1413        1414        1419        1418
        1415        1416        1421        1420
        1416        1417        1422        1421
        1417        1418        1423        1422
        1418        1419        1424        1423
        1425        1426        1431        1430
        1426        1427        1432        1431
        1427        1428        1433        1432
        1428        1429        1434        1433
        1430        1431        1436        1435
        1431        1432        1437        1436
        1432        1433        1438        1437
        1433        1434        1439        1438
        1435        1436        1441        1440
        1436        1437        1442        1441
        1437        1438        1443        1442
        1438        1439        1444        1443
        1440        1441        1446        1445
        1441        1442        1447        1446
        1442        1443        1448        1447
        1443        1444        1449        1448
        1450        1451        1456        1455
        1451        1452        1457        1456
        1452        1453        1458        1457
        1453        1454        1459        1458
        1455        1456        1461        1460
        1456        1457        1462        1461
        1457        1458        1463        1462
        1458        1459        1464        1463
        1460        1461        1466        1465
        1461        1462        1467        1466
        1462        1463        1468        1467
        1463        1464        1469        1468
        1465        1466        1471        1470
        1466        1467        1472        1471
        1467        1468        1473        1472
        1468        1469        1474        1473
        1475        1476        1481        1480
        1476        1477        1482        1481
        1477        1478        1483        1482
        1478        1479        1484        1483
        1480        1481        1486        1485
        1481        1482        1487        1486
        1482        1483        1488        1487
        1483        1484        1489        1488
        1485        1486        1491        1490
        1486        1487        1492        1491
        1487        1488        1493        1492
        1488        1489        1494        1493
        1490        1491        1496        1495
        1491        1492        1497        1496
        1492        1493        1498        1497
        1493        1494        1499        1498
        1500        1501        1506        1505
        1501        1502        1507        1506
        1502        1503        1508        1507
        1503        1504        1509        1508
        1505        1506        1511        1510
        1506        1507        1512        1511
        1507        1508        1513        1512
        1508        1509        1514        1513
        1510        1511        1516        1515
        1511        1512        1517        1516
        1512        1513        1518        1517
        1513        1514        1519        1518
        1515        1516        1521        1520
        1516        1517        1522        1521
        1517        1518        1523        1522
        1518        1519        1524        1523
        1525        1526        1531        1530
        1526        1527        1532        1531
        1527        1528        1533        1532
        1528        1529        1534        1533
        1530        1531        1536        1535
        1531        1532        1537        1536
        1532        1533        1538        1537
        1533        1534        1539        1538
        1535        1536        1541        1540
        1536        1537        1542        1541
        1537        1538        1543        1542
        1538        1539        1544        1543
        1540        1541        1546        1545
        1541        1542        1547        1546
        1542        1543        1548        1547
        1543        1544        1549        1548
        1550        1551        1556        1555
        1551        1552        1557        1556
        1552        1553        1558        1557
        1553        1554        1559        1558
        1555        1556        1561        1560
        1556        1557        1562        1561
        1557        1558        1563        1562
        1558        1559        1564        1563
        1560        1561        1566        1565
        1561        1562        1567        1566
        1562        1563        1568        1567
        1563        1564        1569        1568
        1565        1566        1571        1570
        1566        1567        1572        1571
        1567        1568        1573        1572
        1568        1569        1574        1573
        1575        1576        1581        1580
        1576        1577        1582        1581
        1577        1578        1583        1582
        1578        1579        1584        1583
        1580        1581        1586        1585
        1581        1582        1587        1586
        1582        1583        1588        1587
        1583        1584        1589        1588
        1585        1586        1591        1590
        1586        1587        1592        1591
        1587        1588        1593        1592
        1588        1589        1594        1593
        1590        1591        1596        1595
        1591        1592        1597        1596
        1592        1593        1598        1597
        1593        1594        1599        1598
 </DataArray>
 <DataArray  type="Int32"  Name="offsets"  format="ascii"> 
           4
           8
          12
          16
          20
          24
          28
          32
          36
          40
          44
          48
          52
          56
          60
          64
          68
          72
          76
          80
          84
          88
          92
          96
         100
         104
         108
         112
         116
         120
         124
         128
         132
         136
         140
         144
         148
         152
         156
         160
         164
         168
         172
         176
         180
         184
         188
         192
         196
         200
         204
         208
         212
         216
         220
         224
         228
         232
         236
         240
         244
         248
         252
         256
         260
         264
         268
         272
         276
         280
         284
         288
         292
         296
         300
         304
         308
         312
         316
         320
         324
         328
         332
         336
         340
         344
         348
         352
         356
         360
         364
         368
         372
         376
         380
         384
         388
         392
         396
         400
         404
         408
         412
         416
         420
         424
         428
         432
         436
         440
         444
         448
         452
         456
         460
         464
         468
         472
         476
         480
         484
         488
         492
         496
         500
         504
         508
         512
         516
         520
         524
         528
         532
         536
         540
         544
         548
         552
         556
         560
         564
         568
         572
         576
         580
         584
         588
         592
         596
         600
         604
         608
         612
         616
         620
         624
         628
         632
         636
         640
         644
         648
         652
         656
         660
         664
         668
         672
         676
         680
         684
         688
         692
         696
         700
         704
         708
         712
         716
         720
         724
         728
         732
         736
         740
         744
         748
         752
         756
         760
         764
         768
         772
         776
         780
         784
         788
         792
         796
         800
         804
         808
         812
         816
         820
         824
         828
         832
         836
         840
         844
         848
         852
         856
         860
         864
         868
         872
         876
         880
         884
         888
         892
         896
         900
         904
         908
         912
         916
         920
         924
         928
         932
         936
         940
         944
         948
         952
         956
         960
         964
         968
         972
         976
         980
         984
         988
         992
         996
        1000
        1004
        1008
        1012
        1016
        1020
        1024
        1028
        1032
        1036
        1040
        1044
        1048
        1052
        1056
        1060
        1064
        1068
        1072
        1076
        1080
        1084
        1088
        1092
        1096
        1100
        1104
        1108
        1112
        1116
        1120
        1124
        1128
        1132
        1136
        1140
        1144
        1148
        1152
        1156
        1160
        1164
        1168
        1172
        1176
        1180
        1184
        1188
        1192
        1196
        1200
        1204
        1208
        1212
        1216
        1220
        1224
        1228
        1232
        1236
        1240
        1244
        1248
        1252
        1256
        1260
        1264
        1268
        1272
        1276
        1280
        1284
        1288
        1292
        1296
        1300
        1304
        1308
        1312
        1316
        1320
        1324
        1328
        1332
        1336
        1340
        1344
        1348
        1352
        1356
        1360
        1364
        1368
        1372
        1376
        1380
        1384
        1388
        1392
        1396
        1400
        1404
        1408
        1412
        1416
        1420
        1424
        1428
        1432
        1436
        1440
        1444
        1448
        1452
        1456
        1460
        1464
        1468
        1472
        1476
        1480
        1484
        1488
        1492
        1496
        1500
        1504
        1508
        1512
        1516
        1520
        1524
        1528
        1532
        1536
        1540
        1544
        1548
        1552
        1556
        1560
        1564
        1568
        1572
        1576
        1580
        1584
        1588
        1592
        1596
        1600
        1604
        1608
        1612
        1616
        1620
        1624
        1628
        1632
        1636
        1640
        1644
        1648
        1652
        1656
        1660
        1664
        1668
        1672
        1676
        1680
        1684
        1688
        1692
        1696
        1700
        1704
        1708
        1712
        1716
        1720
        1724
        1728
        1732
        1736
        1740
        1744
        1748
        1752
        1756
        1760
        1764
        1768
        1772
        1776
        1780
        1784
        1788
        1792
        1796
        1800
        1804
        1808
        1812
        1816
        1820
        1824
        1828
        1832
        1836
        1840
        1844
        1848
        1852
        1856
        1860
        1864
        1868
        1872
        1876
        1880
        1884
        1888
        1892
        1896
        1900
        1904
        1908
        1912
        1916
        1920
        1924
        1928
        1932
        1936
        1940
        1944
        1948
        1952
        1956
        1960
        1964
        1968
        1972
        1976
        1980
        1984
        1988
        1992
        1996
        2000
        2004
        2008
        2012
        2016
        2020
        2024
        2028
        2032
        2036
        2040
        2044
        2048
        2052
        2056
        2060
        2064
        2068
        2072
        2076
        2080
        2084
        2088
        2092
        2096
        2100
        2104
        2108
        2112
        2116
        2120
        2124
        2128
        2132
        2136
        2140
        2144
        2148
        2152
        2156
        2160
        2164
        2168
        2172
        2176
        2180
        2184
        2188
        2192
        2196
        2200
        2204
        2208
        2212
        2216
        2220
        2224
        2228
        2232
        2236
        2240
        2244
        2248
        2252
        2256
        2260
        2264
        2268
        2272
        2276
        2280
        2284
        2288
        2292
        2296
        2300
        2304
        2308
        2312
        2316
        2320
        2324
        2328
        2332
        2336
        2340
        2344
        2348
        2352
        2356
        2360
        2364
        2368
        2372
        2376
        2380
        2384
        2388
        2392
        2396
        2400
        2404
        2408
        2412
        2416
        2420
        2424
        2428
        2432
        2436
        2440
        2444
        2448
        2452
        2456
        2460
        2464
        2468
        2472
        2476
        2480
        2484
        2488
        2492
        2496
        2500
        2504
        2508
        2512
        2516
        2520
        2524
        2528
        2532
        2536
        2540
        2544
        2548
        2552
        2556
        2560
        2564
        2568
        2572
        2576
        2580
        2584
        2588
        2592
        2596
        2600
        2604
        2608
        2612
        2616
        2620
        2624
        2628
        2632
        2636
        2640
        2644
        2648
        2652
        2656
        2660
        2664
        2668
        2672
        2676
        2680
        2684
        2688
        2692
        2696
        2700
        2704
        2708
        2712
        2716
        2720
        2724
        2728
        2732
        2736
        2740
        2744
        2748
        2752
        2756
        2760
        2764
        2768
        2772
        2776
        2780
        2784
        2788
        2792
        2796
        2800
        2804
        2808
        2812
        2816
        2820
        2824
        2828
        2832
        2836
        2840
        2844
        2848
        2852
        2856
        2860
        2864
        2868
        2872
        2876
        2880
        2884
        2888
        2892
        2896
        2900
        2904
        2908
        2912
        2916
        2920
        2924
        2928
        2932
        2936
        2940
        2944
        2948
        2952
        2956
        2960
        2964
        2968
        2972
        2976
        2980
        2984
        2988
        2992
        2996
        3000
        3004
        3008
        3012
        3016
        3020
        3024
        3028
        3032
        3036
        3040
        3044
        3048
        3052
        3056
        3060
        3064
        3068
        3072
        3076
        3080
        3084
        3088
        3092
        3096
        3100
        3104
        3108
        3112
        3116
        3120
        3124
        3128
        3132
        3136
        3140
        3144
        3148
        3152
        3156
        3160
        3164
        3168
        3172
        3176
        3180
        3184
        3188
        3192
        3196
        3200
        3204
        3208
        3212
        3216
        3220
        3224
        3228
        3232
        3236
        3240
        3244
        3248
        3252
        3256
        3260
        3264
        3268
        3272
        3276
        3280
        3284
        3288
        3292
        3296
        3300
        3304
        3308
        3312
        3316
        3320
        3324
        3328
        3332
        3336
        3340
        3344
        3348
        3352
        3356
        3360
        3364
        3368
        3372
        3376
        3380
        3384
        3388
        3392
        3396
        3400
        3404
        3408
        3412
        3416
        3420
        3424
        3428
        3432
        3436
        3440
        3444
        3448
        3452
        3456
        3460
        3464
        3468
        3472
        3476
        3480
        3484
        3488
        3492
        3496
        3500
        3504
        3508
        3512
        3516
        3520
        3524
        3528
        3532
        3536
        3540
        3544
        3548
        3552
        3556
        3560
        3564
        3568
        3572
        3576
        3580
        3584
        3588
        3592
        3596
        3600
        3604
        3608
        3612
        3616
        3620
        3624
        3628
        3632
        3636
        3640
        3644
        3648
        3652
        3656
        3660
        3664
        3668
        3672
        3676
        3680
        3684
        3688
        3692
        3696
        3700
        3704
        3708
        3712
        3716
        3720
        3724
        3728
        3732
        3736
        3740
        3744
        3748
        3752
        3756
        3760
        3764
        3768
        3772
        3776
        3780
        3784
        3788
        3792
        3796
        3800
        3804
        3808
        3812
        3816
        3820
        3824
        3828
        3832
        3836
        3840
        3844
        3848
        3852
        3856
        3860
        3864
        3868
        3872
        3876
        3880
        3884
        3888
        3892
        3896
        3900
        3904
        3908
        3912
        3916
        3920
        3924
        3928
        3932
        3936
        3940
        3944
        3948
        3952
        3956
        3960
        3964
        3968
        3972
        3976
        3980
        3984
        3988
        3992
        3996
        4000
        4004
        4008
        4012
        4016
        4020
        4024
        4028
        4032
        4036
        4040
        4044
        4048
        4052
        4056
        4060
        4064
        4068
        4072
        4076
        4080
        4084
        4088
        4092
        4096
 </DataArray>
 <DataArray  type="UInt8"  Name="types"  format="ascii">
 9
 9
 9
 9
 9
 9
 9
 9
 9
 9
 9
 9
 9
 9
 9
 9
 9
 9
 9
 9
 9
 9
 9
 9
 9
 9
 9
 9
 9
 9
 9
 9
 9
 9
 9
 9
 9
 9
 9
 9
 9
 9
 9
 9
 9
 9
 9
 9
 9
 9
 9
 9
 9
 9
 9
 9
 9
 9
 9
 9
 9
 9
 9
 9
 9
 9
 9
 9
 9
 9
 9
 9
 9
 9
 9
 9
 9
 9
 9
 9
 9
 9
 9
 9
 9
 9
 9
 9
 9
 9
 9
 9
 9
 9
 9
 9
 9
 9
 9
 9
 9
 9
 9
 9
 9
 9
 9
 9
 9
 9
 9
 9
 9
 9
 9
 9
 9
 9
 9
 9
 9
 9
 9
 9
 9
 9
 9
 9
 9
 9
 9
 9
 9
 9
 9
 9
 9
 9
 9
 9
 9
 9
 9
 9
 9
 9
 9
 9
 9
 9
 9
 9
 9
 9
 9
 9
 9
 9
 9
 9
 9
 9
 9
 9
 9
 9
 9
 9
 9
 9
 9
 9
 9
 9
 9
 9
 9
 9
 9
 9
 9
 9
 9
 9
 9
 9
 9
 9
 9
 9
 9
 9
 9
 9
 9
 9
 9
 9
 9
 9
 9
 9
 9
 9
 9
 9
 9
 9
 9
 9
 9
 9
 9
 9
 9
 9
 9
 9
 9
 9
 9
 9
 9
 9
 9
 9
 9
 9
 9
 9
 9
 9
 9
 9
 9
 9
 9
 9
 9
 9
 9
 9
 9
 9
 9
 9
 9
 9
 9
 9
 9
 9
 9
 9
 9
 9
 9
 9
 9
 9
 9
 9
 9
 9
 9
 9
 9
 9
 9
 9
 9
 9
 9
 9
 9
 9
 9
 9
 9
 9
 9
 9
 9
 9
 9
 9
 9
 9
 9
 9
 9
 9
 9
 9
 9
 9
 9
 9
 9
 9
 9
 9
 9
 9
 9
 9
 9
 9
 9
 9
 9
 9
 9
 9
 9
 9
 9
 9
 9
 9
 9
 9
 9
 9
 9
 9
 9
 9
 9
 9
 9
 9
 9
 9
 9
 9
 9
 9
 9
 9
 9
 9
 9
 9
 9
 9
 9
 9
 9
 9
 9
 9
 9
 9
 9
 9
 9
 9
 9
 9
 9
 9
 9
 9
 9
 9
 9
 9
 9
 9
 9
 9
 9
 9
 9
 9
 9
 9
 9
 9
 9
 9
 9
 9
 9
 9
 9
 9
 9
 9
 9
 9
 9
 9
 9
 9
 9
 9
 9
 9
 9
 9
 9
 9
 9
 9
 9
 9
 9
 9
 9
 9
 9
 9
 9
 9
 9
 9
 9
 9
 9
 9
 9
 9
 9
 9
 9
 9
 9
 9
 9
 9
 9
 9
 9
 9
 9
 9
 9
 9
 9
 9
 9
 9
 9
 9
 9
 9
 9
 9
 9
 9
 9
 9
 9
 9
 9
 9
 9
 9
 9
 9
 9
 9
 9
 9
 9
 9
 9
 9
 9
 9
 9
 9
 9
 9
 9
 9
 9
 9
 9
 9
 9
 9
 9
 9
 9
 9
 9
 9
 9
 9
 9
 9
 9
 9
 9
 9
 9
 9
 9
 9
 9
 9
 9
 9
 9
 9
 9
 9
 9
 9
 9
 9
 9
 9
 9
 9
 9
 9
 9
 9
 9
 9
 9
 9
 9
 9
 9
 9
 9
 9
 9
 9
 9
 9
 9
 9
 9
 9
 9
 9
 9
 9
 9
 9
 9
 9
 9
 9
 9
 9
 9
 9
 9
 9
 9
 9
 9
 9
 9
 9
 9
 9
 9
 9
 9
 9
 9
 9
 9
 9
 9
 9
 9
 9
 9
 9
 9
 9
 9
 9
 9
 9
 9
 9
 9
 9
 9
 9
 9
 9
 9
 9
 9
 9
 9
 9
 9
 9
 9
 9
 9
 9
 9
 9
 9
 9
 9
 9
 9
 9
 9
 9
 9
 9
 9
 9
 9
 9
 9
 9
 9
 9
 9
 9
 9
 9
 9
 9
 9
 9
 9
 9
 9
 9
 9
 9
 9
 9
 9
 9
 9
 9
 9
 9
 9
 9
 9
 9
 9
 9
 9
 9
 9
 9
 9
 9
 9
 9
 9
 9
 9
 9
 9
 9
 9
 9
 9
 9
 9
 9
 9
 9
 9
 9
 9
 9
 9
 9
 9
 9
 9
 9
 9
 9
 9
 9
 9
 9
 9
 9
 9
 9
 9
 9
 9
 9
 9
 9
 9
 9
 9
 9
 9
 9
 9
 9
 9
 9
 9
 9
 9
 9
 9
 9
 9
 9
 9
 9
 9
 9
 9
 9
 9
 9
 9
 9
 9
 9
 9
 9
 9
 9
 9
 9
 9
 9
 9
 9
 9
 9
 9
 9
 9
 9
 9
 9
 9
 9
 9
 9
 9
 9
 9
 9
 9
 9
 9
 9
 9
 9
 9
 9
 9
 9
 9
 9
 9
 9
 9
 9
 9
 9
 9
 9
 9
 9
 9
 9
 9
 9
 9
 9
 9
 9
 9
 9
 9
 9
 9
 9
 9
 9
 9
 9
 9
 9
 9
 9
 9
 9
 9
 9
 9
 9
 9
 9
 9
 9
 9
 9
 9
 9
 9
 9
 9
 9
 9
 9
 9
 9
 9
 9
 9
 9
 9
 9
 9
 9
 9
 9
 9
 9
 9
 9
 9
 9
 9
 9
 9
 9
 9
 9
 9
 9
 9
 9
 9
 9
 9
 9
 9
 9
 9
 9
 9
 9
 9
 9
 9
 9
 9
 9
 9
 9
 9
 9
 9
 9
 9
 9
 9
 9
 9
 9
 9
 9
 9
 9
 9
 9
 9
 9
 9
 9
 9
 9
 9
 9
 9
 9
 9
 9
 9
 9
 9
 9
 9
 9
 9
 9
 9
 9
 9
 9
 9
 9
 9
 9
 9
 9
 9
 9
 9
 9
 9
 9
 9
 9
 9
 9
 9
 9
 9
 9
 9
 9
 9
 9
 9
 9
 9
 9
 9
 9
 9
 9
 9
 9
 9
 9
 9
 9
 9
 9
 9
 9
 9
 9
 9
 9
 9
 9
 9
 9
 9
 9
 9
 9
 9
 9
 9
 9
 9
 9
 9
 9
 9
 9
 9
 9
 9
 9
 9
 9
 9
 9
 9
 9
 9
 9
 9
 9
 9
 9
 9
 9
 9
 9
 9
 9
 9
 9
 9
 9
 9
 9
 9
 9
 9
 9
 9
 9
 9
 9
 9
 9
 9
 9
 9
 9
 9
 9
 9
 9
 9
 9
 9
 9
 9
 9
 9
 9
 </DataArray>
 </Cells> 
 <PointData>
 <DataArray  type="Float64" Name="disp" NumberOfComponents="3" format="ascii">
   0.0000000000000000        0.0000000000000000        0.0000000000000000     
   6.0959668813935219E-003   3.7903512606730924E-003   0.0000000000000000     
   1.1666039817279731E-002   7.3237785773635020E-003   0.0000000000000000     
   1.6710218807658626E-002   1.0600281950071230E-002   0.0000000000000000     
   2.1228503852530212E-002   1.3619861378796276E-002   0.0000000000000000     
   0.0000000000000000        0.0000000000000000        0.0000000000000000     
   4.8911696722769068E-003   3.0220351879147169E-003   0.0000000000000000     
   9.5736618612887528E-003   6.0604377198623834E-003   0.0000000000000000     
   1.4047476567035535E-002   9.1152075958430001E-003   0.0000000000000000     
   1.8312613789517256E-002   1.2186344815856568E-002   0.0000000000000000     
   0.0000000000000000        0.0000000000000000        0.0000000000000000     
   3.9535849938218447E-003   2.4250086332638456E-003   0.0000000000000000     
   7.9106328245443502E-003   5.0628000827725138E-003   0.0000000000000000     
   1.1871143492167512E-002   7.9133743485260057E-003   0.0000000000000000     
   1.5835116996691337E-002   1.0976731430524321E-002   0.0000000000000000     
   0.0000000000000000        0.0000000000000000        0.0000000000000000     
   3.2832128460283348E-003   1.9992715967204794E-003   0.0000000000000000     
   6.6769527070465219E-003   4.3308656660938950E-003   0.0000000000000000     
   1.0181219583054561E-002   6.9947822081202473E-003   0.0000000000000000     
   1.3796013474052455E-002   9.9910212227995367E-003   0.0000000000000000     
   0.0000000000000000        0.0000000000000000        0.0000000000000000     
   2.8800532288963772E-003   1.7448240782846187E-003   0.0000000000000000     
   5.8726215087952713E-003   3.8646344698265271E-003   0.0000000000000000     
   8.9777048396966833E-003   6.3594311746257267E-003   0.0000000000000000     
   1.2195303221600610E-002   9.2292141926822151E-003   0.0000000000000000     
   2.1228503852530212E-002   1.3619861378796276E-002   0.0000000000000000     
   2.5433642587446362E-002   1.6612963673714978E-002   0.0000000000000000     
   2.9538382647958959E-002   1.9810035645003679E-002   0.0000000000000000     
   3.3542724034068008E-002   2.3211077292662374E-002   0.0000000000000000     
   3.7446666745773495E-002   2.6816088616691068E-002   0.0000000000000000     
   1.8312613789517256E-002   1.2186344815856568E-002   0.0000000000000000     
   2.2407279021650243E-002   1.5341992422584553E-002   0.0000000000000000     
   2.6369677756350841E-002   1.8650293458708427E-002   0.0000000000000000     
   3.0199809993619035E-002   2.2111247924228188E-002   0.0000000000000000     
   3.3897675733454834E-002   2.5724855819143837E-002   0.0000000000000000     
   1.5835116996691337E-002   1.0976731430524321E-002   0.0000000000000000     
   1.9730832369210093E-002   1.4211480639141950E-002   0.0000000000000000     
   2.3486568640818061E-002   1.7576231284753378E-002   0.0000000000000000     
   2.7102325811515247E-002   2.1070983367358614E-002   0.0000000000000000     
   3.0578103881301631E-002   2.4695736886957659E-002   0.0000000000000000     
   1.3796013474052455E-002   9.9910212227995367E-003   0.0000000000000000     
   1.7404302630125910E-002   1.3221428323387170E-002   0.0000000000000000     
   2.0889055301360634E-002   1.6587849123138543E-002   0.0000000000000000     
   2.4250271487756627E-002   2.0090283622053666E-002   0.0000000000000000     
   2.7487951189313891E-002   2.3728731820132538E-002   0.0000000000000000     
   1.2195303221600610E-002   9.2292141926822151E-003   0.0000000000000000     
   1.5427689804397685E-002   1.2371835475320206E-002   0.0000000000000000     
   1.8577137737978550E-002   1.5685146973863914E-002   0.0000000000000000     
   2.1643647022343188E-002   1.9169148688313337E-002   0.0000000000000000     
   2.4627217657491610E-002   2.2823840618668472E-002   0.0000000000000000     
   3.7446666745773495E-002   2.6816088616691068E-002   0.0000000000000000     
   4.1255162198572871E-002   3.0620770979433526E-002   0.0000000000000000     
   4.4973161807963589E-002   3.4620825743233503E-002   0.0000000000000000     
   4.8600665573945635E-002   3.8816252908090994E-002   0.0000000000000000     
   5.2137673496519016E-002   4.3207052474006018E-002   0.0000000000000000     
   3.3897675733454834E-002   2.5724855819143837E-002   0.0000000000000000     
   3.7486520724858668E-002   2.9520448141446089E-002   0.0000000000000000     
   4.0989590716830948E-002   3.3527355889125671E-002   0.0000000000000000     
   4.4406885709371707E-002   3.7745579062182559E-002   0.0000000000000000     
   4.7738405702480918E-002   4.2175117660616789E-002   0.0000000000000000     
   3.0578103881301631E-002   2.4695736886957659E-002   0.0000000000000000     
   3.3943096431878927E-002   2.8495580124411363E-002   0.0000000000000000     
   3.7226497044948813E-002   3.2515601360580612E-002   0.0000000000000000     
   4.0428305720511294E-002   3.6755800595465390E-002   0.0000000000000000     
   4.3548522458566365E-002   4.1216177829065712E-002   0.0000000000000000     
   2.7487951189313891E-002   2.3728731820132538E-002   0.0000000000000000     
   3.0624889319633659E-002   2.7546166928329362E-002   0.0000000000000000     
   3.3683880792317163E-002   3.1585562157598342E-002   0.0000000000000000     
   3.6664925607364410E-002   3.5846917507939488E-002   0.0000000000000000     
   3.9568023764775390E-002   4.0330232979352801E-002   0.0000000000000000     
   2.4627217657491610E-002   2.2823840618668472E-002   0.0000000000000000     
   2.7531899388122869E-002   2.6672208553200072E-002   0.0000000000000000     
   3.0361741958936015E-002   3.0737238280178866E-002   0.0000000000000000     
   3.3116745369931047E-002   3.5018929799604859E-002   0.0000000000000000     
   3.5796909621107958E-002   3.9517283111478049E-002   0.0000000000000000     
   5.2137673496519016E-002   4.3207052474006018E-002   0.0000000000000000     
   5.5579076875903140E-002   4.7797419358713386E-002   0.0000000000000000     
   5.8919767012317395E-002   5.2591548479947924E-002   0.0000000000000000     
   6.2159743905761816E-002   5.7589439837709644E-002   0.0000000000000000     
   6.5299007556236369E-002   6.2791093431998540E-002   0.0000000000000000     
   4.7738405702480918E-002   4.2175117660616789E-002   0.0000000000000000     
   5.0979643453642212E-002   4.6808693811464741E-002   0.0000000000000000     
   5.4126091720339220E-002   5.1639029641762861E-002   0.0000000000000000     
   5.7177750502571956E-002   5.6666125151511142E-002   0.0000000000000000     
   6.0134619800340391E-002   6.1889980340709569E-002   0.0000000000000000     
   4.3548522458566365E-002   4.1216177829065712E-002   0.0000000000000000     
   4.6583754888462670E-002   4.5883263070044311E-002   0.0000000000000000     
   4.9530610639548854E-002   5.0743586327063932E-002   0.0000000000000000     
   5.2389089711824897E-002   5.5797147600124573E-002   0.0000000000000000     
   5.5159192105290820E-002   6.1043946889226257E-002   0.0000000000000000     
   3.9568023764775390E-002   4.0330232979352801E-002   0.0000000000000000     
   4.2391411180364540E-002   4.5021127134452082E-002   0.0000000000000000     
   4.5133323769946297E-002   4.9905218535851135E-002   0.0000000000000000     
   4.7793761533520655E-002   5.4982507183549974E-002   0.0000000000000000     
   5.0372724471087642E-002   6.0252993077548590E-002   0.0000000000000000     
   3.5796909621107958E-002   3.9517283111478049E-002   0.0000000000000000     
   3.8402612329347781E-002   4.4222286004688048E-002   0.0000000000000000     
   4.0934231111531549E-002   4.9123926268124479E-002   0.0000000000000000     
   4.3391765967659222E-002   5.4222203901787315E-002   0.0000000000000000     
   4.5775216897730842E-002   5.9517118905676583E-002   0.0000000000000000     
   6.5299007556236369E-002   6.2791093431998540E-002   0.0000000000000000     
   6.8345691057832170E-002   6.8182542410104560E-002   0.0000000000000000     
   7.1307927504640309E-002   7.3749819919317658E-002   0.0000000000000000     
   7.4185716896660800E-002   7.9492925959637847E-002   0.0000000000000000     
   7.6979059233893643E-002   8.5411860531065129E-002   0.0000000000000000     
   6.0134619800340391E-002   6.1889980340709569E-002   0.0000000000000000     
   6.3002313055138925E-002   6.7301949769959457E-002   0.0000000000000000     
   6.5786443708461886E-002   7.2893387999862114E-002   0.0000000000000000     
   6.8487011760309330E-002   7.8664295030417539E-002   0.0000000000000000     
   7.1104017210681200E-002   8.4614670861625746E-002   0.0000000000000000     
   5.5159192105290820E-002   6.1043946889226257E-002   0.0000000000000000     
   5.7844456441471959E-002   6.6478177296254021E-002   0.0000000000000000     
   6.0448421341893654E-002   7.2094031923092966E-002   0.0000000000000000     
   6.2971086806555915E-002   7.7891510769743100E-002   0.0000000000000000     
   6.5412452835458768E-002   8.3870613836204394E-002   0.0000000000000000     
   5.0372724471087642E-002   6.0252993077548590E-002   0.0000000000000000     
   5.2872121216831262E-002   6.5711224988988265E-002   0.0000000000000000     
   5.5293860404935585E-002   7.1351751689010229E-002   0.0000000000000000     
   5.7637942035400611E-002   7.7174573177614531E-002   0.0000000000000000     
   5.9904366108226345E-002   8.3179689454801142E-002   0.0000000000000000     
   4.5775216897730842E-002   5.9517118905676583E-002   0.0000000000000000     
   4.8085307381216850E-002   6.5001092848162162E-002   0.0000000000000000     
   5.0322760897587700E-002   7.0666547297613902E-002   0.0000000000000000     
   5.2487577446843396E-002   7.6513482254031817E-002   0.0000000000000000     
   5.4579757028983940E-002   8.2541897717415921E-002   0.0000000000000000     
   7.6979059233893643E-002   8.5411860531065129E-002   0.0000000000000000     
   7.9676586068364988E-002   9.1500294455254857E-002   0.0000000000000000     
   8.2266928952100998E-002   9.7751898553862460E-002   0.0000000000000000     
   8.4750087885101674E-002  0.10416667282688785        0.0000000000000000     
   8.7126062867367016E-002  0.11074461727433112        0.0000000000000000     
   7.1104017210681200E-002   8.4614670861625746E-002   0.0000000000000000     
   7.3629173412705182E-002   9.0735615456178420E-002   0.0000000000000000     
   7.6054193719508958E-002   9.7018228776767329E-002   0.0000000000000000     
   7.8379078131092503E-002  0.10346251082339249        0.0000000000000000     
   8.0603826647455842E-002  0.11006846159605384        0.0000000000000000     
   6.5412452835458768E-002   8.3870613836204394E-002   0.0000000000000000     
   6.7766585095468040E-002   9.0020746959046188E-002   0.0000000000000000     
   7.0027549253449617E-002   9.6331315974837753E-002   0.0000000000000000     
   7.2195345309403552E-002  0.10280232088357914        0.0000000000000000     
   7.4269973263329764E-002  0.10943376168527028        0.0000000000000000     
   5.9904366108226345E-002   8.3179689454801142E-002   0.0000000000000000     
   6.2088821116653550E-002   8.9355688963858176E-002   0.0000000000000000     
   6.4186995553923029E-002   9.5691160148073717E-002   0.0000000000000000     
   6.6198889420034782E-002  0.10218610300744782        0.0000000000000000     
   6.8124502714988794E-002  0.10884051754198044        0.0000000000000000     
   5.4579757028983940E-002   8.2541897717415921E-002   0.0000000000000000     
   5.6595881476261725E-002   8.8740441470614342E-002   0.0000000000000000     
   5.8532532620929160E-002   9.5097761296475208E-002   0.0000000000000000     
   6.0389710462986232E-002  0.10161385719499855        0.0000000000000000     
   6.2167415002432946E-002  0.10828872916618430        0.0000000000000000     
   8.7126062867367016E-002  0.11074461727433112        0.0000000000000000     
   8.9400264714973240E-002  0.11746898570247775        0.0000000000000000     
   9.1578104243996553E-002  0.12432303191761326        0.0000000000000000     
   9.3659581454436980E-002  0.13130675591973770        0.0000000000000000     
   9.5644696346294494E-002  0.13842015770885105        0.0000000000000000     
   8.0603826647455842E-002  0.11006846159605384        0.0000000000000000     
   8.2738359562066904E-002  0.11681880702193352        0.0000000000000000     
   8.4792597168393616E-002  0.12369627302821359        0.0000000000000000     
   8.6766539466435991E-002  0.13070085961489405        0.0000000000000000     
   8.8660186456194043E-002  0.13783256678197492        0.0000000000000000     
   7.4269973263329764E-002  0.10943376168527028        0.0000000000000000     
   7.6263661561399729E-002  0.11620852016350948        0.0000000000000000     
   7.8188638649784856E-002  0.12310947810189503        0.0000000000000000     
   8.0044904528485131E-002  0.13013663550042684        0.0000000000000000     
   8.1832459197500582E-002  0.13728999235910500        0.0000000000000000     
   6.8124502714988794E-002  0.10884051754198044        0.0000000000000000     
   6.9976170712971755E-002  0.11563812512720567        0.0000000000000000     
   7.1766228688170272E-002  0.12256264713865751        0.0000000000000000     
   7.3494676640584400E-002  0.12961408357633603        0.0000000000000000     
   7.5161514570214083E-002  0.13679243444024122        0.0000000000000000     
   6.2167415002432946E-002  0.10828872916618430        0.0000000000000000     
   6.3875887016782942E-002  0.11510762191302201        0.0000000000000000     
   6.5525367283549879E-002  0.12205578013850113        0.0000000000000000     
   6.7115855802733757E-002  0.12913320384262167        0.0000000000000000     
   6.8647352574334575E-002  0.13633989302538360        0.0000000000000000     
   9.5644696346294494E-002  0.13842015770885105        0.0000000000000000     
   9.7551498850022914E-002  0.14565021181752230        0.0000000000000000     
   9.9398038896075999E-002  0.15298389277832047        0.0000000000000000     
  0.10118431648445375       0.16042120059124562        0.0000000000000000     
  0.10291033161515618       0.16796213525629763        0.0000000000000000     
   8.8660186456194043E-002  0.13783256678197492        0.0000000000000000     
   9.0469658889766200E-002  0.14508490337982033        0.0000000000000000     
   9.2191077519250930E-002  0.15245137825879440        0.0000000000000000     
   9.3824442344648235E-002  0.15993199141889716        0.0000000000000000     
   9.5369753365958126E-002  0.16752674286012859        0.0000000000000000     
   8.1832459197500582E-002  0.13728999235910500        0.0000000000000000     
   8.3533959916496370E-002  0.14456638871999933        0.0000000000000000     
   8.5132063945137740E-002  0.15196266462517985        0.0000000000000000     
   8.6626771283424664E-002  0.15947882007464642        0.0000000000000000     
   8.8018081931357142E-002  0.16711485506839915        0.0000000000000000     
   7.5161514570214083E-002  0.13679243444024122        0.0000000000000000     
   7.6744401930213368E-002  0.14409466783805930        0.0000000000000000     
   7.8220998173736359E-002  0.15151775187747671        0.0000000000000000     
   7.9591303300782956E-002  0.15906168655849340        0.0000000000000000     
   8.0855317311353245E-002  0.16672647188110931        0.0000000000000000     
   6.8647352574334575E-002  0.13633989302538360        0.0000000000000000     
   7.0100984930917279E-002  0.14366974073400030        0.0000000000000000     
   7.1457880205046814E-002  0.15111664001568514        0.0000000000000000     
   7.2718038396723195E-002  0.15868059087043804        0.0000000000000000     
   7.3881459505946406E-002  0.16636159329825911        0.0000000000000000     
   0.0000000000000000        0.0000000000000000        0.0000000000000000     
   2.8800532288963772E-003   1.7448240782846187E-003   0.0000000000000000     
   5.8726215087952713E-003   3.8646344698265271E-003   0.0000000000000000     
   8.9777048396966833E-003   6.3594311746257267E-003   0.0000000000000000     
   1.2195303221600610E-002   9.2292141926822151E-003   0.0000000000000000     
   0.0000000000000000        0.0000000000000000        0.0000000000000000     
   2.6102806271550080E-003   1.5889751572325458E-003   0.0000000000000000     
   5.2896747742109361E-003   3.5567604105910845E-003   0.0000000000000000     
   8.0381824411677842E-003   5.9033557600756160E-003   0.0000000000000000     
   1.0855803628025552E-002   8.6287612056861404E-003   0.0000000000000000     
   0.0000000000000000        0.0000000000000000        0.0000000000000000     
   2.3400695255332625E-003   1.4590339128405449E-003   0.0000000000000000     
   4.7201480477138550E-003   3.2998974050082418E-003   0.0000000000000000     
   7.1402355665417788E-003   5.5225904765030922E-003   0.0000000000000000     
   9.6003320820170317E-003   8.1271131273250915E-003   0.0000000000000000     
   0.0000000000000000        0.0000000000000000        0.0000000000000000     
   2.0694199240311397E-003   1.3550003451086158E-003   0.0000000000000000     
   4.1640413293040279E-003   3.0940454530779997E-003   0.0000000000000000     
   6.2838642158186643E-003   5.2171353239081524E-003   0.0000000000000000     
   8.4288885835750466E-003   7.7242699575990727E-003   0.0000000000000000     
   0.0000000000000000        0.0000000000000000        0.0000000000000000     
   1.7983318226486415E-003   1.2768744540367586E-003   0.0000000000000000     
   3.6213546189814553E-003   2.9392045548003584E-003   0.0000000000000000     
   5.4690683889984416E-003   4.9869903022908002E-003   0.0000000000000000     
   7.3414731326996007E-003   7.4202316965080815E-003   0.0000000000000000     
   1.2195303221600610E-002   9.2292141926822151E-003   0.0000000000000000     
   1.5427689804397685E-002   1.2371835475320206E-002   0.0000000000000000     
   1.8577137737978550E-002   1.5685146973863914E-002   0.0000000000000000     
   2.1643647022343188E-002   1.9169148688313337E-002   0.0000000000000000     
   2.4627217657491610E-002   2.2823840618668472E-002   0.0000000000000000     
   1.0855803628025552E-002   8.6287612056861404E-003   0.0000000000000000     
   1.3689148501797713E-002   1.1650733189001984E-002   0.0000000000000000     
   1.6484827229497748E-002   1.4887028151602472E-002   0.0000000000000000     
   1.9242839811125644E-002   1.8337646093487606E-002   0.0000000000000000     
   2.1963186246681411E-002   2.2002587014657390E-002   0.0000000000000000     
   9.6003320820170317E-003   8.1271131273250915E-003   0.0000000000000000     
   1.2076833332098275E-002   1.1046152558493406E-002   0.0000000000000000     
   1.4546135054744169E-002   1.4212395971027199E-002   0.0000000000000000     
   1.7008237249954712E-002   1.7625843364926466E-002   0.0000000000000000     
   1.9463139917729907E-002   2.1286494740191206E-002   0.0000000000000000     
   8.4288885835750466E-003   7.7242699575990727E-003   0.0000000000000000     
   1.0590744295299367E-002   1.0558093583794479E-002   0.0000000000000000     
   1.2761061213717818E-002   1.3661250432138091E-002   0.0000000000000000     
   1.4939839338830392E-002   1.7033740502629905E-002   0.0000000000000000     
   1.7127078670637102E-002   2.0675563795269924E-002   0.0000000000000000     
   7.3414731326996007E-003   7.4202316965080815E-003   0.0000000000000000     
   9.2308813914009982E-003   1.0186556264905201E-002   0.0000000000000000     
   1.1129605706418693E-002   1.3233591534935151E-002   0.0000000000000000     
   1.3037646077752691E-002   1.6561337506597929E-002   0.0000000000000000     
   1.4955002505402992E-002   2.0169794179893542E-002   0.0000000000000000     
   2.4627217657491610E-002   2.2823840618668472E-002   0.0000000000000000     
   2.7531899388122869E-002   2.6672208553200072E-002   0.0000000000000000     
   3.0361741958936015E-002   3.0737238280178866E-002   0.0000000000000000     
   3.3116745369931047E-002   3.5018929799604859E-002   0.0000000000000000     
   3.5796909621107958E-002   3.9517283111478049E-002   0.0000000000000000     
   2.1963186246681411E-002   2.2002587014657390E-002   0.0000000000000000     
   2.4629396491925908E-002   2.5879917460722501E-002   0.0000000000000000     
   2.7225000502620004E-002   2.9967703977293637E-002   0.0000000000000000     
   2.9749998278763696E-002   3.4265946564370785E-002   0.0000000000000000     
   3.2204389820356970E-002   3.8774645221953959E-002   0.0000000000000000     
   1.9463139917729907E-002   2.1286494740191206E-002   0.0000000000000000     
   2.1882650485622136E-002   2.5175506112595683E-002   0.0000000000000000     
   2.4238576381183773E-002   2.9274033497914149E-002   0.0000000000000000     
   2.6530917604414828E-002   3.3582076896146597E-002   0.0000000000000000     
   2.8759674155315305E-002   3.8099636307293044E-002   0.0000000000000000     
   1.7127078670637102E-002   2.0675563795269924E-002   0.0000000000000000     
   1.9291661369211545E-002   2.4558974508819598E-002   0.0000000000000000     
   2.1402469594627334E-002   2.8656226842040389E-002   0.0000000000000000     
   2.3459503346884469E-002   3.2967320794932295E-002   0.0000000000000000     
   2.5462762625982949E-002   3.7492256367495307E-002   0.0000000000000000     
   1.4955002505402992E-002   2.0169794179893542E-002   0.0000000000000000     
   1.6856429142694140E-002   2.4030322649394264E-002   0.0000000000000000     
   1.8716680142950679E-002   2.8114284009672370E-002   0.0000000000000000     
   2.0535755506172603E-002   3.2421678260727858E-002   0.0000000000000000     
   2.2313655232359918E-002   3.6952505402560731E-002   0.0000000000000000     
   3.5796909621107958E-002   3.9517283111478049E-002   0.0000000000000000     
   3.8402612329347781E-002   4.4222286004688048E-002   0.0000000000000000     
   4.0934231111531549E-002   4.9123926268124479E-002   0.0000000000000000     
   4.3391765967659222E-002   5.4222203901787315E-002   0.0000000000000000     
   4.5775216897730842E-002   5.9517118905676583E-002   0.0000000000000000     
   3.2204389820356970E-002   3.8774645221953959E-002   0.0000000000000000     
   3.4590140704040935E-002   4.3489130016164813E-002   0.0000000000000000     
   3.6909216506456656E-002   4.8404731013125014E-002   0.0000000000000000     
   3.9161617227604147E-002   5.3521448212834548E-002   0.0000000000000000     
   4.1347342867483407E-002   5.8839281615293441E-002   0.0000000000000000     
   2.8759674155315305E-002   3.8099636307293044E-002   0.0000000000000000     
   3.0926778673072499E-002   4.2824049504294956E-002   0.0000000000000000     
   3.3034163796873732E-002   4.7752654260093813E-002   0.0000000000000000     
   3.5081829526718990E-002   5.2885450574689602E-002   0.0000000000000000     
   3.7069775862608290E-002   5.8222438448082350E-002   0.0000000000000000     
   2.5462762625982949E-002   3.7492256367495307E-002   0.0000000000000000     
   2.7412526236442483E-002   4.2227044469078476E-002   0.0000000000000000     
   2.9309072982782743E-002   4.7167696009030875E-002   0.0000000000000000     
   3.1152402865003752E-002   5.2314210987352491E-002   0.0000000000000000     
   3.2942515883105490E-002   5.7666589404043331E-002   0.0000000000000000     
   2.2313655232359918E-002   3.6952505402560731E-002   0.0000000000000000     
   2.4047383394150870E-002   4.1698114910515387E-002   0.0000000000000000     
   2.5733944064183705E-002   4.6649856259936208E-002   0.0000000000000000     
   2.7373337242458419E-002   5.1807729450823202E-002   0.0000000000000000     
   2.8965562928975015E-002   5.7171734483176362E-002   0.0000000000000000     
   4.5775216897730842E-002   5.9517118905676583E-002   0.0000000000000000     
   4.8085307381216850E-002   6.5001092848162162E-002   0.0000000000000000     
   5.0322760897587700E-002   7.0666547297613902E-002   0.0000000000000000     
   5.2487577446843396E-002   7.6513482254031817E-002   0.0000000000000000     
   5.4579757028983940E-002   8.2541897717415921E-002   0.0000000000000000     
   4.1347342867483407E-002   5.8839281615293441E-002   0.0000000000000000     
   4.3466334717286566E-002   6.4347838246759298E-002   0.0000000000000000     
   4.5518534068205767E-002   7.0036725133489769E-002   0.0000000000000000     
   4.7503940920241010E-002   7.5905942275484847E-002   0.0000000000000000     
   4.9422555273392302E-002   8.1955489672744505E-002   0.0000000000000000     
   3.7069775862608290E-002   5.8222438448082350E-002   0.0000000000000000     
   3.8997523007698265E-002   6.3751518557763287E-002   0.0000000000000000     
   4.0864591165145570E-002   6.9460591581223641E-002   0.0000000000000000     
   4.2670980334950190E-002   7.5349657518463412E-002   0.0000000000000000     
   4.4416690517112146E-002   8.1418716369482641E-002   0.0000000000000000     
   3.2942515883105490E-002   5.7666589404043331E-002   0.0000000000000000     
   3.4678872252451955E-002   6.3212133781174101E-002   0.0000000000000000     
   3.6360932188407115E-002   6.8938146640815504E-002   0.0000000000000000     
   3.7988695690970957E-002   7.4844627982967593E-002   0.0000000000000000     
   3.9562162760143495E-002   8.0931577807630328E-002   0.0000000000000000     
   2.8965562928975015E-002   5.7171734483176362E-002   0.0000000000000000     
   3.0510382451547635E-002   6.2729683916991741E-002   0.0000000000000000     
   3.2007557137990396E-002   6.8469390312265399E-002   0.0000000000000000     
   3.3457086988303297E-002   7.4390853668997337E-002   0.0000000000000000     
   3.4858972002486339E-002   8.0494073987187553E-002   0.0000000000000000     
   5.4579757028983940E-002   8.2541897717415921E-002   0.0000000000000000     
   5.6595881476261725E-002   8.8740441470614342E-002   0.0000000000000000     
   5.8532532620929160E-002   9.5097761296475208E-002   0.0000000000000000     
   6.0389710462986232E-002  0.10161385719499855        0.0000000000000000     
   6.2167415002432946E-002  0.10828872916618430        0.0000000000000000     
   4.9422555273392302E-002   8.1955489672744505E-002   0.0000000000000000     
   5.1271346136058764E-002   8.8174340405560367E-002   0.0000000000000000     
   5.3047282516639524E-002   9.4551467554223986E-002   0.0000000000000000     
   5.4750364415134582E-002  0.10108687111873534        0.0000000000000000     
   5.6380591831543952E-002  0.10778055109909444        0.0000000000000000     
   4.4416690517112146E-002   8.1418716369482641E-002   0.0000000000000000     
   4.6098795057810824E-002   8.7656721694941889E-002   0.0000000000000000     
   4.7714367303225633E-002   9.4052627055501770E-002   0.0000000000000000     
   4.9263407253356539E-002  0.10060643245116226        0.0000000000000000     
   5.0745914908203585E-002  0.10731813788192338        0.0000000000000000     
   3.9562162760143495E-002   8.0931577807630328E-002   0.0000000000000000     
   4.1078228241517932E-002   8.7187585338758922E-002   0.0000000000000000     
   4.2533786980687466E-002   9.3601239800308586E-002   0.0000000000000000     
   4.3928838977652110E-002  0.10017254119227932        0.0000000000000000     
   4.5263384232411864E-002  0.10690148951467111        0.0000000000000000     
   3.4858972002486339E-002   8.0494073987187553E-002   0.0000000000000000     
   3.6209645687180082E-002   8.6766931337011438E-002   0.0000000000000000     
   3.7505541549025065E-002   9.3197305788644422E-002   0.0000000000000000     
   3.8746659588021301E-002   9.9785197342086504E-002   0.0000000000000000     
   3.9932999804168777E-002  0.10653060599733764        0.0000000000000000     
   6.2167415002432946E-002  0.10828872916618430        0.0000000000000000     
   6.3875887016782942E-002  0.11510762191302201        0.0000000000000000     
   6.5525367283549879E-002  0.12205578013850113        0.0000000000000000     
   6.7115855802733757E-002  0.12913320384262167        0.0000000000000000     
   6.8647352574334575E-002  0.13633989302538360        0.0000000000000000     
   5.6380591831543952E-002  0.10778055109909444        0.0000000000000000     
   5.7945483858128095E-002  0.11461938797052239        0.0000000000000000     
   5.9452559587147520E-002  0.12159026220824025        0.0000000000000000     
   6.0901819018602234E-002  0.12869317381224807        0.0000000000000000     
   6.2293262152492222E-002  0.13592812278254579        0.0000000000000000     
   5.0745914908203585E-002  0.10731813788192338        0.0000000000000000     
   5.2167634622302013E-002  0.11417580074927056        0.0000000000000000     
   5.3534310750187095E-002  0.12116747845468931        0.0000000000000000     
   5.4845943291858823E-002  0.12829317099817955        0.0000000000000000     
   5.6102532247317205E-002  0.13555287837974137        0.0000000000000000     
   4.5263384232411864E-002  0.10690148951467111        0.0000000000000000     
   4.6542339309304688E-002  0.11377686024926656        0.0000000000000000     
   4.7770620772668575E-002  0.12078742887784824        0.0000000000000000     
   4.8948228622503510E-002  0.12793319540041620        0.0000000000000000     
   5.0075162858809530E-002  0.13521415981697035        0.0000000000000000     
   3.9932999804168777E-002  0.10653060599733764        0.0000000000000000     
   4.1069597919136128E-002  0.11342256647051036        0.0000000000000000     
   4.2161489654591981E-002  0.12045011347771711        0.0000000000000000     
   4.3208675010536331E-002  0.12761324701895793        0.0000000000000000     
   4.4211153986969169E-002  0.13491196709423273        0.0000000000000000     
   6.8647352574334575E-002  0.13633989302538360        0.0000000000000000     
   7.0100984930917279E-002  0.14366974073400030        0.0000000000000000     
   7.1457880205046814E-002  0.15111664001568514        0.0000000000000000     
   7.2718038396723195E-002  0.15868059087043804        0.0000000000000000     
   7.3881459505946406E-002  0.16636159329825911        0.0000000000000000     
   6.2293262152492222E-002  0.13592812278254579        0.0000000000000000     
   6.3614575605681040E-002  0.14328502123642545        0.0000000000000000     
   6.4853445995032288E-002  0.15075378129117906        0.0000000000000000     
   6.6009873320545920E-002  0.15833440294680662        0.0000000000000000     
   6.7083857582221948E-002  0.16602688620330813        0.0000000000000000     
   5.6102532247317205E-002  0.13555287837974137        0.0000000000000000     
   5.7296040641577728E-002  0.14293392317393794        0.0000000000000000     
   5.8418431499655900E-002  0.15042362795533260        0.0000000000000000     
   5.9469704821551700E-002  0.15802199272392531        0.0000000000000000     
   6.0449860607265149E-002  0.16572901747971600        0.0000000000000000     
   5.0075162858809530E-002  0.13521415981697035        0.0000000000000000     
   5.1145380038607330E-002  0.14261644654653785        0.0000000000000000     
   5.2152836718917676E-002  0.15012618000814576        0.0000000000000000     
   5.3097532899740583E-002  0.15774336020179405        0.0000000000000000     
   5.3979468581076030E-002  0.16546798712748270        0.0000000000000000     
   4.4211153986969169E-002  0.13491196709423273        0.0000000000000000     
   4.5162593796769825E-002  0.14233259135422507        0.0000000000000000     
   4.6056661652817618E-002  0.14986143744961844        0.0000000000000000     
   4.6893357555112522E-002  0.15749850538041285        0.0000000000000000     
   4.7672681503654564E-002  0.16524379514660828        0.0000000000000000     
   0.0000000000000000        0.0000000000000000        0.0000000000000000     
   1.7983318226486415E-003   1.2768744540367586E-003   0.0000000000000000     
   3.6213546189814553E-003   2.9392045548003584E-003   0.0000000000000000     
   5.4690683889984416E-003   4.9869903022908002E-003   0.0000000000000000     
   7.3414731326996007E-003   7.4202316965080815E-003   0.0000000000000000     
   0.0000000000000000        0.0000000000000000        0.0000000000000000     
   1.5350602768468883E-003   1.2175643195609582E-003   0.0000000000000000     
   3.0994202033746785E-003   2.8208862241687850E-003   0.0000000000000000     
   4.6930797795833703E-003   4.8099657138234771E-003   0.0000000000000000     
   6.3160390054729631E-003   7.1848027885250410E-003   0.0000000000000000     
   0.0000000000000000        0.0000000000000000        0.0000000000000000     
   1.2878603420870022E-003   1.1699780216171995E-003   0.0000000000000000     
   2.6055703691122375E-003   2.7246019751767441E-003   0.0000000000000000     
   3.9531300810757061E-003   4.6638718606786343E-003   0.0000000000000000     
   5.3305394779774098E-003   6.9877876781228709E-003   0.0000000000000000     
   0.0000000000000000        0.0000000000000000        0.0000000000000000     
   1.0567320183689831E-003   1.1341155602054823E-003   0.0000000000000000     
   2.1398051161941340E-003   2.6503518078242376E-003   0.0000000000000000     
   3.2492192934754521E-003   4.5487087428562672E-003   0.0000000000000000     
   4.3849745502129375E-003   6.8291863653015695E-003   0.0000000000000000     
   0.0000000000000000        0.0000000000000000        0.0000000000000000     
   8.4167530569283103E-004   1.1099769353258065E-003   0.0000000000000000     
   1.7021244446203663E-003   2.5981357221112654E-003   0.0000000000000000     
   2.5813474167826057E-003   4.4644763603563760E-003   0.0000000000000000     
   3.4793442221795496E-003   6.7089988500611385E-003   0.0000000000000000     
   7.3414731326996007E-003   7.4202316965080815E-003   0.0000000000000000     
   9.2308813914009982E-003   1.0186556264905201E-002   0.0000000000000000     
   1.1129605706418693E-002   1.3233591534935151E-002   0.0000000000000000     
   1.3037646077752691E-002   1.6561337506597929E-002   0.0000000000000000     
   1.4955002505402992E-002   2.0169794179893542E-002   0.0000000000000000     
   6.3160390054729631E-003   7.1848027885250410E-003   0.0000000000000000     
   7.9556309127008715E-003   9.8958353533327038E-003   0.0000000000000000     
   9.5991885329245082E-003   1.2893501313305692E-002   0.0000000000000000     
   1.1246711866143873E-002   1.6177800668444015E-002   0.0000000000000000     
   1.2898200912358966E-002   1.9748733418747669E-002   0.0000000000000000     
   5.3305394779774098E-003   6.9877876781228709E-003   0.0000000000000000     
   6.7233791514967108E-003   9.6502256005841155E-003   0.0000000000000000     
   8.1172296933129766E-003   1.2605061801137039E-002   0.0000000000000000     
   9.5120911034262071E-003   1.5852296279781637E-002   0.0000000000000000     
   1.0907963381836402E-002   1.9391929036517909E-002   0.0000000000000000     
   4.3849745502129375E-003   6.8291863653015695E-003   0.0000000000000000     
   5.5341261077885119E-003   9.4497270066594401E-003   0.0000000000000000     
   6.6837291875840969E-003   1.2368272998429181E-002   0.0000000000000000     
   7.8337837895996951E-003   1.5584824340610787E-002   0.0000000000000000     
   8.9842899138353020E-003   1.9099381033204261E-002   0.0000000000000000     
   3.4793442221795496E-003   6.7089988500611385E-003   0.0000000000000000     
   4.3878717815762783E-003   9.2943395715586793E-003   0.0000000000000000     
   5.2986870157378735E-003   1.2183134905182125E-002   0.0000000000000000     
   6.2117899246643361E-003   1.5375384850931472E-002   0.0000000000000000     
   7.1271805083556652E-003   1.8871089408806725E-002   0.0000000000000000     
   1.4955002505402992E-002   2.0169794179893542E-002   0.0000000000000000     
   1.6856429142694140E-002   2.4030322649394264E-002   0.0000000000000000     
   1.8716680142950679E-002   2.8114284009672370E-002   0.0000000000000000     
   2.0535755506172603E-002   3.2421678260727858E-002   0.0000000000000000     
   2.2313655232359918E-002   3.6952505402560731E-002   0.0000000000000000     
   1.2898200912358966E-002   1.9748733418747669E-002   0.0000000000000000     
   1.4537279195522839E-002   2.3580169636007311E-002   0.0000000000000000     
   1.6147570239588540E-002   2.7645979392013589E-002   0.0000000000000000     
   1.7729074044556065E-002   3.1946162686766512E-002   0.0000000000000000     
   1.9281790610425426E-002   3.6480719520266068E-002   0.0000000000000000     
   1.0907963381836402E-002   1.9391929036517909E-002   0.0000000000000000     
   1.2294536917150555E-002   2.3199134570346377E-002   0.0000000000000000     
   1.3661502097975653E-002   2.7249087380267559E-002   0.0000000000000000     
   1.5008858924311698E-002   3.1541787466281446E-002   0.0000000000000000     
   1.6336607396158692E-002   3.6077234828388052E-002   0.0000000000000000     
   8.9842899138353020E-003   1.9099381033204261E-002   0.0000000000000000     
   1.0128202307577286E-002   2.2887217452411467E-002   0.0000000000000000     
   1.1258475718112020E-002   2.6923607974434272E-002   0.0000000000000000     
   1.2375110145439497E-002   3.1208552599272677E-002   0.0000000000000000     
   1.3478105589559725E-002   3.5742051326926677E-002   0.0000000000000000     
   7.1271805083556652E-003   1.8871089408806725E-002   0.0000000000000000     
   8.0382753668030386E-003   2.2644418282202580E-002   0.0000000000000000     
   8.9384910999976402E-003   2.6669541174513742E-002   0.0000000000000000     
   9.8278277079394665E-003   3.0946458085740196E-002   0.0000000000000000     
   1.0706285190628518E-002   3.5475169015881949E-002   0.0000000000000000     
   2.2313655232359918E-002   3.6952505402560731E-002   0.0000000000000000     
   2.4047383394150870E-002   4.1698114910515387E-002   0.0000000000000000     
   2.5733944064183705E-002   4.6649856259936208E-002   0.0000000000000000     
   2.7373337242458419E-002   5.1807729450823202E-002   0.0000000000000000     
   2.8965562928975015E-002   5.7171734483176362E-002   0.0000000000000000     
   1.9281790610425426E-002   3.6480719520266068E-002   0.0000000000000000     
   2.0799487309650595E-002   4.1235521783808488E-002   0.0000000000000000     
   2.2275931514685585E-002   4.6196441368689986E-002   0.0000000000000000     
   2.3711123225530373E-002   5.1363478274910536E-002   0.0000000000000000     
   2.5105062442184974E-002   5.6736632502470172E-002   0.0000000000000000     
   1.6336607396158692E-002   3.6077234828388052E-002   0.0000000000000000     
   1.7636975146394594E-002   4.0837526044160612E-002   0.0000000000000000     
   1.8902189807897356E-002   4.5804757691172371E-002   0.0000000000000000     
   2.0132251380666984E-002   5.0978929769423330E-002   0.0000000000000000     
   2.1327159864703484E-002   5.6360042278913489E-002   0.0000000000000000     
   1.3478105589559725E-002   3.5742051326926677E-002   0.0000000000000000     
   1.4559846904382844E-002   4.0504127691571759E-002   0.0000000000000000     
   1.5612718943819022E-002   4.5474805227383390E-002   0.0000000000000000     
   1.6636721707868250E-002   5.0654083934361556E-002   0.0000000000000000     
   1.7631855196530526E-002   5.6041963812506305E-002   0.0000000000000000     
   1.0706285190628518E-002   3.5475169015881949E-002   0.0000000000000000     
   1.1568102583615366E-002   4.0235326726041930E-002   0.0000000000000000     
   1.2407518922450582E-002   4.5206583977323023E-002   0.0000000000000000     
   1.3224534207134167E-002   5.0388940769725256E-002   0.0000000000000000     
   1.4019148437666117E-002   5.5782397103248615E-002   0.0000000000000000     
   2.8965562928975015E-002   5.7171734483176362E-002   0.0000000000000000     
   3.0510382451547635E-002   6.2729683916991741E-002   0.0000000000000000     
   3.2007557137990396E-002   6.8469390312265399E-002   0.0000000000000000     
   3.3457086988303297E-002   7.4390853668997337E-002   0.0000000000000000     
   3.4858972002486339E-002   8.0494073987187553E-002   0.0000000000000000     
   2.5105062442184974E-002   5.6736632502470172E-002   0.0000000000000000     
   2.6457850447836655E-002   6.2304467531701477E-002   0.0000000000000000     
   2.7769588525672666E-002   6.8055546842937034E-002   0.0000000000000000     
   2.9040276675693030E-002   7.3989870436176858E-002   0.0000000000000000     
   3.0269914897897727E-002   8.0107438311420975E-002   0.0000000000000000     
   2.1327159864703484E-002   5.6360042278913489E-002   0.0000000000000000     
   2.2487073084170379E-002   6.1936783191788539E-002   0.0000000000000000     
   2.3612148863231212E-002   6.7697840480194185E-002   0.0000000000000000     
   2.4702387201885997E-002   7.3643214144130414E-002   0.0000000000000000     
   2.5757788100134717E-002   7.9772904183597199E-002   0.0000000000000000     
   1.7631855196530526E-002   5.6041963812506305E-002   0.0000000000000000     
   1.8598050360548804E-002   6.1626630897252933E-002   0.0000000000000000     
   1.9535238150666025E-002   6.7396271224036811E-002   0.0000000000000000     
   2.0443418566882192E-002   7.3350884792857923E-002   0.0000000000000000     
   2.1322591609197302E-002   7.9490471603716292E-002   0.0000000000000000     
   1.4019148437666117E-002   5.5782397103248615E-002   0.0000000000000000     
   1.4790782276971930E-002   6.1374010648094654E-002   0.0000000000000000     
   1.5538856387977099E-002   6.7150839074464952E-002   0.0000000000000000     
   1.6263370770681615E-002   7.3112882382359440E-002   0.0000000000000000     
   1.6964325425085490E-002   7.9260140571778187E-002   0.0000000000000000     
   3.4858972002486339E-002   8.0494073987187553E-002   0.0000000000000000     
   3.6209645687180082E-002   8.6766931337011438E-002   0.0000000000000000     
   3.7505541549025065E-002   9.3197305788644422E-002   0.0000000000000000     
   3.8746659588021301E-002   9.9785197342086504E-002   0.0000000000000000     
   3.9932999804168777E-002  0.10653060599733764        0.0000000000000000     
   3.0269914897897727E-002   8.0107438311420975E-002   0.0000000000000000     
   3.1454573589329952E-002   8.6395397639830090E-002   0.0000000000000000     
   3.2590323147032897E-002   9.2840895592564990E-002   0.0000000000000000     
   3.3677163571006551E-002   9.9443932169625715E-002   0.0000000000000000     
   3.4715094861250920E-002  0.10620450737101221        0.0000000000000000     
   2.5757788100134717E-002   7.9772904183597199E-002   0.0000000000000000     
   2.6774538142500245E-002   8.6073622197345462E-002   0.0000000000000000     
   2.7748823913505451E-002   9.2532079784126017E-002   0.0000000000000000     
   2.8680645413150335E-002   9.9148276943938865E-002   0.0000000000000000     
   2.9570002641434893E-002  0.10592221367678402        0.0000000000000000     
   2.1322591609197302E-002   7.9490471603716292E-002   0.0000000000000000     
   2.2169539346690952E-002   8.5801605009557580E-002   0.0000000000000000     
   2.2981043848442732E-002   9.2270858363327463E-002   0.0000000000000000     
   2.3757105114452642E-002   9.8898231665025982E-002   0.0000000000000000     
   2.4497723144720689E-002  0.10568372491465310        0.0000000000000000     
   1.6964325425085490E-002   7.9260140571778187E-002   0.0000000000000000     
   1.7639577201902082E-002   8.5579346076466417E-002   0.0000000000000000     
   1.8286982951844746E-002   9.2057231330169367E-002   0.0000000000000000     
   1.8906542674913495E-002   9.8693796332887024E-002   0.0000000000000000     
   1.9498256371108323E-002  0.10548904108461940        0.0000000000000000     
   3.9932999804168777E-002  0.10653060599733764        0.0000000000000000     
   4.1069597919136128E-002  0.11342256647051036        0.0000000000000000     
   4.2161489654591981E-002  0.12045011347771711        0.0000000000000000     
   4.3208675010536331E-002  0.12761324701895793        0.0000000000000000     
   4.4211153986969169E-002  0.13491196709423273        0.0000000000000000     
   3.4715094861250920E-002  0.10620450737101221        0.0000000000000000     
   3.5709443197866453E-002  0.11311164099910376        0.0000000000000000     
   3.6665534760953578E-002  0.12015435285627962        0.0000000000000000     
   3.7583369550512315E-002  0.12733264294253976        0.0000000000000000     
   3.8462947566542637E-002  0.13464651125788424        0.0000000000000000     
   2.9570002641434893E-002  0.10592221367678402        0.0000000000000000     
   3.0421907891565781E-002  0.11284280542114854        0.0000000000000000     
   3.1241373456749672E-002  0.11989896761551949        0.0000000000000000     
   3.2028399336986556E-002  0.12709070025989683        0.0000000000000000     
   3.2782985532276439E-002  0.13441800335428061        0.0000000000000000     
   2.4497723144720689E-002  0.10568372491465310        0.0000000000000000     
   2.5206992000234140E-002  0.11261605973664469        0.0000000000000000     
   2.5889005741980265E-002  0.11968395775543669        0.0000000000000000     
   2.6543764369959068E-002  0.12688741897102906        0.0000000000000000     
   2.7171267884170548E-002  0.13422644338342180        0.0000000000000000     
   1.9498256371108323E-002  0.10548904108461940        0.0000000000000000     
   2.0064695523871516E-002  0.11243140394559226        0.0000000000000000     
   2.0608431616645353E-002  0.11950932327603128        0.0000000000000000     
   2.1129464649429844E-002  0.12672279907593648        0.0000000000000000     
   2.1627794622224986E-002  0.13407183134530787        0.0000000000000000     
   4.4211153986969169E-002  0.13491196709423273        0.0000000000000000     
   4.5162593796769825E-002  0.14233259135422507        0.0000000000000000     
   4.6056661652817618E-002  0.14986143744961844        0.0000000000000000     
   4.6893357555112522E-002  0.15749850538041285        0.0000000000000000     
   4.7672681503654564E-002  0.16524379514660828        0.0000000000000000     
   3.8462947566542637E-002  0.13464651125788424        0.0000000000000000     
   3.9296964873027480E-002  0.14208307149364136        0.0000000000000000     
   4.0078117533949735E-002  0.14962943734113954        0.0000000000000000     
   4.0806405549309401E-002  0.15728560880037870        0.0000000000000000     
   4.1481828919106484E-002  0.16505158587135893        0.0000000000000000     
   3.2782985532276439E-002  0.13441800335428061        0.0000000000000000     
   3.3497776224342531E-002  0.14186860086142833        0.0000000000000000     
   3.4165415594908072E-002  0.14943021674409768        0.0000000000000000     
   3.4785903643973062E-002  0.15710285100228852        0.0000000000000000     
   3.5359240371537488E-002  0.16488650363600091        0.0000000000000000     
   2.7171267884170548E-002  0.13422644338342180        0.0000000000000000     
   2.7765027850714979E-002  0.14168917945758602        0.0000000000000000     
   2.8318555835692628E-002  0.14926377565849283        0.0000000000000000     
   2.8831851839103497E-002  0.15695023198614222        0.0000000000000000     
   2.9304915860947585E-002  0.16474854844053421        0.0000000000000000     
   2.1627794622224986E-002  0.13407183134530787        0.0000000000000000     
   2.2098719752144821E-002  0.14154480728211444        0.0000000000000000     
   2.2537538256303401E-002  0.14913011408432508        0.0000000000000000     
   2.2944250134700719E-002  0.15682775175193989        0.0000000000000000     
   2.3318855387336777E-002  0.16463772028495882        0.0000000000000000     
   0.0000000000000000        0.0000000000000000        0.0000000000000000     
   8.4167530569283103E-004   1.1099769353258065E-003   0.0000000000000000     
   1.7021244446203663E-003   2.5981357221112654E-003   0.0000000000000000     
   2.5813474167826057E-003   4.4644763603563760E-003   0.0000000000000000     
   3.4793442221795496E-003   6.7089988500611385E-003   0.0000000000000000     
   0.0000000000000000        0.0000000000000000        0.0000000000000000     
   6.3380491872493008E-004   1.0939848170336626E-003   0.0000000000000000     
   1.2780128811650255E-003   2.5620865578211442E-003   0.0000000000000000     
   1.9326238873202868E-003   4.4043052223624451E-003   0.0000000000000000     
   2.5976379371907138E-003   6.6206408106575642E-003   0.0000000000000000     
   0.0000000000000000        0.0000000000000000        0.0000000000000000     
   4.2423557213166411E-004   1.0825618753845406E-003   0.0000000000000000     
   8.5295495260220226E-004   2.5363371547371932E-003   0.0000000000000000     
   1.2861581414116148E-003   4.3613258380579582E-003   0.0000000000000000     
   1.7238451385599015E-003   6.5575279253468344E-003   0.0000000000000000     
   0.0000000000000000        0.0000000000000000        0.0000000000000000     
   2.1296726591303307E-004   1.0757081103784400E-003   0.0000000000000000     
   4.2695065893189619E-004   2.5208875128594115E-003   0.0000000000000000     
   6.4195017905658940E-004   4.3355382074429134E-003   0.0000000000000000     
   8.5796582628711265E-004   6.5196601941289473E-003   0.0000000000000000     
   0.0000000000000000        0.0000000000000000        0.0000000000000000     
   6.9037115434100738E-014   1.0734235220153615E-003   0.0000000000000000     
   1.5410724996459124E-013   2.5157376321877992E-003   0.0000000000000000     
   2.5521062043190601E-013   4.3269423305173135E-003   0.0000000000000000     
   3.7234684736528467E-013   6.5070376170039039E-003   0.0000000000000000     
   3.4793442221795496E-003   6.7089988500611385E-003   0.0000000000000000     
   4.3878717815762783E-003   9.2943395715586793E-003   0.0000000000000000     
   5.2986870157378735E-003   1.2183134905182125E-002   0.0000000000000000     
   6.2117899246643361E-003   1.5375384850931472E-002   0.0000000000000000     
   7.1271805083556652E-003   1.8871089408806725E-002   0.0000000000000000     
   2.5976379371907138E-003   6.6206408106575642E-003   0.0000000000000000     
   3.2700635696616483E-003   9.1781116978199989E-003   0.0000000000000000     
   3.9469093236184326E-003   1.2043736258963236E-002   0.0000000000000000     
   4.6281751990610662E-003   1.5217514494087278E-002   0.0000000000000000     
   5.3138611959895506E-003   1.8699446403192134E-002   0.0000000000000000     
   1.7238451385599015E-003   6.5575279253468344E-003   0.0000000000000000     
   2.1661488688462642E-003   9.0950917879815615E-003   0.0000000000000000     
   2.6132022570699051E-003   1.1944165797339881E-002   0.0000000000000000     
   3.0650053032308241E-003   1.5104749953421792E-002   0.0000000000000000     
   3.5215580073290199E-003   1.8576844256227298E-002   0.0000000000000000     
   8.5796582628711265E-004   6.5196601941289473E-003   0.0000000000000000     
   1.0761276791301263E-003   9.0452798420433758E-003   0.0000000000000000     
   1.2975658160922908E-003   1.1884423520312064E-002   0.0000000000000000     
   1.5222802371736067E-003   1.5037091228935014E-002   0.0000000000000000     
   1.7502709423740735E-003   1.8503282967912225E-002   0.0000000000000000     
   3.7234684736528467E-013   6.5070376170039039E-003   0.0000000000000000     
   5.1323408142758126E-013   9.0286758600054400E-003   0.0000000000000000     
   6.8559075788472007E-013   1.1864509427879784E-002   0.0000000000000000     
   8.8941621605100225E-013   1.5014538320626944E-002   0.0000000000000000     
   1.1247105677347768E-012   1.8478762538246915E-002   0.0000000000000000     
   7.1271805083556652E-003   1.8871089408806725E-002   0.0000000000000000     
   8.0382753668030386E-003   2.2644418282202580E-002   0.0000000000000000     
   8.9384910999976402E-003   2.6669541174513742E-002   0.0000000000000000     
   9.8278277079394665E-003   3.0946458085740196E-002   0.0000000000000000     
   1.0706285190628518E-002   3.5475169015881949E-002   0.0000000000000000     
   5.3138611959895506E-003   1.8699446403192134E-002   0.0000000000000000     
   5.9970908266892319E-003   2.2462208110342621E-002   0.0000000000000000     
   6.6709876034454574E-003   2.6478475739603581E-002   0.0000000000000000     
   7.3355515262582280E-003   3.0748249290975017E-002   0.0000000000000000     
   7.9907825951275428E-003   3.5271528764456925E-002   0.0000000000000000     
   3.5215580073290199E-003   1.8576844256227298E-002   0.0000000000000000     
   3.9769834190972872E-003   2.2332057987454475E-002   0.0000000000000000     
   4.4254045882684183E-003   2.6342000428801429E-002   0.0000000000000000     
   4.8668215148424121E-003   3.0606671580268141E-002   0.0000000000000000     
   5.3012341988192711E-003   3.5126071441854631E-002   0.0000000000000000     
   1.7502709423740735E-003   1.8503282967912225E-002   0.0000000000000000     
   1.9779531440272070E-003   2.2253967913538158E-002   0.0000000000000000     
   2.2017420544665225E-003   2.6260115242107283E-002   0.0000000000000000     
   2.4216376736920201E-003   3.0521724953619586E-002   0.0000000000000000     
   2.6376400017036998E-003   3.5038797048075096E-002   0.0000000000000000     
   1.1247105677347768E-012   1.8478762538246915E-002   0.0000000000000000     
   1.4789899448371113E-012   2.2227937888593660E-002   0.0000000000000000     
   2.0397693950569007E-012   2.6232820179521138E-002   0.0000000000000000     
   2.8070497857558829E-012   3.0493409411029349E-002   0.0000000000000000     
   3.7808306832531891E-012   3.5009705583118292E-002   0.0000000000000000     
   1.0706285190628518E-002   3.5475169015881949E-002   0.0000000000000000     
   1.1568102583615366E-002   4.0235326726041930E-002   0.0000000000000000     
   1.2407518922450582E-002   4.5206583977323023E-002   0.0000000000000000     
   1.3224534207134167E-002   5.0388940769725256E-002   0.0000000000000000     
   1.4019148437666117E-002   5.5782397103248615E-002   0.0000000000000000     
   7.9907825951275428E-003   3.5271528764456925E-002   0.0000000000000000     
   8.6333069023305769E-003   4.0028387237984443E-002   0.0000000000000000     
   9.2597505401445061E-003   4.4998897789492780E-002   0.0000000000000000     
   9.8701135085693288E-003   5.0183060418981879E-002   0.0000000000000000     
   1.0464395807605047E-002   5.5580875126451768E-002   0.0000000000000000     
   5.3012341988192711E-003   3.5126071441854631E-002   0.0000000000000000     
   5.7270245787669153E-003   3.9880573317812688E-002   0.0000000000000000     
   6.1425745932532682E-003   4.4850550512394109E-002   0.0000000000000000     
   6.5478842422783297E-003   5.0036003025598914E-002   0.0000000000000000     
   6.9429535258420990E-003   5.5436930857427090E-002   0.0000000000000000     
   2.6376400017036998E-003   3.5038797048075096E-002   0.0000000000000000     
   2.8492556129243777E-003   3.9791884965526617E-002   0.0000000000000000     
   3.0559910817768658E-003   4.4761542146027053E-002   0.0000000000000000     
   3.2578464082611671E-003   4.9947768589576370E-002   0.0000000000000000     
   3.4548215923772790E-003   5.5350564296174562E-002   0.0000000000000000     
   3.7808306832531891E-012   3.5009705583118292E-002   0.0000000000000000     
   4.8029636908267226E-012   3.9762322181126276E-002   0.0000000000000000     
   5.7153009538554733E-012   4.4731872690391583E-002   0.0000000000000000     
   6.5178416862928662E-012   4.9918357110914226E-002   0.0000000000000000     
   7.2105873789168884E-012   5.5321775442694211E-002   0.0000000000000000     
   1.4019148437666117E-002   5.5782397103248615E-002   0.0000000000000000     
   1.4790782276971930E-002   6.1374010648094654E-002   0.0000000000000000     
   1.5538856387977099E-002   6.7150839074464952E-002   0.0000000000000000     
   1.6263370770681615E-002   7.3112882382359440E-002   0.0000000000000000     
   1.6964325425085490E-002   7.9260140571778187E-002   0.0000000000000000     
   1.0464395807605047E-002   5.5580875126451768E-002   0.0000000000000000     
   1.1041565312478952E-002   6.1178138200031054E-002   0.0000000000000000     
   1.1600589898418353E-002   6.6960645927848381E-002   0.0000000000000000     
   1.2141469565423241E-002   7.2928398309903733E-002   0.0000000000000000     
   1.2664204313493618E-002   7.9081395346197125E-002   0.0000000000000000     
   6.9429535258420990E-003   5.5436930857427090E-002   0.0000000000000000     
   7.3266959461090637E-003   6.1038229308779487E-002   0.0000000000000000     
   7.6980250052437072E-003   6.6824793680556965E-002   0.0000000000000000     
   8.0569407032460329E-003   7.2796623972759572E-002   0.0000000000000000     
   8.4034430401160373E-003   7.8953720185387266E-002   0.0000000000000000     
   3.4548215923772790E-003   5.5350564296174562E-002   0.0000000000000000     
   3.6461741778622595E-003   6.0954283974339926E-002   0.0000000000000000     
   3.8311617084531638E-003   6.6743282332590706E-002   0.0000000000000000     
   4.0097841841499910E-003   7.2717559370926929E-002   0.0000000000000000     
   4.1820416049527425E-003   7.8877115089348596E-002   0.0000000000000000     
   7.2105873789168884E-012   5.5321775442694211E-002   0.0000000000000000     
   7.7385439636173947E-012   6.0926302196712377E-002   0.0000000000000000     
   8.0467209501514092E-012   6.6716111883949603E-002   0.0000000000000000     
   8.1351180403633344E-012   7.2691204504405846E-002   0.0000000000000000     
   8.0037337434751832E-012   7.8851580058081142E-002   0.0000000000000000     
   1.6964325425085490E-002   7.9260140571778187E-002   0.0000000000000000     
   1.7639577201902082E-002   8.5579346076466417E-002   0.0000000000000000     
   1.8286982951844746E-002   9.2057231330169367E-002   0.0000000000000000     
   1.8906542674913495E-002   9.8693796332887024E-002   0.0000000000000000     
   1.9498256371108323E-002  0.10548904108461940        0.0000000000000000     
   1.2664204313493618E-002   7.9081395346197125E-002   0.0000000000000000     
   1.3167770762827324E-002   8.5406638746574101E-002   0.0000000000000000     
   1.3651145533622185E-002   9.1891130220880260E-002   0.0000000000000000     
   1.4114328625878202E-002   9.8534869769115588E-002   0.0000000000000000     
   1.4557320039595383E-002  0.10533785739128011        0.0000000000000000     
   8.4034430401160373E-003   7.8953720185387266E-002   0.0000000000000000     
   8.7372390841603878E-003   8.5283276368382746E-002   0.0000000000000000     
   9.0580359036857416E-003   9.1772486571688780E-002   0.0000000000000000     
   9.3658334986921055E-003   9.8421350795305299E-002   0.0000000000000000     
   9.6606318691794760E-003  0.10522986903923234        0.0000000000000000     
   4.1820416049527425E-003   7.8877115089348596E-002   0.0000000000000000     
   4.3479821659012669E-003   8.5209258941892366E-002   0.0000000000000000     
   4.5076540620354192E-003   9.1701300382594858E-002   0.0000000000000000     
   4.6610572933551966E-003   9.8353239411456100E-002   0.0000000000000000     
   4.8081918598606018E-003  0.10516507602847612        0.0000000000000000     
   8.0037337434751832E-012   7.8851580058081142E-002   0.0000000000000000     
   8.0499686777590895E-012   8.5184586467102905E-002   0.0000000000000000     
   8.6712173357449129E-012   9.1677571653598550E-002   0.0000000000000000     
   9.8674807338721901E-012   9.8330535617568035E-002   0.0000000000000000     
   1.1638760268051218E-011  0.10514347835901142        0.0000000000000000     
   1.9498256371108323E-002  0.10548904108461940        0.0000000000000000     
   2.0064695523871516E-002  0.11243140394559226        0.0000000000000000     
   2.0608431616645353E-002  0.11950932327603128        0.0000000000000000     
   2.1129464649429844E-002  0.12672279907593648        0.0000000000000000     
   2.1627794622224986E-002  0.13407183134530787        0.0000000000000000     
   1.4557320039595383E-002  0.10533785739128011        0.0000000000000000     
   1.4981161977810539E-002  0.11228824445697204        0.0000000000000000     
   1.5386896643560502E-002  0.11937418233578964        0.0000000000000000     
   1.5774524036845265E-002  0.12659567102773292        0.0000000000000000     
   1.6144044157664836E-002  0.13395271053280186        0.0000000000000000     
   9.6606318691794760E-003  0.10522986903923234        0.0000000000000000     
   9.9425348773838629E-003  0.11218598767976501        0.0000000000000000     
   1.0211646385541276E-002  0.11927765309319828        0.0000000000000000     
   1.0467966393651719E-002  0.12650486527953228        0.0000000000000000     
   1.0711494901715187E-002  0.13386762423876691        0.0000000000000000     
   4.8081918598606018E-003  0.10516507602847612        0.0000000000000000     
   4.9488142225914793E-003  0.11212463361397107        0.0000000000000000     
   5.0826808425876802E-003  0.11921973554825721        0.0000000000000000     
   5.2097917198492003E-003  0.12645038183133453        0.0000000000000000     
   5.3301468543760474E-003  0.13381657246320297        0.0000000000000000     
   1.1638760268051218E-011  0.10514347835901142        0.0000000000000000     
   1.3433392202430450E-011  0.11210418225959033        0.0000000000000000     
   1.4699711283275296E-011  0.11920042970096641        0.0000000000000000     
   1.5437717781636301E-011  0.12643222068313967        0.0000000000000000     
   1.5647411751723572E-011  0.13379955520611009        0.0000000000000000     
   2.1627794622224986E-002  0.13407183134530787        0.0000000000000000     
   2.2098719752144821E-002  0.14154480728211444        0.0000000000000000     
   2.2537538256303401E-002  0.14913011408432508        0.0000000000000000     
   2.2944250134700719E-002  0.15682775175193989        0.0000000000000000     
   2.3318855387336777E-002  0.16463772028495882        0.0000000000000000     
   1.6144044157664836E-002  0.13395271053280186        0.0000000000000000     
   1.6492733798220381E-002  0.14143381566627250        0.0000000000000000     
   1.6817869750713088E-002  0.14902750124342085        0.0000000000000000     
   1.7119452015142946E-002  0.15673376726424698        0.0000000000000000     
   1.7397480591509966E-002  0.16455261372875077        0.0000000000000000     
   1.0711494901715187E-002  0.13386762423876691        0.0000000000000000     
   1.0940951858529981E-002  0.14135453594131930        0.0000000000000000     
   1.1155057212894389E-002  0.14895420635760664        0.0000000000000000     
   1.1353810964808418E-002  0.15666663548762882        0.0000000000000000     
   1.1537213114272069E-002  0.16449182333138598        0.0000000000000000     
   5.3301468543760474E-003  0.13381657246320297        0.0000000000000000     
   5.4433739330736145E-003  0.14130696810725485        0.0000000000000000     
   5.5491006428473096E-003  0.14891022942688242        0.0000000000000000     
   5.6473269836971301E-003  0.15662635642208561        0.0000000000000000     
   5.7380529556230768E-003  0.16445534909286447        0.0000000000000000     
   1.5647411751723572E-011  0.13379955520611009        0.0000000000000000     
   2.1851290742114227E-011  0.14129111216407911        0.0000000000000000     
   4.0571845796172346E-011  0.14889557045124810        0.0000000000000000     
   7.1809080925445967E-011  0.15661293006761717        0.0000000000000000     
   1.1556299493731270E-010  0.16444319101318622        0.0000000000000000     
   0.0000000000000000        0.0000000000000000        0.0000000000000000     
   6.9037115434100738E-014   1.0734235220153615E-003   0.0000000000000000     
   1.5410724996459124E-013   2.5157376321877992E-003   0.0000000000000000     
   2.5521062043190601E-013   4.3269423305173135E-003   0.0000000000000000     
   3.7234684736528467E-013   6.5070376170039039E-003   0.0000000000000000     
   0.0000000000000000        0.0000000000000000        0.0000000000000000     
  -2.1296726578029599E-004   1.0757081103048803E-003   0.0000000000000000     
  -4.2695065863592748E-004   2.5208875127371863E-003   0.0000000000000000     
  -6.4195017856689453E-004   4.3355382072969191E-003   0.0000000000000000     
  -8.5796582557319707E-004   6.5196601939840762E-003   0.0000000000000000     
   0.0000000000000000        0.0000000000000000        0.0000000000000000     
  -4.2423557201493837E-004   1.0825618752565726E-003   0.0000000000000000     
  -8.5295495234297125E-004   2.5363371545224036E-003   0.0000000000000000     
  -1.2861581409840987E-003   4.3613258377974912E-003   0.0000000000000000     
  -1.7238451379383204E-003   6.5575279250818380E-003   0.0000000000000000     
   0.0000000000000000        0.0000000000000000        0.0000000000000000     
  -6.3380491863489002E-004   1.0939848168704384E-003   0.0000000000000000     
  -1.2780128809670238E-003   2.5620865575434488E-003   0.0000000000000000     
  -1.9326238869964017E-003   4.4043052220190324E-003   0.0000000000000000     
  -2.5976379367230232E-003   6.6206408102971875E-003   0.0000000000000000     
   0.0000000000000000        0.0000000000000000        0.0000000000000000     
  -8.4167530564015095E-004   1.1099769351464771E-003   0.0000000000000000     
  -1.7021244445080855E-003   2.5981357218003241E-003   0.0000000000000000     
  -2.5813474166038039E-003   4.4644763599615400E-003   0.0000000000000000     
  -3.4793442219273056E-003   6.7089988496301265E-003   0.0000000000000000     
   3.7234684736528467E-013   6.5070376170039039E-003   0.0000000000000000     
   5.1323408142758126E-013   9.0286758600054400E-003   0.0000000000000000     
   6.8559075788472007E-013   1.1864509427879784E-002   0.0000000000000000     
   8.8941621605100225E-013   1.5014538320626944E-002   0.0000000000000000     
   1.1247105677347768E-012   1.8478762538246915E-002   0.0000000000000000     
  -8.5796582557319707E-004   6.5196601939840762E-003   0.0000000000000000     
  -1.0761276781465585E-003   9.0452798418803500E-003   0.0000000000000000     
  -1.2975658147787025E-003   1.1884423520067433E-002   0.0000000000000000     
  -1.5222802354696288E-003   1.5037091228545315E-002   0.0000000000000000     
  -1.7502709402193383E-003   1.8503282967314010E-002   0.0000000000000000     
  -1.7238451379383204E-003   6.5575279250818380E-003   0.0000000000000000     
  -2.1661488679913985E-003   9.0950917876807136E-003   0.0000000000000000     
  -2.6132022559290950E-003   1.1944165796899390E-002   0.0000000000000000     
  -3.0650053017514103E-003   1.5104749952737865E-002   0.0000000000000000     
  -3.5215580054583423E-003   1.8576844255196144E-002   0.0000000000000000     
  -2.5976379367230232E-003   6.6206408102971875E-003   0.0000000000000000     
  -3.2700635690212864E-003   9.1781116974065276E-003   0.0000000000000000     
  -3.9469093227655870E-003   1.2043736258375662E-002   0.0000000000000000     
  -4.6281751979559251E-003   1.5217514493204593E-002   0.0000000000000000     
  -5.3138611945923028E-003   1.8699446401893322E-002   0.0000000000000000     
  -3.4793442219273056E-003   6.7089988496301265E-003   0.0000000000000000     
  -4.3878717812362205E-003   9.2943395710577935E-003   0.0000000000000000     
  -5.2986870152881768E-003   1.2183134904496249E-002   0.0000000000000000     
  -6.2117899240831777E-003   1.5375384849945498E-002   0.0000000000000000     
  -7.1271805076212188E-003   1.8871089407405540E-002   0.0000000000000000     
   1.1247105677347768E-012   1.8478762538246915E-002   0.0000000000000000     
   1.4789899448371113E-012   2.2227937888593660E-002   0.0000000000000000     
   2.0397693950569007E-012   2.6232820179521138E-002   0.0000000000000000     
   2.8070497857558829E-012   3.0493409411029349E-002   0.0000000000000000     
   3.7808306832531891E-012   3.5009705583118292E-002   0.0000000000000000     
  -1.7502709402193383E-003   1.8503282967314010E-002   0.0000000000000000     
  -1.9779531412002990E-003   2.2253967912737500E-002   0.0000000000000000     
  -2.2017420505849807E-003   2.6260115241179775E-002   0.0000000000000000     
  -2.4216376683733839E-003   3.0521724952640848E-002   0.0000000000000000     
  -2.6376399945655074E-003   3.5038797047120714E-002   0.0000000000000000     
  -3.5215580054583423E-003   1.8576844255196144E-002   0.0000000000000000     
  -3.9769834166635959E-003   2.2332057986086194E-002   0.0000000000000000     
  -4.4254045849808701E-003   2.6342000427219993E-002   0.0000000000000000     
  -4.8668215104101676E-003   3.0606671578597529E-002   0.0000000000000000     
  -5.3012341929514857E-003   3.5126071440218815E-002   0.0000000000000000     
  -5.3138611945923028E-003   1.8699446401893322E-002   0.0000000000000000     
  -5.9970908249109009E-003   2.2462208108639744E-002   0.0000000000000000     
  -6.6709876011478994E-003   2.6478475737641768E-002   0.0000000000000000     
  -7.3355515233033009E-003   3.0748249288899389E-002   0.0000000000000000     
  -7.9907825913771036E-003   3.5271528762412609E-002   0.0000000000000000     
  -7.1271805076212188E-003   1.8871089407405540E-002   0.0000000000000000     
  -8.0382753659422133E-003   2.2644418280398156E-002   0.0000000000000000     
  -8.9384910990860690E-003   2.6669541172445115E-002   0.0000000000000000     
  -9.8278277070527852E-003   3.0946458083546430E-002   0.0000000000000000     
  -1.0706285189842362E-002   3.5475169013702082E-002   0.0000000000000000     
   3.7808306832531891E-012   3.5009705583118292E-002   0.0000000000000000     
   4.8029636908267226E-012   3.9762322181126276E-002   0.0000000000000000     
   5.7153009538554733E-012   4.4731872690391583E-002   0.0000000000000000     
   6.5178416862928662E-012   4.9918357110914226E-002   0.0000000000000000     
   7.2105873789168884E-012   5.5321775442694211E-002   0.0000000000000000     
  -2.6376399945655074E-003   3.5038797047120714E-002   0.0000000000000000     
  -2.8492556038716087E-003   3.9791884964722191E-002   0.0000000000000000     
  -3.0559910710019470E-003   4.4761542145548124E-002   0.0000000000000000     
  -3.2578463959565184E-003   4.9947768589598519E-002   0.0000000000000000     
  -3.4548215787353264E-003   5.5350564296873371E-002   0.0000000000000000     
  -5.3012341929514857E-003   3.5126071440218815E-002   0.0000000000000000     
  -5.7270245713736271E-003   3.9880573316424965E-002   0.0000000000000000     
  -6.1425745844453953E-003   4.4850550511557112E-002   0.0000000000000000     
  -6.5478842321667887E-003   5.0036003025615255E-002   0.0000000000000000     
  -6.9429535145378073E-003   5.5436930858599395E-002   0.0000000000000000     
  -7.9907825913771036E-003   3.5271528762412609E-002   0.0000000000000000     
  -8.6333068977030910E-003   4.0028387236234600E-002   0.0000000000000000     
  -9.2597505346150473E-003   4.4998897788418542E-002   0.0000000000000000     
  -9.8701135021129691E-003   5.0183060418964427E-002   0.0000000000000000     
  -1.0464395800196860E-002   5.5580875127872284E-002   0.0000000000000000     
  -1.0706285189842362E-002   3.5475169013702082E-002   0.0000000000000000     
  -1.1568102582859998E-002   4.0235326724151081E-002   0.0000000000000000     
  -1.2407518921510898E-002   4.5206583976132406E-002   0.0000000000000000     
  -1.3224534205795058E-002   5.0388940769646062E-002   0.0000000000000000     
  -1.4019148435712479E-002   5.5782397104692030E-002   0.0000000000000000     
   7.2105873789168884E-012   5.5321775442694211E-002   0.0000000000000000     
   7.7385439636173947E-012   6.0926302196712377E-002   0.0000000000000000     
   8.0467209501514092E-012   6.6716111883949603E-002   0.0000000000000000     
   8.1351180403633344E-012   7.2691204504405846E-002   0.0000000000000000     
   8.0037337434751832E-012   7.8851580058081142E-002   0.0000000000000000     
  -3.4548215787353264E-003   5.5350564296873371E-002   0.0000000000000000     
  -3.6461741631772164E-003   6.0954283975693795E-002   0.0000000000000000     
  -3.8311616931210389E-003   6.6743282334380899E-002   0.0000000000000000     
  -4.0097841685667922E-003   7.2717559372934712E-002   0.0000000000000000     
  -4.1820415895144772E-003   7.8877115091355199E-002   0.0000000000000000     
  -6.9429535145378073E-003   5.5436930858599395E-002   0.0000000000000000     
  -7.3266959338001555E-003   6.1038229311081098E-002   0.0000000000000000     
  -7.6980249921955336E-003   6.6824793683631950E-002   0.0000000000000000     
  -8.0569406897239449E-003   7.2796623976251904E-002   0.0000000000000000     
  -8.4034430263853835E-003   7.8953720188941048E-002   0.0000000000000000     
  -1.0464395800196860E-002   5.5580875127872284E-002   0.0000000000000000     
  -1.1041565304130271E-002   6.1178138202874301E-002   0.0000000000000000     
  -1.1600589889176765E-002   6.6960645931702686E-002   0.0000000000000000     
  -1.2141469555336334E-002   7.2928398314357504E-002   0.0000000000000000     
  -1.2664204302608985E-002   7.9081395350838704E-002   0.0000000000000000     
  -1.4019148435712479E-002   5.5782397104692030E-002   0.0000000000000000     
  -1.4790782274167568E-002   6.1374010651073382E-002   0.0000000000000000     
  -1.5538856384064730E-002   6.7150839078593205E-002   0.0000000000000000     
  -1.6263370765403972E-002   7.3112882387251457E-002   0.0000000000000000     
  -1.6964325418185280E-002   7.9260140577048138E-002   0.0000000000000000     
   8.0037337434751832E-012   7.8851580058081142E-002   0.0000000000000000     
   8.0499686777590895E-012   8.5184586467102905E-002   0.0000000000000000     
   8.6712173357449129E-012   9.1677571653598550E-002   0.0000000000000000     
   9.8674807338721901E-012   9.8330535617568035E-002   0.0000000000000000     
   1.1638760268051218E-011  0.10514347835901142        0.0000000000000000     
  -4.1820415895144772E-003   7.8877115091355199E-002   0.0000000000000000     
  -4.3479821502588377E-003   8.5209258943834451E-002   0.0000000000000000     
  -4.5076540450946197E-003   9.1701300384564546E-002   0.0000000000000000     
  -4.6610572740218214E-003   9.8353239413545471E-002   0.0000000000000000     
  -4.8081918370404446E-003  0.10516507603077721        0.0000000000000000     
  -8.4034430263853835E-003   7.8953720188941048E-002   0.0000000000000000     
  -8.7372390698904762E-003   8.5283276371907024E-002   0.0000000000000000     
  -9.0580358879498463E-003   9.1772486575357595E-002   0.0000000000000000     
  -9.3658334805634923E-003   9.8421350799292734E-002   0.0000000000000000     
  -9.6606318477314122E-003  0.10522986904371244        0.0000000000000000     
  -1.2664204302608985E-002   7.9081395350838704E-002   0.0000000000000000     
  -1.3167770750844949E-002   8.5406638751320638E-002   0.0000000000000000     
  -1.3651145519894464E-002   9.1891130225977682E-002   0.0000000000000000     
  -1.4114328609757528E-002   9.8534869774809852E-002   0.0000000000000000     
  -1.4557320020434144E-002  0.10533785739781712        0.0000000000000000     
  -1.6964325418185280E-002   7.9260140577048138E-002   0.0000000000000000     
  -1.7639577193122251E-002   8.5579346082075278E-002   0.0000000000000000     
  -1.8286982940928467E-002   9.2057231336424850E-002   0.0000000000000000     
  -1.8906542661603926E-002   9.8693796340096840E-002   0.0000000000000000     
  -1.9498256355148635E-002  0.10548904109309123        0.0000000000000000     
   1.1638760268051218E-011  0.10514347835901142        0.0000000000000000     
   1.3433392202430450E-011  0.11210418225959033        0.0000000000000000     
   1.4699711283275296E-011  0.11920042970096641        0.0000000000000000     
   1.5437717781636301E-011  0.12643222068313967        0.0000000000000000     
   1.5647411751723572E-011  0.13379955520611009        0.0000000000000000     
  -4.8081918370404446E-003  0.10516507603077721        0.0000000000000000     
  -4.9488141962632628E-003  0.11212463361659716        0.0000000000000000     
  -5.0826808138030493E-003  0.11921973555134269        0.0000000000000000     
  -5.2097916896598059E-003  0.12645038183501381        0.0000000000000000     
  -5.3301468238335283E-003  0.13381657246761047        0.0000000000000000     
  -9.6606318477314122E-003  0.10522986904371244        0.0000000000000000     
  -9.9425348526713444E-003  0.11218598768496606        0.0000000000000000     
  -1.0211646358601017E-002  0.11927765309940291        0.0000000000000000     
  -1.0467966365520434E-002  0.12650486528702304        0.0000000000000000     
  -1.0711494873429593E-002  0.13386762424782636        0.0000000000000000     
  -1.4557320020434144E-002  0.10533785739781712        0.0000000000000000     
  -1.4981161955790851E-002  0.11228824446469703        0.0000000000000000     
  -1.5386896619694192E-002  0.11937418234514710        0.0000000000000000     
  -1.5774524012144166E-002  0.12659567103916736        0.0000000000000000     
  -1.6144044133140772E-002  0.13395271054675775        0.0000000000000000     
  -1.9498256355148635E-002  0.10548904109309123        0.0000000000000000     
  -2.0064695505621788E-002  0.11243140395579006        0.0000000000000000     
  -2.0608431597082578E-002  0.11950932328857522        0.0000000000000000     
  -2.1129464629531008E-002  0.12672279909144676        0.0000000000000000     
  -2.1627794602967074E-002  0.13407183136440468        0.0000000000000000     
   1.5647411751723572E-011  0.13379955520611009        0.0000000000000000     
   2.1851290742114227E-011  0.14129111216407911        0.0000000000000000     
   4.0571845796172346E-011  0.14889557045124810        0.0000000000000000     
   7.1809080925445967E-011  0.15661293006761717        0.0000000000000000     
   1.1556299493731270E-010  0.16444319101318622        0.0000000000000000     
  -5.3301468238335283E-003  0.13381657246761047        0.0000000000000000     
  -5.4433738903824870E-003  0.14130696811194793        0.0000000000000000     
  -5.5491005633649384E-003  0.14891022943084137        0.0000000000000000     
  -5.6473268427808827E-003  0.15662635642429085        0.0000000000000000     
  -5.7380527286303232E-003  0.16445534909229628        0.0000000000000000     
  -1.0711494873429593E-002  0.13386762424782636        0.0000000000000000     
  -1.0940951818873206E-002  0.14135453595101713        0.0000000000000000     
  -1.1155057138395982E-002  0.14895420636579965        0.0000000000000000     
  -1.1353810831997923E-002  0.15666663549217386        0.0000000000000000     
  -1.1537212899679019E-002  0.16449182333013973        0.0000000000000000     
  -1.6144044133140772E-002  0.13395271054675775        0.0000000000000000     
  -1.6492733763620860E-002  0.14143381568128685        0.0000000000000000     
  -1.6817869684521279E-002  0.14902750125612296        0.0000000000000000     
  -1.7119451895842023E-002  0.15673376727126617        0.0000000000000000     
  -1.7397480397583095E-002  0.16455261372671651        0.0000000000000000     
  -2.1627794602967074E-002  0.13407183136440468        0.0000000000000000     
  -2.2098719724625467E-002  0.14154480730275687        0.0000000000000000     
  -2.2537538201740839E-002  0.14913011410181126        0.0000000000000000     
  -2.2944250034313204E-002  0.15682775176156788        0.0000000000000000     
  -2.3318855222342554E-002  0.16463772028202667        0.0000000000000000     
   0.0000000000000000        0.0000000000000000        0.0000000000000000     
  -8.4167530564015095E-004   1.1099769351464771E-003   0.0000000000000000     
  -1.7021244445080855E-003   2.5981357218003241E-003   0.0000000000000000     
  -2.5813474166038039E-003   4.4644763599615400E-003   0.0000000000000000     
  -3.4793442219273056E-003   6.7089988496301265E-003   0.0000000000000000     
   0.0000000000000000        0.0000000000000000        0.0000000000000000     
  -1.0567320183549076E-003   1.1341155600285342E-003   0.0000000000000000     
  -2.1398051161704095E-003   2.6503518075098979E-003   0.0000000000000000     
  -3.2492192934465047E-003   4.5487087424440908E-003   0.0000000000000000     
  -4.3849745501831940E-003   6.8291863648311125E-003   0.0000000000000000     
   0.0000000000000000        0.0000000000000000        0.0000000000000000     
  -1.2878603421033466E-003   1.1699780214604538E-003   0.0000000000000000     
  -2.6055703691582484E-003   2.7246019748890403E-003   0.0000000000000000     
  -3.9531300811647043E-003   4.6638718602857593E-003   0.0000000000000000     
  -5.3305394781227155E-003   6.9877876776506097E-003   0.0000000000000000     
   0.0000000000000000        0.0000000000000000        0.0000000000000000     
  -1.5350602768854677E-003   1.2175643194422363E-003   0.0000000000000000     
  -3.0994202034716027E-003   2.8208862239377506E-003   0.0000000000000000     
  -4.6930797797584030E-003   4.8099657134865444E-003   0.0000000000000000     
  -6.3160390057458698E-003   7.1848027880886149E-003   0.0000000000000000     
   0.0000000000000000        0.0000000000000000        0.0000000000000000     
  -1.7983318227012713E-003   1.2768744539738809E-003   0.0000000000000000     
  -3.6213546191104710E-003   2.9392045546560298E-003   0.0000000000000000     
  -5.4690683892276003E-003   4.9869903020464471E-003   0.0000000000000000     
  -7.3414731330526568E-003   7.4202316961451313E-003   0.0000000000000000     
  -3.4793442219273056E-003   6.7089988496301265E-003   0.0000000000000000     
  -4.3878717812362205E-003   9.2943395710577935E-003   0.0000000000000000     
  -5.2986870152881768E-003   1.2183134904496249E-002   0.0000000000000000     
  -6.2117899240831777E-003   1.5375384849945498E-002   0.0000000000000000     
  -7.1271805076212188E-003   1.8871089407405540E-002   0.0000000000000000     
  -4.3849745501831940E-003   6.8291863648311125E-003   0.0000000000000000     
  -5.5341261077587042E-003   9.4497270061046426E-003   0.0000000000000000     
  -6.6837291875512586E-003   1.2368272997698356E-002   0.0000000000000000     
  -7.8337837895608615E-003   1.5584824339612254E-002   0.0000000000000000     
  -8.9842899137875087E-003   1.9099381031846337E-002   0.0000000000000000     
  -5.3305394781227155E-003   6.9877876776506097E-003   0.0000000000000000     
  -6.7233791517112363E-003   9.6502256000172149E-003   0.0000000000000000     
  -8.1172296936092240E-003   1.2605061800419185E-002   0.0000000000000000     
  -9.5120911038166708E-003   1.5852296278856527E-002   0.0000000000000000     
  -1.0907963382333592E-002   1.9391929035329235E-002   0.0000000000000000     
  -6.3160390057458698E-003   7.1848027880886149E-003   0.0000000000000000     
  -7.9556309130938193E-003   9.8958353527954998E-003   0.0000000000000000     
  -9.5991885334620677E-003   1.2893501312658734E-002   0.0000000000000000     
  -1.1246711866850617E-002   1.6177800667678315E-002   0.0000000000000000     
  -1.2898200913259465E-002   1.9748733417854238E-002   0.0000000000000000     
  -7.3414731330526568E-003   7.4202316961451313E-003   0.0000000000000000     
  -9.2308813919064533E-003   1.0186556264439510E-002   0.0000000000000000     
  -1.1129605707109797E-002   1.3233591534417003E-002   0.0000000000000000     
  -1.3037646078662689E-002   1.6561337506077616E-002   0.0000000000000000     
  -1.4955002506565125E-002   2.0169794179421351E-002   0.0000000000000000     
  -7.1271805076212188E-003   1.8871089407405540E-002   0.0000000000000000     
  -8.0382753659422133E-003   2.2644418280398156E-002   0.0000000000000000     
  -8.9384910990860690E-003   2.6669541172445115E-002   0.0000000000000000     
  -9.8278277070527852E-003   3.0946458083546430E-002   0.0000000000000000     
  -1.0706285189842362E-002   3.5475169013702082E-002   0.0000000000000000     
  -8.9842899137875087E-003   1.9099381031846337E-002   0.0000000000000000     
  -1.0128202307656830E-002   2.2887217450703320E-002   0.0000000000000000     
  -1.1258475718594448E-002   2.6923607972485920E-002   0.0000000000000000     
  -1.2375110146600364E-002   3.1208552597194138E-002   0.0000000000000000     
  -1.3478105591674576E-002   3.5742051324827974E-002   0.0000000000000000     
  -1.0907963382333592E-002   1.9391929035329235E-002   0.0000000000000000     
  -1.2294536917954044E-002   2.3199134568897144E-002   0.0000000000000000     
  -1.3661502099472107E-002   2.7249087378620068E-002   0.0000000000000000     
  -1.5008858926887782E-002   3.1541787464498025E-002   0.0000000000000000     
  -1.6336607400201063E-002   3.6077234826531003E-002   0.0000000000000000     
  -1.2898200913259465E-002   1.9748733417854238E-002   0.0000000000000000     
  -1.4537279196833857E-002   2.3580169634979626E-002   0.0000000000000000     
  -1.6147570241719048E-002   2.7645979390847574E-002   0.0000000000000000     
  -1.7729074047915041E-002   3.1946162685458079E-002   0.0000000000000000     
  -1.9281790615421832E-002   3.6480719518811169E-002   0.0000000000000000     
  -1.4955002506565125E-002   2.0169794179421351E-002   0.0000000000000000     
  -1.6856429144296265E-002   2.4030322648950761E-002   0.0000000000000000     
  -1.8716680145335268E-002   2.8114284009168416E-002   0.0000000000000000     
  -2.0535755509682140E-002   3.2421678260074326E-002   0.0000000000000000     
  -2.2313655237336871E-002   3.6952505401668466E-002   0.0000000000000000     
  -1.0706285189842362E-002   3.5475169013702082E-002   0.0000000000000000     
  -1.1568102582859998E-002   4.0235326724151081E-002   0.0000000000000000     
  -1.2407518921510898E-002   4.5206583976132406E-002   0.0000000000000000     
  -1.3224534205795058E-002   5.0388940769646062E-002   0.0000000000000000     
  -1.4019148435712479E-002   5.5782397104692030E-002   0.0000000000000000     
  -1.3478105591674576E-002   3.5742051324827974E-002   0.0000000000000000     
  -1.4559846907395486E-002   4.0504127689710227E-002   0.0000000000000000     
  -1.5612718947341491E-002   4.5474805226163706E-002   0.0000000000000000     
  -1.6636721711512596E-002   5.0654083934188382E-002   0.0000000000000000     
  -1.7631855199908793E-002   5.6041963813784283E-002   0.0000000000000000     
  -1.6336607400201063E-002   3.6077234826531003E-002   0.0000000000000000     
  -1.7636975151860686E-002   4.0837526042447857E-002   0.0000000000000000     
  -1.8902189814315368E-002   4.5804757689977417E-002   0.0000000000000000     
  -2.0132251387565116E-002   5.0978929769119719E-002   0.0000000000000000     
  -2.1327159871609921E-002   5.6360042279874720E-002   0.0000000000000000     
  -1.9281790615421832E-002   3.6480719518811169E-002   0.0000000000000000     
  -2.0799487316255600E-002   4.1235521782363949E-002   0.0000000000000000     
  -2.2275931522432527E-002   4.6196441367573574E-002   0.0000000000000000     
  -2.3711123233952622E-002   5.1363478274440037E-002   0.0000000000000000     
  -2.5105062450815875E-002   5.6736632502963326E-002   0.0000000000000000     
  -2.2313655237336871E-002   3.6952505401668466E-002   0.0000000000000000     
  -2.4047383400580227E-002   4.1698114909458517E-002   0.0000000000000000     
  -2.5733944071692976E-002   4.6649856258952148E-002   0.0000000000000000     
  -2.7373337250675110E-002   5.1807729450149345E-002   0.0000000000000000     
  -2.8965562937526640E-002   5.7171734483050102E-002   0.0000000000000000     
  -1.4019148435712479E-002   5.5782397104692030E-002   0.0000000000000000     
  -1.4790782274167568E-002   6.1374010651073382E-002   0.0000000000000000     
  -1.5538856384064730E-002   6.7150839078593205E-002   0.0000000000000000     
  -1.6263370765403972E-002   7.3112882387251457E-002   0.0000000000000000     
  -1.6964325418185280E-002   7.9260140577048138E-002   0.0000000000000000     
  -1.7631855199908793E-002   5.6041963813784283E-002   0.0000000000000000     
  -1.8598050363196592E-002   6.1626630900037359E-002   0.0000000000000000     
  -1.9535238152042507E-002   6.7396271228033586E-002   0.0000000000000000     
  -2.0443418566446533E-002   7.3350884797772936E-002   0.0000000000000000     
  -2.1322591606408665E-002   7.9490471609255431E-002   0.0000000000000000     
  -2.1327159871609921E-002   5.6360042279874720E-002   0.0000000000000000     
  -2.2487073090501904E-002   6.1936783194125239E-002   0.0000000000000000     
  -2.3612148868293169E-002   6.7697840483754074E-002   0.0000000000000000     
  -2.4702387204983720E-002   7.3643214148761182E-002   0.0000000000000000     
  -2.5757788100573550E-002   7.9772904189146593E-002   0.0000000000000000     
  -2.5105062450815875E-002   5.6736632502963326E-002   0.0000000000000000     
  -2.6457850456083492E-002   6.2304467533337002E-002   0.0000000000000000     
  -2.7769588532816712E-002   6.8055546845754641E-002   0.0000000000000000     
  -2.9040276681015522E-002   7.3989870440216168E-002   0.0000000000000000     
  -3.0269914900679921E-002   8.0107438316721652E-002   0.0000000000000000     
  -2.8965562937526640E-002   5.7171734483050102E-002   0.0000000000000000     
  -3.0510382459941376E-002   6.2729683917672668E-002   0.0000000000000000     
  -3.2007557145613152E-002   6.8469390314035275E-002   0.0000000000000000     
  -3.3457086994541946E-002   7.4390853672137922E-002   0.0000000000000000     
  -3.4858972006727780E-002   8.0494073991980566E-002   0.0000000000000000     
  -1.6964325418185280E-002   7.9260140577048138E-002   0.0000000000000000     
  -1.7639577193122251E-002   8.5579346082075278E-002   0.0000000000000000     
  -1.8286982940928467E-002   9.2057231336424850E-002   0.0000000000000000     
  -1.8906542661603926E-002   9.8693796340096840E-002   0.0000000000000000     
  -1.9498256355148635E-002  0.10548904109309123        0.0000000000000000     
  -2.1322591606408665E-002   7.9490471609255431E-002   0.0000000000000000     
  -2.2169539341338012E-002   8.5801605015750765E-002   0.0000000000000000     
  -2.2981043840643662E-002   9.2270858370528661E-002   0.0000000000000000     
  -2.3757105104325618E-002   9.8898231673589104E-002   0.0000000000000000     
  -2.4497723132383877E-002  0.10568372492493207        0.0000000000000000     
  -2.5757788100573550E-002   7.9772904189146593E-002   0.0000000000000000     
  -2.6774538140107863E-002   8.6073622203926906E-002   0.0000000000000000     
  -2.7748823908631846E-002   9.2532079792118749E-002   0.0000000000000000     
  -2.8680645406145507E-002   9.9148276953722067E-002   0.0000000000000000     
  -2.9570002632648841E-002  0.10592221368873689        0.0000000000000000     
  -3.0269914900679921E-002   8.0107438316721652E-002   0.0000000000000000     
  -3.1454573589431795E-002   8.6395397646603728E-002   0.0000000000000000     
  -3.2590323144893012E-002   9.2840895601195100E-002   0.0000000000000000     
  -3.3677163567063607E-002   9.9443932180495770E-002   0.0000000000000000     
  -3.4715094855943540E-002  0.10620450738450571        0.0000000000000000     
  -3.4858972006727780E-002   8.0494073991980566E-002   0.0000000000000000     
  -3.6209645689309816E-002   8.6766931343781217E-002   0.0000000000000000     
  -3.7505541549427188E-002   9.3197305797757743E-002   0.0000000000000000     
  -3.8746659587079901E-002   9.9785197353910171E-002   0.0000000000000000     
  -3.9932999802267964E-002  0.10653060601223850        0.0000000000000000     
  -1.9498256355148635E-002  0.10548904109309123        0.0000000000000000     
  -2.0064695505621788E-002  0.11243140395579006        0.0000000000000000     
  -2.0608431597082578E-002  0.11950932328857522        0.0000000000000000     
  -2.1129464629531008E-002  0.12672279909144676        0.0000000000000000     
  -2.1627794602967074E-002  0.13407183136440468        0.0000000000000000     
  -2.4497723132383877E-002  0.10568372492493207        0.0000000000000000     
  -2.5206991986207086E-002  0.11261605974921009        0.0000000000000000     
  -2.5889005727183917E-002  0.11968395777107560        0.0000000000000000     
  -2.6543764355314341E-002  0.12688741899052863        0.0000000000000000     
  -2.7171267870598381E-002  0.13422644340756915        0.0000000000000000     
  -2.9570002632648841E-002  0.10592221368873689        0.0000000000000000     
  -3.0421907881589702E-002  0.11284280543592212        0.0000000000000000     
  -3.1241373446415942E-002  0.11989896763403655        0.0000000000000000     
  -3.2028399327127560E-002  0.12709070028308023        0.0000000000000000     
  -3.2782985523724557E-002  0.13441800338305315        0.0000000000000000     
  -3.4715094855943540E-002  0.10620450738450571        0.0000000000000000     
  -3.5709443191769628E-002  0.11311164101592608        0.0000000000000000     
  -3.6665534754778670E-002  0.12015435287745807        0.0000000000000000     
  -3.7583369544970671E-002  0.12733264296910163        0.0000000000000000     
  -3.8462947562345612E-002  0.13464651129085675        0.0000000000000000     
  -3.9932999802267964E-002  0.10653060601223850        0.0000000000000000     
  -4.1069597916746865E-002  0.11342256648922205        0.0000000000000000     
  -4.2161489652272094E-002  0.12045011350134013        0.0000000000000000     
  -4.3208675008843657E-002  0.12761324704859273        0.0000000000000000     
  -4.4211153986461540E-002  0.13491196713097992        0.0000000000000000     
  -2.1627794602967074E-002  0.13407183136440468        0.0000000000000000     
  -2.2098719724625467E-002  0.14154480730275687        0.0000000000000000     
  -2.2537538201740839E-002  0.14913011410181126        0.0000000000000000     
  -2.2944250034313204E-002  0.15682775176156788        0.0000000000000000     
  -2.3318855222342554E-002  0.16463772028202667        0.0000000000000000     
  -2.7171267870598381E-002  0.13422644340756915        0.0000000000000000     
  -2.7765027830653440E-002  0.14168917948381102        0.0000000000000000     
  -2.8318555793096924E-002  0.14926377568086818        0.0000000000000000     
  -2.8831851757928840E-002  0.15695023199874059        0.0000000000000000     
  -2.9304915725149188E-002  0.16474854843742825        0.0000000000000000     
  -3.2782985523724557E-002  0.13441800338305315        0.0000000000000000     
  -3.3497776210471210E-002  0.14186860089283296        0.0000000000000000     
  -3.4165415561631808E-002  0.14943021677129723        0.0000000000000000     
  -3.4785903577206331E-002  0.15710285101844604        0.0000000000000000     
  -3.5359240257194807E-002  0.16488650363427937        0.0000000000000000     
  -3.8462947562345612E-002  0.13464651129085675        0.0000000000000000     
  -3.9296964864078791E-002  0.14208307152982264        0.0000000000000000     
  -4.0078117507345482E-002  0.14962943737309850        0.0000000000000000     
  -4.0806405492145675E-002  0.15728560882068429        0.0000000000000000     
  -4.1481828818479401E-002  0.16505158587258001        0.0000000000000000     
  -4.4211153986461540E-002  0.13491196713097992        0.0000000000000000     
  -4.5162593791476170E-002  0.14233259139478011        0.0000000000000000     
  -4.6056661630237951E-002  0.14986143748627190        0.0000000000000000     
  -4.6893357502746889E-002  0.15749850540545526        0.0000000000000000     
  -4.7672681409002965E-002  0.16524379515233020        0.0000000000000000     
   0.0000000000000000        0.0000000000000000        0.0000000000000000     
  -1.7983318227012713E-003   1.2768744539738809E-003   0.0000000000000000     
  -3.6213546191104710E-003   2.9392045546560298E-003   0.0000000000000000     
  -5.4690683892276003E-003   4.9869903020464471E-003   0.0000000000000000     
  -7.3414731330526568E-003   7.4202316961451313E-003   0.0000000000000000     
   0.0000000000000000        0.0000000000000000        0.0000000000000000     
  -2.0694199240908458E-003   1.3550003451013553E-003   0.0000000000000000     
  -4.1640413294481314E-003   3.0940454530236213E-003   0.0000000000000000     
  -6.2838642160718558E-003   5.2171353237667984E-003   0.0000000000000000     
  -8.4288885839620201E-003   7.7242699573308853E-003   0.0000000000000000     
   0.0000000000000000        0.0000000000000000        0.0000000000000000     
  -2.3400695255942805E-003   1.4590339128706259E-003   0.0000000000000000     
  -4.7201480478578561E-003   3.2998974050202695E-003   0.0000000000000000     
  -7.1402355667907307E-003   5.5225904764489306E-003   0.0000000000000000     
  -9.6003320823928994E-003   8.1271131271566117E-003   0.0000000000000000     
   0.0000000000000000        0.0000000000000000        0.0000000000000000     
  -2.6102806272115752E-003   1.5889751572816925E-003   0.0000000000000000     
  -5.2896747743396491E-003   3.5567604106459738E-003   0.0000000000000000     
  -8.0381824413842222E-003   5.9033557600928462E-003   0.0000000000000000     
  -1.0855803628345297E-002   8.6287612056223026E-003   0.0000000000000000     
   0.0000000000000000        0.0000000000000000        0.0000000000000000     
  -2.8800532289427294E-003   1.7448240783345553E-003   0.0000000000000000     
  -5.8726215088935069E-003   3.8646344699007355E-003   0.0000000000000000     
  -8.9777048398523313E-003   6.3594311746985408E-003   0.0000000000000000     
  -1.2195303221819206E-002   9.2292141927279702E-003   0.0000000000000000     
  -7.3414731330526568E-003   7.4202316961451313E-003   0.0000000000000000     
  -9.2308813919064533E-003   1.0186556264439510E-002   0.0000000000000000     
  -1.1129605707109797E-002   1.3233591534417003E-002   0.0000000000000000     
  -1.3037646078662689E-002   1.6561337506077616E-002   0.0000000000000000     
  -1.4955002506565125E-002   2.0169794179421351E-002   0.0000000000000000     
  -8.4288885839620201E-003   7.7242699573308853E-003   0.0000000000000000     
  -1.0590744295852576E-002   1.0558093583430413E-002   0.0000000000000000     
  -1.2761061214477483E-002   1.3661250431779900E-002   0.0000000000000000     
  -1.4939839339836735E-002   1.7033740502379355E-002   0.0000000000000000     
  -1.7127078671930331E-002   2.0675563795228773E-002   0.0000000000000000     
  -9.6003320823928994E-003   8.1271131271566117E-003   0.0000000000000000     
  -1.2076833332635635E-002   1.1046152558249384E-002   0.0000000000000000     
  -1.4546135055490201E-002   1.4212395970833326E-002   0.0000000000000000     
  -1.7008237250956605E-002   1.7625843364908442E-002   0.0000000000000000     
  -1.9463139919034846E-002   2.1286494740474726E-002   0.0000000000000000     
  -1.0855803628345297E-002   8.6287612056223026E-003   0.0000000000000000     
  -1.3689148502255622E-002   1.1650733188896426E-002   0.0000000000000000     
  -1.6484827230147960E-002   1.4887028151577284E-002   0.0000000000000000     
  -1.9242839812022305E-002   1.8337646093664870E-002   0.0000000000000000     
  -2.1963186247878661E-002   2.2002587015159201E-002   0.0000000000000000     
  -1.2195303221819206E-002   9.2292141927279702E-003   0.0000000000000000     
  -1.5427689804712541E-002   1.2371835475371540E-002   0.0000000000000000     
  -1.8577137738450746E-002   1.5685146974011768E-002   0.0000000000000000     
  -2.1643647023033827E-002   1.9169148688648652E-002   0.0000000000000000     
  -2.4627217658461781E-002   2.2823840619282196E-002   0.0000000000000000     
  -1.4955002506565125E-002   2.0169794179421351E-002   0.0000000000000000     
  -1.6856429144296265E-002   2.4030322648950761E-002   0.0000000000000000     
  -1.8716680145335268E-002   2.8114284009168416E-002   0.0000000000000000     
  -2.0535755509682140E-002   3.2421678260074326E-002   0.0000000000000000     
  -2.2313655237336871E-002   3.6952505401668466E-002   0.0000000000000000     
  -1.7127078671930331E-002   2.0675563795228773E-002   0.0000000000000000     
  -1.9291661370924067E-002   2.4558974508953193E-002   0.0000000000000000     
  -2.1402469596983720E-002   2.8656226842177657E-002   0.0000000000000000     
  -2.3459503350109295E-002   3.2967320794902152E-002   0.0000000000000000     
  -2.5462762630300787E-002   3.7492256367126692E-002   0.0000000000000000     
  -1.9463139919034846E-002   2.1286494740474726E-002   0.0000000000000000     
  -2.1882650487300044E-002   2.5175506113129558E-002   0.0000000000000000     
  -2.4238576383327329E-002   2.9274033498470318E-002   0.0000000000000000     
  -2.6530917607116705E-002   3.3582076896497011E-002   0.0000000000000000     
  -2.8759674158668168E-002   3.8099636307209625E-002   0.0000000000000000     
  -2.1963186247878661E-002   2.2002587015159201E-002   0.0000000000000000     
  -2.4629396493424202E-002   2.5879917461479843E-002   0.0000000000000000     
  -2.7225000504366111E-002   2.9967703978046410E-002   0.0000000000000000     
  -2.9749998280704383E-002   3.4265946564858887E-002   0.0000000000000000     
  -3.2204389822439013E-002   3.8774645221917280E-002   0.0000000000000000     
  -2.4627217658461781E-002   2.2823840619282196E-002   0.0000000000000000     
  -2.7531899389296545E-002   2.6672208554004068E-002   0.0000000000000000     
  -3.0361741960100053E-002   3.0737238280905927E-002   0.0000000000000000     
  -3.3116745370872322E-002   3.5018929799987782E-002   0.0000000000000000     
  -3.5796909621613325E-002   3.9517283111249635E-002   0.0000000000000000     
  -2.2313655237336871E-002   3.6952505401668466E-002   0.0000000000000000     
  -2.4047383400580227E-002   4.1698114909458517E-002   0.0000000000000000     
  -2.5733944071692976E-002   4.6649856258952148E-002   0.0000000000000000     
  -2.7373337250675110E-002   5.1807729450149345E-002   0.0000000000000000     
  -2.8965562937526640E-002   5.7171734483050102E-002   0.0000000000000000     
  -2.5462762630300787E-002   3.7492256367126692E-002   0.0000000000000000     
  -2.7412526241852711E-002   4.2227044468372416E-002   0.0000000000000000     
  -2.9309072989059586E-002   4.7167696008160481E-002   0.0000000000000000     
  -3.1152402871921420E-002   5.2314210986490882E-002   0.0000000000000000     
  -3.2942515890438194E-002   5.7666589403363618E-002   0.0000000000000000     
  -2.8759674158668168E-002   3.8099636307209625E-002   0.0000000000000000     
  -3.0926778677091187E-002   4.2824049503746499E-002   0.0000000000000000     
  -3.3034163801495257E-002   4.7752654259245922E-002   0.0000000000000000     
  -3.5081829531880347E-002   5.2885450573707887E-002   0.0000000000000000     
  -3.7069775868246509E-002   5.8222438447132409E-002   0.0000000000000000     
  -3.2204389822439013E-002   3.8774645221917280E-002   0.0000000000000000     
  -3.4590140706295659E-002   4.3489130015580739E-002   0.0000000000000000     
  -3.6909216508999955E-002   4.8404731012208435E-002   0.0000000000000000     
  -3.9161617230551941E-002   5.3521448211800347E-002   0.0000000000000000     
  -4.1347342870951570E-002   5.8839281614356503E-002   0.0000000000000000     
  -3.5796909621613325E-002   3.9517283111249635E-002   0.0000000000000000     
  -3.8402612329466117E-002   4.4222286003875171E-002   0.0000000000000000     
  -4.0934231111573731E-002   4.9123926267048049E-002   0.0000000000000000     
  -4.3391765967936147E-002   5.4222203900768297E-002   0.0000000000000000     
  -4.5775216898553392E-002   5.9517118905035887E-002   0.0000000000000000     
  -2.8965562937526640E-002   5.7171734483050102E-002   0.0000000000000000     
  -3.0510382459941376E-002   6.2729683917672668E-002   0.0000000000000000     
  -3.2007557145613152E-002   6.8469390314035275E-002   0.0000000000000000     
  -3.3457086994541946E-002   7.4390853672137922E-002   0.0000000000000000     
  -3.4858972006727780E-002   8.0494073991980566E-002   0.0000000000000000     
  -3.2942515890438194E-002   5.7666589403363618E-002   0.0000000000000000     
  -3.4678872259874878E-002   6.3212133781014049E-002   0.0000000000000000     
  -3.6360932195496409E-002   6.8938146641677536E-002   0.0000000000000000     
  -3.7988695697302795E-002   7.4844627985354115E-002   0.0000000000000000     
  -3.9562162765294048E-002   8.0931577812043742E-002   0.0000000000000000     
  -3.7069775868246509E-002   5.8222438447132409E-002   0.0000000000000000     
  -3.8997523013683338E-002   6.3751518557242953E-002   0.0000000000000000     
  -4.0864591171280447E-002   6.9460591581762987E-002   0.0000000000000000     
  -4.2670980341037876E-002   7.5349657520692517E-002   0.0000000000000000     
  -4.4416690522955604E-002   8.1418716374031488E-002   0.0000000000000000     
  -4.1347342870951570E-002   5.8839281614356503E-002   0.0000000000000000     
  -4.3466334721366726E-002   6.4347838246359423E-002   0.0000000000000000     
  -4.5518534072965272E-002   7.0036725134291614E-002   0.0000000000000000     
  -4.7503940925747175E-002   7.5905942278153060E-002   0.0000000000000000     
  -4.9422555279712475E-002   8.1955489677943819E-002   0.0000000000000000     
  -4.5775216898553392E-002   5.9517118905035887E-002   0.0000000000000000     
  -4.8085307382925088E-002   6.5001092848363390E-002   0.0000000000000000     
  -5.0322760900550850E-002   7.0666547299263374E-002   0.0000000000000000     
  -5.2487577451430713E-002   7.6513482257735813E-002   0.0000000000000000     
  -5.4579757035564634E-002   8.2541897723780733E-002   0.0000000000000000     
  -3.4858972006727780E-002   8.0494073991980566E-002   0.0000000000000000     
  -3.6209645689309816E-002   8.6766931343781217E-002   0.0000000000000000     
  -3.7505541549427188E-002   9.3197305797757743E-002   0.0000000000000000     
  -3.8746659587079901E-002   9.9785197353910171E-002   0.0000000000000000     
  -3.9932999802267964E-002  0.10653060601223850        0.0000000000000000     
  -3.9562162765294048E-002   8.0931577812043742E-002   0.0000000000000000     
  -4.1078228245389460E-002   8.7187585345619018E-002   0.0000000000000000     
  -4.2533786983508327E-002   9.3601239809952538E-002   0.0000000000000000     
  -4.3928838979650671E-002  0.10017254120504432        0.0000000000000000     
  -4.5263384233816498E-002  0.10690148953089434        0.0000000000000000     
  -4.4416690522955604E-002   8.1418716374031488E-002   0.0000000000000000     
  -4.6098795063318258E-002   8.7656721702276813E-002   0.0000000000000000     
  -4.7714367308410471E-002   9.4052627065925432E-002   0.0000000000000000     
  -4.9263407258232202E-002  0.10060643246497723        0.0000000000000000     
  -5.0745914912783498E-002  0.10731813789943233        0.0000000000000000     
  -4.9422555279712475E-002   8.1955489677943819E-002   0.0000000000000000     
  -5.1271346143096232E-002   8.8174340413754645E-002   0.0000000000000000     
  -5.3047282524133592E-002   9.4551467565676339E-002   0.0000000000000000     
  -5.4750364422824507E-002  0.10108687113370896        0.0000000000000000     
  -5.6380591839169013E-002  0.10778055111785244        0.0000000000000000     
  -5.4579757035564634E-002   8.2541897723780733E-002   0.0000000000000000     
  -5.6595881484723387E-002   8.8740441480052459E-002   0.0000000000000000     
  -5.8532532630677710E-002   9.5097761309205373E-002   0.0000000000000000     
  -6.0389710473427560E-002  0.10161385721123946        0.0000000000000000     
  -6.2167415012972994E-002  0.10828872918615468        0.0000000000000000     
  -3.9932999802267964E-002  0.10653060601223850        0.0000000000000000     
  -4.1069597916746865E-002  0.11342256648922205        0.0000000000000000     
  -4.2161489652272094E-002  0.12045011350134013        0.0000000000000000     
  -4.3208675008843657E-002  0.12761324704859273        0.0000000000000000     
  -4.4211153986461540E-002  0.13491196713097992        0.0000000000000000     
  -4.5263384233816498E-002  0.10690148953089434        0.0000000000000000     
  -4.6542339310438552E-002  0.11377686026967995        0.0000000000000000     
  -4.7770620773949640E-002  0.12078742890357851        0.0000000000000000     
  -4.8948228624349735E-002  0.12793319543258996        0.0000000000000000     
  -5.0075162861638857E-002  0.13521415985671437        0.0000000000000000     
  -5.0745914912783498E-002  0.10731813789943233        0.0000000000000000     
  -5.2167634626761841E-002  0.11417580077116983        0.0000000000000000     
  -5.3534310754864721E-002  0.12116747848206894        0.0000000000000000     
  -5.4845943297092137E-002  0.12829317103212964        0.0000000000000000     
  -5.6102532253444089E-002  0.13555287842135194        0.0000000000000000     
  -5.6380591839169013E-002  0.10778055111785244        0.0000000000000000     
  -5.7945483865716720E-002  0.11461938799369166        0.0000000000000000     
  -5.9452559595017343E-002  0.12159026223681139        0.0000000000000000     
  -6.0901819027070841E-002  0.12869317384721168        0.0000000000000000     
  -6.2293262161877229E-002  0.13592812282489258        0.0000000000000000     
  -6.2167415012972994E-002  0.10828872918615468        0.0000000000000000     
  -6.3875887027303221E-002  0.11510762193724540        0.0000000000000000     
  -6.5525367294407513E-002  0.12205578016780591        0.0000000000000000     
  -6.7115855814285863E-002  0.12913320387783619        0.0000000000000000     
  -6.8647352586938271E-002  0.13633989306733624        0.0000000000000000     
  -4.4211153986461540E-002  0.13491196713097992        0.0000000000000000     
  -4.5162593791476170E-002  0.14233259139478011        0.0000000000000000     
  -4.6056661630237951E-002  0.14986143748627190        0.0000000000000000     
  -4.6893357502746889E-002  0.15749850540545526        0.0000000000000000     
  -4.7672681409002965E-002  0.16524379515233020        0.0000000000000000     
  -5.0075162861638857E-002  0.13521415985671437        0.0000000000000000     
  -5.1145380036366511E-002  0.14261644659056194        0.0000000000000000     
  -5.2152836699082140E-002  0.15012618004874284        0.0000000000000000     
  -5.3097532849785779E-002  0.15774336023125712        0.0000000000000000     
  -5.3979468488477407E-002  0.16546798713810479        0.0000000000000000     
  -5.6102532253444089E-002  0.13555287842135194        0.0000000000000000     
  -5.7296040642452917E-002  0.14293392322002468        0.0000000000000000     
  -5.8418431482650954E-002  0.15042362799843667        0.0000000000000000     
  -5.9469704774038179E-002  0.15802199275658799        0.0000000000000000     
  -6.0449860516614592E-002  0.16572901749447858        0.0000000000000000     
  -6.2293262161877229E-002  0.13592812282489258        0.0000000000000000     
  -6.3614575609735435E-002  0.14328502128316836        0.0000000000000000     
  -6.4853445980944391E-002  0.15075378133535344        0.0000000000000000     
  -6.6009873275504075E-002  0.15833440298144785        0.0000000000000000     
  -6.7083857493414514E-002  0.16602688622145159        0.0000000000000000     
  -6.8647352586938271E-002  0.13633989306733624        0.0000000000000000     
  -7.0100984938214039E-002  0.14366974077999292        0.0000000000000000     
  -7.1457880193962459E-002  0.15111664005949313        0.0000000000000000     
  -7.2718038354183487E-002  0.15868059090583672        0.0000000000000000     
  -7.3881459418877193E-002  0.16636159331902384        0.0000000000000000     
   0.0000000000000000        0.0000000000000000        0.0000000000000000     
  -2.8800532289427294E-003   1.7448240783345553E-003   0.0000000000000000     
  -5.8726215088935069E-003   3.8646344699007355E-003   0.0000000000000000     
  -8.9777048398523313E-003   6.3594311746985408E-003   0.0000000000000000     
  -1.2195303221819206E-002   9.2292141927279702E-003   0.0000000000000000     
   0.0000000000000000        0.0000000000000000        0.0000000000000000     
  -3.2832128460656687E-003   1.9992715967605346E-003   0.0000000000000000     
  -6.6769527071172206E-003   4.3308656661715681E-003   0.0000000000000000     
  -1.0181219583154653E-002   6.9947822082330998E-003   0.0000000000000000     
  -1.3796013474177967E-002   9.9910212229451321E-003   0.0000000000000000     
   0.0000000000000000        0.0000000000000000        0.0000000000000000     
  -3.9535849938583181E-003   2.4250086332909498E-003   0.0000000000000000     
  -7.9106328246085766E-003   5.0628000828454858E-003   0.0000000000000000     
  -1.1871143492250774E-002   7.9133743486636075E-003   0.0000000000000000     
  -1.5835116996784908E-002   1.0976731430745318E-002   0.0000000000000000     
   0.0000000000000000        0.0000000000000000        0.0000000000000000     
  -4.8911696723206782E-003   3.0220351879258010E-003   0.0000000000000000     
  -9.5736618613675769E-003   6.0604377199224889E-003   0.0000000000000000     
  -1.4047476567140693E-002   9.1152075959900648E-003   0.0000000000000000     
  -1.8312613789640032E-002   1.2186344816128526E-002   0.0000000000000000     
   0.0000000000000000        0.0000000000000000        0.0000000000000000     
  -6.0959668814527480E-003   3.7903512606650889E-003   0.0000000000000000     
  -1.1666039817394221E-002   7.3237785774025784E-003   0.0000000000000000     
  -1.6710218807824417E-002   1.0600281950212469E-002   0.0000000000000000     
  -2.1228503852743337E-002   1.3619861379094761E-002   0.0000000000000000     
  -1.2195303221819206E-002   9.2292141927279702E-003   0.0000000000000000     
  -1.5427689804712541E-002   1.2371835475371540E-002   0.0000000000000000     
  -1.8577137738450746E-002   1.5685146974011768E-002   0.0000000000000000     
  -2.1643647023033827E-002   1.9169148688648652E-002   0.0000000000000000     
  -2.4627217658461781E-002   2.2823840619282196E-002   0.0000000000000000     
  -1.3796013474177967E-002   9.9910212229451321E-003   0.0000000000000000     
  -1.7404302630303254E-002   1.3221428323587671E-002   0.0000000000000000     
  -2.0889055301646600E-002   1.6587849123440718E-002   0.0000000000000000     
  -2.4250271488208002E-002   2.0090283622504281E-002   0.0000000000000000     
  -2.7487951189987467E-002   2.3728731820778361E-002   0.0000000000000000     
  -1.5835116996784908E-002   1.0976731430745318E-002   0.0000000000000000     
  -1.9730832369324620E-002   1.4211480639457756E-002   0.0000000000000000     
  -2.3486568640983536E-002   1.7576231285168071E-002   0.0000000000000000     
  -2.7102325811761654E-002   2.1070983367876259E-002   0.0000000000000000     
  -3.0578103881658981E-002   2.4695736887582320E-002   0.0000000000000000     
  -1.8312613789640032E-002   1.2186344816128526E-002   0.0000000000000000     
  -2.2407279021776635E-002   1.5341992422981803E-002   0.0000000000000000     
  -2.6369677756461554E-002   1.8650293459193820E-002   0.0000000000000000     
  -3.0199809993694777E-002   2.2111247924764581E-002   0.0000000000000000     
  -3.3897675733476323E-002   2.5724855819694074E-002   0.0000000000000000     
  -2.1228503852743337E-002   1.3619861379094761E-002   0.0000000000000000     
  -2.5433642587659309E-002   1.6612963674159809E-002   0.0000000000000000     
  -2.9538382648080660E-002   1.9810035645517976E-002   0.0000000000000000     
  -3.3542724034007390E-002   2.3211077293169249E-002   0.0000000000000000     
  -3.7446666745439498E-002   2.6816088617113640E-002   0.0000000000000000     
  -2.4627217658461781E-002   2.2823840619282196E-002   0.0000000000000000     
  -2.7531899389296545E-002   2.6672208554004068E-002   0.0000000000000000     
  -3.0361741960100053E-002   3.0737238280905927E-002   0.0000000000000000     
  -3.3116745370872322E-002   3.5018929799987782E-002   0.0000000000000000     
  -3.5796909621613325E-002   3.9517283111249635E-002   0.0000000000000000     
  -2.7487951189987467E-002   2.3728731820778361E-002   0.0000000000000000     
  -3.0624889320394942E-002   2.7546166929065617E-002   0.0000000000000000     
  -3.3683880792840411E-002   3.1585562158168726E-002   0.0000000000000000     
  -3.6664925607323845E-002   3.5846917508087696E-002   0.0000000000000000     
  -3.9568023763845252E-002   4.0330232978822503E-002   0.0000000000000000     
  -3.0578103881658981E-002   2.4695736887582320E-002   0.0000000000000000     
  -3.3943096432197298E-002   2.8495580125027901E-002   0.0000000000000000     
  -3.7226497044898402E-002   3.2515601360954653E-002   0.0000000000000000     
  -4.0428305719762282E-002   3.6755800595362563E-002   0.0000000000000000     
  -4.3548522456788946E-002   4.1216177828251661E-002   0.0000000000000000     
  -3.3897675733476323E-002   2.5724855819694074E-002   0.0000000000000000     
  -3.7486520724703605E-002   2.9520448141890920E-002   0.0000000000000000     
  -4.0989590716274046E-002   3.3527355889263699E-002   0.0000000000000000     
  -4.4406885708187641E-002   3.7745579061812438E-002   0.0000000000000000     
  -4.7738405700444402E-002   4.2175117659537124E-002   0.0000000000000000     
  -3.7446666745439498E-002   2.6816088617113640E-002   0.0000000000000000     
  -4.1255162197913857E-002   3.0620770979654675E-002   0.0000000000000000     
  -4.4973161806967324E-002   3.4620825743095891E-002   0.0000000000000000     
  -4.8600665572599913E-002   3.8816252907437288E-002   0.0000000000000000     
  -5.2137673494811618E-002   4.3207052472678864E-002   0.0000000000000000     
  -3.5796909621613325E-002   3.9517283111249635E-002   0.0000000000000000     
  -3.8402612329466117E-002   4.4222286003875171E-002   0.0000000000000000     
  -4.0934231111573731E-002   4.9123926267048049E-002   0.0000000000000000     
  -4.3391765967936147E-002   5.4222203900768297E-002   0.0000000000000000     
  -4.5775216898553392E-002   5.9517118905035887E-002   0.0000000000000000     
  -3.9568023763845252E-002   4.0330232978822503E-002   0.0000000000000000     
  -4.2391411178631079E-002   4.5021127133345350E-002   0.0000000000000000     
  -4.5133323767907747E-002   4.9905218534628405E-002   0.0000000000000000     
  -4.7793761531675243E-002   5.4982507182671676E-002   0.0000000000000000     
  -5.0372724469933593E-002   6.0252993077475142E-002   0.0000000000000000     
  -4.3548522456788946E-002   4.1216177828251661E-002   0.0000000000000000     
  -4.6583754885819048E-002   4.5883263068706867E-002   0.0000000000000000     
  -4.9530610636693215E-002   5.0743586325813141E-002   0.0000000000000000     
  -5.2389089709411467E-002   5.5797147599570475E-002   0.0000000000000000     
  -5.5159192103973791E-002   6.1043946889978863E-002   0.0000000000000000     
  -4.7738405700444402E-002   4.2175117659537124E-002   0.0000000000000000     
  -5.0979643451030003E-002   4.6808693809959723E-002   0.0000000000000000     
  -5.4126091717930140E-002   5.1639029640602241E-002   0.0000000000000000     
  -5.7177750501144799E-002   5.6666125151464686E-002   0.0000000000000000     
  -6.0134619800674000E-002   6.1889980342547064E-002   0.0000000000000000     
  -5.2137673494811618E-002   4.3207052472678864E-002   0.0000000000000000     
  -5.5579076874263972E-002   4.7797419357103917E-002   0.0000000000000000     
  -5.8919767011618517E-002   5.2591548478995748E-002   0.0000000000000000     
  -6.2159743906875266E-002   5.7589439838354337E-002   0.0000000000000000     
  -6.5299007560034192E-002   6.2791093435179718E-002   0.0000000000000000     
  -4.5775216898553392E-002   5.9517118905035887E-002   0.0000000000000000     
  -4.8085307382925088E-002   6.5001092848363390E-002   0.0000000000000000     
  -5.0322760900550850E-002   7.0666547299263374E-002   0.0000000000000000     
  -5.2487577451430713E-002   7.6513482257735813E-002   0.0000000000000000     
  -5.4579757035564634E-002   8.2541897723780733E-002   0.0000000000000000     
  -5.0372724469933593E-002   6.0252993077475142E-002   0.0000000000000000     
  -5.2872121216905175E-002   6.5711224990184197E-002   0.0000000000000000     
  -5.5293860406812369E-002   7.1351751691944187E-002   0.0000000000000000     
  -5.7637942039655179E-002   7.7174573182755155E-002   0.0000000000000000     
  -5.9904366115433608E-002   8.3179689462617043E-002   0.0000000000000000     
  -5.5159192103973791E-002   6.1043946889978863E-002   0.0000000000000000     
  -5.7844456441853771E-002   6.6478177298751093E-002   0.0000000000000000     
  -6.0448421344524952E-002   7.2094031927599972E-002   0.0000000000000000     
  -6.2971086811987334E-002   7.7891510776525438E-002   0.0000000000000000     
  -6.5412452844240909E-002   8.3870613845527575E-002   0.0000000000000000     
  -6.0134619800674000E-002   6.1889980342547064E-002   0.0000000000000000     
  -6.3002313057770876E-002   6.7301949774064132E-002   0.0000000000000000     
  -6.5786443713688580E-002   7.2893388006230700E-002   0.0000000000000000     
  -6.8487011768427114E-002   7.8664295039046733E-002   0.0000000000000000     
  -7.1104017221986504E-002   8.4614670872512315E-002   0.0000000000000000     
  -6.5299007560034192E-002   6.2791093435179718E-002   0.0000000000000000     
  -6.8345691064656475E-002   6.8182542416123246E-002   0.0000000000000000     
  -7.1307927514303274E-002   7.3749819927836358E-002   0.0000000000000000     
  -7.4185716908974603E-002   7.9492925970319026E-002   0.0000000000000000     
  -7.6979059248670434E-002   8.5411860543571250E-002   0.0000000000000000     
  -5.4579757035564634E-002   8.2541897723780733E-002   0.0000000000000000     
  -5.6595881484723387E-002   8.8740441480052459E-002   0.0000000000000000     
  -5.8532532630677710E-002   9.5097761309205373E-002   0.0000000000000000     
  -6.0389710473427560E-002  0.10161385721123946        0.0000000000000000     
  -6.2167415012972994E-002  0.10828872918615468        0.0000000000000000     
  -5.9904366115433608E-002   8.3179689462617043E-002   0.0000000000000000     
  -6.2088821126674680E-002   8.9355688974681283E-002   0.0000000000000000     
  -6.4186995565905403E-002   9.5691160162099248E-002   0.0000000000000000     
  -6.6198889433125768E-002  0.10218610302487091        0.0000000000000000     
  -6.8124502728335798E-002  0.10884051756299631        0.0000000000000000     
  -6.5412452844240909E-002   8.3870613845527575E-002   0.0000000000000000     
  -6.7766585107425101E-002   9.0020746971152088E-002   0.0000000000000000     
  -7.0027549267679304E-002   9.6331315989944766E-002   0.0000000000000000     
  -7.2195345325003546E-002  0.10280232090190559        0.0000000000000000     
  -7.4269973279397800E-002  0.10943376170703462        0.0000000000000000     
  -7.1104017221986504E-002   8.4614670872512315E-002   0.0000000000000000     
  -7.3629173426974642E-002   9.0735615469464848E-002   0.0000000000000000     
  -7.6054193735999420E-002   9.7018228792741940E-002   0.0000000000000000     
  -7.8379078149060866E-002  0.10346251084234349        0.0000000000000000     
  -8.0603826666158951E-002  0.11006846161826957        0.0000000000000000     
  -7.6979059248670434E-002   8.5411860543571250E-002   0.0000000000000000     
  -7.9676586085323325E-002   9.1500294469619631E-002   0.0000000000000000     
  -8.2266928970865766E-002   9.7751898570490742E-002   0.0000000000000000     
  -8.4750087905297755E-002  0.10416667284618461        0.0000000000000000     
  -8.7126062888619321E-002  0.11074461729670118        0.0000000000000000     
  -6.2167415012972994E-002  0.10828872918615468        0.0000000000000000     
  -6.3875887027303221E-002  0.11510762193724540        0.0000000000000000     
  -6.5525367294407513E-002  0.12205578016780591        0.0000000000000000     
  -6.7115855814285863E-002  0.12913320387783619        0.0000000000000000     
  -6.8647352586938271E-002  0.13633989306733624        0.0000000000000000     
  -6.8124502728335798E-002  0.10884051756299631        0.0000000000000000     
  -6.9976170726343379E-002  0.11563812515224101        0.0000000000000000     
  -7.1766228701956369E-002  0.12256264716837054        0.0000000000000000     
  -7.3494676655174812E-002  0.12961408361138493        0.0000000000000000     
  -7.5161514585998693E-002  0.13679243448128417        0.0000000000000000     
  -7.4269973279397800E-002  0.10943376170703462        0.0000000000000000     
  -7.6263661577659250E-002  0.11620852018908837        0.0000000000000000     
  -7.8188638666585070E-002  0.12310947813182344        0.0000000000000000     
  -8.0044904546175286E-002  0.13013663553523977        0.0000000000000000     
  -8.1832459216429926E-002  0.13728999239933745        0.0000000000000000     
  -8.0603826666158951E-002  0.11006846161826957        0.0000000000000000     
  -8.2738359581250837E-002  0.11681880704778748        0.0000000000000000     
  -8.4792597188293628E-002  0.12369627305816454        0.0000000000000000     
  -8.6766539487287339E-002  0.13070085964940073        0.0000000000000000     
  -8.8660186478231956E-002  0.13783256682149611        0.0000000000000000     
  -8.7126062888619321E-002  0.11074461729670118        0.0000000000000000     
  -8.9400264737118165E-002  0.11746898572833833        0.0000000000000000     
  -9.1578104267082017E-002  0.12432303194739387        0.0000000000000000     
  -9.3659581478510917E-002  0.13130675595386779        0.0000000000000000     
  -9.5644696371404839E-002  0.13842015774776012        0.0000000000000000     
  -6.8647352586938271E-002  0.13633989306733624        0.0000000000000000     
  -7.0100984938214039E-002  0.14366974077999292        0.0000000000000000     
  -7.1457880193962459E-002  0.15111664005949313        0.0000000000000000     
  -7.2718038354183487E-002  0.15868059090583672        0.0000000000000000     
  -7.3881459418877193E-002  0.16636159331902384        0.0000000000000000     
  -7.5161514585998693E-002  0.13679243448128417        0.0000000000000000     
  -7.6744401941080287E-002  0.14409466788257147        0.0000000000000000     
  -7.8220998167071898E-002  0.15151775191975003        0.0000000000000000     
  -7.9591303263973526E-002  0.15906168659281986        0.0000000000000000     
  -8.0855317231785157E-002  0.16672647190178097        0.0000000000000000     
  -8.1832459216429926E-002  0.13728999239933745        0.0000000000000000     
  -8.3533959931525709E-002  0.14456638876297689        0.0000000000000000     
  -8.5132063945639463E-002  0.15196266466501859        0.0000000000000000     
  -8.6626771258771204E-002  0.15947882010546255        0.0000000000000000     
  -8.8018081870920931E-002  0.16711485508430871        0.0000000000000000     
  -8.8660186478231956E-002  0.13783256682149611        0.0000000000000000     
  -9.0469658909550318E-002  0.14508490342120925        0.0000000000000000     
  -9.2191077529665183E-002  0.15245137829529876        0.0000000000000000     
  -9.3824442338576577E-002  0.15993199144376474        0.0000000000000000     
  -9.5369753336284502E-002  0.16752674286660704        0.0000000000000000     
  -9.5644696371404839E-002  0.13842015774776012        0.0000000000000000     
  -9.7551498875154102E-002  0.14565021185726851        0.0000000000000000     
  -9.9398038919149043E-002  0.15298389281059060        0.0000000000000000     
 -0.10118431650338963       0.16042120060772641        0.0000000000000000     
 -0.10291033162787593       0.16796213524867595        0.0000000000000000     
 </DataArray>
 <DataArray  type="Float64" Name="stress" NumberOfComponents="3" format="ascii">
   13416609450.508331        4024982835.1524997        2893892848.7368126     
   11766501962.049183        1890345791.5354688        1715804908.9730659     
   10313708777.819139        413423095.34879255        810766470.70877612     
   9058229897.8182030       -405785253.40752792        178777533.94394448     
   8000065322.0463724       -567279254.73349285       -180161901.32143077     
   10539973796.380352        3161992138.9141059        2225613427.1248555     
   9667578802.3553181        1589544718.3937187        1446666768.8457992     
   8943838255.5231609        512612121.84959984        863174922.53276420     
   8368752155.8838882       -68805650.718248844        475137888.18574852     
   7942320503.4374962       -154708599.30982780        282555665.80475360     
   8337976774.4102297        2501393032.3230691        1712209643.1813669     
   8021595161.8666325        1424625501.0135226        1275634433.1780710     
   7805208139.4796896        681173270.22615838        956919345.60735905     
   7688815707.2494011        271036339.96097851        756064380.46923101     
   7672417865.1757689        194214710.21798182        673069537.76368666     
   6810618384.5979614        2043185515.3793883        1353681496.9063468     
   6828551040.5831251        1395588139.3948793        1202707901.9698808     
   6897818429.6887178        919106540.47846794        1091999739.9325631     
   7018420551.9147415        613740718.63015413        1021557010.7943914     
   7190357407.2611942        479490673.84993720        991379714.55536842     
   5957898626.9435482        1787369588.0830643        1150028988.2997956     
   6088446438.5047979        1502432633.5377908        1227887175.2212300     
   6221669126.1502514        1226411932.6065283        1268416105.5083749     
   6357566689.8799076        959307485.28927732        1271615779.1612303     
   6496139129.6937675        701119291.58603668        1237486196.1797967     
   8000065322.0463724       -567279254.73349285       -180161901.32143077     
   7917529534.3586588       -199847030.84312868       -78450379.842755482     
   7793440489.9964085        29074337.465441227       -9190870.2809289191     
   7627798188.9596157        119484850.19220495        27616627.364041049     
   7420602631.2482834        71384507.337180138        31972113.092162754     
   7942320503.4374962       -154708599.30982780        282555665.80475360     
   7739729993.6298981        16495284.898862839        281035726.01191163     
   7513729755.3164301        109666740.75464392        264901474.89331830     
   7264319788.4970903        124805768.25751972        234152912.44897905     
   6991500093.1718750        61912367.407486916        188790038.67888904     
   7672417865.1757689        194214710.21798182        673069537.76368666     
   7400737492.0800133        184479712.39451408        589485586.22943616     
   7123790918.6470490        157190713.44702768        509125023.96054035     
   6841578144.8768845        112347713.37552714        431987850.95699680     
   6554099170.7695141        49950712.180007458        358074067.21881008     
   7190357407.2611942        479490673.84993720        991379714.55536842     
   6900552029.7089987        304106251.64382839        846899200.80982149     
   6623623979.9882679        171646255.54259276        723479776.92073143     
   6359573258.0989981        82110685.546230793        621121442.88810050     
   6108399864.0411911        35499541.654740334        539824198.71192396     
   6496139129.6937675        701119291.58603668        1237486196.1797967     
   6239173606.5168591        375374902.64680409        1053276569.7530661     
   6013228939.3400822        153033367.04133511        907965733.77389479     
   5818305128.1634331        34094684.769630671        801553688.24228489     
   5654402172.9869108        18558855.831686258        734040433.15823555     
   7420602631.2482834        71384507.337180138        31972113.092162754     
   7219690457.7882900       -19149339.713994026        15595199.401676239     
   7031110539.1534691       -68575670.681273460        2903013.0984799261     
   6854862875.3438110       -76894485.564664841       -6104445.8174241018     
   6690947466.3593225       -44105784.364162922       -11427177.346041450     
   6991500093.1718750        61912367.407486916        188790038.67888904     
   6808992766.8073549        2514609.2209353447        181083435.06013989     
   6634336003.2181158       -30714606.381338120        176664427.46647343     
   6467529802.4041615       -37775279.399333239        175533015.89788800     
   6308574164.3654938       -18667409.833045721        177689200.35438192     
   6554099170.7695141        49950712.180007458        358074067.21881008     
   6388862030.4655771        21348644.547615528        353809132.94693565     
   6226993760.8870392        3976145.9998867512        352434663.33793586     
   6068494362.0339022       -2166783.4631764889        353950658.39180422     
   5913363833.9061642        2919856.1584241390        358357118.10854429     
   6108399864.0411911        35499541.654740334        539824198.71192396     
   5959298248.7629528        37352766.266036749        533772293.06206310     
   5809083812.1602325        35496586.462387800        530213720.71286148     
   5657756554.2330256        29931002.243787766        529148481.66432220     
   5505316474.9813366        20656013.610243320        530576575.91644400     
   5654402172.9869108        18558855.831686258        734040433.15823555     
   5520301421.6994896        50526974.376209974        720972915.40551829     
   5380606157.0376997        63846715.006172657        710001599.59125233     
   5235316379.0015411        58518077.721573114        701126485.71543872     
   5084432087.5910130        34541062.522413731        694347573.77807581     
   6690947466.3593225       -44105784.364162922       -11427177.346041450     
   6508873577.8820963       -6453990.9478361607       -6615026.0903394902     
   6321265656.1601372        12751024.986033678        2391021.7300057071     
   6128123701.1934299        13509263.437414885        15590966.114983255     
   5929447712.9819889       -4179275.5936481953        32984807.064600196     
   6308574164.3654938       -18667409.833045721        177689200.35438192     
   6132858863.7442665        2267622.0009629726        173017843.82976982     
   5953812820.8153400        12100179.475963354        172901526.37951198     
   5771436035.5787106        10830262.591947079        177340248.00361282     
   5585728508.0343771       -1542128.6510725021        186334008.70208260     
   5913363833.9061642        2919856.1584241390        358357118.10854429     
   5745038956.8830080        7447677.1327400208        346772759.89681792     
   5575586628.4891882        8217326.8715031147        340104583.26917386     
   5405006848.7246943        5228805.3746907711        338352588.22561008     
   5233299617.5895348       -1517887.3576757908        341516774.76613313     
   5505316474.9813366        20656013.610243320        530576575.91644400     
   5345413857.2983170        9086174.4474840164        514649722.11080778     
   5186587079.1816664        1102467.1726207733        504000192.39898378     
   5028836140.6313820       -3295108.2143533230        498627986.78096515     
   4872161041.6474667       -4106551.7134382725        498533105.25675416     
   5084432087.5910130        34541062.522413731        694347573.77807581     
   4933983564.9901953        7183113.9452035427        676648730.47174764     
   4786814172.8927813       -9244399.6206684113        664588353.76894796     
   4642923911.2987738       -14741478.175190449        658166443.66968083     
   4502312780.2081642       -9308121.7183713913        657383000.17394042     
   5929447712.9819889       -4179275.5936481953        32984807.064600196     
   5763711628.3621807       -16171740.352026939        31919665.073120844     
   5600749645.0279322       -18917200.825204134        30998594.793709613     
   5440561762.9792223       -12415657.013253927        30221596.226369064     
   5283147982.2160597        3332891.0838537216        29588669.371100478     
   5585728508.0343771       -1542128.6510725021        186334008.70208260     
   5422960218.6897678       -9302443.6895792484        185417738.87717131     
   5262026169.2866755       -10948625.589693308        185663666.84729812     
   5102926359.8250980       -6480674.3514225483        187071792.61246592     
   4945660790.3050308        4101410.0252106190        189642116.17265579     
   5233299617.5895348       -1517887.3576757908        341516774.76613313     
   5076408055.1857347       -4173373.1766293049        339652872.20642346     
   4920410871.3794203       -3847597.0039758682        339969293.52471578     
   4765308066.1705837       -540558.83972263336        342466038.72101086     
   4611099639.5592346        5747741.3161509037        347143107.79529810     
   4872161041.6474667       -4106551.7134382725        498533105.25675416     
   4724055137.8500881       -784528.81316852570        494625065.06087738     
   4575903751.3061628        2385884.9319379330        493915474.82596487     
   4427706882.0156870        5404689.5218763351        496404334.55201358     
   4279464529.9786630        8271884.9566550255        502091644.23903054     
   4502312780.2081642       -9308121.7183713913        657383000.17394042     
   4365901466.6828241        864089.40080618858        650334317.44052565     
   4228504809.0669050        7751820.2180504799        647502210.75103652     
   4090122807.3604012        11355070.733363867        648886680.10548067     
   3950755461.5633202        11673840.946727991        654487725.50384986     
   5283147982.2160597        3332891.0838537216        29588669.371100478     
   5078631210.3858271        7587603.0225639343        22297245.435706984     
   4873079058.9151268        8391049.4930284023        20240174.738278549     
   4666491527.8039703        5743230.4953215122        23417457.278816458     
   4458868617.0523462       -355853.97062754631        31829093.057314303     
   4945660790.3050308        4101410.0252106190        189642116.17265579     
   4753911834.6885166        5807954.0462312698        182236409.44418275     
   4561297524.0579338        4629981.3536832333        180005785.31545430     
   4367817858.4132957        567491.94761681557        182950243.78647456     
   4173472837.7545819       -6379514.1720330715        191069784.85724384     
   4611099639.5592346        5747741.3161509037        347143107.79529810     
   4431949155.4758244        4855314.0153000355        339821480.33786923     
   4252103341.0047488        1645118.7555475235        337615664.84197664     
   4071562196.1460114       -3882844.4630637169        340525661.30761403     
   3890325720.8996000       -11728575.640590906        348551469.73478860     
   4279464529.9786630        8271884.9566550255        502091644.23903054     
   4112743172.7477493        4729682.9297492504        495052458.11678129     
   3945496509.7555609       -563538.30139279366        493069813.31785452     
   3777724541.0021105       -7607778.7367460728        496143709.84224027     
   3609427266.4874015       -16403038.376310110        504274147.68994951     
   3950755461.5633202        11673840.946727991        654487725.50384986     
   3796293886.5042796        5431060.7895717621        647929342.78091145     
   3641477030.3103814       -1995989.8171243668        646368230.74308038     
   3486304892.9816113       -10607310.873388529        649804389.39035094     
   3330777474.5179720       -20402902.379211903        658237818.72272885     
   4458868617.0523462       -355853.97062754631        31829093.057314303     
   4272492260.2200751       -4891537.8143029213        24885114.546572357     
   4083979481.5644169       -16548627.735918760        31461234.114419024     
   3893330281.0853486       -35327123.735573530        51557451.760868393     
   3700544658.7828889       -61227025.813208580        85173767.485916629     
   4173472837.7545819       -6379514.1720330715        191069784.85724384     
   4020006181.1839604       -4045063.0543391705        181369210.55491713     
   3865438691.5027246       -5380055.6387116909        181878276.46110898     
   3709770368.7108521       -10384491.925189495        192596982.57581431     
   3553001212.8083677       -19058371.913707972        213525328.89902925     
   3890325720.8996000       -11728575.640590906        348551469.73478860     
   3760310313.5332494       -5361524.8787813187        337302486.47245312     
   3630229661.7690511        788044.55688929558        332952685.54855597     
   3500083765.6070051        6720132.6664028168        335502066.96309173     
   3369872625.0471177        12434739.449760437        344950630.71605486     
   3609427266.4874015       -16403038.376310110        504274147.68994951     
   3493404657.2679348       -8840923.2875978947        492684942.29918492     
   3378352392.3634071        1955672.8509118557        484684461.37676340     
   3264270471.7738018        15986750.039175034        480272704.92269796     
   3151158895.4991374        33252308.277216554        479449672.93697679     
   3330777474.5179720       -20402902.379211903        658237818.72272885     
   3219289212.3880277       -14483258.280780435        647516578.03509641     
   3109806883.2857852       -1877170.7566597462        637073603.94573593     
   3002330487.2112541        17415360.193156838        626908896.45464170     
   2896860024.1644278        43394334.568657398        617022455.56181300     
   3700544658.7828889       -61227025.813208580        85173767.485916629     
   3586939098.5100870       -54232497.600479841        93752921.342462093     
   3481496605.1253662       -20027746.427470207        77212880.256503165     
   3384217178.6287327        41387227.705818653        35553644.228019357     
   3295100819.0201998        130012424.79945409       -31224786.742961157     
   3553001212.8083677       -19058371.913707972        213525328.89902925     
   3381883921.3714323       -25904997.210631371        222008323.67739388     
   3215910339.1013789       -15605925.284608722        214564832.54346964     
   3055080465.9981771        11838843.864248037        191194855.49726221     
   2899394302.0618396        56429310.236010790        151898392.53876719     
   3369872625.0471177        12434739.449760437        344950630.71605486     
   3167508485.3895698       -373574.47368550301        349814882.40813351     
   2967268697.1776533       -6100716.9116688967        347945357.21815223     
   2769153260.4113703       -4746687.8642177582        339342055.14611155     
   2573162175.0907435        3688512.6687332392        324004976.19200325     
   3151158895.4991374        33252308.277216554        479449672.93697679     
   2943812790.5644660        22361770.610271573        477172597.53468674     
   2735571679.3542023        8487878.6913534403        477354454.28054518     
   2526435561.8683515       -8369367.4795305729        479995243.17457378     
   2316404438.1069174       -28209967.902356505        485094964.21676433     
   2896860024.1644278        43394334.568657398        617022455.56181300     
   2710796836.8961258        42301038.041231155        604081469.05703878     
   2520819285.6310167        28159861.524447918        602792123.73065865     
   2326927370.3690939        970805.01828312874        613154419.58266008     
   2129121091.1103504       -39266131.477268815        635168356.61304474     
   5957898626.9435482        1787369588.0830643        1150028988.2997956     
   6088446438.5047979        1502432633.5377908        1227887175.2212300     
   6221669126.1502514        1226411932.6065283        1268416105.5083749     
   6357566689.8799076        959307485.28927732        1271615779.1612303     
   6496139129.6937675        701119291.58603668        1237486196.1797967     
   5434494313.2227821        1630348293.9668348        1033528696.0021288     
   5489868368.7852812        1372601951.8092737        1113886784.2072501     
   5547408205.2578011        1122074879.3517861        1167473406.1889181     
   5607113822.6403437        878767076.59437323        1194288561.9471326     
   5668985220.9329081        642678543.53703332        1194332251.4818935     
   4895082255.2114573        1468524676.5634372        936457198.65376163     
   4905447670.2347355        1247018481.4314477        1018721243.7726918     
   4917469770.9938536        1031034572.0855951        1084771613.0790050     
   4931148557.4888124        820572948.52587891        1134608306.5727003     
   4946484029.7196131        615633610.75229979        1168231324.2537782     
   4339662452.9095716        1301898735.8728716        858814496.25469434     
   4335184342.8531609        1125682222.4043136        942390553.91755533     
   4331853823.3584089        953291010.80795479        1020310726.1786354     
   4329670894.4253168        784725101.08379531        1092575013.0379338     
   4328635556.0538864        619984493.23183644        1159183414.4954505     
   3768234906.3171277        1130470471.8951383        800600588.80492651     
   3779078386.6405578        1008593174.7278705        884894714.64184058     
   3790560362.3514681        888844195.51886559        974090745.48780918     
   3802680833.4498563        771223534.26812243        1068188681.3428323     
   3815439799.9357233        655731190.97564220        1167188522.2069101     
   6496139129.6937675        701119291.58603668        1237486196.1797967     
   6239173606.5168591        375374902.64680409        1053276569.7530661     
   6013228939.3400822        153033367.04133511        907965733.77389479     
   5818305128.1634331        34094684.769630671        801553688.24228489     
   5654402172.9869108        18558855.831686258        734040433.15823555     
   5668985220.9329081        642678543.53703332        1194332251.4818935     
   5518753821.2826233        382970546.23105836        1073505405.6431715     
   5392737767.1844368        203980367.43208194        980643774.00046086     
   5290937058.6383495        105708007.14010692        915747356.55376256     
   5213351695.6443624        88153465.355132341        878816153.30307734     
   4946484029.7196131        615633610.75229979        1168231324.2537782     
   4871747964.3058147        412590368.29254150        1102847496.8136959     
   4814421733.9960861        267579909.51301908        1054495307.3180785     
   4774505338.7904282        180602234.41373348        1023174755.7669270     
   4751998778.6888428        151657342.99468660        1008885842.1602405     
   4328635556.0538864        619984493.23183644        1159183414.4954505     
   4298156035.5864353        464234368.83125281        1141302843.2646415     
   4278280839.7750287        343831993.28414321        1129520333.7267518     
   4269009968.6196632        258777366.59050751        1123835885.8817778     
   4270343422.1203365        209070488.75034523        1124249499.7297218     
   3815439799.9357233        655731190.97564220        1167188522.2069101     
   3797978035.1244879        537902547.84719384        1188871444.9960082     
   3784315084.5212655        432736618.74545610        1205718853.2264764     
   3774450948.1260562        340233403.67042768        1217730746.8983140     
   3768385625.9388604        260392902.62211263        1224907126.0115223     
   5654402172.9869108        18558855.831686258        734040433.15823555     
   5520301421.6994896        50526974.376209974        720972915.40551829     
   5380606157.0376997        63846715.006172657        710001599.59125233     
   5235316379.0015411        58518077.721573114        701126485.71543872     
   5084432087.5910130        34541062.522413731        694347573.77807581     
   5213351695.6443624        88153465.355132341        878816153.30307734     
   5077243277.8098717        86338640.362751245        855089745.28080297     
   4938873338.5406942        76985410.588081837        835518840.33084869     
   4798241877.8368311        60093776.031126499        820103438.45320797     
   4655348895.6982794        35663736.691881895        808843539.64789081     
   4751998778.6888428        151657342.99468660        1008885842.1602405     
   4619766411.8326149        117824689.72299814        978389034.46470404     
   4488605515.4813795        87563604.801297426        954107030.97535419     
   4358516089.6351433        60874088.229584217        936039831.69218850     
   4229498134.2939034        37756140.007859945        924187436.61520910     
   4270343422.1203365        209070488.75034523        1124249499.7297218     
   4147870823.7677078        144985122.45695186        1090870782.9572220     
   4029802687.8597536        95581297.645821095        1065766171.5247722     
   3916139014.3964796        60859014.316950798        1048935665.4323753     
   3806879803.3778849        40818272.470344067        1040379264.6800321     
   3768385625.9388604        260392902.62211263        1224907126.0115223     
   3661556513.6151581        167819938.56461120        1192534990.7583528     
   3562464855.6758180        101038489.12164927        1170496261.9791019     
   3471110652.1208396        60048554.293224096        1158790939.6737709     
   3387493902.9502211        44850134.079336047        1157419023.8423567     
   5084432087.5910130        34541062.522413731        694347573.77807581     
   4933983564.9901953        7183113.9452035427        676648730.47174764     
   4786814172.8927813       -9244399.6206684113        664588353.76894796     
   4642923911.2987738       -14741478.175190449        658166443.66968083     
   4502312780.2081642       -9308121.7183713913        657383000.17394042     
   4655348895.6982794        35663736.691881895        808843539.64789081     
   4520814842.3543835        13937412.328944445        795416172.88459110     
   4388671565.1734695        180341.84260487556        787292633.35825157     
   4258919064.1555305       -5607474.7671427727        784472921.06887233     
   4131557339.3005710       -3426037.5002954006        786957036.01645315     
   4229498134.2939034        37756140.007859945        924187436.61520910     
   4109922437.7310176        21374606.116426706        913995132.99777532     
   3991849162.9906831        10001144.966835976        908772017.25073230     
   3875278310.0729060        3635756.5590946674        908518089.37408364     
   3760209878.9776773        2278440.8931937218        913233349.36782169     
   3806879803.3778849        40818272.470344067        1040379264.6800321     
   3701306351.1200933        29494695.307640076        1032385610.8113031     
   3596346966.3444285        20218009.752024651        1029026505.4463947     
   3492001649.0508933        12988215.803512573        1030301948.5853082     
   3388270399.2394891        7805313.4620935917        1036211940.2280425     
   3387493902.9502211        44850134.079336047        1157419023.8423567     
   3294966582.5216093        38297679.902582169        1150587606.3251700     
   3202164975.2347021        30830936.198175550        1148056097.9452350     
   3109089081.0894990        22449902.966114283        1149824498.7025528     
   3015738900.0859976        13154580.206402540        1155892808.5971203     
   4502312780.2081642       -9308121.7183713913        657383000.17394042     
   4365901466.6828241        864089.40080618858        650334317.44052565     
   4228504809.0669050        7751820.2180504799        647502210.75103652     
   4090122807.3604012        11355070.733363867        648886680.10548067     
   3950755461.5633202        11673840.946727991        654487725.50384986     
   4131557339.3005710       -3426037.5002954006        786957036.01645315     
   4004907864.8995485        1881040.6869430542        778951068.80408990     
   3877787591.7756877        5618789.7980597019        775360355.55079520     
   3750196519.9289856        7787209.8330390453        776184896.25656962     
   3622134649.3594456        8386300.7918879986        781424690.92141414     
   3760209878.9776773        2278440.8931937218        913233349.36782169     
   3643889894.8870835        2890681.5043280125        904870400.60554242     
   3527613657.4413943        3648744.2651398182        901121383.71747530     
   3411381166.6406078        4552629.1756308079        901986298.70361423     
   3295192422.4847226        5602336.2357966900        907465145.56396198     
   3388270399.2394891        7805313.4620935917        1036211940.2280425     
   3282847556.6454372        3893011.8529558182        1028092312.8448845     
   3177983006.0640335        1841683.6193045378        1024785295.2510715     
   3073676747.4952726        1651328.7611411810        1026290887.4466110     
   2969928780.9391580        3321947.2784514427        1032609089.4314942     
   3015738900.0859976        13154580.206402540        1155892808.5971203     
   2921780850.1746016        4888031.7328273058        1148616805.5221121     
   2828895637.6435966        197607.86054515839        1146352090.1515918     
   2737083262.4929752       -916691.41044855118        1149098662.4855602     
   2646343724.7227445        1545133.9198547602        1156856522.5240164     
   3950755461.5633202        11673840.946727991        654487725.50384986     
   3796293886.5042796        5431060.7895717621        647929342.78091145     
   3641477030.3103814       -1995989.8171243668        646368230.74308038     
   3486304892.9816113       -10607310.873388529        649804389.39035094     
   3330777474.5179720       -20402902.379211903        658237818.72272885     
   3622134649.3594456        8386300.7918879986        781424690.92141414     
   3480908635.3007360        3901605.9446737766        774975309.42592609     
   3339405369.7938890       -1507260.3963420391        773304146.02022028     
   3197624852.8388991       -7840298.2311564684        776411200.70429099     
   3055567084.4357724       -15097507.559771657        784296473.47813904     
   3295192422.4847226        5602336.2357966900        907465145.56396198     
   3166576104.8682632        2687967.3310872316        901215799.93044579     
   3037760565.4903932       -890474.11166000366        899525619.79137766     
   2908745804.3511090       -5132988.0924478769        902394605.14676082     
   2779531821.4504185       -10039574.611274123        909822755.99659634     
   2969928780.9391580        3321947.2784514427        1032609089.4314942     
   2853296295.2068677        1790144.9488257170        1026650814.2944635     
   2736542617.3998928       -145630.96308302879        1025032652.0565550     
   2619667747.5182347       -2485380.4572647810        1027754602.7177659     
   2502671685.5618939       -5229103.5337312222        1034816666.2781043     
   2646343724.7227445        1545133.9198547602        1156856522.5240164     
   2541069206.3165474        1208138.7978981733        1151280352.5179837     
   2435751525.5223913        727269.04940199852        1149825242.8157463     
   2330390682.3402824        102524.67439699173        1152491193.4173009     
   2224986676.7702131       -666094.32713520527        1159278204.3226550     
   3330777474.5179720       -20402902.379211903        658237818.72272885     
   3219289212.3880277       -14483258.280780435        647516578.03509641     
   3109806883.2857852       -1877170.7566597462        637073603.94573593     
   3002330487.2112541        17415360.193156838        626908896.45464170     
   2896860024.1644278        43394334.568657398        617022455.56181300     
   3055567084.4357724       -15097507.559771657        784296473.47813904     
   2945851154.0868359       -10792970.975343823        775923217.72242355     
   2837638317.7113843       -1478121.1459534168        769007744.62629914     
   2730928575.3094335        12847041.928421617        763550054.18976021     
   2625721926.8809624        32182518.247744679        759550146.41280305     
   2779531821.4504185       -10039574.611274123        909822755.99659634     
   2674958268.7719669       -6339131.7740027905        903210839.60954487     
   2571384971.0127897        695494.12750530243        899236221.94340205     
   2468811928.1728854        11064303.093265057        897898902.99815810     
   2367239140.2522511        24767295.123257041        899198882.77381861     
   2502671685.5618939       -5229103.5337312222        1034816666.2781043     
   2406610556.4434094       -1121740.6767821312        1029379443.6964630     
   2311046843.1899838        4643675.0636988878        1027759035.8970462     
   2215980545.8016167        12067143.687700510        1029955442.8798487     
   2121411664.2783000        21148665.195204496        1035968664.6448745     
   2224986676.7702131       -666094.32713520527        1159278204.3226550     
   2140808017.1011786        4859202.3163533211        1154429029.9831753     
   2056623934.2429767        10366421.662627578        1154576186.4872313     
   1972434428.1956191        15855563.711709380        1159719673.8348277     
   1888239498.9590909        21326628.463561416        1169859492.0259588     
   2896860024.1644278        43394334.568657398        617022455.56181300     
   2710796836.8961258        42301038.041231155        604081469.05703878     
   2520819285.6310167        28159861.524447918        602792123.73065865     
   2326927370.3690939        970805.01828312874        613154419.58266008     
   2129121091.1103504       -39266131.477268815        635168356.61304474     
   2625721926.8809624        32182518.247744679        759550146.41280305     
   2467979155.5390115        34008889.001853585        746109865.58537996     
   2307580585.5920224        26982597.739176989        742129109.53486276     
   2144526217.0400021        11103644.459728718        747607878.26126599     
   1978816049.8829496       -13627970.836495638        762546171.76456988     
   2367239140.2522511        24767295.123257041        899198882.77381861     
   2231553595.1181450        27634376.243337393        886727633.91415262     
   2094470816.7707858        25844013.319240570        881523793.42993128     
   1955990805.2101760        19396206.350962400        883587361.32113457     
   1816113560.4363024        8290955.3384904861        892918337.58779037     
   2121411664.2783000        21148665.195204496        1035968664.6448745     
   2001520155.6335433        23177499.765713811        1025934774.0433735     
   1881489979.1673129        24744108.264633060        1020976175.4158392     
   1761321134.8796046        25848490.691964865        1021092868.7622718     
   1641013622.7704191        26490647.047715664        1026284854.0826557     
   1888239498.9590909        21326628.463561416        1169859492.0259588     
   1777878837.0851908        20638259.568948388        1163731285.9730365     
   1668638072.7815969        23682882.575352490        1160486255.4926059     
   1560517206.0482974        30460497.482756674        1160124400.5846562     
   1453516236.8853059        40971104.291165113        1162645721.2492070     
   3768234906.3171277        1130470471.8951383        800600588.80492651     
   3779078386.6405578        1008593174.7278705        884894714.64184058     
   3790560362.3514681        888844195.51886559        974090745.48780918     
   3802680833.4498563        771223534.26812243        1068188681.3428323     
   3815439799.9357233        655731190.97564220        1167188522.2069101     
   3207898975.6619339        962369692.69858027        756690850.73540235     
   3235887057.9152288        868145542.25179172        853076213.02417684     
   3263618878.7861772        773067187.19718337        951366330.23752725     
   3291094438.2747798        677134627.53475499        1051561202.3754543     
   3318313736.3810363        580347863.26450682        1153660829.4379570     
   2685754021.1718020        805726206.35154068        721960656.47706580     
   2722323419.3993087        736586216.83853555        829393372.31957138     
   2757741799.4746451        663609500.15162873        935733693.00217474     
   2792009161.3978100        586796056.29081941        1040981618.5248767     
   2825125505.1688056        506145885.25610870        1145137148.8876765     
   2201800042.8467326        660540012.85401988        696410006.02991652     
   2238387471.0927992        613915198.48810279        813846192.52802467     
   2272929124.4168701        560471134.38220143        927192833.78175247     
   2305425002.8189459        500207820.53631580        1036449929.7911004     
   2335875106.2990274        433125256.95044637        1141617480.5560682     
   1756037040.6867247        526811112.20601743        680038899.39395487     
   1784079212.9956994        500132487.20049268        806434673.64953637     
   1809180853.6128545        463652089.88890171        925743752.57625985     
   1831341962.5381892        417369920.27124429        1037966136.1741254     
   1850562539.7717035        361285978.34752023        1143101824.4431324     
   3815439799.9357233        655731190.97564220        1167188522.2069101     
   3797978035.1244879        537902547.84719384        1188871444.9960082     
   3784315084.5212655        432736618.74545610        1205718853.2264764     
   3774450948.1260562        340233403.67042768        1217730746.8983140     
   3768385625.9388604        260392902.62211263        1224907126.0115223     
   3318313736.3810363        580347863.26450682        1153660829.4379570     
   3293802543.9879236        473263325.44813538        1181980166.7235818     
   3272990276.8916755        378508538.62131488        1207232973.0482211     
   3255876935.0922928        296083502.78404307        1229419248.4118741     
   3242462518.5897756        225988217.93632424        1248538992.8145404     
   2825125505.1688056        506145885.25610870        1145137148.8876765     
   2798619124.0442262        411321724.40693772        1179976363.6068218     
   2775711779.3053641        328494351.51015723        1213518030.9626253     
   2756403470.9522185        257663766.56576562        1245762150.9550869     
   2740694198.9847908        198829969.57376516        1276708723.5842066     
   2335875106.2990274        433125256.95044637        1141617480.5560682     
   2312427775.2933941        352077744.72359943        1182860035.6457274     
   2292479591.7623291        282694057.41198188        1224574026.9696898     
   2276030555.7058339        224974195.01559412        1266759454.5279539     
   2263080667.1239076        178918157.53443801        1309416318.3205206     
   1850562539.7717035        361285978.34752023        1143101824.4431324     
   1835228497.7354274        295531386.39812028        1190631182.8403001     
   1823293714.2625730        241107656.32679147        1240400961.0694151     
   1814758189.3531387        198014788.13352937        1292411159.1304760     
   1809621923.0071249        166252781.81833851        1346661777.0234833     
   3768385625.9388604        260392902.62211263        1224907126.0115223     
   3661556513.6151581        167819938.56461120        1192534990.7583528     
   3562464855.6758180        101038489.12164927        1170496261.9791019     
   3471110652.1208396        60048554.293224096        1158790939.6737709     
   3387493902.9502211        44850134.079336047        1157419023.8423567     
   3242462518.5897756        225988217.93632424        1248538992.8145404     
   3164848777.3347235        151514077.31444502        1231515229.9282458     
   3093347720.6629820        97415551.970275879        1222454771.3664651     
   3027959348.5745549        63692641.903815389        1221357617.1291983     
   2968683661.0694389        50345347.115059614        1228223767.2164454     
   2740694198.9847908        198829969.57376516        1276708723.5842066     
   2685524108.3715143        140423136.25944650        1273137768.2968979     
   2634841932.5405011        96976018.886008859        1275160015.1846967     
   2588647671.4917512        68488617.453447342        1282775464.2476039     
   2546941325.2252645        54960931.961764812        1295984115.4856193     
   2263080667.1239076        178918157.53443801        1309416318.3205206     
   2223582506.7255354        134547115.39961827        1317402605.8643067     
   2186947491.3083758        99719889.868846416        1328611993.4337957     
   2153175620.8724332        74436480.942127466        1343044481.0289872     
   2122266895.4177039        58696888.619454503        1360700068.6498806     
   1809621923.0071249        166252781.81833851        1346661777.0234833     
   1779023972.3967826        133886014.73495555        1364309742.6304729     
   1749664396.9666076        105647164.91879535        1382810706.1137609     
   1721543196.7165980        81536232.369850993        1402164667.4733467     
   1694660371.6467533        61553217.088127077        1422371626.7092302     
   3387493902.9502211        44850134.079336047        1157419023.8423567     
   3294966582.5216093        38297679.902582169        1150587606.3251700     
   3202164975.2347021        30830936.198175550        1148056097.9452350     
   3109089081.0894990        22449902.966114283        1149824498.7025528     
   3015738900.0859976        13154580.206402540        1155892808.5971203     
   2968683661.0694389        50345347.115059614        1228223767.2164454     
   2886291950.0874496        39722273.325654507        1220423483.3234324     
   2804156144.4402208        29952217.318784356        1217059286.7011824     
   2722276244.1277547        21035179.094456315        1218131177.3496971     
   2640652249.1500492        12971158.652658224        1223639155.2689712     
   2546941325.2252645        54960931.961764812        1295984115.4856193     
   2475074304.0713620        40383962.674148440        1287833522.7753487     
   2403993380.4452767        28427318.479257345        1284255195.4693506     
   2333698554.3470068        19090999.377089739        1285249133.5676272     
   2264189825.7765565        12375005.367649436        1290815337.0701776     
   2122266895.4177039        58696888.619454503        1360700068.6498806     
   2061313644.4733448        40282747.948062658        1352817724.6809165     
   2001676683.2498610        26256239.679584146        1349643824.2497365     
   1943356011.7472520        16617363.814024687        1351178367.3563430     
   1886351629.9655185        11366120.351380944        1357421354.0007343     
   1694660371.6467533        61553217.088127077        1422371626.7092302     
   1645009971.2934015        39418629.147399783        1415376089.0401368     
   1597206052.8539810        23438980.919775665        1413225173.0423439     
   1551248616.3284931        13614272.405257761        1415918878.7158444     
   1507137661.7169344        9944503.6038421392        1423457206.0606434     
   3015738900.0859976        13154580.206402540        1155892808.5971203     
   2921780850.1746016        4888031.7328273058        1148616805.5221121     
   2828895637.6435966        197607.86054515839        1146352090.1515918     
   2737083262.4929752       -916691.41044855118        1149098662.4855602     
   2646343724.7227445        1545133.9198547602        1156856522.5240164     
   2640652249.1500492        12971158.652658224        1223639155.2689712     
   2559988605.8128157        6811885.5487638712        1216838759.2946262     
   2480134974.8413253        3352653.6640156507        1214767247.8952219     
   2401091356.2355762        2593462.9984109402        1217424621.0707529     
   2322857749.9955716        4534313.5519425869        1224810878.8212302     
   2264189825.7765565        12375005.367649436        1290815337.0701776     
   2196013722.9290619        8080947.8081169128        1284183919.0127409     
   2128384807.4326661        5610848.0855762959        1281998982.4006932     
   2061303079.2873666        4964706.2000222206        1284260527.2340400     
   1994768538.4931607        6142522.1514574289        1290968553.5127800     
   1886351629.9655185        11366120.351380944        1357421354.0007343     
   1829856201.5233431        8695218.5108811855        1350652284.6764529     
   1773645135.4176178        6972191.1252152920        1348047293.6680143     
   1717718431.6483450        6197038.1943942308        1349606380.9754202     
   1662076090.2155244        6369759.7184070349        1355329546.5986753     
   1507137661.7169344        9944503.6038421392        1423457206.0606434     
   1461516041.5956550        8654697.6570479274        1416243856.2857642     
   1415915958.7961807        7436682.7829409838        1412912181.6971793     
   1370337413.3185134        6290458.9815213680        1413462182.2948942     
   1324780405.1626496        5216026.2527818680        1417893858.0789037     
   2646343724.7227445        1545133.9198547602        1156856522.5240164     
   2541069206.3165474        1208138.7978981733        1151280352.5179837     
   2435751525.5223913        727269.04940199852        1149825242.8157463     
   2330390682.3402824        102524.67439699173        1152491193.4173009     
   2224986676.7702131       -666094.32713520527        1159278204.3226550     
   2322857749.9955716        4534313.5519425869        1224810878.8212302     
   2228482293.3472056        2967913.9248187542        1217852210.3867836     
   2134177245.1738796        1636209.2144918442        1215440084.0403714     
   2039942605.4755919        539199.42095899582        1217574499.7819989     
   1945778374.2523427       -323115.45577681065        1224255457.6116598     
   1994768538.4931607        6142522.1514574289        1290968553.5127800     
   1912507805.8433197        3711416.6913850307        1282759885.9900815     
   1830431052.5315113        1893575.6914247274        1279523242.3396630     
   1748538278.5577390        688999.15158224106        1281258622.5615191     
   1666829483.9219978        97687.071844339371        1287966026.6556516     
   1662076090.2155244        6369759.7184070349        1355329546.5986753     
   1593145743.8048892        3438647.0975833535        1346003379.3278828     
   1524512947.5952873        1499368.4802026153        1342074717.7136133     
   1456177701.5867116        551923.86624479294        1343543561.7558577     
   1388140005.7791646        596313.25571823120        1350409911.4546232     
   1324780405.1626496        5216026.2527818680        1417893858.0789037     
   1270396107.2319124        2149605.1434179544        1407582690.4001849     
   1216422930.3652060        453587.58082330227        1403094510.1622257     
   1162860874.5625181        127973.56495833397        1404429317.3650250     
   1109709939.8238561        1172763.0958460569        1411587112.0085814     
   2224986676.7702131       -666094.32713520527        1159278204.3226550     
   2140808017.1011786        4859202.3163533211        1154429029.9831753     
   2056623934.2429767        10366421.662627578        1154576186.4872313     
   1972434428.1956191        15855563.711709380        1159719673.8348277     
   1888239498.9590909        21326628.463561416        1169859492.0259588     
   1945778374.2523427       -323115.45577681065        1224255457.6116598     
   1874122111.5366445        5666026.0736461878        1219257399.7650721     
   1802460758.4913259        11638199.837664247        1218788582.9884493     
   1730794315.1163881        17593405.836287022        1222849007.2817941     
   1659122781.4118283        23531644.069499493        1231438672.6451068     
   1666829483.9219978        97687.071844339371        1287966026.6556516     
   1606361075.9494328        6150310.8241341114        1282819473.6380847     
   1545887910.5067914        12187076.342829525        1281735071.9169140     
   1485409987.5940704        18207983.627932131        1284712821.4921427     
   1424927307.2112737        24213032.679443419        1291752722.3637671     
   1388140005.7791646        596313.25571823120        1350409911.4546232     
   1337524910.3395371        6312056.5678175092        1345115251.6022131     
   1286905390.2893682        12013051.178122997        1343415653.2726283     
   1236281445.6286697        17699297.086655557        1345311116.4658716     
   1185653076.3574343        23370794.293401837        1350801641.1819384     
   1109709939.8238561        1172763.0958460569        1411587112.0085814     
   1067613614.7069584        6151263.3046946526        1406144733.6574569     
   1025513197.8390698        11116124.343570590        1403830327.0555916     
   983408689.22018504        16067346.212458909        1404643892.2029824     
   941300088.85030663        21004928.911373794        1408585429.0996265     
   1888239498.9590909        21326628.463561416        1169859492.0259588     
   1777878837.0851908        20638259.568948388        1163731285.9730365     
   1668638072.7815969        23682882.575352490        1160486255.4926059     
   1560517206.0482974        30460497.482756674        1160124400.5846562     
   1453516236.8853059        40971104.291165113        1162645721.2492070     
   1659122781.4118283        23531644.069499493        1231438672.6451068     
   1557070227.2366483        21690195.086128950        1225147757.8441787     
   1455902731.9128025        22798942.273865044        1222630614.9518049     
   1355620295.4402862        26857885.632710755        1223887243.9679759     
   1256222917.8191016        33867025.162647188        1228917644.8926933     
   1424927307.2112737        24213032.679443419        1291752722.3637671     
   1333727421.6949852        21981871.895374954        1285025120.3093743     
   1243177756.3110538        21918111.552501440        1282961886.4995863     
   1153278311.0594809        24021751.650823057        1285563020.9344072     
   1064029085.9402704        28292792.190347850        1292828523.6138306     
   1185653076.3574343        23370794.293401837        1350801641.1819384     
   1107850420.4601984        21513289.996676326        1343363373.3686104     
   1030463145.9763511        21040390.411246538        1341480070.1359479     
   953491252.90588999        21952095.537108183        1345151731.4839435     
   876934741.24881816        24248405.374258876        1354378357.4126079     
   941300088.85030663        21004928.911373794        1408585429.0996265     
   879439223.53228891        20284449.390041053        1400162517.0218985     
   817758900.90869367        20165778.850111902        1398185165.8608909     
   756259120.97950697        20648917.291545630        1402653375.6166115     
   694939883.74474049        21733864.714382231        1413567146.2890375     
   1756037040.6867247        526811112.20601743        680038899.39395487     
   1784079212.9956994        500132487.20049268        806434673.64953637     
   1809180853.6128545        463652089.88890171        925743752.57625985     
   1831341962.5381892        417369920.27124429        1037966136.1741254     
   1850562539.7717035        361285978.34752023        1143101824.4431324     
   1326284090.0937438        397885227.02812314        669730231.50037158     
   1339556954.5663075        375548628.82627684        791869596.64983785     
   1350624420.2723184        345860701.40258646        908732644.91468978     
   1359486487.2117760        308821444.75705183        1020319376.2949277     
   1366143155.3846805        264430858.88967279        1126629790.7905517     
   890360266.46975338        267108079.94092602        662366897.28035784     
   894036332.94660449        250665261.49496764        781107508.40318632     
   896242133.58216882        229321556.91138709        896382181.08564460     
   896977668.37644660        203076966.19018427        1008190915.3277330     
   896242937.32943761        171931489.33135894        1116533711.1294515     
   448265569.81475443        134479670.94442633        657948896.73391354     
   447517348.13658983        125482385.20656505        774148408.90958190     
   446033993.54240513        114034656.41530347        888692361.08912456     
   443815506.03220028        100136484.57064161        1001580753.2725410     
   440861885.60597545        83787869.672579557        1112813585.4598315     
  0.12874671566948898        3.8624014700846691E-002   656476229.86103868     
  0.13626361943559165       -3.8931135101386412E-002   770992298.16902494     
  0.15302719599727488       -8.5664302460205788E-002   885663184.92512941     
  0.17903721945922890      -0.10157576331102150        1000488890.1293519     
  0.21429376702617978       -8.6665650617528539E-002   1115469413.7816920     
   1850562539.7717035        361285978.34752023        1143101824.4431324     
   1835228497.7354274        295531386.39812028        1190631182.8403001     
   1823293714.2625730        241107656.32679147        1240400961.0694151     
   1814758189.3531387        198014788.13352937        1292411159.1304760     
   1809621923.0071249        166252781.81833851        1346661777.0234833     
   1366143155.3846805        264430858.88967279        1126629790.7905517     
   1360348537.6927481        216826689.07379261        1182045243.9048584     
   1357103363.9174459        177720665.64668137        1238369736.9597464     
   1356407634.0587747        147112788.60833907        1295603269.9552186     
   1358261348.1167343        125003057.95876640        1353745842.8912728     
   896242937.32943761        171931489.33135894        1116533711.1294515     
   896183801.43509519        141336558.88497287        1178843808.5396407     
   897824294.81059361        116407059.33805573        1240731565.9990485     
   901164417.45593178        97142990.690605164        1302196983.5076749     
   906204169.37111068        83544352.942623466        1363240061.0655212     
   440861885.60597545        83787869.672579557        1112813585.4598315     
   442734288.96246988        69060995.831661999        1181026876.7446477     
   445456506.94201463        57166837.400911719        1247486448.1873195     
   449028539.54460949        48105394.380327791        1312192299.7878466     
   453450386.77025414        41876666.769911557        1375144431.5462284     
  0.21429376702617978       -8.6665650617528539E-002   1115469413.7816920     
  0.27487127729608363       -8.6142185417770550E-002   1188594448.5198808     
  0.31170948234430312      -0.16475034477684369        1258634383.5245602     
  0.32480670332547434      -0.32249472737996254        1325589218.7957325     
  0.31416421661958321      -0.55937164241230297        1389458954.3333955     
   1809621923.0071249        166252781.81833851        1346661777.0234833     
   1779023972.3967826        133886014.73495555        1364309742.6304729     
   1749664396.9666076        105647164.91879535        1382810706.1137609     
   1721543196.7165980        81536232.369850993        1402164667.4733467     
   1694660371.6467533        61553217.088127077        1422371626.7092302     
   1358261348.1167343        125003057.95876640        1353745842.8912728     
   1332836907.9892483        99985189.438593566        1372703035.8297968     
   1308341249.2539458        78063258.892365396        1393090954.6719413     
   1284774371.9108267        59237266.320080817        1414909599.4177053     
   1262136275.9598897        43507211.721737146        1438158970.0670905     
   906204169.37111068        83544352.942623466        1363240061.0655212     
   887603891.23311758        66370578.437651992        1383145288.5829320     
   869622800.69932508        51260762.613348573        1405058970.0312855     
   852260897.76973224        38214905.469712138        1428981105.4105828     
   835518182.44434071        27233007.006744951        1454911694.7208221     
   453450386.77025414        41876666.769911557        1375144431.5462284     
   443324922.12838954        33042181.732129857        1395636500.8898797     
   433509051.30274278        25239676.081740767        1418714752.1917970     
   424002774.29331583        18469149.818749771        1444379185.4519813     
   414806091.10010451        12730602.943146572        1472629800.6704297     
  0.31416421661958321      -0.55937164241230297        1389458954.3333955     
  0.67506637871270292      -0.67796785241685775        1410176672.7506402     
   1.0642028124115026      -0.70244947679111747        1434058301.1534746     
   1.4815744927830787      -0.63281447961785997        1461103839.5418975     
   1.9271812168075964      -0.46906128248935086        1491313287.9159083     
   1694660371.6467533        61553217.088127077        1422371626.7092302     
   1645009971.2934015        39418629.147399783        1415376089.0401368     
   1597206052.8539810        23438980.919775665        1413225173.0423439     
   1551248616.3284931        13614272.405257761        1415918878.7158444     
   1507137661.7169344        9944503.6038421392        1423457206.0606434     
   1262136275.9598897        43507211.721737146        1438158970.0670905     
   1226417852.3585320        27362083.807491660        1434938222.8384256     
   1192084290.2084336        15833160.730776310        1436207576.0492709     
   1159135589.5095925        8920442.4915823340        1441967029.6996260     
   1127571750.2620122        6623929.0899292231        1452216583.7894928     
   835518182.44434071        27233007.006744951        1454911694.7208221     
   812718817.78987145        16773463.777447432        1454927180.7261343     
   790842694.12398863        9391390.5101043582        1459078245.9391694     
   769889811.44669151        5086787.2047134638        1467364890.3599274     
   749860169.75798118        3859653.8612786829        1479787113.9884100     
   414806091.10010451        12730602.943146572        1472629800.6704297     
   403912867.58741850        7652769.0572640300        1475342962.7032650     
   393481264.60064721        4113670.2577634305        1481837182.7120378     
   383511282.13978994        2113306.5446427912        1492112460.6967478     
   374002920.20484561        1651677.9178992808        1506168796.6573937     
   1.9271812168075964      -0.46906128248935086        1491313287.9159083     
   1.7511754180443337      -0.35305347244619634        1496185568.7698171     
   1.6384106983212821       -2.6241371712949935E-002   1504484386.3678765     
   1.5888859710534062       0.51137000998149307        1516209740.7100856     
   1.6026023914521641        1.2597859111207721        1531361631.7964444     
   1507137661.7169344        9944503.6038421392        1423457206.0606434     
   1461516041.5956550        8654697.6570479274        1416243856.2857642     
   1415915958.7961807        7436682.7829409838        1412912181.6971793     
   1370337413.3185134        6290458.9815213680        1413462182.2948942     
   1324780405.1626496        5216026.2527818680        1417893858.0789037     
   1127571750.2620122        6623929.0899292231        1452216583.7894928     
   1092353078.5252779        5355837.8150101304        1445791189.1201532     
   1057150559.7593666        4141589.7761678696        1443481376.1745052     
   1021964193.9642773        2981184.9733997583        1445287144.9525485     
   986793981.14000916        1874623.4067019820        1451208495.4542794     
   749860169.75798118        3859653.8612786829        1479787113.9884100     
   725712750.79834664        2813768.5760086179        1474143392.6817994     
   701576100.45855069        1803778.6902008653        1472849159.6362715     
   677450218.73859155        829684.20384985209        1475904414.8518279     
   653335105.63847113       -108514.88304048777        1483309158.3284645     
   374002920.20484561        1651677.9178992808        1506168796.6573937     
   361595058.41486114        1028489.9400411844        1501300466.9706964     
   349192580.89373052        423249.52502757311        1501015532.0824735     
   336795487.64145464       -164043.32713542879        1505313991.9927278     
   324403778.65803212       -733388.61645491421        1514195846.7014592     
   1.6026023914521641        1.2597859111207721        1531361631.7964444     
   1.3748188485087973        1.9071017201341625        1527262411.9868453     
   1.0649077544686116        2.2806572907680152        1527980493.5131147     
  0.67286381365928194        2.3804373993941108        1533515876.3752558     
  0.19869156686247813        2.2064568350066551        1543868560.5732625     
   1324780405.1626496        5216026.2527818680        1417893858.0789037     
   1270396107.2319124        2149605.1434179544        1407582690.4001849     
   1216422930.3652060        453587.58082330227        1403094510.1622257     
   1162860874.5625181        127973.56495833397        1404429317.3650250     
   1109709939.8238561        1172763.0958460569        1411587112.0085814     
   986793981.14000916        1874623.4067019820        1451208495.4542794     
   947467577.35750318        13353.446937620640        1442731110.2553060     
   908449514.38069928       -820113.82715493441        1439735621.3104582     
   869739792.20959568       -625778.41557860374        1442222028.6197369     
   831338410.84419739        596359.68168431520        1450190332.1831436     
   653335105.63847113       -108514.88304048777        1483309158.3284645     
   628092049.75667143       -1056997.5674845874        1476545645.3078611     
   603054554.42225575       -1320278.4273141026        1474922937.3547506     
   578222619.63521850       -898357.46254861355        1478441034.4691346     
   553596245.39556801        208765.32683807611        1487099936.6510181     
   324403778.65803212       -733388.61645491421        1514195846.7014592     
   312269524.42942393       -1061447.8998205960        1509026295.5578480     
   300238050.48987645       -1046906.2196540236        1508656458.2951031     
   288309356.83939093       -689763.57594543695        1513086334.9132195     
   276483443.47796619        9980.0312983989716        1522315925.4122059     
  0.19869156686247813        2.2064568350066551        1543868560.5732625     
   1.3757572462199823        2.4499125942220195        1540173061.0052707     
   2.5835599456495126        2.7958240461767190        1540936184.1315145     
   3.8221028791552234        3.2442027715796740        1546157929.9519892     
   5.0913898555036043        3.7950630275703086        1555838298.4667001     
   1109709939.8238561        1172763.0958460569        1411587112.0085814     
   1067613614.7069584        6151263.3046946526        1406144733.6574569     
   1025513197.8390698        11116124.343570590        1403830327.0555916     
   983408689.22018504        16067346.212458909        1404643892.2029824     
   941300088.85030663        21004928.911373794        1408585429.0996265     
   831338410.84419739        596359.68168431520        1450190332.1831436     
   797487533.23985600        3646644.7778042853        1445229894.6542349     
   763633586.83235431        6686700.5300593674        1443929110.0271254     
   729776571.62170219        9716526.9384778440        1446287978.3018184     
   695916487.60789251        12736124.003038108        1452306499.4783084     
   553596245.39556801        208765.32683807611        1487099936.6510181     
   529509904.31104779        1786562.0123930573        1482622633.3834660     
   505421517.37121093        3357539.1802298129        1482336664.1702595     
   481331084.57605779        4921696.8303450346        1486242029.0113981     
   457238605.92558819        6479034.9627386630        1494338727.9068828     
   276483443.47796619        9980.0312983989716        1522315925.4122059     
   263680727.92053992        571015.00848156214        1518322949.8451536     
   250876989.45563328        1128640.2940650135        1519052989.4849937     
   238072228.08325145        1682855.8880652934        1524506044.3317227     
   225266443.80339125        2233661.7904697806        1534682114.3853443     
   5.0913898555036043        3.7950630275703086        1555838298.4667001     
   4.0683273142269325        3.7660519620424022        1552330844.0392954     
   3.0856245214605380        3.8715733915487514        1554078085.9713297     
   2.1432843823896697        4.1116363061507979        1561080024.2627974     
   1.2413031225610505        4.4862302060057884        1573336658.9136996     
   941300088.85030663        21004928.911373794        1408585429.0996265     
   879439223.53228891        20284449.390041053        1400162517.0218985     
   817758900.90869367        20165778.850111902        1398185165.8608909     
   756259120.97950697        20648917.291545630        1402653375.6166115     
   694939883.74474049        21733864.714382231        1413567146.2890375     
   695916487.60789251        12736124.003038108        1452306499.4783084     
   650631234.26080394        12528883.114939243        1446285347.8169198     
   605481387.85796690        12772998.707675934        1446450666.3010893     
   560466948.39936793        13468470.781200916        1452802454.9308071     
   515587915.88501191        14615299.335552186        1465340713.7060845     
   457238605.92558819        6479034.9627386630        1494338727.9068828     
   427788705.20324159        6562954.9040208757        1490666678.2866335     
   398429075.67496717        6947778.8255480975        1492922008.0407712     
   369159717.34076560        7633506.7273155302        1501104717.1693013     
   339980630.20064056        8620138.6093359441        1515214805.6722171     
   225266443.80339125        2233661.7904697806        1534682114.3853443     
   210911636.35959494        2386664.7572738901        1533306508.4310393     
   196601964.35970116        2690119.2037553489        1537599191.0799499     
   182337427.80370855        3144025.1299045756        1547560162.3320863     
   168118026.69161433        3748382.5357199088        1563189422.1874464     
   1.2413031225610505        4.4862302060057884        1573336658.9136996     
   27.729869042007003        12.674706476675150        1574204838.2501316     
   53.912158574417006        19.842262151114078        1580482215.4186170     
   79.788182219633811        25.988930147130247        1592168790.4191618     
   105.35793849075159        31.114708977817820        1609264563.2517581     
  0.12874671566948898        3.8624014700846691E-002   656476229.86103868     
  0.13626361943559165       -3.8931135101386412E-002   770992298.16902494     
  0.15302719599727488       -8.5664302460205788E-002   885663184.92512941     
  0.17903721945922890      -0.10157576331102150        1000488890.1293519     
  0.21429376702617978       -8.6665650617528539E-002   1115469413.7816920     
  -448265569.56686378       -134479670.87005913        657948896.67040050     
  -447517347.86485887       -125482385.24789502        774148408.85657012     
  -446033993.23381180       -114034656.52892402        888692361.04429281     
  -443815505.67372257       -100136484.71314594        1001580753.2335685     
  -440861885.18459141       -83787869.800561309        1112813585.4243968     
  -890360266.25067139       -267108079.87520140        662366897.17066610     
  -894036332.70150733       -250665261.50751665        781107508.30811417     
  -896242133.30350566       -229321556.97703987        896382181.00054991     
  -896977668.05666649       -203076966.28377122        1008190915.2479736     
  -896242936.96098995       -171931489.42771029        1116533711.0503845     
  -1326284089.9226751       -397885226.97680259        669730231.36183524     
  -1339556954.3736815       -375548628.81779599        791869596.52365649     
  -1350624420.0560548       -345860701.43001229        908732644.79390001     
  -1359486486.9697952       -308821444.81345201        1020319376.1725662     
  -1366143155.1149015       -264430858.96811381        1126629790.6596549     
  -1756037040.5828764       -526811112.17486292        680038899.24390829     
  -1784079212.8813822       -500132487.17873341        806434673.50319743     
  -1809180853.4914591       -463652089.88784146        925743752.42434359     
  -1831341962.4131076       -417369920.30218768        1037966136.0073473     
  -1850562539.6463270       -361285978.42177093        1143101824.2522085     
  0.21429376702617978       -8.6665650617528539E-002   1115469413.7816920     
  0.27487127729608363       -8.6142185417770550E-002   1188594448.5198808     
  0.31170948234430312      -0.16475034477684369        1258634383.5245602     
  0.32480670332547434      -0.32249472737996254        1325589218.7957325     
  0.31416421661958321      -0.55937164241230297        1389458954.3333955     
  -440861885.18459141       -83787869.800561309        1112813585.4243968     
  -442734288.42506206       -69060995.959255427        1181026876.6444507     
  -445456506.32143056       -57166837.637609437        1247486448.0185654     
  -449028538.87369740       -48105394.835623950        1312192299.5467393     
  -453450386.08186227       -41876667.553299263        1375144431.2289736     
  -896242936.96098995       -171931489.42771029        1116533711.0503845     
  -896183800.96659863       -141336558.98484957        1178843808.3481197     
  -897824294.26026368       -116407059.50217602        1240731565.6874838     
  -901164416.84198427       -97142990.979688436        1302196983.0684767     
  -906204168.71176124       -83544353.417387575        1363240060.4910982     
  -1366143155.1149015       -264430858.96811381        1126629790.6596549     
  -1360348537.3497386       -216826689.16292533        1182045243.6308875     
  -1357103363.5047889       -177720665.75844967        1238369736.5313175     
  -1356407633.5800540       -147112788.75468689        1295603269.3609450     
  -1358261347.5755327       -125003058.15163803        1353745842.1197691     
  -1850562539.6463270       -361285978.42177093        1143101824.2522085     
  -1835228497.5744815       -295531386.49348122        1190631182.4927542     
  -1823293714.0550086       -241107656.40643328        1240400960.5500655     
  -1814758189.0879068       -198014788.16062236        1292411158.4241431     
  -1809621922.6731768       -166252781.75605035        1346661776.1149859     
  0.31416421661958321      -0.55937164241230297        1389458954.3333955     
  0.67506637871270292      -0.67796785241685775        1410176672.7506402     
   1.0642028124115026      -0.70244947679111747        1434058301.1534746     
   1.4815744927830787      -0.63281447961785997        1461103839.5418975     
   1.9271812168075964      -0.46906128248935086        1491313287.9159083     
  -453450386.08186227       -41876667.553299263        1375144431.2289736     
  -443324920.73974383       -33042182.629089996        1395636500.5747144     
  -433509049.17460555       -25239676.961480886        1418714751.8336165     
  -424002771.38644946       -18469150.550479248        1444379185.0056789     
  -414806087.37527412       -12730603.396080434        1472629800.0909030     
  -906204168.71176124       -83544353.417387575        1363240060.4910982     
  -887603890.02393329       -66370578.941022366        1383145287.9925821     
  -869622798.91830301       -51260763.071981460        1405058969.3348000     
  -852260895.39486957       -38214905.810263664        1428981104.5177510     
  -835518179.45363259       -27233007.155868858        1454911693.5414352     
  -1358261347.5755327       -125003058.15163803        1353745842.1197691     
  -1332836907.1775033       -99985189.613770247        1372703035.0042446     
  -1308341248.1668882       -78063259.033947527        1393090953.6570258     
  -1284774370.5436850       -59237266.412164569        1414909598.0781119     
  -1262136274.3078959       -43507211.748430371        1438158968.2675049     
  -1809621922.6731768       -166252781.75605035        1346661776.1149859     
  -1779023972.2004545       -133886014.64733338        1364309741.6097004     
  -1749664396.9203613       -105647164.84737885        1382810704.8002942     
  -1721543196.8328977       -81536232.356188715        1402164665.6867642     
  -1694660371.9380620       -61553217.173761070        1422371624.2691128     
   1.9271812168075964      -0.46906128248935086        1491313287.9159083     
   1.7511754180443337      -0.35305347244619634        1496185568.7698171     
   1.6384106983212821       -2.6241371712949935E-002   1504484386.3678765     
   1.5888859710534062       0.51137000998149307        1516209740.7100856     
   1.6026023914521641        1.2597859111207721        1531361631.7964444     
  -414806087.37527412       -12730603.396080434        1472629800.0909030     
  -403912864.19006193       -7652769.3702682853        1475342962.0618451     
  -393481261.43498784       -4113670.1115827113        1481837182.0488493     
  -383511279.11005199       -2113305.6200247407        1492112460.0519166     
  -374002917.21525562       -1651675.8955983669        1506168796.0710471     
  -835518179.45363259       -27233007.155868858        1454911693.5414352     
  -812718814.98745155       -16773463.844326884        1454927179.3871341     
  -790842691.44478691       -9391390.2778406441        1459078244.5208094     
  -769889808.82564163       -5086786.4564183056        1467364888.9424601     
  -749860167.13001275       -3859652.3800515234        1479787112.6520855     
  -1262136274.3078959       -43507211.748430371        1438158968.2675049     
  -1226417850.6409941       -27362083.775230587        1434938220.7456844     
  -1192084288.3909900       -15833160.525022388        1436207573.7837536     
  -1159135587.5578830       -8920441.9978056550        1441967027.3817108     
  -1127571748.1416721       -6623928.1935774684        1452216581.5395572     
  -1694660371.9380620       -61553217.173761070        1422371624.2691128     
  -1645009971.1506910       -39418629.162984014        1415376086.1374986     
  -1597206052.2735939       -23438980.853123546        1413225169.8376853     
  -1551248615.3067739       -13614272.244186461        1415918875.3696749     
  -1507137660.2502308       -9944503.3361698389        1423457202.7334640     
   1.6026023914521641        1.2597859111207721        1531361631.7964444     
   1.3748188485087973        1.9071017201341625        1527262411.9868453     
   1.0649077544686116        2.2806572907680152        1527980493.5131147     
  0.67286381365928194        2.3804373993941108        1533515876.3752558     
  0.19869156686247813        2.2064568350066551        1543868560.5732625     
  -374002917.21525562       -1651675.8955983669        1506168796.0710471     
  -361595055.90339971       -1028486.9770514816        1501300466.2038760     
  -349192578.97305012       -423245.99685855210        1501015531.1995051     
  -336795486.42420977        164047.04496984184        1505313991.0579331     
  -324403778.25687832        733392.14843705297        1514195845.7791626     
  -749860167.13001275       -3859652.3800515234        1479787112.6520855     
  -725712748.48728716       -2813766.4529011548        1474143391.0447347     
  -701576098.52544773       -1803776.1287048757        1472849157.8271148     
  -677450217.24449384       -829681.40746089816        1475904412.9992249     
  -653335104.64442694        108517.71082693338        1483309156.5610652     
  -1127571748.1416721       -6623928.1935774684        1452216581.5395572     
  -1092353076.3768461       -5355836.5204543471        1445791186.5094197     
  -1057150557.5922855       -4141588.1148855686        1443481373.3959424     
  -1021964191.7879891       -2981182.9768599868        1445287142.1991272     
  -986793978.96395493       -1874621.1063786149        1451208492.9189720     
  -1507137660.2502308       -9944503.3361698389        1423457202.7334640     
  -1461516039.5720754       -8654697.1797103286        1416243852.5979309     
  -1415915956.1735620       -7436681.9553921223        1412912177.9059916     
  -1370337410.0546913       -6290457.6632146835        1413462178.6576416     
  -1324780401.2154636       -5216024.3031817079        1417893854.8528841     
  0.19869156686247813        2.2064568350066551        1543868560.5732625     
   1.3757572462199823        2.4499125942220195        1540173061.0052707     
   2.5835599456495126        2.7958240461767190        1540936184.1315145     
   3.8221028791552234        3.2442027715796740        1546157929.9519892     
   5.0913898555036043        3.7950630275703086        1555838298.4667001     
  -324403778.25687832        733392.14843705297        1514195845.7791626     
  -312269521.72895545        1061452.0932722986        1509026294.8685162     
  -300238045.43500715        1046911.2581907958        1508656457.7562857     
  -288309349.37503481        689769.64318940043        1513086334.4424708     
  -276483433.54904002       -9972.7517358809710        1522315924.9270709     
  -653335104.64442694        108517.71082693338        1483309156.5610652     
  -628092046.75369489        1057001.1606314480        1476545643.9989281     
  -603054549.36165607        1320282.9481267631        1474922936.3393915     
  -578222612.46830559        898363.07332617044        1478441033.5824530     
  -553596236.07364774       -208758.46378150582        1487099935.7281094     
  -986793978.96395493       -1874621.1063786149        1451208492.9189720     
  -947467573.69846475       -13350.348020553589        1442731108.3965120     
  -908449509.19638324        820117.86564397812        1439735619.8808329     
  -869739785.45770717        625783.53462207317        1442222027.3719349     
  -831338402.48243904       -596353.34109216928        1450190330.8698149     
  -1324780401.2154636       -5216024.3031817079        1417893854.8528841     
  -1270396102.5632670       -2149602.4326890111        1407582688.0612648     
  -1216422924.9391899       -453583.98926258087        1403094508.3806078     
  -1162860868.3432395       -127968.97292381525        1404429315.8109162     
  -1109709932.7754061       -1172757.3836422563        1411587110.3521848     
   5.0913898555036043        3.7950630275703086        1555838298.4667001     
   4.0683273142269325        3.7660519620424022        1552330844.0392954     
   3.0856245214605380        3.8715733915487514        1554078085.9713297     
   2.1432843823896697        4.1116363061507979        1561080024.2627974     
   1.2413031225610505        4.4862302060057884        1573336658.9136996     
  -276483433.54904002       -9972.7517358809710        1522315924.9270709     
  -263680719.98229367       -571007.63397878408        1518322949.3393505     
  -250876983.41864157       -1128632.5265354812        1519052988.9658725     
  -238072223.85807827       -1682847.4293885678        1524506043.8066335     
  -225266441.30061078       -2233652.3425609171        1534682113.8616352     
  -553596236.07364774       -208758.46378150582        1487099935.7281094     
  -529509896.90336120       -1786554.8951385021        1482622632.4293723     
  -505421511.77962148       -3357531.4816514254        1482336663.1996834     
  -481331080.70242757       -4921688.2233159840        1486242028.0390420     
  -457238603.67177659       -6479025.1201259196        1494338726.9474473     
  -831338402.48243904       -596353.34109216928        1450190330.8698149     
  -797487526.69487596       -3646638.0174298882        1445229893.3093672     
  -763633581.99731731       -6686692.9937807620        1443929108.6727722     
  -729776568.38975894       -9716518.2701314092        1446287976.9600315     
  -695916485.87219584       -12736113.846467823        1452306498.1711454     
  -1109709932.7754061       -1172757.3836422563        1411587110.3521848     
  -1067613609.3568410       -6151257.0008630157        1406144731.9793298     
  -1025513194.0717318       -11116117.062933147        1403830325.3851354     
  -983408686.92007720       -16067337.569850564        1404643890.5696008     
  -941300087.90186727       -21004918.521588743        1408585427.5327249     
   1.2413031225610505        4.4862302060057884        1573336658.9136996     
   27.729869042007003        12.674706476675150        1574204838.2501316     
   53.912158574417006        19.842262151114078        1580482215.4186170     
   79.788182219633811        25.988930147130247        1592168790.4191618     
   105.35793849075159        31.114708977817820        1609264563.2517581     
  -225266441.30061078       -2233652.3425609171        1534682113.8616352     
  -210911581.66152889       -2386639.0379245877        1533306506.7716017     
  -196601858.14464071       -2690079.4739354700        1537599187.7077258     
  -182337270.74994242       -3143973.6505778432        1547560156.6699975     
  -168117819.47743675       -3748321.5678596050        1563189413.6584184     
  -457238603.67177659       -6479025.1201259196        1494338726.9474473     
  -427788653.18476260       -6562929.3901013732        1490666674.9790473     
  -398428974.63586259       -6947740.1204594672        1492922001.2308958     
  -369159568.02507508       -7633457.3111914843        1501104705.7029901     
  -339980433.35240448       -8620080.9623126090        1515214788.3953321     
  -695916485.87219584       -12736113.846467823        1452306498.1711454     
  -650631186.83983183       -12528858.381824642        1446285342.8724654     
  -605481295.56150639       -12772962.097306877        1446450655.9881279     
  -560466812.03721678       -13468424.992909521        1452802437.5181372     
  -515587736.26696694       -14615247.068644017        1465340687.4624777     
  -941300087.90186727       -21004918.521588743        1408585427.5327249     
  -879439182.62674534       -20284426.013117909        1400162510.4518566     
  -817758820.92157710       -20165745.404498249        1398185151.9794276     
  -756259002.78636694       -20648876.695734113        1402653352.1154289     
  -694939728.22111785       -21733819.886845320        1413567110.8598752     
  -1756037040.5828764       -526811112.17486292        680038899.24390829     
  -1784079212.8813822       -500132487.17873341        806434673.50319743     
  -1809180853.4914591       -463652089.88784146        925743752.42434359     
  -1831341962.4131076       -417369920.30218768        1037966136.0073473     
  -1850562539.6463270       -361285978.42177093        1143101824.2522085     
  -2201800042.8123655       -660540012.84370971        696410005.88464200     
  -2238387471.0606241       -613915198.45676947        813846192.38647461     
  -2272929124.3938270       -560471134.35298061        927192833.63645315     
  -2305425002.8119760       -500207820.53234291        1036449929.6345780     
  -2335875106.3150702       -433125256.99485618        1141617480.3808484     
  -2685754021.1922340       -805726206.35767031        721960656.35179389     
  -2722323419.4294205       -736586216.79167223        829393372.19390047     
  -2757741799.5249252       -663609500.08673871        935733692.87044132     
  -2792009161.4787493       -586796056.24286973        1040981618.3814170     
  -2825125505.2908940       -506145885.26006591        1145137148.7268276     
  -3207898975.7224813       -962369692.71674442        756690850.64536369     
  -3235887057.9877706       -868145542.18344116        853076212.92547429     
  -3263618878.8847523       -773067187.08911550        951366330.12630808     
  -3291094438.4134274       -677134627.43376839        1051561202.2478657     
  -3318313736.5737967       -580347863.21739912        1153660829.2901466     
  -3768234906.4031091       -1130470471.9209328        800600588.76535177     
  -3779078386.7356749       -1008593174.6320761        884894714.58119655     
  -3790560362.4733086       -888844195.36011112        974090745.40405369     
  -3802680833.6160107       -771223534.10503781        1068188681.2339227     
  -3815439800.1637788       -655731190.86685598        1167188522.0708044     
  -1850562539.6463270       -361285978.42177093        1143101824.2522085     
  -1835228497.5744815       -295531386.49348122        1190631182.4927542     
  -1823293714.0550086       -241107656.40643328        1240400960.5500655     
  -1814758189.0879068       -198014788.16062236        1292411158.4241431     
  -1809621922.6731768       -166252781.75605035        1346661776.1149859     
  -2335875106.3150702       -433125256.99485618        1141617480.3808484     
  -2312427775.3110213       -352077744.79226345        1182860035.3448219     
  -2292479591.7629309       -282694057.44286430        1224574026.5304244     
  -2276030555.6707973       -224974194.94665658        1266759453.9376550     
  -2263080667.0346217       -178918157.30364120        1309416317.5665147     
  -2825125505.2908940       -506145885.26006591        1145137148.7268276     
  -2798619124.1978898       -411321724.43614298        1179976363.3600457     
  -2775711779.4644299       -328494351.47736776        1213518030.6197550     
  -2756403471.0905128       -257663766.38373792        1245762150.5059555     
  -2740694199.0761418       -198829969.15525532        1276708723.0186477     
  -3318313736.5737967       -580347863.21739912        1153660829.2901466     
  -3293802544.2350869       -473263325.42512202        1181980166.5384245     
  -3272990277.1595068       -378508538.50994384        1207232972.8180573     
  -3255876935.3470583       -296083502.47186923        1229419248.1290438     
  -3242462518.7977390       -225988217.31089258        1248538992.4713843     
  -3815439800.1637788       -655731190.86685598        1167188522.0708044     
  -3797978035.4226127       -537902547.75919878        1188871444.8799589     
  -3784315084.8481627       -432736618.54059589        1205718853.1253309     
  -3774450948.4404287       -340233403.21104717        1217730746.8069193     
  -3768385626.1994109       -260392901.77055180        1224907125.9247251     
  -1809621922.6731768       -166252781.75605035        1346661776.1149859     
  -1779023972.2004545       -133886014.64733338        1364309741.6097004     
  -1749664396.9203613       -105647164.84737885        1382810704.8002942     
  -1721543196.8328977       -81536232.356188715        1402164665.6867642     
  -1694660371.9380620       -61553217.173761070        1422371624.2691128     
  -2263080667.0346217       -178918157.30364120        1309416317.5665147     
  -2223582507.1724749       -134547115.19271529        1317402605.0317857     
  -2186947492.3158293       -99719889.766791701        1328611992.4079187     
  -2153175622.4646850       -74436481.025871634        1343044479.6949141     
  -2122266897.6190407       -58696888.969953775        1360700066.8927701     
  -2740694199.0761418       -198829969.15525532        1276708723.0186477     
  -2685524109.2103305       -140423135.85784781        1273137767.6727917     
  -2634841934.1628933       -96976018.621682763        1275160014.4527812     
  -2588647673.9338284       -68488617.446759820        1282775463.3586159     
  -2546941328.5231347       -54960932.333077908        1295984114.3902967     
  -3242462518.7977390       -225988217.31089258        1248538992.4713843     
  -3164848778.3140244       -151514076.64273334        1231515229.5327168     
  -3093347722.4615531       -97415551.412052751        1222454770.9348788     
  -3027959351.2403274       -63692641.618854403        1221357616.6778710     
  -2968683664.6503458       -50345347.263137698        1228223766.7616920     
  -3768385626.1994109       -260392901.77055180        1224907125.9247251     
  -3661556514.4835515       -167819937.54736614        1192534990.6115634     
  -3562464857.2118106       -101038488.13790381        1170496261.8542144     
  -3471110654.3841834       -60048553.542158842        1158790939.6526799     
  -3387493906.0006728       -44850133.760133266        1157419024.0069580     
  -1694660371.9380620       -61553217.173761070        1422371624.2691128     
  -1645009971.1506910       -39418629.162984014        1415376086.1374986     
  -1597206052.2735939       -23438980.853123546        1413225169.8376853     
  -1551248615.3067739       -13614272.244186461        1415918875.3696749     
  -1507137660.2502308       -9944503.3361698389        1423457202.7334640     
  -2122266897.6190407       -58696888.969953775        1360700066.8927701     
  -2061313645.9019442       -40282748.205684185        1352817722.7083206     
  -2001676683.9176469       -26256239.884077191        1349643822.1564376     
  -1943356011.6661484       -16617364.005132318        1351178365.2371202     
  -1886351629.1474483       -11366120.568845868        1357421351.9503679     
  -2546941328.5231347       -54960932.333077908        1295984114.3902967     
  -2475074306.4455614       -40383962.986099124        1287833521.6934042     
  -2403993381.9233060       -28427318.823516011        1284255194.4298415     
  -2333698554.9563704       -19090999.845332980        1285249132.5996091     
  -2264189825.5447555       -12375006.051547289        1290815336.2027073     
  -2968683664.6503458       -50345347.263137698        1228223766.7616920     
  -2886291952.7815375       -39722273.504219294        1220423483.0927479     
  -2804156146.2905707       -29952217.671436548        1217059286.6578979     
  -2722276245.1774430       -21035179.764785886        1218131177.4571428     
  -2640652249.4421592       -12971159.784281015        1223639155.4904826     
  -3387493906.0006728       -44850133.760133266        1157419024.0069580     
  -3294966584.9098749       -38297679.760048389        1150587606.9063530     
  -3202164977.0194373       -30830936.427832603        1148056098.8406065     
  -3109089082.3293648       -22449903.763499260        1149824499.8097210     
  -3015738900.8396521       -13154581.767034888        1155892809.8136933     
  -1507137660.2502308       -9944503.3361698389        1423457202.7334640     
  -1461516039.5720754       -8654697.1797103286        1416243852.5979309     
  -1415915956.1735620       -7436681.9553921223        1412912177.9059916     
  -1370337410.0546913       -6290457.6632146835        1413462178.6576416     
  -1324780401.2154636       -5216024.3031817079        1417893854.8528841     
  -1886351629.1474483       -11366120.568845868        1357421351.9503679     
  -1829856199.6147606       -8695218.5546458960        1350652282.3070624     
  -1773645132.3446274       -6972190.7489552498        1348047291.1410954     
  -1717718427.3370428       -6197037.1517617702        1349606378.4524674     
  -1662076084.5920146       -6369757.7630913258        1355329544.2411757     
  -2264189825.5447555       -12375006.051547289        1290815336.2027073     
  -2196013721.3468328       -8080948.4363900423        1284183917.9049003     
  -2128384804.3943746       -5610848.3061143160        1281998981.1181769     
  -2061303074.6873777       -4964705.6607089043        1284260525.8425405     
  -1994768532.2258482       -6142520.5001906157        1290968552.0779848     
  -2640652249.4421592       -12971159.784281015        1223639155.4904826     
  -2559988604.7682948       -6811886.8249533176        1216838759.3914435     
  -2480134972.3228083       -3352654.6268820763        1214767247.8372364     
  -2401091352.1056914       -2593463.1900504827        1217424620.8278589     
  -2322857744.1169524       -4534312.5144670010        1224810878.3633127     
  -3015738900.8396521       -13154581.767034888        1155892809.8136933     
  -2921780849.8791471       -4888033.7203360796        1148616806.7666943     
  -2828895636.1299262       -197609.71125531197        1146352091.2982726     
  -2737083259.5919881        916690.26022136211        1149098663.4084299     
  -2646343720.2653389       -1545133.8059345484        1156856523.0971606     
  -1324780401.2154636       -5216024.3031817079        1417893854.8528841     
  -1270396102.5632670       -2149602.4326890111        1407582688.0612648     
  -1216422924.9391899       -453583.98926258087        1403094508.3806078     
  -1162860868.3432395       -127968.97292381525        1404429315.8109162     
  -1109709932.7754061       -1172757.3836422563        1411587110.3521848     
  -1662076084.5920146       -6369757.7630913258        1355329544.2411757     
  -1593145738.2113442       -3438644.4858321548        1346003377.5831189     
  -1524512942.0090759       -1499365.1365869641        1342074716.3575177     
  -1456177695.9852040       -551919.71533000469        1343543560.5643752     
  -1388140000.1397381       -596308.22208750248        1350409910.2036891     
  -1994768532.2258482       -6142520.5001906157        1290968552.0779848     
  -1912507800.0552890       -3711414.3977440596        1282759884.8781641     
  -1830431047.2134104       -1893572.7242326736        1279523241.4322920     
  -1748538273.7002132       -688995.47965955734        1281258621.7403710     
  -1666829479.5156982       -97682.664024591446        1287966025.8024013     
  -2322857744.1169524       -4534312.5144670010        1224810878.3633127     
  -2228482288.0950975       -2967912.1684074402        1217852209.9464021     
  -2134177240.5522029       -1636206.7522206306        1215440083.6049340     
  -2039942601.4882679       -539196.26590120792        1217574499.3389115     
  -1945778370.9032958        323119.29055023193        1224255457.1483326     
  -2646343720.2653389       -1545133.8059345484        1156856523.0971606     
  -2541069202.3307734       -1208137.7978394032        1151280352.7878313     
  -2435751522.0254483       -727267.22054541111        1149825242.8754404     
  -2330390679.3493624       -102522.07404720783        1152491193.3599861     
  -2224986674.3025217        666097.64163362980        1159278204.2414722     
  -1109709932.7754061       -1172757.3836422563        1411587110.3521848     
  -1067613609.3568410       -6151257.0008630157        1406144731.9793298     
  -1025513194.0717318       -11116117.062933147        1403830325.3851354     
  -983408686.92007720       -16067337.569850564        1404643890.5696008     
  -941300087.90186727       -21004918.521588743        1408585427.5327249     
  -1388140000.1397381       -596308.22208750248        1350409910.2036891     
  -1337524906.2967093       -6312050.9622422457        1345115250.5263786     
  -1286905387.7473655       -12013044.681345046        1343415652.4252908     
  -1236281444.4917026       -17699289.379378855        1345311115.9004211     
  -1185653076.5297263       -23370785.056379557        1350801640.9517722     
  -1666829479.5156982       -97682.664024591446        1287966025.8024013     
  -1606361072.9694614       -6150305.8434783220        1282819473.1337016     
  -1545887908.8771398       -12187070.535988748        1281735071.8387845     
  -1485409987.2387345       -18207976.741552234        1284712821.9176438     
  -1424927308.0542457       -24213024.460167050        1291752723.3702860     
  -1945778370.9032958        323119.29055023193        1224255457.1483326     
  -1874122109.3751056       -5666021.6445895433        1219257399.8013022     
  -1802460757.4610586       -11638194.626877666        1218788583.6256130     
  -1730794315.1611645       -17593399.656336904        1222849008.6212673     
  -1659122782.4754126       -23531636.732942879        1231438674.7882559     
  -2224986674.3025217        666097.64163362980        1159278204.2414722     
  -2140808015.5136313       -4859198.3655585051        1154429030.5291770     
  -2056623933.4991219       -10366416.954013348        1154576187.7857835     
  -1972434428.2589941       -15855558.123740673        1159719676.0112901     
  -1888239499.7932434       -21326621.874731183        1169859495.2056999     
  -941300087.90186727       -21004918.521588743        1408585427.5327249     
  -879439182.62674534       -20284426.013117909        1400162510.4518566     
  -817758820.92157710       -20165745.404498249        1398185151.9794276     
  -756259002.78636694       -20648876.695734113        1402653352.1154289     
  -694939728.22111785       -21733819.886845320        1413567110.8598752     
  -1185653076.5297263       -23370785.056379557        1350801640.9517722     
  -1107850386.4359236       -21513269.457742572        1343363367.6750634     
  -1030463078.4312404       -21040360.822839081        1341480057.2450166     
  -953491152.51566625       -21952059.151637316        1345151709.6616347     
  -876934608.68921316       -24248364.444170356        1354378324.9249241     
  -1424927308.0542457       -24213024.460167050        1291752723.3702860     
  -1333727392.4611108       -21981853.567181647        1285025115.6253819     
  -1243177697.4762509       -21918084.701774657        1282961874.9653690     
  -1153278223.0996683       -24021717.863954842        1285563001.3902526     
  -1064028969.3313526       -28292753.053701937        1292828494.9000237     
  -1659122782.4754126       -23531636.732942879        1231438674.7882559     
  -1557070200.7022972       -21690178.341414571        1225147754.3028121     
  -1455902678.0566144       -22798917.041324079        1222630605.1404903     
  -1355620214.5383606       -26857852.832670987        1223887227.3012841     
  -1256222810.1475408       -33866985.715454996        1228917620.7852020     
  -1888239499.7932434       -21326621.874731183        1169859495.2056999     
  -1777878811.1594906       -20638243.780449748        1163731283.7073579     
  -1668638020.1723318       -23682857.841484785        1160486247.7703679     
  -1560517126.8317609       -30460464.057814240        1160124387.3947232     
  -1453516131.1377709       -40971062.429413676        1162645702.5804329     
  -3768234906.4031091       -1130470471.9209328        800600588.76535177     
  -3779078386.7356749       -1008593174.6320761        884894714.58119655     
  -3790560362.4733086       -888844195.36011112        974090745.40405369     
  -3802680833.6160107       -771223534.10503781        1068188681.2339227     
  -3815439800.1637788       -655731190.86685598        1167188522.0708044     
  -4339662453.0094967       -1301898735.9028490        858814496.26404929     
  -4335184342.9757624       -1125682222.3518536        942390553.89437997     
  -4331853823.5130424       -953291010.70424294        1020310726.1235904     
  -4329670894.6213379       -784725100.96001589        1092575012.9516804     
  -4328635556.3006496       -619984493.11917460        1159183414.3786502     
  -4895082255.3170261       -1468524676.5951078        936457198.69374788     
  -4905447670.3687963       -1247018481.4175153        1018721243.7782917     
  -4917469771.1575317       -1031034572.0298011        1084771613.0535831     
  -4931148557.6832285       -820572948.43196392        1134608306.5196216     
  -4946484029.9458904       -615633610.62400436        1168231324.1764069     
  -5434494313.3256979       -1630348293.9977093        1033528696.0544477     
  -5489868368.9147816       -1372601951.8290622        1113886784.2329323     
  -5547408205.4067783       -1122074879.3367863        1167473406.1940320     
  -5607113822.8016844       -878767076.52088070        1194288561.9377458     
  -5668985221.0995007       -642678543.38134575        1194332251.4640749     
  -5957898627.0355101       -1787369588.1106529        1150028988.3461487     
  -6088446438.6137142       -1502432633.5864935        1227887175.2583015     
  -6221669126.2607784       -1226411932.6251979        1268416105.5449364     
  -6357566689.9767008       -959307485.22676587        1271615779.2060537     
  -6496139129.7614832       -701119291.39119720        1237486196.2416532     
  -3815439800.1637788       -655731190.86685598        1167188522.0708044     
  -3797978035.4226127       -537902547.75919878        1188871444.8799589     
  -3784315084.8481627       -432736618.54059589        1205718853.1253309     
  -3774450948.4404287       -340233403.21104717        1217730746.8069193     
  -3768385626.1994109       -260392901.77055180        1224907125.9247251     
  -4328635556.3006496       -619984493.11917460        1159183414.3786502     
  -4298156035.9094496       -464234368.71535575        1141302843.2196312     
  -4278280840.1504273       -343831993.08545911        1129520333.7483833     
  -4269009969.0235834       -258777366.22948647        1123835885.9649050     
  -4270343422.5289135       -209070488.14743567        1124249499.8691988     
  -4946484029.9458904       -615633610.62400436        1168231324.1764069     
  -4871747964.6145048       -412590368.13697600        1102847496.8395100     
  -4814421734.3807583       -267579909.30874062        1054495307.4419377     
  -4774505339.2446470       -180602234.13929725        1023174755.9836893     
  -4751998779.2061729       -151657342.62864542        1008885842.4647657     
  -5668985221.0995007       -642678543.38134575        1194332251.4640749     
  -5518753821.5377769       -382970546.02406144        1073505405.7395954     
  -5392737767.5391474       -203980367.21043921        980643774.20599461     
  -5290937059.1036205       -105708006.94048095        915747356.86327112     
  -5213351696.2311888       -88153465.214183569        878816153.71142745     
  -6496139129.7614832       -701119291.39119720        1237486196.2416532     
  -6239173606.6792650       -375374902.37661386        1053276569.9198878     
  -6013228939.6256046       -153033366.79056096        907965734.04055488     
  -5818305128.6005020       -34094684.633038521        801553688.60365212     
  -5654402173.6039629       -18558855.904046774        734040433.60918260     
  -3768385626.1994109       -260392901.77055180        1224907125.9247251     
  -3661556514.4835515       -167819937.54736614        1192534990.6115634     
  -3562464857.2118106       -101038488.13790381        1170496261.8542144     
  -3471110654.3841834       -60048553.542158842        1158790939.6526799     
  -3387493906.0006728       -44850133.760133266        1157419024.0069580     
  -4270343422.5289135       -209070488.14743567        1124249499.8691988     
  -4147870824.5799541       -144985121.76234221        1090870782.9951148     
  -4029802689.1196365       -95581297.006068707        1065766171.5533168     
  -3916139016.1479654       -60859013.878608227        1048935665.5438052     
  -3806879805.6649380       -40818272.379964590        1040379264.9665809     
  -4751998779.2061729       -151657342.62864542        1008885842.4647657     
  -4619766412.5199022       -117824689.33038473        978389034.64447618     
  -4488605516.3668041       -87563604.476036549        954107031.13294530     
  -4358516090.7468805       -60874088.065600872        936039831.93017519     
  -4229498135.6601286       -37756140.099075317        924187437.03616369     
  -5213351696.2311888       -88153465.214183569        878816153.71142745     
  -5077243278.3033981       -86338640.251492023        855089745.55964863     
  -4938873338.9533081       -76985410.547803879        835518840.59310174     
  -4798241878.1809244       -60093776.103131056        820103438.81178796     
  -4655348895.9862394       -35663736.917459965        808843540.21570599     
  -5654402173.6039629       -18558855.904046774        734040433.60918260     
  -5520301421.9304419       -50526974.525660753        720972915.74063098     
  -5380606156.8791561       -63846715.221377850        710001599.93378496     
  -5235316378.4500990       -58518077.991199970        701126486.18864477     
  -5084432086.6432753       -34541062.835125923        694347574.50520730     
  -3387493906.0006728       -44850133.760133266        1157419024.0069580     
  -3294966584.9098749       -38297679.760048389        1150587606.9063530     
  -3202164977.0194373       -30830936.427832603        1148056098.8406065     
  -3109089082.3293648       -22449903.763499260        1149824499.8097210     
  -3015738900.8396521       -13154581.767034888        1155892809.8136933     
  -3806879805.6649380       -40818272.379964590        1040379264.9665809     
  -3701306353.0258417       -29494695.391301870        1032385611.5161221     
  -3596346967.8915939       -20218010.085461617        1029026506.4552070     
  -3492001650.2621965       -12988216.462457657        1030301949.7838368     
  -3388270400.1376462       -7805314.5222806931        1036211941.5020093     
  -4229498135.6601286       -37756140.099075317        924187437.03616369     
  -4109922439.0307765       -21374606.389241457        913995133.88061595     
  -3991849164.2107587       -10001145.377191305        908772018.46929801     
  -3875278311.2000771       -3635757.0629248619        908518090.80220890     
  -3760209879.9987364       -2278441.4464461803        913233350.87934828     
  -4655348895.9862394       -35663736.917459965        808843540.21570599     
  -4520814842.9246769       -13937412.753874302        795416173.99983704     
  -4388671565.9769354       -180342.30302357674        787292634.88288116     
  -4258919065.1430173        5607474.4350838661        784472922.86483908     
  -4131557340.4229174        3426037.4604563713        786957037.94571102     
  -5084432086.6432753       -34541062.835125923        694347574.50520730     
  -4933983564.7075434       -7183114.4851956367        676648731.87378311     
  -4786814173.1901197        9244399.1370394230        664588355.69595563     
  -4642923912.0910044        14741478.031584263        658166445.97172737     
  -4502312781.4101982        9308122.1984305382        657383002.70109642     
  -3015738900.8396521       -13154581.767034888        1155892809.8136933     
  -2921780849.8791471       -4888033.7203360796        1148616806.7666943     
  -2828895636.1299262       -197609.71125531197        1146352091.2982726     
  -2737083259.5919881        916690.26022136211        1149098663.4084299     
  -2646343720.2653389       -1545133.8059345484        1156856523.0971606     
  -3388270400.1376462       -7805314.5222806931        1036211941.5020093     
  -3282847556.7688389       -3893013.0431740284        1028092314.3035033     
  -3177983005.3024483       -1841684.5721296072        1024785296.7407106     
  -3073676745.7384739       -1651329.1091357470        1026290888.8136343     
  -2969928778.0769186       -3321946.6542004347        1032609090.5222743     
  -3760209879.9987364       -2278441.4464461803        913233350.87934828     
  -3643889895.4869461       -2890681.9145405293        904870402.38968110     
  -3527613657.5687079       -3648744.3611264229        901121385.59286666     
  -3411381166.2440186       -4552628.7862136364        901986300.48890412     
  -3295192421.5128746       -5602335.1897876263        907465147.07779682     
  -4131557340.4229174        3426037.4604563713        786957037.94571102     
  -4004907866.0334730       -1881040.3344311714        778951071.02522862     
  -3877787592.9287076       -5618789.0782489777        775360357.85473764     
  -3750196521.1086235       -7787208.7710032463        776184898.43423378     
  -3622134650.5732212       -8386299.4126877785        781424692.76372468     
  -4502312781.4101982        9308122.1984305382        657383002.70109642     
  -4365901468.4084148       -864088.30284357071        650334320.21014607     
  -4228504811.3824434       -7751818.7234845161        647502213.52632356     
  -4090122810.3322873       -11355069.063517094        648886682.64962780     
  -3950755465.2579379       -11673839.322902203        654487727.58006346     
  -2646343720.2653389       -1545133.8059345484        1156856523.0971606     
  -2541069202.3307734       -1208137.7978394032        1151280352.7878313     
  -2435751522.0254483       -727267.22054541111        1149825242.8754404     
  -2330390679.3493624       -102522.07404720783        1152491193.3599861     
  -2224986674.3025217        666097.64163362980        1159278204.2414722     
  -2969928778.0769186       -3321946.6542004347        1032609090.5222743     
  -2853296292.5703039       -1790143.6152951717        1026650814.9785925     
  -2736542615.0093212        145632.93817973137        1025032652.4709001     
  -2619667745.3939667        2485383.0062162876        1027754602.9991963     
  -2502671683.7242494        5229106.5888084173        1034816666.5634795     
  -3295192421.5128746       -5602335.1897876263        907465147.07779682     
  -3166576103.7512126       -2687965.7151584625        901215800.93064094     
  -3037760564.2515707        890476.21939218044        899525620.45852256     
  -2908745803.0139551        5132990.6138648987        902394605.66144466     
  -2779531820.0383606        10039577.468258262        909822756.53940213     
  -3622134650.5732212       -8386299.4126877785        781424692.76372468     
  -3480908635.8735065       -3901604.0974485874        774975310.64397144     
  -3339405369.7522101        1507262.6230857372        773304146.83830810     
  -3197624852.2093258        7840300.7489041090        776411201.34672880     
  -3055567083.2448630        15097510.279995918        784296474.16924167     
  -3950755465.2579379       -11673839.322902203        654487727.58006346     
  -3796293888.9371786       -5431058.7621371746        647929344.11859262     
  -3641477031.5112271        1995992.1492671967        646368231.61025393     
  -3486304892.9800801        10607313.411320210        649804390.05505800     
  -3330777473.3437409        20402905.024020910        658237819.45299602     
  -2224986674.3025217        666097.64163362980        1159278204.2414722     
  -2140808015.5136313       -4859198.3655585051        1154429030.5291770     
  -2056623933.4991219       -10366416.954013348        1154576187.7857835     
  -1972434428.2589941       -15855558.123740673        1159719676.0112901     
  -1888239499.7932434       -21326621.874731183        1169859495.2056999     
  -2502671683.7242494        5229106.5888084173        1034816666.5634795     
  -2406610555.3042355        1121744.0785959959        1029379444.6778517     
  -2311046842.7525725       -4643671.3261195421        1027759037.6556507     
  -2215980546.0692768       -12067139.625384927        1029955445.4968822     
  -2121411665.2543273       -21148660.819153070        1035968668.2015393     
  -2779531820.0383606        10039577.468258262        909822756.53940213     
  -2674958268.0028558        6339134.6503522396        903210840.87080371     
  -2571384970.9296808       -695491.37533295155        899236223.96015429     
  -2468811928.8188467       -11064300.608805418        897898905.80746675     
  -2367239141.6703405       -24767293.050054073        899198886.41273630     
  -3055567083.2448630        15097510.279995918        784296474.16924167     
  -2945851153.6094990        10792973.349683523        775923219.10802770     
  -2837638318.0304399        1478122.8983583450        769007746.69929314     
  -2730928576.5077004       -12847041.074019432        763550056.94305253     
  -2625721929.0412617       -32182518.567427278        759550149.83929217     
  -3330777473.3437409        20402905.024020910        658237819.45299602     
  -3219289212.1241503        14483260.176643848        647516579.38952708     
  -3109806884.0548525        1877171.4949553013        637073605.87307107     
  -3002330489.1358414       -17415361.021015048        626908898.90363014     
  -2896860027.3671193       -43394337.371281505        617022458.48120213     
  -1888239499.7932434       -21326621.874731183        1169859495.2056999     
  -1777878811.1594906       -20638243.780449748        1163731283.7073579     
  -1668638020.1723318       -23682857.841484785        1160486247.7703679     
  -1560517126.8317609       -30460464.057814240        1160124387.3947232     
  -1453516131.1377709       -40971062.429413676        1162645702.5804329     
  -2121411665.2543273       -21148660.819153070        1035968668.2015393     
  -2001520129.9726481       -23177486.757019877        1025934772.0806322     
  -1881489926.7901506       -24744086.358836532        1020976167.9811203     
  -1761321055.7068510       -25848459.624642730        1021092855.9030092     
  -1641013516.7227309       -26490606.554388344        1026284835.8463002     
  -2367239141.6703405       -24767293.050054073        899198886.41273630     
  -2231553569.8548670       -27634366.054295182        886727632.14122689     
  -2094470764.5911870       -25843994.231171012        881523786.35116220     
  -1955990725.8793011       -19396177.580684543        883587349.04254913     
  -1816113453.7191978       -8290916.1028214693        892918320.21538174     
  -2625721929.0412617       -32182518.567427278        759550149.83929217     
  -2467979130.8061509       -34008881.672286630        746109863.88914466     
  -2307580533.5754361       -26982581.458467126        742129102.88049555     
  -2144526137.3491054       -11103617.925933361        747607866.81334400     
  -1978815942.1271667        13628008.925297976        762546155.68768489     
  -2896860027.3671193       -43394337.371281505        617022458.48120213     
  -2710796812.8265114       -42301033.611014485        604081467.32438505     
  -2520819233.7428951       -28159848.040712953        602792117.56911492     
  -2326927290.1162748       -970780.66039490700        613154409.21539319     
  -2129120981.9466343        39266168.529967904        635168342.26321566     
  -5957898627.0355101       -1787369588.1106529        1150028988.3461487     
  -6088446438.6137142       -1502432633.5864935        1227887175.2583015     
  -6221669126.2607784       -1226411932.6251979        1268416105.5449364     
  -6357566689.9767008       -959307485.22676587        1271615779.2060537     
  -6496139129.7614832       -701119291.39119720        1237486196.2416532     
  -6810618384.6809206       -2043185515.4042761        1353681496.9368255     
  -6828551040.6649342       -1395588139.4413416        1202707902.0022075     
  -6897818429.7553148       -919106540.49963379        1091999739.9719987     
  -7018420551.9520636       -613740718.57915378        1021557010.8461998     
  -7190357407.2551804       -479490673.67990065        991379714.62480950     
  -8337976774.4963846       -2501393032.3489151        1712209643.1944542     
  -8021595161.9435568       -1424625501.0644112        1275634433.2026372     
  -7805208139.5346050       -681173270.25949764        956919345.64515769     
  -7688815707.2695322       -271036339.93417454        756064380.52201486     
  -7672417865.1483345       -194214710.08844042        673069537.83320916     
  -10539973796.481903       -3161992138.9445710        2225613427.1190333     
  -9667578802.4495831       -1589544718.4557009        1446666768.8595912     
  -8943838255.5986519       -512612121.90478611        863174922.56441331     
  -8368752155.9291039        68805650.708175659        475137888.23349947     
  -7942320503.4409447        154708599.38318205        282555665.86685055     
  -13416609450.637474       -4024982835.1912422        2893892848.7105637     
  -11766501962.183016       -1890345791.6152134        1715804908.9730692     
  -10313708777.947453       -413423095.43550205        810766470.72976589     
  -9058229897.9307823        405785253.34789181        178777533.98065430     
  -8000065322.1330090        567279254.73496866       -180161901.27426627     
  -6496139129.7614832       -701119291.39119720        1237486196.2416532     
  -6239173606.6792650       -375374902.37661386        1053276569.9198878     
  -6013228939.6256046       -153033366.79056096        907965734.04055488     
  -5818305128.6005020       -34094684.633038521        801553688.60365212     
  -5654402173.6039629       -18558855.904046774        734040433.60918260     
  -7190357407.2551804       -479490673.67990065        991379714.62480950     
  -6900552029.7945662       -304106251.41560316        846899200.94160450     
  -6623623980.1929064       -171646255.34782195        723479777.12633669     
  -6359573258.4502020       -82110685.476560831        621121443.17900765     
  -6108399864.5664520       -35499541.801817656        539824199.09961712     
  -7672417865.1483345       -194214710.08844042        673069537.83320916     
  -7400737492.0935907       -184479712.20970726        589485586.31976628     
  -7123790918.7281971       -157190713.29547882        509125024.09977055     
  -6841578145.0521564       -112347713.34576035        431987851.17321897     
  -6554099171.0654697       -49950712.360548019        358074067.54011071     
  -7942320503.4409447        154708599.38318205        282555665.86685055     
  -7739729993.5763397       -16495284.758930206        281035726.05437660     
  -7513729755.2314796       -109666740.63353777        264901474.96085384     
  -7264319788.4063721       -124805768.24063921        234152912.58628428     
  -6991500093.1010132       -61912367.580239773        188790038.93066594     
  -8000065322.1330090        567279254.73496866       -180161901.27426627     
  -7917529534.2428122        199847030.93672848       -78450379.854568228     
  -7793440489.7027559       -29074337.361989021       -9190870.2904105969     
  -7627798188.5128441       -119484850.16119432        27616627.418205395     
  -7420602630.6730795       -71384507.460880280        31972113.271278452     
  -5654402173.6039629       -18558855.904046774        734040433.60918260     
  -5520301421.9304419       -50526974.525660753        720972915.74063098     
  -5380606156.8791561       -63846715.221377850        710001599.93378496     
  -5235316378.4500990       -58518077.991199970        701126486.18864477     
  -5084432086.6432753       -34541062.835125923        694347574.50520730     
  -6108399864.5664520       -35499541.801817656        539824199.09961712     
  -5959298248.6636925       -37352766.416227102        533772293.35001069     
  -5809083811.4260540       -35496586.581040382        530213720.94414544     
  -5657756552.8535366       -29931002.296265841        529148481.88202339     
  -5505316472.9461403       -20656013.561898232        530576576.16364181     
  -6554099171.0654697       -49950712.360548019        358074067.54011071     
  -6388862030.1276455       -21348644.726001501        353809133.19274282     
  -6226993759.8978357       -3976146.1181681156        352434663.47115248     
  -6068494360.3760395        2166783.4629490376        353950658.37533933     
  -5913363831.5622568       -2919855.9826493263        358357117.90530628     
  -6991500093.1010132       -61912367.580239773        188790038.93066594     
  -6808992766.3223057       -2514609.4549908638        181083435.26882473     
  -6634336002.2945070        30714606.167233944        176664427.51480210     
  -6467529801.0176134        37775279.286437273        175533015.66859534     
  -6308574162.4916277        18667409.902623892        177689199.73020241     
  -7420602630.6730795       -71384507.460880280        31972113.271278452     
  -7219690457.2476749        19149339.396810532        15595199.578263510     
  -7031110538.6160631        68575670.275177956        2903013.0751024727     
  -6854862874.7782526        76894485.174214840       -6104446.2382133864     
  -6690947465.7342396        44105784.093923569       -11427178.361671338     
  -5084432086.6432753       -34541062.835125923        694347574.50520730     
  -4933983564.7075434       -7183114.4851956367        676648731.87378311     
  -4786814173.1901197        9244399.1370394230        664588355.69595563     
  -4642923912.0910044        14741478.031584263        658166445.97172737     
  -4502312781.4101982        9308122.1984305382        657383002.70109642     
  -5505316472.9461403       -20656013.561898232        530576576.16364181     
  -5345413856.2950106       -9086174.6500706673        514649722.87494558     
  -5186587079.1187420       -1102467.3211343288        504000193.55329257     
  -5028836141.4173508        3295108.4248878956        498627988.19867820     
  -4872161043.1908283        4106552.5880165100        498533106.81110936     
  -5913363831.5622568       -2919855.9826493263        358357117.90530628     
  -5745038955.8716011       -7447677.2116830349        346772760.06001717     
  -5575586628.7123728       -8217326.8788211346        340104583.69521451     
  -5405006850.0845795       -5228804.9840714931        338352588.81089574     
  -5233299619.9882145        1517888.4725785255        341516775.40706068     
  -6308574162.4916277        18667409.902623892        177689199.73020241     
  -6132858863.4373198       -2267622.1700339317        173017843.42900002     
  -5953812821.9710054       -12100179.536004782        172901526.12172446     
  -5771436038.0926867       -10830262.195290804        177340247.80837294     
  -5585728511.8023634        1542129.8521020412        186334008.48895058     
  -6690947465.7342396        44105784.093923569       -11427178.361671338     
  -6508873578.9921618        6453990.4748816490       -6615027.0181152951     
  -6321265658.8946390       -12751025.292681456        2391020.8328147316     
  -6128123705.4416800       -13509263.208785295        15590965.191113058     
  -5929447718.6332664        4179276.7266123295        32984806.056785852     
  -4502312781.4101982        9308122.1984305382        657383002.70109642     
  -4365901468.4084148       -864088.30284357071        650334320.21014607     
  -4228504811.3824434       -7751818.7234845161        647502213.52632356     
  -4090122810.3322873       -11355069.063517094        648886682.64962780     
  -3950755465.2579379       -11673839.322902203        654487727.58006346     
  -4872161043.1908283        4106552.5880165100        498533106.81110936     
  -4724055140.3208332        784530.27595639229        494625066.66105843     
  -4575903754.8121595       -2385883.2405078411        493915476.40499574     
  -4427706886.6648111       -5404687.9613869190        496404336.04291576     
  -4279464535.8787866       -8271883.8866739273        502091645.57482547     
  -5233299619.9882145        1517888.4725785255        341516775.40706068     
  -5076408058.4304180        4173374.9956066608        339652872.64815068     
  -4920410875.6194544        3847599.0291991234        339969293.87008154     
  -4765308071.5553188        540560.57335162163        342466039.07285714     
  -4611099646.2380209       -5747740.3719532490        347143108.25647277     
  -5585728511.8023634        1542129.8521020412        186334008.48895058     
  -5422960222.7371664        9302445.8561177254        185417738.17141834     
  -5262026173.8043184        10948628.085638046        185663665.92158180     
  -5102926365.0038118        6480676.5406861305        187071791.73945200     
  -4945660796.3356524       -4101408.7787590027        189642115.62501317     
  -5929447718.6332664        4179276.7266123295        32984806.056785852     
  -5763711633.2410870        16171742.857461929        31919663.230863728     
  -5600749649.3667603        18917203.928802967        30998592.559499040     
  -5440561767.0102901        12415659.940618515        30221594.042691067     
  -5283147986.1716766       -3332889.1070826054        29588667.680440046     
  -3950755465.2579379       -11673839.322902203        654487727.58006346     
  -3796293888.9371786       -5431058.7621371746        647929344.11859262     
  -3641477031.5112271        1995992.1492671967        646368231.61025393     
  -3486304892.9800801        10607313.411320210        649804390.05505800     
  -3330777473.3437409        20402905.024020910        658237819.45299602     
  -4279464535.8787866       -8271883.8866739273        502091645.57482547     
  -4112743176.9409103       -4729681.6266477108        495052459.11894810     
  -3945496512.2418761        563539.83724641800        493069814.10019124     
  -3777724541.7816782        7607780.5050127506        496143710.51856005     
  -3609427265.5603247        16403040.376632214        504274148.37404877     
  -4611099646.2380209       -5747740.3719532490        347143108.25647277     
  -4431949160.4430752       -4855313.1406807899        339821480.90482086     
  -4252103344.2310057       -1645117.8523292542        337615665.47427487     
  -4071562197.6017985        3882845.4931378365        340525661.96483344     
  -3890325720.5554757        11728576.895676613        348551470.37650222     
  -4945660796.3356524       -4101408.7787590027        189642115.62501317     
  -4753911839.4436722       -5807953.3042461872        182236409.47620988     
  -4561297527.4786015       -4629980.9194226265        180005785.73249814     
  -4367817860.4404373       -567491.62428855896        182950244.39388162     
  -4173472838.3291779        6379514.5811607838        191069785.46035451     
  -5283147986.1716766       -3332889.1070826054        29588667.680440046     
  -5078631213.9427118       -7587602.1173536777        22297244.833109524     
  -4873079061.9846849       -8391049.3640837669        20240174.874875695     
  -4666491530.2975912       -5743230.8472688198        23417457.805703323     
  -4458868618.8814487        355853.43306112289        31829093.625610996     
  -3330777473.3437409        20402905.024020910        658237819.45299602     
  -3219289212.1241503        14483260.176643848        647516579.38952708     
  -3109806884.0548525        1877171.4949553013        637073605.87307107     
  -3002330489.1358414       -17415361.021015048        626908898.90363014     
  -2896860027.3671193       -43394337.371281505        617022458.48120213     
  -3609427265.5603247        16403040.376632214        504274148.37404877     
  -3493404657.3021731        8840924.5785953999        492684943.39133626     
  -3378352393.4518051       -1955672.5787243843        484684462.87988490     
  -3264270474.0092192       -15986751.095315337        480272706.83970004     
  -3151158898.9744081       -33252310.971166849        479449675.27077663     
  -3890325720.5554757        11728576.895676613        348551470.37650222     
  -3760310314.0466132        5361525.5106210709        337302487.34080243     
  -3630229663.2030253       -788044.75867700577        332952686.70061326     
  -3500083768.0247183       -6720133.9122452736        335502068.45594257     
  -3369872628.5116820       -12434741.950054646        344950632.60678732     
  -4173472838.3291779        6379514.5811607838        191069785.46035451     
  -4020006182.3574605        4045062.9727466106        181369211.23792222     
  -3865438693.3085170        5380054.9550819397        181878277.33525565     
  -3709770371.1823483        10384490.528185606        192596983.75236067     
  -3553001215.9789324        19058369.692085028        213525330.48922214     
  -4458868618.8814487        355853.43306112289        31829093.625610996     
  -4272492262.2347364        4891536.9649035931        24885115.082703754     
  -4083979483.7682843        16548626.562556505        31461234.783813693     
  -3893330283.4821024        35327122.225966930        51557452.728942893     
  -3700544661.3761764        61227023.955199718        85173768.918081269     
  -2896860027.3671193       -43394337.371281505        617022458.48120213     
  -2710796812.8265114       -42301033.611014485        604081467.32438505     
  -2520819233.7428951       -28159848.040712953        602792117.56911492     
  -2326927290.1162748       -970780.66039490700        613154409.21539319     
  -2129120981.9466343        39266168.529967904        635168342.26321566     
  -3151158898.9744081       -33252310.971166849        479449675.27077663     
  -2943812767.8361521       -22361766.686237216        477172595.13385403     
  -2735571630.3144612       -8487867.7898662090        477354446.24173576     
  -2526435486.4093370        8369385.7179580927        479995228.59441781     
  -2316404336.1207666        28209993.837256908        485094942.19189847     
  -3369872628.5116820       -12434741.950054646        344950632.60678732     
  -3167508466.9379058        373577.01089310646        349814878.97025532     
  -2967268657.1402636        6100723.3847225904        347945346.42178392     
  -2769153199.1187639        4746697.1714165211        339342034.96136731     
  -2573162092.8733926       -3688501.6289952993        324004944.58900481     
  -3553001215.9789324        19058369.692085028        213525330.48922214     
  -3381883910.1317725        25904997.480389118        222008318.83358169     
  -3215910314.2203131        15605925.483034134        214564818.10925770     
  -3055080428.2445707       -11838846.300046206        191194828.31624773     
  -2899394252.2045321       -56429317.868811607        151898349.45453387     
  -3700544661.3761764        61227023.955199718        85173768.918081269     
  -3586939097.4177432        54232494.722287655        93752914.723843619     
  -3481496601.5546036        20027738.505061865        77212861.304153219     
  -3384217173.7867332       -41387244.696413755        35553608.659036659     
  -3295100814.1141548       -130012454.88215959       -31224843.211508945     
 </DataArray>
 <DataArray  type="Float64" Name="VM" NumberOfComponents="1" format="ascii">
   12935537124.001116     
   11340775001.136292     
   10210367711.892458     
   9272959122.5266171     
   8304125296.2387857     
   10130251379.280725     
   9322028626.1538868     
   8826409624.7257710     
   8443567512.6297274     
   8035710803.8564768     
   7982308711.9070559     
   7734953610.3293409     
   7669136579.4004631     
   7669569691.4455481     
   7666334629.2197065     
   6491620274.0065269     
   6586839122.0342207     
   6757382347.0321836     
   6961188865.3428030     
   7171606713.0965214     
   5657736234.6126432     
   5890850870.7420883     
   6116335662.5376368     
   6331752034.2485380     
   6536890671.1007490     
   8304125296.2387857     
   8020471988.5132217     
   7778960360.2075958     
   7568914291.4514313     
   7385376750.2983093     
   8035710803.8564768     
   7746803641.2005491     
   7473598447.2662487     
   7214136969.6238852     
   6968426752.6950102     
   7666334629.2197065     
   7381201937.0854836     
   7101474288.2102327     
   6827226257.4799862     
   6558656890.3621149     
   7171606713.0965214     
   6911100685.4175386     
   6658468725.9061394     
   6409844055.0649109     
   6162077102.5364256     
   6536890671.1007490     
   6328849739.2356596     
   6142908280.1300354     
   5965142804.5025558     
   5786546051.2121944     
   7385376750.2983093     
   7229334612.4958115     
   7065649753.5411520     
   6893639876.6449337     
   6713138203.9314594     
   6968426752.6950102     
   6814957116.3036137     
   6656782974.4838333     
   6493621253.2792273     
   6325420267.0372648     
   6558656890.3621149     
   6407586360.8746290     
   6254865166.1962967     
   6100460706.8602486     
   5944398511.0521612     
   6162077102.5364256     
   6012218654.9379158     
   5863777951.7511969     
   5716796053.2701788     
   5571333123.8848877     
   5786546051.2121944     
   5635313874.7827387     
   5488512713.5287428     
   5346058019.6826935     
   5208010820.9691095     
   6713138203.9314594     
   6512113051.3615646     
   6314901156.7100191     
   6121439813.8464127     
   5931813587.4228020     
   6325420267.0372648     
   6139044021.8228140     
   5955306552.0948124     
   5774204164.2335711     
   5595814538.0270634     
   5944398511.0521612     
   5772650598.2738609     
   5602537883.9507875     
   5434087970.2285414     
   5267378083.3649349     
   5571333123.8848877     
   5414753504.1742887     
   5258993942.3039818     
   5104083066.9120016     
   4950109456.5573854     
   5208010820.9691095     
   5067777083.0922804     
   4927774309.7418346     
   4788000889.8823900     
   4648577450.5843315     
   5931813587.4228020     
   5772079270.3389311     
   5610489077.7196779     
   5447031726.4336395     
   5281730968.2922554     
   5595814538.0270634     
   5437110451.7644787     
   5277316005.7544737     
   5116439914.9886351     
   4954511649.8255873     
   5267378083.3649349     
   5112456760.2869406     
   4957431498.9657316     
   4802352147.6611061     
   4647288943.7210264     
   4950109456.5573854     
   4801496181.7399521     
   4654013401.6429472     
   4507764285.4094334     
   4362885960.7835407     
   4648577450.5843315     
   4508450732.5215282     
   4370962335.7711544     
   4236266239.7434726     
   4104576354.9071364     
   5281730968.2922554     
   5074988611.4910927     
   4869015164.3430157     
   4663798940.6952705     
   4459387340.2478495     
   4954511649.8255873     
   4761484147.7870493     
   4569632815.1680279     
   4379014368.5494461     
   4189757026.7078238     
   4647288943.7210264     
   4468457709.4837141     
   4291310210.8193860     
   4115983019.1975698     
   3942697570.8043475     
   4362885960.7835407     
   4198863847.8245106     
   4037142552.2126288     
   3877947449.4726329     
   3721601412.5352888     
   4104576354.9071364     
   3956096076.4329138     
   3810643379.5970826     
   3668535385.5569744     
   3530195953.3192844     
   4459387340.2478495     
   4275157412.8928638     
   4092641683.1670780     
   3912132839.8160415     
   3734449969.6322036     
   4189757026.7078238     
   4034279565.1003199     
   3880938110.8616862     
   3729920763.2023106     
   3581713899.3121161     
   3942697570.8043475     
   3808075931.4190402     
   3675361167.0037050     
   3544685516.3765774     
   3416323382.9088845     
   3721601412.5352888     
   3600424216.8164530     
   3480146382.1065841     
   3360880513.5351005     
   3242798291.6462135     
   3530195953.3192844     
   3415917409.9211979     
   3300655744.5718398     
   3184501417.1322131     
   3067592522.9387970     
   3734449969.6322036     
   3618006461.7203345     
   3494113870.4905539     
   3364278174.0841260     
   3232508863.4977894     
   3581713899.3121161     
   3416618314.5629601     
   3245092342.6938677     
   3067108509.5939908     
   2883622744.0985389     
   3416323382.9088845     
   3225120897.0751448     
   3030844951.6840258     
   2833167080.8549781     
   2631847966.1548553     
   3242798291.6462135     
   3046930585.3346229     
   2853735636.2263169     
   2663696240.6825495     
   2477462893.9590073     
   3067592522.9387970     
   2886222897.2136135     
   2715586853.6826386     
   2557383030.2534118     
   2414252953.2164254     
   5657736234.6126432     
   5890850870.7420883     
   6116335662.5376368     
   6331752034.2485380     
   6536890671.1007490     
   5151328970.6963663     
   5311263323.4122210     
   5467829999.2299700     
   5618147869.2261496     
   5760762324.6533890     
   4643350318.4777431     
   4755488087.6211615     
   4868741958.0441570     
   4980482604.7753677     
   5088789684.7990723     
   4134065369.4679499     
   4224363108.8129826     
   4320567777.7528267     
   4421018274.7147455     
   4524256645.3176031     
   3624991505.1820464     
   3719711943.8146496     
   3825667605.7954473     
   3942782201.1462765     
   4070951794.9441285     
   6536890671.1007490     
   6328849739.2356596     
   6142908280.1300354     
   5965142804.5025558     
   5786546051.2121944     
   5760762324.6533890     
   5652170519.5071793     
   5559514602.8369751     
   5473725823.6030941     
   5389265758.1311779     
   5088789684.7990723     
   5054002429.4205627     
   5029701200.6953487     
   5010677779.2354412     
   4993732948.5254469     
   4524256645.3176031     
   4538945212.4106331     
   4558327117.2140818     
   4579924669.1613388     
   4602016018.9471102     
   4070951794.9441285     
   4112332693.5801435     
   4151140058.4987006     
   4186484079.9338322     
   4217637516.4589877     
   5786546051.2121944     
   5635313874.7827387     
   5488512713.5287428     
   5346058019.6826935     
   5208010820.9691095     
   5389265758.1311779     
   5247954534.7631741     
   5110034306.4821835     
   4975550306.9191475     
   4844605424.6408310     
   4993732948.5254469     
   4866573447.6755342     
   4742696391.1575594     
   4622073037.5859184     
   4504748353.0575485     
   4602016018.9471102     
   4493825841.3524199     
   4389856981.0961742     
   4289791874.9055552     
   4193539883.5335131     
   4217637516.4589877     
   4133654141.0186634     
   4056057575.4744906     
   3983989098.5415440     
   3917148620.0510936     
   5208010820.9691095     
   5067777083.0922804     
   4927774309.7418346     
   4788000889.8823900     
   4648577450.5843315     
   4844605424.6408310     
   4719429339.8728333     
   4595556087.1334372     
   4473085971.8609505     
   4352222051.5097609     
   4504748353.0575485     
   4394340980.6371193     
   4286331349.6297913     
   4180899542.7865663     
   4078308664.2003541     
   4193539883.5335131     
   4097417465.5577130     
   4004759161.1668167     
   3915795660.5900507     
   3830821878.3876996     
   3917148620.0510936     
   3834532231.7383370     
   3756352451.9521513     
   3682856133.1607022     
   3614339210.9940615     
   4648577450.5843315     
   4508450732.5215282     
   4370962335.7711544     
   4236266239.7434726     
   4104576354.9071364     
   4352222051.5097609     
   4225168807.6075845     
   4101101162.7669144     
   3980228635.5232286     
   3862826307.2778559     
   4078308664.2003541     
   3965322171.3566861     
   3855808516.2489901     
   3750033238.0208764     
   3648334233.9621096     
   3830821878.3876996     
   3732994037.2919116     
   3639269328.2407842     
   3549962645.0333338     
   3465467738.5719604     
   3614339210.9940615     
   3532776127.8593192     
   3456075939.4865656     
   3384585335.7888689     
   3318734635.7436738     
   4104576354.9071364     
   3956096076.4329138     
   3810643379.5970826     
   3668535385.5569744     
   3530195953.3192844     
   3862826307.2778559     
   3728930035.1005850     
   3598702787.9306140     
   3472517755.1719151     
   3350852498.1427097     
   3648334233.9621096     
   3529202396.3074951     
   3414400989.2390842     
   3304346702.4010305     
   3199552405.9792247     
   3465467738.5719604     
   3361284103.1939359     
   3262076004.1325536     
   3168282614.5642605     
   3080424684.5220070     
   3318734635.7436738     
   3229598048.8096452     
   3146014755.7437248     
   3068418105.9655304     
   2997303133.0752378     
   3530195953.3192844     
   3415917409.9211979     
   3300655744.5718398     
   3184501417.1322131     
   3067592522.9387970     
   3350852498.1427097     
   3242856844.7686858     
   3135363856.7275848     
   3028543813.7456350     
   2922618394.9852266     
   3199552405.9792247     
   3101575132.0229869     
   3006012328.3647327     
   2913160893.6092038     
   2823381013.6042633     
   3080424684.5220070     
   2995553594.7393527     
   2915320433.8706584     
   2840140750.4956775     
   2770498675.8207979     
   2997303133.0752378     
   2927592716.6291337     
   2864895835.7862730     
   2809683981.9323535     
   2762489301.6111546     
   3067592522.9387970     
   2886222897.2136135     
   2715586853.6826386     
   2557383030.2534118     
   2414252953.2164254     
   2922618394.9852266     
   2770953677.3677902     
   2629763971.6421766     
   2500411275.9221325     
   2384805216.4695711     
   2823381013.6042633     
   2697737052.6464181     
   2581588460.3849683     
   2475988149.5815878     
   2382265594.0770907     
   2770498675.8207979     
   2667931104.5712423     
   2573176650.2045197     
   2487023267.2002954     
   2410381247.2254615     
   2762489301.6111546     
   2680932354.6201038     
   2604914736.5867200     
   2535009573.2262573     
   2471855808.1657987     
   3624991505.1820464     
   3719711943.8146496     
   3825667605.7954473     
   3942782201.1462765     
   4070951794.9441285     
   3138045513.1852026     
   3255554927.3877368     
   3382475140.7974181     
   3518329544.8025980     
   3662653865.3057537     
   2694841099.5218968     
   2830557938.6903672     
   2973591494.6110187     
   3122856543.9820805     
   3277439457.3556204     
   2298873680.3384533     
   2449515692.6110463     
   2604896002.8021374     
   2763093567.3933239     
   2922679406.0501266     
   1955365675.2114727     
   2119388076.1746233     
   2284793781.5205603     
   2448629225.6565166     
   2608940842.0310693     
   4070951794.9441285     
   4112332693.5801435     
   4151140058.4987006     
   4186484079.9338322     
   4217637516.4589877     
   3662653865.3057537     
   3702095186.8154354     
   3740202354.6130748     
   3776083112.7780809     
   3808992567.9291105     
   3277439457.3556204     
   3320746056.8955588     
   3364306290.1942844     
   3407300312.7159967     
   3449052246.5718741     
   2922679406.0501266     
   2975668024.1754012     
   3030850193.2625532     
   3087542531.4862604     
   3145211101.6184735     
   2608940842.0310693     
   2676909161.2545643     
   2749310173.2677188     
   2825630548.4794788     
   2905513833.7373466     
   4217637516.4589877     
   4133654141.0186634     
   4056057575.4744906     
   3983989098.5415440     
   3917148620.0510936     
   3808992567.9291105     
   3756274010.4150524     
   3709465829.3563061     
   3668089301.7377863     
   3632046088.7978153     
   3449052246.5718741     
   3423052440.0358944     
   3402113911.9198456     
   3386005498.0423112     
   3374710807.1758013     
   3145211101.6184735     
   3141638801.0335302     
   3141692332.2441368     
   3145272112.5545840     
   3152365091.0086203     
   2905513833.7373466     
   2920391848.8845234     
   2936687945.4919176     
   2954350732.9631629     
   2973343893.5682459     
   3917148620.0510936     
   3834532231.7383370     
   3756352451.9521513     
   3682856133.1607022     
   3614339210.9940615     
   3632046088.7978153     
   3561728434.1090159     
   3496269160.9095044     
   3435912914.4167957     
   3380952318.4377899     
   3374710807.1758013     
   3317109572.1962719     
   3264902360.1759892     
   3218315829.3088918     
   3177625221.7508826     
   3152365091.0086203     
   3107724030.7537866     
   3069113518.3694644     
   3036719317.3789039     
   3010778862.3221331     
   2973343893.5682459     
   2941536336.0421114     
   2916469757.7831740     
   2898261083.8492475     
   2887086133.2954726     
   3614339210.9940615     
   3532776127.8593192     
   3456075939.4865656     
   3384585335.7888689     
   3318734635.7436738     
   3380952318.4377899     
   3313342634.3576803     
   3251114285.8693714     
   3194587204.8543487     
   3144143951.5351934     
   3177625221.7508826     
   3122848173.4279208     
   3073869792.1241741     
   3030962978.0391140     
   2994442479.2075129     
   3010778862.3221331     
   2967376468.8471560     
   2930050170.7076964     
   2899010589.4403710     
   2874492132.1559963     
   2887086133.2954726     
   2853190327.6111021     
   2825474489.0648899     
   2804080984.4330249     
   2789162816.6519642     
   3318734635.7436738     
   3229598048.8096452     
   3146014755.7437248     
   3068418105.9655304     
   2997303133.0752378     
   3144143951.5351934     
   3067412625.5978956     
   2997183181.6225123     
   2933893177.3425312     
   2878035193.2618418     
   2994442479.2075129     
   2930361845.2246361     
   2873770092.9296389     
   2825075719.0871506     
   2784731076.3842764     
   2874492132.1559963     
   2822733110.0895414     
   2779451351.0058870     
   2744991440.9699283     
   2719729040.1458173     
   2789162816.6519642     
   2748644598.8902702     
   2717564315.7555361     
   2696175390.6111226     
   2684751501.2415600     
   2997303133.0752378     
   2927592716.6291337     
   2864895835.7862730     
   2809683981.9323535     
   2762489301.6111546     
   2878035193.2618418     
   2821615280.0653973     
   2772067759.8425860     
   2729759514.3516498     
   2695092552.9136066     
   2784731076.3842764     
   2739969255.0412045     
   2701779503.6685743     
   2670428643.9251728     
   2646200592.8378105     
   2719729040.1458173     
   2684879013.1439128     
   2656145137.0384974     
   2633706469.1408043     
   2617748073.9770050     
   2684751501.2415600     
   2658006495.8299036     
   2636782113.9454074     
   2621187409.0723581     
   2611331816.5397778     
   2762489301.6111546     
   2680932354.6201038     
   2604914736.5867200     
   2535009573.2262573     
   2471855808.1657987     
   2695092552.9136066     
   2625666788.7928872     
   2563485201.0633903     
   2509127058.2448659     
   2463212170.1683440     
   2646200592.8378105     
   2589181896.3186994     
   2541003115.9543924     
   2502187240.1005540     
   2473271274.7315788     
   2617748073.9770050     
   2572515758.3806744     
   2537581916.3259015     
   2513363458.5812855     
   2500272077.5073209     
   2611331816.5397778     
   2576305705.5737910     
   2552922013.6157570     
   2541465675.5887837     
   2542208941.9793644     
   1955365675.2114727     
   2119388076.1746233     
   2284793781.5205603     
   2448629225.6565166     
   2608940842.0310693     
   1653858834.4199448     
   1820316786.6921704     
   1988482612.4169962     
   2155664747.0034451     
   2320108714.8414421     
   1393719996.6577990     
   1571119666.2941976     
   1749518145.2997587     
   1926914749.8986402     
   2102061378.9764447     
   1207242497.9242513     
   1399206681.8974781     
   1590726007.5294168     
   1781024820.2489352     
   1969645389.1554849     
   1137050184.0805840     
   1335397832.6730442     
   1534013634.6835945     
   1732897590.1122336     
   1932049698.9589620     
   2608940842.0310693     
   2676909161.2545643     
   2749310173.2677188     
   2825630548.4794788     
   2905513833.7373466     
   2320108714.8414421     
   2407134180.6383572     
   2496559167.8188686     
   2587991969.0997853     
   2681155768.2651248     
   2102061378.9764447     
   2205782416.5147271     
   2309409110.2388210     
   2412704543.2217431     
   2515501502.0492330     
   1969645389.1554849     
   2086787208.0457666     
   2201113700.4723115     
   2312549666.0999064     
   2421042862.1931057     
   1932049698.9589620     
   2058705974.4307437     
   2180018700.4176702     
   2295987876.9197454     
   2406613503.9369655     
   2905513833.7373466     
   2920391848.8845234     
   2936687945.4919176     
   2954350732.9631629     
   2973343893.5682459     
   2681155768.2651248     
   2702985050.7167773     
   2727237528.9282269     
   2753898190.2719197     
   2782961102.1247010     
   2515501502.0492330     
   2544131994.5547547     
   2576211575.3808279     
   2611742894.3303127     
   2650732486.6261396     
   2421042862.1931057     
   2454869462.4274535     
   2493166692.1881952     
   2535938127.2898312     
   2583188150.1912980     
   2406613503.9369655     
   2442497644.8525386     
   2483861838.6137276     
   2530706085.2205310     
   2583030384.6729469     
   2973343893.5682459     
   2941536336.0421114     
   2916469757.7831740     
   2898261083.8492475     
   2887086133.2954726     
   2782961102.1247010     
   2765580444.3629661     
   2755089433.4436650     
   2751570757.0437136     
   2755139196.4486403     
   2650732486.6261396     
   2645297794.1760173     
   2646662282.1605310     
   2654867058.0491571     
   2669966419.0015974     
   2583188150.1912980     
   2586508010.8857532     
   2596295453.8926010     
   2612560751.2151899     
   2635317155.8790240     
   2583030384.6729469     
   2591469422.6606617     
   2605843396.3832474     
   2626152305.8407021     
   2652396151.0330253     
   2887086133.2954726     
   2853190327.6111021     
   2825474489.0648899     
   2804080984.4330249     
   2789162816.6519642     
   2755139196.4486403     
   2730997977.8186297     
   2713691512.4794817     
   2703319779.6423879     
   2699987833.3371153     
   2669966419.0015974     
   2654038649.4536428     
   2645524660.9049859     
   2644477064.1540475     
   2650949989.3738055     
   2635317155.8790240     
   2625278923.0024586     
   2623152821.4642529     
   2628953616.9216571     
   2642696246.2622752     
   2652396151.0330253     
   2645296094.0514069     
   2646539847.7388821     
   2656127412.0954566     
   2674058787.1211190     
   2789162816.6519642     
   2748644598.8902702     
   2717564315.7555361     
   2696175390.6111226     
   2684751501.2415600     
   2699987833.3371153     
   2672471015.3450713     
   2654155647.7689595     
   2645185267.9252238     
   2645710515.3346109     
   2650949989.3738055     
   2633576609.8621407     
   2625007762.2873321     
   2625304807.5825028     
   2634530686.7752199     
   2642696246.2622752     
   2632361282.6595502     
   2630321507.2541227     
   2636591056.0819330     
   2651184200.6157317     
   2674058787.1211190     
   2667657994.1100087     
   2668979762.1370940     
   2678024091.2023664     
   2694790981.3058357     
   2684751501.2415600     
   2658006495.8299036     
   2636782113.9454074     
   2621187409.0723581     
   2611331816.5397778     
   2645710515.3346109     
   2626625183.6052942     
   2613975631.5129952     
   2607838973.2127867     
   2608290856.7063618     
   2634530686.7752199     
   2621821417.8982253     
   2616434820.2419066     
   2618411918.8556452     
   2627792106.8638210     
   2651184200.6157317     
   2642970114.6174965     
   2642957309.9802370     
   2651157598.8894963     
   2667582120.1124129     
   2694790981.3058357     
   2688715892.0323386     
   2691742203.8317366     
   2703869916.7040210     
   2725099030.6491928     
   2611331816.5397778     
   2576305705.5737910     
   2552922013.6157570     
   2541465675.5887837     
   2542208941.9793644     
   2608290856.7063618     
   2586609791.8226066     
   2575984401.6768346     
   2576559893.8107138     
   2588470447.1928663     
   2627792106.8638210     
   2616581764.0498371     
   2615812334.4681716     
   2625540953.7598300     
   2645818999.3892879     
   2667582120.1124129     
   2664033142.7259121     
   2670349135.1583133     
   2686542558.2203035     
   2712624385.9980493     
   2725099030.6491928     
   2726602761.3699746     
   2737475497.5640645     
   2757717239.2314725     
   2787327986.3721862     
   1137050184.0805840     
   1335397832.6730442     
   1534013634.6835945     
   1732897590.1122336     
   1932049698.9589620     
   1207242497.7476916     
   1399206681.7318597     
   1590726007.3710265     
   1781024820.0941899     
   1969645389.0011914     
   1393719996.3908391     
   1571119666.0309105     
   1749518145.0362604     
   1926914749.6295199     
   2102061378.6957684     
   1653858834.1432672     
   1820316786.4069862     
   1988482612.1187665     
   2155664746.6847186     
   2320108714.4931211     
   1955365674.9812455     
   2119388075.9288568     
   2284793781.2522988     
   2448629225.3552403     
   2608940841.6838088     
   1932049698.9589620     
   2058705974.4307437     
   2180018700.4176702     
   2295987876.9197454     
   2406613503.9369655     
   1969645389.0011914     
   2086787207.7612090     
   2201113700.0500488     
   2312549665.5314531     
   2421042861.4697151     
   2102061378.6957684     
   2205782416.0184364     
   2309409109.5129452     
   2412704542.2513018     
   2515501500.8190031     
   2320108714.4931211     
   2407134180.0391955     
   2496559166.9492774     
   2587991967.9399362     
   2681155766.7950859     
   2608940841.6838088     
   2676909160.6672044     
   2749310172.4168010     
   2825630547.3424206     
   2905513832.2915187     
   2406613503.9369655     
   2442497644.8525386     
   2483861838.6137276     
   2530706085.2205310     
   2583030384.6729469     
   2421042861.4697151     
   2454869461.5795746     
   2493166691.1498928     
   2535938125.9959588     
   2583188148.5770788     
   2515501500.8190031     
   2544131993.1111360     
   2576211573.5894814     
   2611742892.0566397     
   2650732483.7348576     
   2681155766.7950859     
   2702985049.0370479     
   2727237526.8371043     
   2753898187.5645261     
   2782961098.5928302     
   2905513832.2915187     
   2920391847.3614845     
   2936687943.6284685     
   2954350730.4891405     
   2973343890.2067623     
   2583030384.6729469     
   2591469422.6606617     
   2605843396.3832474     
   2626152305.8407021     
   2652396151.0330253     
   2583188148.5770788     
   2586508009.2391324     
   2596295452.2906380     
   2612560749.7339334     
   2635317154.5925665     
   2650732483.7348576     
   2645297791.1046901     
   2646662279.0528131     
   2654867055.0483165     
   2669966416.2493815     
   2782961098.5928302     
   2765580440.3591471     
   2755089429.1628470     
   2751570752.6829715     
   2755139192.2069011     
   2973343890.2067623     
   2941536331.7691312     
   2916469752.8267565     
   2898261078.4429159     
   2887086127.6799574     
   2652396151.0330253     
   2645296094.0514069     
   2646539847.7388821     
   2656127412.0954566     
   2674058787.1211190     
   2635317154.5925665     
   2625278921.5443773     
   2623152819.9272413     
   2628953615.3982916     
   2642696244.8453851     
   2669966416.2493815     
   2654038646.3831110     
   2645524657.7092500     
   2644477061.0269775     
   2650949986.5105891     
   2755139192.2069011     
   2730997973.0713921     
   2713691507.5240097     
   2703319774.7798281     
   2699987828.8732448     
   2887086127.6799574     
   2853190321.2068100     
   2825474482.2717700     
   2804080977.6605177     
   2789162810.3202820     
   2674058787.1211190     
   2667657994.1100087     
   2668979762.1370940     
   2678024091.2023664     
   2694790981.3058357     
   2642696244.8453851     
   2632361281.4035783     
   2630321506.0385580     
   2636591054.7875872     
   2651184199.1241517     
   2650949986.5105891     
   2633576607.3736548     
   2625007759.9335213     
   2625304805.1245675     
   2634530683.9744434     
   2699987828.8732448     
   2672471011.5867534     
   2654155644.3596010     
   2645185264.5061817     
   2645710511.5432363     
   2789162810.3202820     
   2748644593.7653232     
   2717564311.3708611     
   2696175386.4903579     
   2684751496.8950491     
   2694790981.3058357     
   2688715892.0323386     
   2691742203.8317366     
   2703869916.7040210     
   2725099030.6491928     
   2651184199.1241517     
   2642970113.3209372     
   2642957308.8787160     
   2651157597.9800091     
   2667582119.3892360     
   2634530683.9744434     
   2621821415.4999323     
   2616434818.2494168     
   2618411917.2663684     
   2627792105.6696806     
   2645710511.5432363     
   2626625180.4196358     
   2613975628.9438372     
   2607838971.2625232     
   2608290855.3693395     
   2684751496.8950491     
   2658006492.2752771     
   2636782111.2051873     
   2621187407.1588435     
   2611331815.4551072     
   2725099030.6491928     
   2726602761.3699746     
   2737475497.5640645     
   2757717239.2314725     
   2787327986.3721862     
   2667582119.3892360     
   2664033136.5497160     
   2670349122.9891167     
   2686542539.5547895     
   2712624360.3589835     
   2627792105.6696806     
   2616581751.9791617     
   2615812310.3976178     
   2625540916.6460204     
   2645818948.2489004     
   2608290855.3693395     
   2586609774.7061539     
   2575984366.9599786     
   2576559839.7910218     
   2588470372.2630644     
   2611331815.4551072     
   2576305684.8653240     
   2552921970.5946727     
   2541465607.6971807     
   2542208846.7739520     
   1955365674.9812455     
   2119388075.9288568     
   2284793781.2522988     
   2448629225.3552403     
   2608940841.6838088     
   2298873680.1804237     
   2449515692.4510508     
   2604896002.6358166     
   2763093567.2129402     
   2922679405.8452682     
   2694841099.4373007     
   2830557938.6152802     
   2973591494.5432849     
   3122856543.9158015     
   3277439457.2817359     
   3138045513.1689653     
   3255554927.3883190     
   3382475140.8148551     
   3518329544.8323441     
   3662653865.3393245     
   3624991505.2264347     
   3719711943.8777962     
   3825667605.8798022     
   3942782201.2485032     
   4070951795.0558901     
   2608940841.6838088     
   2676909160.6672044     
   2749310172.4168010     
   2825630547.3424206     
   2905513832.2915187     
   2922679405.8452682     
   2975668023.8106618     
   3030850192.7217431     
   3087542530.7555299     
   3145211100.6849484     
   3277439457.2817359     
   3320746056.7437911     
   3364306289.9570565     
   3407300312.3898778     
   3449052246.1559372     
   3662653865.3393245     
   3702095186.8494897     
   3740202354.6484847     
   3776083112.8216152     
   3808992567.9916239     
   4070951795.0558901     
   4112332693.7644563     
   4151140058.7635598     
   4186484080.2944880     
   4217637516.9359713     
   2905513832.2915187     
   2920391847.3614845     
   2936687943.6284685     
   2954350730.4891405     
   2973343890.2067623     
   3145211100.6849484     
   3141638800.3573351     
   3141692331.6602025     
   3145272111.8901119     
   3152365090.0833349     
   3449052246.1559372     
   3423052440.1214628     
   3402113912.4250455     
   3386005498.8766670     
   3374710808.2419205     
   3808992567.9916239     
   3756274011.0872636     
   3709465830.6239357     
   3668089303.5770369     
   3632046091.1800756     
   4217637516.9359713     
   4133654142.0524430     
   4056057577.1038227     
   3983989100.7939234     
   3917148622.9518900     
   2973343890.2067623     
   2941536331.7691312     
   2916469752.8267565     
   2898261078.4429159     
   2887086127.6799574     
   3152365090.0833349     
   3107724029.0339389     
   3069113515.9756155     
   3036719314.4382954     
   3010778858.9705791     
   3374710808.2419205     
   3317109572.5805931     
   3264902359.9074264     
   3218315828.4222140     
   3177625220.2880254     
   3632046091.1800756     
   3561728435.9696898     
   3496269162.2020354     
   3435912915.0980816     
   3380952318.4683089     
   3917148622.9518900     
   3834532234.3616009     
   3756352454.1912107     
   3682856134.9089141     
   3614339212.1433320     
   2887086127.6799574     
   2853190321.2068100     
   2825474482.2717700     
   2804080977.6605177     
   2789162810.3202820     
   3010778858.9705791     
   2967376464.4242387     
   2930050165.4764385     
   2899010583.6735029     
   2874492126.1368909     
   3177625220.2880254     
   3122848170.7313485     
   3073869788.3425756     
   3030962973.3282247     
   2994442473.7298284     
   3380952318.4683089     
   3313342633.1680079     
   3251114283.5181317     
   3194587201.4023952     
   3144143947.0429673     
   3614339212.1433320     
   3532776128.0099926     
   3456075938.6313376     
   3384585333.9170427     
   3318734632.8351297     
   2789162810.3202820     
   2748644593.7653232     
   2717564311.3708611     
   2696175386.4903579     
   2684751496.8950491     
   2874492126.1368909     
   2822733105.1738729     
   2779451346.8941655     
   2744991437.3496156     
   2719729036.6882071     
   2994442473.7298284     
   2930361840.7360811     
   2873770089.2750711     
   2825075716.0994473     
   2784731073.8820252     
   3144143947.0429673     
   3067412621.8965535     
   2997183178.6784124     
   2933893175.1151342     
   2878035191.7029009     
   3318734632.8351297     
   3229598046.3559937     
   3146014753.8096881     
   3068418104.6168308     
   2997303132.3798871     
   2684751496.8950491     
   2658006492.2752771     
   2636782111.2051873     
   2621187407.1588435     
   2611331815.4551072     
   2719729036.6882071     
   2684879010.9007678     
   2656145136.0714173     
   2633706469.5015502     
   2617748075.7073526     
   2784731073.8820252     
   2739969254.0378680     
   2701779504.2636786     
   2670428646.2111421     
   2646200596.8996382     
   2878035191.7029009     
   2821615280.1408358     
   2772067761.6874752     
   2729759518.0993829     
   2695092558.6956182     
   2997303132.3798871     
   2927592717.5534196     
   2864895838.4966578     
   2809683986.6016011     
   2762489308.4187326     
   2611331815.4551072     
   2576305684.8653240     
   2552921970.5946727     
   2541465607.6971807     
   2542208846.7739520     
   2617748075.7073526     
   2572515739.2017231     
   2537581874.4952874     
   2513363392.4808645     
   2500271985.6426120     
   2646200596.8996382     
   2589181878.9748669     
   2541003076.2891002     
   2502187177.3194075     
   2473271188.1750455     
   2695092558.6956182     
   2625666773.0365005     
   2563485163.6184731     
   2509126999.0892096     
   2463212089.4309578     
   2762489308.4187326     
   2680932339.6902323     
   2604914700.5021076     
   2535009516.7151456     
   2471855732.1311350     
   3624991505.2264347     
   3719711943.8777962     
   3825667605.8798022     
   3942782201.2485032     
   4070951795.0558901     
   4134065369.5566468     
   4224363108.9198942     
   4320567777.8809166     
   4421018274.8640118     
   4524256645.4854679     
   4643350318.5898571     
   4755488087.7490044     
   4868741958.1915112     
   4980482604.9465857     
   5088789684.9988804     
   5151328970.8136301     
   5311263323.5403881     
   5467829999.3736353     
   5618147869.3937483     
   5760762324.8561869     
   5657736234.7174129     
   5890850870.8512039     
   6116335662.6559801     
   6331752034.3873119     
   6536890671.2754564     
   4070951795.0558901     
   4112332693.7644563     
   4151140058.7635598     
   4186484080.2944880     
   4217637516.9359713     
   4524256645.4854679     
   4538945212.7090607     
   4558327117.6465921     
   4579924669.7354784     
   4602016019.6715183     
   5088789684.9988804     
   5054002429.7846985     
   5029701201.2181273     
   5010677779.9137125     
   4993732949.3574934     
   5760762324.8561869     
   5652170519.8896370     
   5559514603.3826647     
   5473725824.2963018     
   5389265758.9596844     
   6536890671.2754564     
   6328849739.5913925     
   6142908280.6407099     
   5965142805.1391249     
   5786546051.9506550     
   4217637516.9359713     
   4133654142.0524430     
   4056057577.1038227     
   3983989100.7939234     
   3917148622.9518900     
   4602016019.6715183     
   4493825842.4147863     
   4389856982.5395060     
   4289791876.7676597     
   4193539885.8519745     
   4993732949.3574934     
   4866573448.6049175     
   4742696392.2303953     
   4622073038.8466854     
   4504748354.5515995     
   5389265758.9596844     
   5247954535.4248800     
   5110034307.0253658     
   4975550307.3923616     
   4844605425.0941639     
   5786546051.9506550     
   5635313875.0647039     
   5488512713.4041862     
   5346058019.2028027     
   5208010820.1872616     
   3917148622.9518900     
   3834532234.3616009     
   3756352454.1912107     
   3682856134.9089141     
   3614339212.1433320     
   4193539885.8519745     
   4097417467.7679410     
   4004759163.1819072     
   3915795662.3226705     
   3830821879.7482867     
   4504748354.5515995     
   4394340982.2742157     
   4286331351.3495646     
   4180899544.5287929     
   4078308665.9021506     
   4844605425.0941639     
   4719429340.7799082     
   4595556088.4644699     
   4473085973.5881901     
   4352222053.6032333     
   5208010820.1872616     
   5067777083.1167870     
   4927774310.5748043     
   4788000891.5310955     
   4648577453.0553265     
   3614339212.1433320     
   3532776128.0099926     
   3456075938.6313376     
   3384585333.9170427     
   3318734632.8351297     
   3830821879.7482867     
   3732994038.0834041     
   3639269328.4187865     
   3549962644.5477715     
   3465467737.3623319     
   4078308665.9021506     
   3965322172.9409237     
   3855808517.6364541     
   3750033239.1252289     
   3648334234.6854792     
   4352222053.6032333     
   4225168810.0775204     
   4101101165.5024424     
   3980228638.4057875     
   3862826310.1763840     
   4648577453.0553265     
   4508450735.9223423     
   4370962339.9628191     
   4236266244.5795889     
   4104576360.2280869     
   3318734632.8351297     
   3229598046.3559937     
   3146014753.8096881     
   3068418104.6168308     
   2997303132.3798871     
   3465467737.3623319     
   3361284102.1486921     
   3262076003.3461933     
   3168282614.1366615     
   3080424684.5612907     
   3648334234.6854792     
   3529202396.7955909     
   3414400989.6021967     
   3304346702.7582855     
   3199552406.4633064     
   3862826310.1763840     
   3728930037.2546387     
   3598702789.4533939     
   3472517756.1872954     
   3350852498.7918510     
   4104576360.2280869     
   3956096080.3931108     
   3810643382.3017359     
   3668535387.1220040     
   3530195953.8794756     
   2997303132.3798871     
   2927592717.5534196     
   2864895838.4966578     
   2809683986.6016011     
   2762489308.4187326     
   3080424684.5612907     
   2995553596.2034268     
   2915320436.8596630     
   2840140755.1186118     
   2770498682.1962461     
   3199552406.4633064     
   3101575133.7069893     
   3006012331.2800460     
   2913160897.7963910     
   2823381019.1147714     
   3350852498.7918510     
   3242856846.4152222     
   3135363859.3355699     
   3028543817.2876649     
   2922618399.4455910     
   3530195953.8794756     
   3415917411.3435874     
   3300655746.7608900     
   3184501420.0020599     
   3067592526.4185481     
   2762489308.4187326     
   2680932339.6902323     
   2604914700.5021076     
   2535009516.7151456     
   2471855732.1311350     
   2770498682.1962461     
   2667931087.9339004     
   2573176611.1067858     
   2487023206.3805280     
   2410381165.6550484     
   2823381019.1147714     
   2697737034.2397065     
   2581588418.6128950     
   2475988085.2155504     
   2382265508.1918311     
   2922618399.4455910     
   2770953657.2949138     
   2629763927.6075549     
   2500411208.7428365     
   2384805127.3483386     
   3067592526.4185481     
   2886222875.7109652     
   2715586807.8004541     
   2557382960.8629999     
   2414252861.6726203     
   5657736234.7174129     
   5890850870.8512039     
   6116335662.6559801     
   6331752034.3873119     
   6536890671.2754564     
   6491620274.0943527     
   6586839122.1138344     
   6757382347.1068287     
   6961188865.4228077     
   7171606713.1933622     
   7982308711.9865723     
   7734953610.3971720     
   7669136579.4540586     
   7669569691.4934731     
   7666334629.2724495     
   10130251379.360359     
   9322028626.2284584     
   8826409624.7846031     
   8443567512.6777143     
   8035710803.9041319     
   12935537124.089315     
   11340775001.235918     
   10210367711.984190     
   9272959122.6094418     
   8304125296.3229513     
   6536890671.2754564     
   6328849739.5913925     
   6142908280.6407099     
   5965142805.1391249     
   5786546051.9506550     
   7171606713.1933622     
   6911100685.6534367     
   6658468726.2659445     
   6409844055.5293484     
   6162077103.0854378     
   7666334629.2724495     
   7381201937.2085991     
   7101474288.3933411     
   6827226257.7096529     
   6558656890.6205301     
   8035710803.9041319     
   7746803641.2213221     
   7473598447.2477474     
   7214136969.5548983     
   6968426752.5595646     
   8304125296.3229513     
   8020471988.4462967     
   7778960359.9654140     
   7568914291.0204411     
   7385376749.6645184     
   5786546051.9506550     
   5635313875.0647039     
   5488512713.4041862     
   5346058019.2028027     
   5208010820.1872616     
   6162077103.0854378     
   6012218654.8430290     
   5863777951.0307741     
   5716796051.9433069     
   5571333121.9719105     
   6558656890.6205301     
   6407586360.4906282     
   6254865165.1755323     
   6100460705.2077999     
   5944398508.7716513     
   6968426752.5595646     
   6814957115.7188749     
   6656782973.4573774     
   6493621251.8187447     
   6325420265.1479235     
   7385376749.6645184     
   7229334611.7971249     
   7065649752.7977390     
   6893639875.8820372     
   6713138203.1751270     
   5208010820.1872616     
   5067777083.1167870     
   4927774310.5748043     
   4788000891.5310955     
   4648577453.0553265     
   5571333121.9719105     
   5414753503.3029013     
   5258993942.5005989     
   5104083068.2059860     
   4950109458.9778376     
   5944398508.7716513     
   5772650597.2581739     
   5602537884.2466927     
   5434087971.8837118     
   5267378086.4272738     
   6325420265.1479235     
   6139044021.3979607     
   5955306553.1966696     
   5774204166.9234848     
   5595814542.3672495     
   6713138203.1751270     
   6512113052.2376261     
   6314901159.2906370     
   6121439818.2014885     
   5931813593.6240587     
   4648577453.0553265     
   4508450735.9223423     
   4370962339.9628191     
   4236266244.5795889     
   4104576360.2280869     
   4950109458.9778376     
   4801496185.3854132     
   4654013406.4225903     
   4507764291.2302628     
   4362885967.5491695     
   5267378086.4272738     
   5112456764.5026703     
   4957431504.2534227     
   4802352153.9402037     
   4647288950.9142752     
   5595814542.3672495     
   5437110456.8167601     
   5277316011.4155445     
   5116439921.1557045     
   4954511656.4011335     
   5931813593.6240587     
   5772079276.4449568     
   5610489083.5808268     
   5447031731.8967829     
   5281730973.2066755     
   4104576360.2280869     
   3956096080.3931108     
   3810643382.3017359     
   3668535387.1220040     
   3530195953.8794756     
   4362885967.5491695     
   4198863852.9204965     
   4037142555.6800337     
   3877947451.3571544     
   3721601412.8910284     
   4647288950.9142752     
   4468457714.9698172     
   4291310214.6119218     
   4115983021.3119030     
   3942697571.2574134     
   4954511656.4011335     
   4761484152.9049168     
   4569632818.8463030     
   4379014370.8086128     
   4189757027.5675282     
   5281730973.2066755     
   5074988615.4915056     
   4869015167.4784985     
   4663798943.0210905     
   4459387341.8201866     
   3530195953.8794756     
   3415917411.3435874     
   3300655746.7608900     
   3184501420.0020599     
   3067592526.4185481     
   3721601412.8910284     
   3600424217.9275508     
   3480146383.9228258     
   3360880516.0149002     
   3242798294.7593322     
   3942697571.2574134     
   3808075932.4699168     
   3675361168.6334014     
   3544685518.5727482     
   3416323385.6687179     
   4189757027.5675282     
   4034279566.3216400     
   3880938112.4430203     
   3729920765.1475329     
   3581713901.6363716     
   4459387341.8201866     
   4275157414.4913774     
   4092641684.7959900     
   3912132841.4855647     
   3734449971.3701653     
   3067592526.4185481     
   2886222875.7109652     
   2715586807.8004541     
   2557382960.8629999     
   2414252861.6726203     
   3242798294.7593322     
   3046930564.1977615     
   2853735590.4486637     
   2663696169.8180213     
   2477462797.5044217     
   3416323385.6687179     
   3225120879.0795865     
   3030844911.9095316     
   2833167018.2070742     
   2631847879.5378704     
   3581713901.6363716     
   3416618302.5862718     
   3245092315.2128339     
   3067108465.7744203     
   2883622683.9599171     
   3734449971.3701653     
   3618006458.6447802     
   3494113861.6737151     
   3364278159.7789068     
   3232508846.1091361     
 </DataArray>
 <DataArray  type="Float64" Name="strain" NumberOfComponents="3" format="ascii">
  0.20348524333270970        0.0000000000000000       0.12540202344526188     
  0.18665663707647570       -2.7326746617988104E-002   7.4351546055499526E-002
  0.16982803082024170       -4.4678158966615818E-002   3.5133213730713632E-002
  0.15299942456400770       -5.2054237045883148E-002   7.7470264709042606E-003
  0.13617081830777367       -4.9454980855790073E-002  -7.8070157239286675E-003
  0.15985626924510202        0.0000000000000000        9.6443248508743737E-002
  0.15317858978062004       -2.1845482038547949E-002   6.2688893316651298E-002
  0.14650091031613804       -3.6175655913455812E-002   3.7404246643086447E-002
  0.13982323085165604       -4.2990521624723589E-002   2.0589308488049102E-002
  0.13314555138717407       -4.2290079172351280E-002   1.2244078851539324E-002
  0.12645931441188848        0.0000000000000000        7.4195751204525900E-002
  0.12657012519270960       -1.6364217459107790E-002   5.5277492104383083E-002
  0.12668093597353070       -2.7673152860295803E-002   4.1466504976318895E-002
  0.12679174675435179       -3.3926806203564031E-002   3.2762789820333343E-002
  0.12690255753517291       -3.5125177488912480E-002   2.9166346636426425E-002
  0.10329437883306908        0.0000000000000000        5.8659531532608361E-002
  0.10683124331274435       -1.0882952879667633E-002   5.2117342418694840E-002
  0.11036810779241964       -1.9170649807135794E-002   4.7319988730411065E-002
  0.11390497227209492       -2.4863090782404475E-002   4.4267470467756961E-002
  0.11744183675177021       -2.7960275805473684E-002   4.2959787630732632E-002
   9.0361462508643811E-002   0.0000000000000000        4.9834589492991146E-002
   9.3961944140724341E-002  -5.4016883002274748E-003   5.3208444259586637E-002
   9.7562425772804884E-002  -1.0668146753975784E-002   5.4964697905362916E-002
  0.10116290740488541       -1.5799375361244917E-002   5.5103350430319976E-002
  0.10476338903696594       -2.0795374122034894E-002   5.3624401834457859E-002
  0.13617081830777367       -4.9454980855790073E-002  -7.8070157239286675E-003
  0.13295806072685995       -4.2918431519178769E-002  -3.3995164598527375E-003
  0.12974530314594626       -3.8482630158891348E-002  -3.9827104550691980E-004
  0.12653254556503257       -3.6147576774927997E-002   1.1967205191084455E-003
  0.12331978798411883       -3.5913271367288419E-002   1.3854582339937194E-003
  0.13314555138717407       -4.2290079172351280E-002   1.2244078851539324E-002
  0.12891302346933733       -3.8423728553168446E-002   1.2178214793849503E-002
  0.12468049555150061       -3.5740869764004750E-002   1.1479063912043792E-002
  0.12044796763366390       -3.4241502804860123E-002   1.0146626206122425E-002
  0.11621543971582715       -3.3925627675734593E-002   8.1809016760851921E-003
  0.12690255753517291       -3.5125177488912480E-002   2.9166346636426425E-002
  0.12242322630602766       -3.3929025587158171E-002   2.5544375403275567E-002
  0.11794389507688235       -3.2999109369118117E-002   2.2062084371623415E-002
  0.11346456384773711       -3.2335428834792304E-002   1.8719473541469862E-002
  0.10898523261859186       -3.1937983984180782E-002   1.5516542912815103E-002
  0.11744183675177021       -2.7960275805473684E-002   4.2959787630732632E-002
  0.11348866923693084       -2.9434322621147854E-002   3.6698965368425596E-002
  0.10953550172209151       -3.0257348974231459E-002   3.1350790333231696E-002
  0.10558233420725215       -3.0429354864724478E-002   2.6915262525151022E-002
  0.10162916669241281       -2.9950340292626949E-002   2.3392381944183374E-002
  0.10476338903696594       -2.0795374122034894E-002   5.3624401834457859E-002
  0.10210935226204697       -2.4939619655137558E-002   4.5641984689299531E-002
   9.9455315487128021E-002  -2.7515588579344823E-002   3.9345181796868772E-002
   9.6801278712209074E-002  -2.8523280894656659E-002   3.4733993157165681E-002
   9.4147241937290085E-002  -2.7962696601073117E-002   3.1808418770190208E-002
  0.12331978798411883       -3.5913271367288419E-002   1.3854582339937194E-003
  0.12042392099504148       -3.6417607950841355E-002   6.7579197407263703E-004
  0.11752805400596418       -3.6298480540455237E-002   1.2579723426746348E-004
  0.11463218701688685       -3.5555889136130135E-002  -2.6452598542171107E-004
  0.11173632002780953       -3.4189833737865993E-002  -4.9517768499512949E-004
  0.11621543971582715       -3.3925627675734593E-002   8.1809016760851921E-003
  0.11347063973401790       -3.4003053680354514E-002   7.8469488526060616E-003
  0.11072583975220862       -3.3683590122446219E-002   7.6554585235471817E-003
  0.10798103977039936       -3.2967237002009694E-002   7.6064306889084797E-003
  0.10523623978859012       -3.1853994319044898E-002   7.6998653486898827E-003
  0.10898523261859186       -3.1937983984180782E-002   1.5516542912815103E-002
  0.10637429061835488       -3.1588499409867625E-002   1.5331729094367211E-002
  0.10376334861811790       -3.1068699704437087E-002   1.5272168744643887E-002
  0.10115240661788091       -3.0378584867889118E-002   1.5337861863644850E-002
   9.8541464617643945E-002  -2.9518154900223748E-002   1.5528808451370252E-002
  0.10162916669241281       -2.9950340292626949E-002   2.3392381944183374E-002
   9.9134873648052360E-002  -2.9173945139380816E-002   2.3130132699356067E-002
   9.6640580603691947E-002  -2.8453809286428038E-002   2.2975927897557331E-002
   9.4146287559331493E-002  -2.7789932733768667E-002   2.2929767538787296E-002
   9.1651994514971052E-002  -2.7182315481402625E-002   2.2991651623045908E-002
   9.4147241937290085E-002  -2.7962696601073117E-002   3.1808418770190208E-002
   9.1752388823110445E-002  -2.6759390868893951E-002   3.1242159667572461E-002
   8.9357535708930791E-002  -2.5838918868418950E-002   3.0766735982287602E-002
   8.6962682594751151E-002  -2.5201280599648154E-002   3.0382147714335679E-002
   8.4567829480571483E-002  -2.4846476062581502E-002   3.0088394863716617E-002
  0.11173632002780953       -3.4189833737865993E-002  -4.9517768499512949E-004
  0.10851349625277412       -3.2651934405207750E-002  -2.8665113058137792E-004
  0.10529067247773879       -3.1393811197700128E-002   1.0361094163358064E-004
  0.10206784870270343       -3.0415464115343571E-002   6.7560853164927437E-004
   9.8845024927668057E-002  -2.9716893158137414E-002   1.4293416394660086E-003
  0.10523623978859012       -3.1853994319044898E-002   7.6998653486898827E-003
  0.10220297628573297       -3.0626500618705282E-002   7.4974398992900260E-003
   9.9169712782875855E-002  -2.9567394446143980E-002   7.4923994764455187E-003
   9.6136449280018771E-002  -2.8676675801361101E-002   7.6847440801565553E-003
   9.3103185777161646E-002  -2.7954344684356425E-002   8.0744737104235798E-003
   9.8541464617643945E-002  -2.9518154900223748E-002   1.5528808451370252E-002
   9.5713410895719761E-002  -2.8601066832202704E-002   1.5026819595528776E-002
   9.2885357173795619E-002  -2.7740977694587554E-002   1.4737865274997534E-002
   9.0057303451871462E-002  -2.6937887487378631E-002   1.4661945489776437E-002
   8.7229249729947292E-002  -2.6191796210575602E-002   1.4799060239865769E-002
   9.1651994514971052E-002  -2.7182315481402625E-002   2.2991651623045908E-002
   8.9044800082734521E-002  -2.6575633045700181E-002   2.2301487958135004E-002
   8.6437605650498017E-002  -2.5914560943031323E-002   2.1840008337289298E-002
   8.3830411218261472E-002  -2.5199099173396133E-002   2.1607212760508490E-002
   8.1223216786024968E-002  -2.4429247736794640E-002   2.1603101227792680E-002
   8.4567829480571483E-002  -2.4846476062581502E-002   3.0088394863716617E-002
   8.2197143846777246E-002  -2.4550199259197589E-002   2.9321444987109063E-002
   7.9826458212983037E-002  -2.4088144191475050E-002   2.8798828663321077E-002
   7.7455772579188842E-002  -2.3460310859413708E-002   2.8520545892352839E-002
   7.5085086945394591E-002  -2.2666699263013679E-002   2.8486596674204084E-002
   9.8845024927668057E-002  -2.9716893158137414E-002   1.4293416394660086E-003
   9.6142719174463154E-002  -2.9088087147678021E-002   1.3831854865019033E-003
   9.3440413421258223E-002  -2.8319034905559731E-002   1.3432724410607499E-003
   9.0738107668053306E-002  -2.7409736431783675E-002   1.3096025031426595E-003
   8.8035801914848388E-002  -2.6360191726349402E-002   1.2821756727476874E-003
   9.3103185777161646E-002  -2.7954344684356425E-002   8.0744737104235798E-003
   9.0429182529944030E-002  -2.7269841821608493E-002   8.0347686846774236E-003
   8.7755179282726387E-002  -2.6492607939594931E-002   8.0454255633829186E-003
   8.5081176035508757E-002  -2.5622643038315872E-002   8.1064443465401897E-003
   8.2407172788291128E-002  -2.4659947117771641E-002   8.2178250341484183E-003
   8.7229249729947292E-002  -2.6191796210575602E-002   1.4799060239865769E-002
   8.4627667785645386E-002  -2.5451596495539158E-002   1.4718291128945016E-002
   8.2026085841343549E-002  -2.4666180973630034E-002   1.4732002719404350E-002
   7.9424503897041671E-002  -2.3835549644848294E-002   1.4840195011243805E-002
   7.6822921952739820E-002  -2.2959702509193658E-002   1.5042868004462917E-002
   8.1223216786024968E-002  -2.4429247736794640E-002   2.1603101227792680E-002
   7.8738174941567318E-002  -2.3633351169469921E-002   2.1433752819304687E-002
   7.6253133097109696E-002  -2.2839754007665185E-002   2.1403003909125144E-002
   7.3768091252652060E-002  -2.2048456251380494E-002   2.1510854497253921E-002
   7.1283049408194438E-002  -2.1259457900615730E-002   2.1757304583691323E-002
   7.5085086945394591E-002  -2.2666699263013679E-002   2.8486596674204084E-002
   7.2760703997709703E-002  -2.1815105843400684E-002   2.8181153755756111E-002
   7.0436321050024828E-002  -2.1013327041700350E-002   2.8058429132544915E-002
   6.8111938102339870E-002  -2.0261362857912611E-002   2.8118422804570831E-002
   6.5787555154655036E-002  -1.9559213292037803E-002   2.8361134771833496E-002
   8.8035801914848388E-002  -2.6360191726349402E-002   1.2821756727476874E-003
   8.4605915491317629E-002  -2.5266696001553068E-002   9.6621396888063593E-004
   8.1176029067786981E-002  -2.4225544469691829E-002   8.7707423865873713E-004
   7.7746142644256222E-002  -2.3236737130764490E-002   1.0147564820820465E-003
   7.4316256220725574E-002  -2.2300273984772190E-002   1.3792606991502865E-003
   8.2407172788291128E-002  -2.4659947117771641E-002   8.2178250341484183E-003
   7.9202824141244133E-002  -2.3672759939338733E-002   7.8969110759145866E-003
   7.5998475494197137E-002  -2.2729321264394947E-002   7.8002506970030194E-003
   7.2794126847150170E-002  -2.1829631092939526E-002   7.9278438974138971E-003
   6.9589778200103203E-002  -2.0973689424973463E-002   8.2796906771472334E-003
   7.6822921952739820E-002  -2.2959702509193658E-002   1.5042868004462917E-002
   7.3841542687853909E-002  -2.2078823877124121E-002   1.4725597481307667E-002
   7.0860163422968081E-002  -2.1233098059097955E-002   1.4630012143152321E-002
   6.7878784158082170E-002  -2.0422525055114452E-002   1.4756111989996608E-002
   6.4897404893196287E-002  -1.9647104865174514E-002   1.5103897021840840E-002
   7.1283049408194438E-002  -2.1259457900615730E-002   2.1757304583691323E-002
   6.8522071131147069E-002  -2.0484887814909591E-002   2.1452273185060523E-002
   6.5761092854099645E-002  -1.9736874853801017E-002   2.1366358577107031E-002
   6.3000114577052235E-002  -1.9015419017289655E-002   2.1499560759830411E-002
   6.0239136300004908E-002  -1.8320520305375509E-002   2.1851879733231147E-002
   6.5787555154655036E-002  -1.9559213292037803E-002   2.8361134771833496E-002
   6.3244409471123475E-002  -1.8890951752695201E-002   2.8076938187172829E-002
   6.0701263787591983E-002  -1.8240651648503983E-002   2.8009289998866815E-002
   5.8158118104060456E-002  -1.7608312979464528E-002   2.8158190206915207E-002
   5.5614972420528930E-002  -1.6993935745576727E-002   2.8523638811318253E-002
   7.4316256220725574E-002  -2.2300273984772190E-002   1.3792606991502865E-003
   7.1232662026072757E-002  -2.1443986931338754E-002   1.0783549636848022E-003
   6.8149067831419885E-002  -2.0695707870087399E-002   1.3633201449581578E-003
   6.5065473636767013E-002  -2.0055436801019635E-002   2.2341562429709638E-003
   6.1981879442114196E-002  -1.9523173724134590E-002   3.6908632577230538E-003
   6.9589778200103203E-002  -2.0973689424973463E-002   8.2796906771472334E-003
   6.7020328335004375E-002  -2.0167448623492124E-002   7.8593324573797418E-003
   6.4450878469905631E-002  -1.9416861051492151E-002   7.8813919799813892E-003
   6.1881428604806818E-002  -1.8721926708974088E-002   8.3458692449519534E-003
   5.9311978739708004E-002  -1.8082645595936975E-002   9.2527642522912679E-003
   6.4897404893196287E-002  -1.9647104865174514E-002   1.5103897021840840E-002
   6.2698646183281401E-002  -1.8890910315645937E-002   1.4616441080472969E-002
   6.0499887473366404E-002  -1.8138014232897098E-002   1.4427949707104093E-002
   5.8301128763451407E-002  -1.7388416616928311E-002   1.4538422901733974E-002
   5.6102370053536493E-002  -1.6642117467739581E-002   1.4947860664362378E-002
   6.0239136300004908E-002  -1.8320520305375509E-002   2.1851879733231147E-002
   5.8267615570903569E-002  -1.7614372007799639E-002   2.1349680832964679E-002
   5.6296094841802223E-002  -1.6859167414301837E-002   2.1002993326326415E-002
   5.4324574112700821E-002  -1.6054906524882760E-002   2.0811817213316913E-002
   5.2353053383599538E-002  -1.5201589339542076E-002   2.0776152493935662E-002
   5.5614972420528930E-002  -1.6993935745576727E-002   2.8523638811318253E-002
   5.3727236497871034E-002  -1.6337833699953147E-002   2.8059051714854177E-002
   5.1839500575213054E-002  -1.5580320595706590E-002   2.7606522837648556E-002
   4.9951764652555117E-002  -1.4721396432836990E-002   2.7166052179701139E-002
   4.8064028729897179E-002  -1.3761061211344516E-002   2.6737639741011898E-002
   6.1981879442114196E-002  -1.9523173724134590E-002   3.6908632577230538E-003
   6.0053480796503855E-002  -1.8838570452558434E-002   4.0626265915066906E-003
   5.8125082150893459E-002  -1.7741278799418003E-002   3.3458914777818038E-003
   5.6196683505283118E-002  -1.6231298764713353E-002   1.5406579165475054E-003
   5.4268284859672722E-002  -1.4308630348443430E-002  -1.3530740921949835E-003
   5.9311978739708004E-002  -1.8082645595936975E-002   9.2527642522912679E-003
   5.6494257008910365E-002  -1.7341169560367686E-002   9.6203606926870688E-003
   5.3676535278112697E-002  -1.6339650450250376E-002   9.2978094102170172E-003
   5.0858813547315043E-002  -1.5078088265586750E-002   8.2851104048813629E-003
   4.8041091816517278E-002  -1.3556483006375686E-002   6.5822636766799114E-003
   5.6102370053536493E-002  -1.6642117467739581E-002   1.4947860664362378E-002
   5.2793675962194586E-002  -1.5843768668175939E-002   1.5158644904352453E-002
   4.9484981870852568E-002  -1.4938022101082749E-002   1.5077632146119929E-002
   4.6176287779510591E-002  -1.3924877766460481E-002   1.4704822389664834E-002
   4.2867593688168726E-002  -1.2804335664308164E-002   1.4040215634986808E-002
   5.2353053383599538E-002  -1.5201589339542076E-002   2.0776152493935662E-002
   4.8951737656356409E-002  -1.4346367775984470E-002   2.0677479226503093E-002
   4.5550421929113273E-002  -1.3536393751915121E-002   2.0685359685490290E-002
   4.2149106201870179E-002  -1.2771667267333933E-002   2.0799793870898198E-002
   3.8747790474627078E-002  -1.2052188322240531E-002   2.1020781782726455E-002
   4.8064028729897179E-002  -1.3761061211344516E-002   2.6737639741011898E-002
   4.4968442091395944E-002  -1.2848966883793445E-002   2.6176863659138350E-002
   4.1872855452894708E-002  -1.2134765402747619E-002   2.6120992028328543E-002
   3.8777268814393487E-002  -1.1618456768207417E-002   2.6570024848581938E-002
   3.5681682175892182E-002  -1.1300040980172898E-002   2.7523962119898604E-002
   9.0361462508643811E-002   0.0000000000000000        4.9834589492991146E-002
   9.3961944140724341E-002  -5.4016883002274748E-003   5.3208444259586637E-002
   9.7562425772804884E-002  -1.0668146753975784E-002   5.4964697905362916E-002
  0.10116290740488541       -1.5799375361244917E-002   5.5103350430319976E-002
  0.10476338903696594       -2.0795374122034894E-002   5.3624401834457859E-002
   8.2423163750545536E-002   0.0000000000000000        4.4786243493425582E-002
   8.4634796387374978E-002  -4.5726426471051759E-003   4.8268427315647511E-002
   8.6846429024204419E-002  -9.0357930370925689E-003   5.0590514268186448E-002
   8.9058061661033860E-002  -1.3389451169962166E-002   5.1752504351042415E-002
   9.1269694297863302E-002  -1.7633617045713982E-002   5.1754397564215383E-002
   7.4242080870707106E-002   0.0000000000000000        4.0579811941663005E-002
   7.5522368763421679E-002  -3.7435969939828787E-003   4.4144587230149981E-002
   7.6802656656136253E-002  -7.4034393202093499E-003   4.7006769900090214E-002
   7.8082944548850813E-002  -1.0979526978679413E-002   4.9166359951483683E-002
   7.9363232441565387E-002  -1.4471859969393069E-002   5.0623357384330388E-002
   6.5818213869128506E-002   0.0000000000000000        3.7215294837703423E-002
   6.6624661268864446E-002  -2.9145513408605802E-003   4.0836924003094063E-002
   6.7431108668600373E-002  -5.7710856033261326E-003   4.4213464801074201E-002
   6.8237556068336314E-002  -8.5696027873966643E-003   4.7344917231643802E-002
   6.9044003468072254E-002  -1.1310102893072157E-002   5.0231281294802858E-002
   5.7151562745809771E-002   0.0000000000000000        3.4692692181546816E-002
   5.7941673903703285E-002  -2.0855056877382826E-003   3.8345437634479757E-002
   5.8731785061596806E-002  -4.1387318864429153E-003   4.2210598971138401E-002
   5.9521896219490326E-002  -6.1596785961139065E-003   4.6288176191522735E-002
   6.0312007377383840E-002  -8.1483458167512478E-003   5.0578169295632774E-002
  0.10476338903696594       -2.0795374122034894E-002   5.3624401834457859E-002
  0.10210935226204697       -2.4939619655137558E-002   4.5641984689299531E-002
   9.9455315487128021E-002  -2.7515588579344823E-002   3.9345181796868772E-002
   9.6801278712209074E-002  -2.8523280894656659E-002   3.4733993157165681E-002
   9.4147241937290085E-002  -2.7962696601073117E-002   3.1808418770190208E-002
   9.1269694297863302E-002  -1.7633617045713982E-002   5.1754397564215383E-002
   9.0064377623555097E-002  -2.1210926669228813E-002   4.6518567577870769E-002
   8.8859060949246865E-002  -2.3564016045387482E-002   4.2494563540019972E-002
   8.7653744274938633E-002  -2.4692885174189969E-002   3.9682385450663042E-002
   8.6448427600630387E-002  -2.4597534055636278E-002   3.8082033309800020E-002
   7.9363232441565387E-002  -1.4471859969393069E-002   5.0623357384330388E-002
   7.9132847563634201E-002  -1.7482233683320050E-002   4.7790058195260152E-002
   7.8902462685703001E-002  -1.9612443511430110E-002   4.5694796650450072E-002
   7.8672077807771801E-002  -2.0862489453723248E-002   4.4337572749900168E-002
   7.8441692929840615E-002  -2.1232371510199438E-002   4.3718386493610421E-002
   6.9044003468072254E-002  -1.1310102893072157E-002   5.0231281294802858E-002
   6.9314762082284334E-002  -1.3753540697411299E-002   4.9456456541467797E-002
   6.9585520696496428E-002  -1.5660870977472756E-002   4.8945881128159244E-002
   6.9856279310708522E-002  -1.7032093733256527E-002   4.8699555054877039E-002
   7.0127037924920560E-002  -1.7867208964762599E-002   4.8717478321621280E-002
   6.0312007377383840E-002  -8.1483458167512478E-003   5.0578169295632774E-002
   6.0610121179505497E-002  -1.0024847711502541E-002   5.1517762616493691E-002
   6.0908234981627146E-002  -1.1709298443515391E-002   5.2247816973147308E-002
   6.1206348783748803E-002  -1.3201698012789821E-002   5.2768332365593605E-002
   6.1504462585870445E-002  -1.4502046419325759E-002   5.3079308793832630E-002
   9.4147241937290085E-002  -2.7962696601073117E-002   3.1808418770190208E-002
   9.1752388823110445E-002  -2.6759390868893951E-002   3.1242159667572461E-002
   8.9357535708930791E-002  -2.5838918868418950E-002   3.0766735982287602E-002
   8.6962682594751151E-002  -2.5201280599648154E-002   3.0382147714335679E-002
   8.4567829480571483E-002  -2.4846476062581502E-002   3.0088394863716617E-002
   8.6448427600630387E-002  -2.4597534055636278E-002   3.8082033309800020E-002
   8.4189028095017437E-002  -2.3947239049670169E-002   3.7053888962168130E-002
   8.1929628589404502E-002  -2.3411276516235442E-002   3.6205816414336775E-002
   7.9670229083791552E-002  -2.2989646455332049E-002   3.5537815666305678E-002
   7.7410829578178589E-002  -2.2682348866960036E-002   3.5049886718075268E-002
   7.8441692929840615E-002  -2.1232371510199438E-002   4.3718386493610421E-002
   7.6406983415261920E-002  -2.1135087230446437E-002   4.2396858160137177E-002
   7.4372273900683183E-002  -2.0983634164051947E-002   4.1344638008932018E-002
   7.2337564386104461E-002  -2.0778012311015975E-002   4.0561726039994833E-002
   7.0302854871525752E-002  -2.0518221671338516E-002   4.0048122253325727E-002
   7.0127037924920560E-002  -1.7867208964762599E-002   4.8717478321621280E-002
   6.8406254783843698E-002  -1.8322935411222672E-002   4.7271067261479616E-002
   6.6685471642766794E-002  -1.8555991811868417E-002   4.6183200766073462E-002
   6.4964688501689904E-002  -1.8566378166699884E-002   4.5453878835402931E-002
   6.3243905360613029E-002  -1.8354094475717023E-002   4.5083101469468062E-002
   6.1504462585870445E-002  -1.4502046419325759E-002   5.3079308793832630E-002
   6.0186842200762911E-002  -1.5510783591998936E-002   5.1676516266195287E-002
   5.8869221815655390E-002  -1.6128349459684936E-002   5.0721504685761087E-002
   5.7551601430547869E-002  -1.6354744022383794E-002   5.0214274052530074E-002
   5.6233981045440334E-002  -1.6189967280095502E-002   5.0154824366502121E-002
   8.4567829480571483E-002  -2.4846476062581502E-002   3.0088394863716617E-002
   8.2197143846777246E-002  -2.4550199259197589E-002   2.9321444987109063E-002
   7.9826458212983037E-002  -2.4088144191475050E-002   2.8798828663321077E-002
   7.7455772579188842E-002  -2.3460310859413708E-002   2.8520545892352839E-002
   7.5085086945394591E-002  -2.2666699263013679E-002   2.8486596674204084E-002
   7.7410829578178589E-002  -2.2682348866960036E-002   3.5049886718075268E-002
   7.5277226977594994E-002  -2.2371784006289509E-002   3.4468034158332279E-002
   7.3143624377011468E-002  -2.1940352128490600E-002   3.4116014112190902E-002
   7.1010021776427887E-002  -2.1388053233563367E-002   3.3993826579651137E-002
   6.8876419175844333E-002  -2.0714887321507780E-002   3.4101471560712970E-002
   7.0302854871525752E-002  -2.0518221671338516E-002   4.0048122253325727E-002
   6.8391834264934837E-002  -2.0193368753381312E-002   3.9606455763236931E-002
   6.6480813658343879E-002  -1.9792560065506150E-002   3.9380120747531736E-002
   6.4569793051752963E-002  -1.9315795607712953E-002   3.9369117206210294E-002
   6.2658772445161992E-002  -1.8763075380001826E-002   3.9573445139272273E-002
   6.3243905360613029E-002  -1.8354094475717023E-002   4.5083101469468062E-002
   6.1540965708796684E-002  -1.8014953500473132E-002   4.4736709801823135E-002
   5.9838026056980347E-002  -1.7644768002521728E-002   4.4591148569343771E-002
   5.8135086405163995E-002  -1.7243537981862591E-002   4.4646417772030024E-002
   5.6432146753347685E-002  -1.6811263438495885E-002   4.4902517409881840E-002
   5.6233981045440334E-002  -1.6189967280095502E-002   5.0154824366502121E-002
   5.4724621309180571E-002  -1.5836538247565007E-002   4.9858796274090705E-002
   5.3215261572920822E-002  -1.5496975939537250E-002   4.9749097577626855E-002
   5.1705901836661079E-002  -1.5171280356012257E-002   4.9825728277110626E-002
   5.0196542100401281E-002  -1.4859451496989945E-002   5.0088688372541879E-002
   7.5085086945394591E-002  -2.2666699263013679E-002   2.8486596674204084E-002
   7.2760703997709703E-002  -2.1815105843400684E-002   2.8181153755756111E-002
   7.0436321050024828E-002  -2.1013327041700350E-002   2.8058429132544915E-002
   6.8111938102339870E-002  -2.0261362857912611E-002   2.8118422804570831E-002
   6.5787555154655036E-002  -1.9559213292037803E-002   2.8361134771833496E-002
   6.8876419175844333E-002  -2.0714887321507780E-002   3.4101471560712970E-002
   6.6739059211557761E-002  -1.9993188646382026E-002   3.3754546314843897E-002
   6.4601699247271160E-002  -1.9295291462244110E-002   3.3598948740534457E-002
   6.2464339282984567E-002  -1.8621195769094278E-002   3.3634678837784683E-002
   6.0326979318697987E-002  -1.7970901566932429E-002   3.3861736606594611E-002
   6.2658772445161992E-002  -1.8763075380001826E-002   3.9573445139272273E-002
   6.0717044840596424E-002  -1.8171271449363285E-002   3.9211050692906840E-002
   5.8775317236030869E-002  -1.7577255882787975E-002   3.9048593294423929E-002
   5.6833589631465307E-002  -1.6981028680275859E-002   3.9086072943823283E-002
   5.4891862026899725E-002  -1.6382589841827000E-002   3.9323489641105019E-002
   5.6432146753347685E-002  -1.6811263438495885E-002   4.4902517409881840E-002
   5.4694660884825837E-002  -1.6349354252344586E-002   4.4550666889944995E-002
   5.2957175016304037E-002  -1.5859220303331759E-002   4.4407362794213097E-002
   5.1219689147782174E-002  -1.5340861591457346E-002   4.4472605122686477E-002
   4.9482203279260374E-002  -1.4794278116721599E-002   4.4746393875364748E-002
   5.0196542100401281E-002  -1.4859451496989945E-002   5.0088688372541879E-002
   4.8671907344245896E-002  -1.4527437055325887E-002   4.9773394905958196E-002
   4.7147272588090552E-002  -1.4141184723875565E-002   4.9675257239902307E-002
   4.5622637831935160E-002  -1.3700694502639018E-002   4.9794275374374274E-002
   4.4098003075779796E-002  -1.3205966391616142E-002   5.0130449309374048E-002
   6.5787555154655036E-002  -1.9559213292037803E-002   2.8361134771833496E-002
   6.3244409471123475E-002  -1.8890951752695201E-002   2.8076938187172829E-002
   6.0701263787591983E-002  -1.8240651648503983E-002   2.8009289998866815E-002
   5.8158118104060456E-002  -1.7608312979464528E-002   2.8158190206915207E-002
   5.5614972420528930E-002  -1.6993935745576727E-002   2.8523638811318253E-002
   6.0326979318697987E-002  -1.7970901566932429E-002   3.3861736606594611E-002
   5.7995635891955569E-002  -1.7339516410759120E-002   3.3582263408456797E-002
   5.5664292465213192E-002  -1.6722147855575145E-002   3.3509846327542878E-002
   5.3332949038470773E-002  -1.6118795901380437E-002   3.3644485363852610E-002
   5.1001605611728396E-002  -1.5529460548175056E-002   3.3986180517386028E-002
   5.4891862026899725E-002  -1.6382589841827000E-002   3.9323489641105019E-002
   5.2762828577815613E-002  -1.5788081068823193E-002   3.9052684663652651E-002
   5.0633795128731521E-002  -1.5203644062646300E-002   3.8979443524293035E-002
   4.8504761679647394E-002  -1.4629278823296345E-002   3.9103766223026304E-002
   4.6375728230563351E-002  -1.4064985350773329E-002   3.9425652759852506E-002
   4.9482203279260374E-002  -1.4794278116721599E-002   4.4746393875364748E-002
   4.7545987528703669E-002  -1.4236645726887244E-002   4.4488201952760084E-002
   4.5609771778146964E-002  -1.3685140269717514E-002   4.4418081589117385E-002
   4.3673556027590238E-002  -1.3139761745212253E-002   4.4536032784436526E-002
   4.1737340277033561E-002  -1.2600510153371658E-002   4.4842055538717854E-002
   4.4098003075779796E-002  -1.3205966391616142E-002   5.0130449309374048E-002
   4.2345112744619634E-002  -1.2685210384951101E-002   4.9888815275779291E-002
   4.0592222413459514E-002  -1.2166636476788589E-002   4.9825760522015677E-002
   3.8839332082299387E-002  -1.1650244667128128E-002   4.9941285048083039E-002
   3.7086441751139232E-002  -1.1136034955969987E-002   5.0235388853981711E-002
   5.5614972420528930E-002  -1.6993935745576727E-002   2.8523638811318253E-002
   5.3727236497871034E-002  -1.6337833699953147E-002   2.8059051714854177E-002
   5.1839500575213054E-002  -1.5580320595706590E-002   2.7606522837648556E-002
   4.9951764652555117E-002  -1.4721396432836990E-002   2.7166052179701139E-002
   4.8064028729897179E-002  -1.3761061211344516E-002   2.6737639741011898E-002
   5.1001605611728396E-002  -1.5529460548175056E-002   3.3986180517386028E-002
   4.9151484089657319E-002  -1.4909138620023243E-002   3.3623339434638355E-002
   4.7301362567586172E-002  -1.4212826940989479E-002   3.3323668933806297E-002
   4.5451241045515116E-002  -1.3440525511073474E-002   3.3087169014889610E-002
   4.3601119523443976E-002  -1.2592234330275731E-002   3.2913839677888135E-002
   4.6375728230563351E-002  -1.4064985350773329E-002   3.9425652759852506E-002
   4.4614333471736128E-002  -1.3480443540093215E-002   3.9139136383080281E-002
   4.2852938712908968E-002  -1.2845333286272194E-002   3.8966902950880754E-002
   4.1091543954081766E-002  -1.2159654589310011E-002   3.8908952463253516E-002
   3.9330149195254571E-002  -1.1423407449206974E-002   3.8965284920198809E-002
   4.1737340277033561E-002  -1.2600510153371658E-002   4.4842055538717854E-002
   4.0115784644107401E-002  -1.2051748460163415E-002   4.4606442560180065E-002
   3.8494229011181241E-002  -1.1477839631554940E-002   4.4536224888872003E-002
   3.6872673378255109E-002  -1.0878783667546410E-002   4.4631402524793445E-002
   3.5251117745328978E-002  -1.0254580568138091E-002   4.4891975467944559E-002
   3.7086441751139232E-002  -1.1136034955969987E-002   5.0235388853981711E-002
   3.5655837606771212E-002  -1.0623053380233338E-002   5.0025257965937597E-002
   3.4225233462403137E-002  -1.0110345976837756E-002   5.0031634747780024E-002
   3.2794629318035104E-002  -9.5979127457829390E-003   5.0254519199509198E-002
   3.1364025173667043E-002  -9.0857536870694311E-003   5.0693911321124885E-002
   4.8064028729897179E-002  -1.3761061211344516E-002   2.6737639741011898E-002
   4.4968442091395944E-002  -1.2848966883793445E-002   2.6176863659138350E-002
   4.1872855452894708E-002  -1.2134765402747619E-002   2.6120992028328543E-002
   3.8777268814393487E-002  -1.1618456768207417E-002   2.6570024848581938E-002
   3.5681682175892182E-002  -1.1300040980172898E-002   2.7523962119898604E-002
   4.3601119523443976E-002  -1.2592234330275731E-002   3.2913839677888135E-002
   4.0962941480640919E-002  -1.1773080960997495E-002   3.2331427508699800E-002
   3.8324763437837819E-002  -1.1088192965640495E-002   3.2158928079844051E-002
   3.5686585395034727E-002  -1.0537570344204533E-002   3.2396341391321526E-002
   3.3048407352231635E-002  -1.0121213096689674E-002   3.3043667443131364E-002
   3.9330149195254571E-002  -1.1423407449206974E-002   3.8965284920198809E-002
   3.7054388037419062E-002  -1.0697195038201768E-002   3.8424864136279949E-002
   3.4778626879583559E-002  -1.0041620528533253E-002   3.8199364381963689E-002
   3.2502865721748125E-002  -9.4566839202015075E-003   3.8288785657249164E-002
   3.0227104563912588E-002  -8.9423852132066717E-003   3.8693127962137586E-002
   3.5251117745328978E-002  -1.0254580568138091E-002   4.4891975467944559E-002
   3.3242781761730483E-002  -9.6213091154058183E-003   4.4457173541879516E-002
   3.1234445778132051E-002  -8.9950480914260146E-003   4.4242300934686368E-002
   2.9226109794533585E-002  -8.3757974961986073E-003   4.4247357646365108E-002
   2.7217773810935077E-002  -7.7635573297235028E-003   4.4472343676915077E-002
   3.1364025173667043E-002  -9.0857536870694311E-003   5.0693911321124885E-002
   2.9528122653575101E-002  -8.5454231926101465E-003   5.0428355725498253E-002
   2.7692220133483186E-002  -7.9484756543187762E-003   5.0287737738012928E-002
   2.5856317613391175E-002  -7.2949110721955424E-003   5.0272057358668437E-002
   2.4020415093299274E-002  -6.5847294462404449E-003   5.0381314587465642E-002
   5.7151562745809771E-002   0.0000000000000000        3.4692692181546816E-002
   5.7941673903703285E-002  -2.0855056877382826E-003   3.8345437634479757E-002
   5.8731785061596806E-002  -4.1387318864429153E-003   4.2210598971138401E-002
   5.9521896219490326E-002  -6.1596785961139065E-003   4.6288176191522735E-002
   6.0312007377383840E-002  -8.1483458167512478E-003   5.0578169295632774E-002
   4.8653134464206001E-002   0.0000000000000000        3.2789936865200771E-002
   4.9590723253994856E-002  -1.7103429187129487E-003   3.6966635897714331E-002
   5.0528312043783705E-002  -3.4336412739778312E-003   4.1225874310292850E-002
   5.1465900833572553E-002  -5.1698950657946482E-003   4.5567652102936354E-002
   5.2403489623361402E-002  -6.9191042941633999E-003   4.9991969275644810E-002
   4.0733935987772335E-002   0.0000000000000000        3.1284961780672853E-002
   4.1689125905795800E-002  -1.3351801496876174E-003   3.5940379467181427E-002
   4.2644315823819279E-002  -2.7285506615127471E-003   4.0548460030094241E-002
   4.3599505741842737E-002  -4.1801115354753917E-003   4.5109203469411323E-002
   4.4554695659866216E-002  -5.6898627715755486E-003   4.9622609785132644E-002
   3.3393967316508781E-002   0.0000000000000000        3.0177766927963052E-002
   3.4236881859106144E-002  -9.6001738066228432E-004   3.5266668342881072E-002
   3.5079796401703500E-002  -2.0234600490476613E-003   4.0178356130542610E-002
   3.5922710944300856E-002  -3.1903280051561326E-003   4.4912830290947683E-002
   3.6765625486898226E-002  -4.4606212489876991E-003   4.9470090824096292E-002
   2.6633228450415325E-002   0.0000000000000000        2.9468352307071378E-002
   2.7233991113925861E-002  -5.8485461163695213E-004   3.4945502524813245E-002
   2.7834753777436397E-002  -1.3183694365825772E-003   4.0115562611637928E-002
   2.8435516440946929E-002  -2.2005444748368734E-003   4.4978532567545436E-002
   2.9036279104457458E-002  -3.2313797263998469E-003   4.9534412392535733E-002
   6.0312007377383840E-002  -8.1483458167512478E-003   5.0578169295632774E-002
   6.0610121179505497E-002  -1.0024847711502541E-002   5.1517762616493691E-002
   6.0908234981627146E-002  -1.1709298443515391E-002   5.2247816973147308E-002
   6.1206348783748803E-002  -1.3201698012789821E-002   5.2768332365593605E-002
   6.1504462585870445E-002  -1.4502046419325759E-002   5.3079308793832630E-002
   5.2403489623361402E-002  -6.9191042941633999E-003   4.9991969275644810E-002
   5.2530392439224714E-002  -8.5812906291373621E-003   5.1219140558021875E-002
   5.2657295255088020E-002  -1.0056475740769797E-002   5.2313428832089587E-002
   5.2784198070951333E-002  -1.1344659629060746E-002   5.3274834097847876E-002
   5.2911100886814638E-002  -1.2445842294010141E-002   5.4103356355296756E-002
   4.4554695659866216E-002  -5.6898627715755486E-003   4.9622609785132644E-002
   4.4587043445369082E-002  -7.1377335467721695E-003   5.1132309089628944E-002
   4.4619391230871955E-002  -8.4036530380242024E-003   5.2585781341713767E-002
   4.4651739016374814E-002  -9.4876212453316663E-003   5.3983026541387105E-002
   4.4684086801877694E-002  -1.0389638168694537E-002   5.5324044688648953E-002
   3.6765625486898226E-002  -4.4606212489876991E-003   4.9470090824096292E-002
   3.6780074197938571E-002  -5.6941764644069803E-003   5.1257268211314856E-002
   3.6794522908978909E-002  -6.7508303352786150E-003   5.3064874502019889E-002
   3.6808971620019268E-002  -7.6305828616026021E-003   5.4892909696211335E-002
   3.6823420331059606E-002  -8.3334340433789053E-003   5.6741373793889230E-002
   2.9036279104457458E-002  -3.2313797263998469E-003   4.9534412392535733E-002
   2.9109484696933190E-002  -4.2506193820417990E-003   5.1594017923079674E-002
   2.9182690289408925E-002  -5.0980076325330076E-003   5.3750708313007989E-002
   2.9255895881884663E-002  -5.7735444778735361E-003   5.6004483562320628E-002
   2.9329101474360388E-002  -6.2772299180633151E-003   5.8355343671017607E-002
   6.1504462585870445E-002  -1.4502046419325759E-002   5.3079308793832630E-002
   6.0186842200762911E-002  -1.5510783591998936E-002   5.1676516266195287E-002
   5.8869221815655390E-002  -1.6128349459684936E-002   5.0721504685761087E-002
   5.7551601430547869E-002  -1.6354744022383794E-002   5.0214274052530074E-002
   5.6233981045440334E-002  -1.6189967280095502E-002   5.0154824366502121E-002
   5.2911100886814638E-002  -1.2445842294010141E-002   5.4103356355296756E-002
   5.1989909235673162E-002  -1.3299009264766199E-002   5.3365659963557313E-002
   5.1068717584531659E-002  -1.3843146070476981E-002   5.2973040092546823E-002
   5.0147525933390169E-002  -1.4078252711142518E-002   5.2925496742265266E-002
   4.9226334282248679E-002  -1.4004329186762865E-002   5.3223029912712633E-002
   4.4684086801877694E-002  -1.0389638168694537E-002   5.5324044688648953E-002
   4.4056619458228002E-002  -1.1087234937533462E-002   5.5169303292865575E-002
   4.3429152114578311E-002  -1.1557942681269025E-002   5.5256933991336854E-002
   4.2801684770928619E-002  -1.1801761399901300E-002   5.5586936784062832E-002
   4.2174217427278914E-002  -1.1818691093430242E-002   5.6159311671043502E-002
   3.6823420331059606E-002  -8.3334340433789053E-003   5.6741373793889230E-002
   3.6386972868427493E-002  -8.8754606103007040E-003   5.7087446254119961E-002
   3.5950525405795367E-002  -9.2727392920611048E-003   5.7573186382131145E-002
   3.5514077943163247E-002  -9.5252700886600400E-003   5.8198594177922773E-002
   3.5077630480531127E-002  -9.6330530000976120E-003   5.8963669641494826E-002
   2.9329101474360388E-002  -6.2772299180633151E-003   5.8355343671017607E-002
   2.8980969466271600E-002  -6.6636862830679877E-003   5.9120088847320493E-002
   2.8632837458182816E-002  -6.9875359028531148E-003   5.9921797264929647E-002
   2.8284705450094046E-002  -7.2487787774188073E-003   6.0760468923845026E-002
   2.7936573442005251E-002  -7.4474149067649820E-003   6.1636103824066646E-002
   5.6233981045440334E-002  -1.6189967280095502E-002   5.0154824366502121E-002
   5.4724621309180571E-002  -1.5836538247565007E-002   4.9858796274090705E-002
   5.3215261572920822E-002  -1.5496975939537250E-002   4.9749097577626855E-002
   5.1705901836661079E-002  -1.5171280356012257E-002   4.9825728277110626E-002
   5.0196542100401281E-002  -1.4859451496989945E-002   5.0088688372541879E-002
   4.9226334282248679E-002  -1.4004329186762865E-002   5.3223029912712633E-002
   4.7906254468162553E-002  -1.3769421861676338E-002   5.2885017610682074E-002
   4.6586174654076426E-002  -1.3521577100221366E-002   5.2739235757051237E-002
   4.5266094839990299E-002  -1.3260794902397836E-002   5.2785684351820204E-002
   4.3946015025904200E-002  -1.2987075268205944E-002   5.3024363394988755E-002
   4.2174217427278914E-002  -1.1818691093430242E-002   5.6159311671043502E-002
   4.1049318587818621E-002  -1.1702305475787669E-002   5.5806119320265107E-002
   3.9924419748358322E-002  -1.1546178260905426E-002   5.5651058470338521E-002
   3.8799520908898003E-002  -1.1350309448783541E-002   5.5694129121263841E-002
   3.7674622069437690E-002  -1.1114699039421957E-002   5.5935331273041032E-002
   3.5077630480531127E-002  -9.6330530000976120E-003   5.8963669641494826E-002
   3.4153813668148771E-002  -9.6351890898990142E-003   5.8622101402839723E-002
   3.3229996855766435E-002  -9.5707794215895703E-003   5.8484565717488585E-002
   3.2306180043384078E-002  -9.4398239951691831E-003   5.8551062585441536E-002
   3.1382363231001735E-002  -9.2423228106379082E-003   5.8821592006698488E-002
   2.7936573442005251E-002  -7.4474149067649820E-003   6.1636103824066646E-002
   2.7219739709153028E-002  -7.5680727040103452E-003   6.1332963858405934E-002
   2.6502905976300808E-002  -7.5953805822736448E-003   6.1239757498501565E-002
   2.5786072243448595E-002  -7.5293385415548357E-003   6.1356484744353262E-002
   2.5069238510596364E-002  -7.3699465818539700E-003   6.1683145595961220E-002
   5.0196542100401281E-002  -1.4859451496989945E-002   5.0088688372541879E-002
   4.8671907344245896E-002  -1.4527437055325887E-002   4.9773394905958196E-002
   4.7147272588090552E-002  -1.4141184723875565E-002   4.9675257239902307E-002
   4.5622637831935160E-002  -1.3700694502639018E-002   4.9794275374374274E-002
   4.4098003075779796E-002  -1.3205966391616142E-002   5.0130449309374048E-002
   4.3946015025904200E-002  -1.2987075268205944E-002   5.3024363394988755E-002
   4.2632417335803106E-002  -1.2686411603251346E-002   5.2729679569433807E-002
   4.1318819645702012E-002  -1.2344797313139699E-002   5.2639914075459621E-002
   4.0005221955600884E-002  -1.1962232397871031E-002   5.2755066913065959E-002
   3.8691624265499810E-002  -1.1538716857445480E-002   5.3075138082253309E-002
   3.7674622069437690E-002  -1.1114699039421957E-002   5.5935331273041032E-002
   3.6559823976443785E-002  -1.0845386151176695E-002   5.5647969823885438E-002
   3.5445025883449888E-002  -1.0548409902403726E-002   5.5553289237363371E-002
   3.4330227790455997E-002  -1.0223770293103129E-002   5.5651289513475068E-002
   3.3215429697462058E-002  -9.8714673232748462E-003   5.5941970652220466E-002
   3.1382363231001735E-002  -9.2423228106379082E-003   5.8821592006698488E-002
   3.0454127266167981E-002  -9.0043606991020292E-003   5.8528265669312962E-002
   2.9525891301334220E-002  -8.7520224916678348E-003   5.8415382725613953E-002
   2.8597655336500445E-002  -8.4853081883351552E-003   5.8482943175601543E-002
   2.7669419371666705E-002  -8.2042177891041707E-003   5.8730947019275927E-002
   2.5069238510596364E-002  -7.3699465818539700E-003   6.1683145595961220E-002
   2.4315327204975673E-002  -7.1633352470274747E-003   6.1370567105716450E-002
   2.3561415899354975E-002  -6.9556350809318879E-003   6.1226194540211110E-002
   2.2807504593734280E-002  -6.7468460835672095E-003   6.1250027899445419E-002
   2.2053593288113585E-002  -6.5369682549335506E-003   6.1442067183419158E-002
   4.4098003075779796E-002  -1.3205966391616142E-002   5.0130449309374048E-002
   4.2345112744619634E-002  -1.2685210384951101E-002   4.9888815275779291E-002
   4.0592222413459514E-002  -1.2166636476788589E-002   4.9825760522015677E-002
   3.8839332082299387E-002  -1.1650244667128128E-002   4.9941285048083039E-002
   3.7086441751139232E-002  -1.1136034955969987E-002   5.0235388853981711E-002
   3.8691624265499810E-002  -1.1538716857445480E-002   5.3075138082253309E-002
   3.7126531986162670E-002  -1.1092946234655718E-002   5.2773595783427288E-002
   3.5561439706825536E-002  -1.0643616072294533E-002   5.2669070308416097E-002
   3.3996347427488402E-002  -1.0190726370361976E-002   5.2761561657219951E-002
   3.2431255148151261E-002  -9.7342771288579932E-003   5.3051069829838593E-002
   3.3215429697462058E-002  -9.8714673232748462E-003   5.5941970652220466E-002
   3.1856573013931737E-002  -9.5006820843601819E-003   5.5586261726236867E-002
   3.0497716330401398E-002  -9.1205956678004768E-003   5.5446007168052064E-002
   2.9138859646871074E-002  -8.7312080735956581E-003   5.5521206977665834E-002
   2.7780002963340739E-002  -8.3325193017459165E-003   5.5811861155078232E-002
   2.7669419371666705E-002  -8.2042177891041707E-003   5.8730947019275927E-002
   2.6535235827926901E-002  -7.9084179340647223E-003   5.8326813104208258E-002
   2.5401052284187108E-002  -7.5975752633063928E-003   5.8156571100923246E-002
   2.4266868740447305E-002  -7.2716897768294788E-003   5.8220221009420502E-002
   2.3132685196707487E-002  -6.9307614746338536E-003   5.8517762829700337E-002
   2.2053593288113585E-002  -6.5369682549335506E-003   6.1442067183419158E-002
   2.1162520428148118E-002  -6.3161537837692627E-003   6.0995249917341343E-002
   2.0271447568182652E-002  -6.0745548588123088E-003   6.0800762107029782E-002
   1.9380374708217178E-002  -5.8121714800632857E-003   6.0858603752484419E-002
   1.8489301848251705E-002  -5.5290036475218463E-003   6.1168774853705199E-002
   3.7086441751139232E-002  -1.1136034955969987E-002   5.0235388853981711E-002
   3.5655837606771212E-002  -1.0623053380233338E-002   5.0025257965937597E-002
   3.4225233462403137E-002  -1.0110345976837756E-002   5.0031634747780024E-002
   3.2794629318035104E-002  -9.5979127457829390E-003   5.0254519199509198E-002
   3.1364025173667043E-002  -9.0857536870694311E-003   5.0693911321124885E-002
   3.2431255148151261E-002  -9.7342771288579932E-003   5.3051069829838593E-002
   3.1207038395242512E-002  -9.2761767897891201E-003   5.2834487323153129E-002
   2.9982821642333776E-002  -8.8183337951622254E-003   5.2814171929499470E-002
   2.8758604889425034E-002  -8.3607481449771565E-003   5.2990123648877743E-002
   2.7534388136516305E-002  -7.9034198392341493E-003   5.3362342481287961E-002
   2.7780002963340739E-002  -8.3325193017459165E-003   5.5811861155078232E-002
   2.6741933045036546E-002  -7.9293001993449297E-003   5.5588843857650339E-002
   2.5703863126732375E-002  -7.5263216134867986E-003   5.5541853116399607E-002
   2.4665793208428179E-002  -7.1235835441714832E-003   5.5670888931326185E-002
   2.3627723290124011E-002  -6.7210859913989784E-003   5.5975951302429910E-002
   2.3132685196707487E-002  -6.9307614746338536E-003   5.8517762829700337E-002
   2.2260521556153195E-002  -6.5824236089007254E-003   5.8288327569429241E-002
   2.1388357915598857E-002  -6.2343094318114585E-003   5.8214678308480559E-002
   2.0516194275044551E-002  -5.8864189433657553E-003   5.8296815046854432E-002
   1.9644030634490228E-002  -5.5387521435638076E-003   5.8534737784550664E-002
   1.8489301848251705E-002  -5.5290036475218463E-003   6.1168774853705199E-002
   1.7762803928592502E-002  -5.2355470184565489E-003   6.0932938458489794E-002
   1.7036306008933313E-002  -4.9422972501358409E-003   6.0832647505742299E-002
   1.6309808089274125E-002  -4.6492543425599442E-003   6.0867901995462576E-002
   1.5583310169614908E-002  -4.3564182957286368E-003   6.1038701927650485E-002
   3.1364025173667043E-002  -9.0857536870694311E-003   5.0693911321124885E-002
   2.9528122653575101E-002  -8.5454231926101465E-003   5.0428355725498253E-002
   2.7692220133483186E-002  -7.9484756543187762E-003   5.0287737738012928E-002
   2.5856317613391175E-002  -7.2949110721955424E-003   5.0272057358668437E-002
   2.4020415093299274E-002  -6.5847294462404449E-003   5.0381314587465642E-002
   2.7534388136516305E-002  -7.9034198392341493E-003   5.3362342481287961E-002
   2.5842719478513493E-002  -7.4238478847477585E-003   5.3089736173247748E-002
   2.4151050820510715E-002  -6.8995312883329274E-003   5.2980659981244876E-002
   2.2459382162507886E-002  -6.3304700499895866E-003   5.3035113905278958E-002
   2.0767713504505125E-002  -5.7166641697180554E-003   5.3253097945350047E-002
   2.3627723290124011E-002  -6.7210859913989784E-003   5.5975951302429910E-002
   2.2118881002106211E-002  -6.3022725768853427E-003   5.5684421880072887E-002
   2.0610038714088390E-002  -5.8505869223469120E-003   5.5595015081648741E-002
   1.9101196426070565E-002  -5.3660290277836864E-003   5.5707730907157652E-002
   1.7592354138052768E-002  -4.8485988931955548E-003   5.6022569356599328E-002
   1.9644030634490228E-002  -5.5387521435638076E-003   5.8534737784550664E-002
   1.8356607224353255E-002  -5.1806972690230518E-003   5.8212412845973116E-002
   1.7069183814216286E-002  -4.8016425563609799E-003   5.8130803039224410E-002
   1.5781760404079293E-002  -4.4015880055776474E-003   5.8289908364304213E-002
   1.4494336993942342E-002  -3.9805336166731098E-003   5.8689728821213011E-002
   1.5583310169614908E-002  -4.3564182957286368E-003   6.1038701927650485E-002
   1.4555898145254612E-002  -4.0591219611607610E-003   6.0673709070948934E-002
   1.3528486120894335E-002  -3.7526981903749368E-003   6.0588023853971940E-002
   1.2501074096534056E-002  -3.4371469833717749E-003   6.0781646276719836E-002
   1.1473662072173763E-002  -3.1124683401506648E-003   6.1254576339191624E-002
   2.6633228450415325E-002   0.0000000000000000        2.9468352307071378E-002
   2.7233991113925861E-002  -5.8485461163695213E-004   3.4945502524813245E-002
   2.7834753777436397E-002  -1.3183694365825772E-003   4.0115562611637928E-002
   2.8435516440946929E-002  -2.2005444748368734E-003   4.4978532567545436E-002
   2.9036279104457458E-002  -3.2313797263998469E-003   4.9534412392535733E-002
   2.0115308699755113E-002   0.0000000000000000        2.9021643365016100E-002
   2.0448206098640408E-002  -4.3864095906025712E-004   3.4314349188159642E-002
   2.0781103497525710E-002  -9.8877707798515190E-004   3.9378414612969891E-002
   2.1114000896411009E-002  -1.6504083567746826E-003   4.4213839639446868E-002
   2.1446898295296311E-002  -2.4235347954288562E-003   4.8820624267590575E-002
   1.3503797374791260E-002   0.0000000000000000        2.8702565548815506E-002
   1.3647279241635236E-002  -2.9242730648356124E-004   3.3847992030804741E-002
   1.3790761108479212E-002  -6.5918471938772576E-004   3.8843227847044602E-002
   1.3934242975323190E-002  -1.1002722387124953E-003   4.3688272997535096E-002
   1.4077724842167166E-002  -1.6156898644578721E-003   4.8383127482276231E-002
   6.7986944755237758E-003   0.0000000000000000        2.8511118858469586E-002
   6.8312105429103390E-003  -1.4621365390686493E-004   3.3546431052748550E-002
   6.8637266102969012E-003  -3.2959236079030093E-004   3.8510002313862063E-002
   6.8962426776834635E-003  -5.5013612065030800E-004   4.3401832641810113E-002
   6.9287587450700258E-003  -8.0784493348688463E-004   4.8221922036592695E-002
   1.9526585209872493E-012   0.0000000000000000        2.8447303293978345E-002
   2.4657159994334599E-012  -1.3301703488677319E-012   3.3409666253991083E-002
   2.9787747789222774E-012  -2.1928743543231377E-012   3.8378738013422273E-002
   3.4918324742089224E-012  -2.5881154858131694E-012   4.3354518572271912E-002
   4.0048910368573054E-012  -2.5158963454230410E-012   4.8337007930539987E-002
   2.9036279104457458E-002  -3.2313797263998469E-003   4.9534412392535733E-002
   2.9109484696933190E-002  -4.2506193820417990E-003   5.1594017923079674E-002
   2.9182690289408925E-002  -5.0980076325330076E-003   5.3750708313007989E-002
   2.9255895881884663E-002  -5.7735444778735361E-003   5.6004483562320628E-002
   2.9329101474360388E-002  -6.2772299180633151E-003   5.8355343671017607E-002
   2.1446898295296311E-002  -2.4235347954288562E-003   4.8820624267590575E-002
   2.1588342182843504E-002  -3.1879645372338635E-003   5.1221960569210530E-002
   2.1729786070390694E-002  -3.8235057254758743E-003   5.3662688601589008E-002
   2.1871229957937881E-002  -4.3301583601548883E-003   5.6142808364726141E-002
   2.2012673845485071E-002  -4.7079224412708981E-003   5.8662319858621817E-002
   1.4077724842167166E-002  -1.6156898644578721E-003   4.8383127482276231E-002
   1.4229713896160056E-002  -2.1253096924259284E-003   5.1083231703384427E-002
   1.4381702950152947E-002  -2.5490038184187058E-003   5.3765034526625434E-002
   1.4533692004145837E-002  -2.8867722424362396E-003   5.6428535951999252E-002
   1.4685681058138727E-002  -3.1386149644784950E-003   5.9073735979505923E-002
   6.9287587450700258E-003  -8.0784493348688463E-004   4.8221922036592695E-002
   7.0335998368828544E-003  -1.0626548476179826E-003   5.1177831325601407E-002
   7.1384409286956857E-003  -1.2745019113615445E-003   5.4057746088117177E-002
   7.2432820205085187E-003  -1.4433861247175844E-003   5.6861666324140019E-002
   7.3481231123213447E-003  -1.5693074876860780E-003   5.9589592033669897E-002
   4.0048910368573054E-012  -2.5158963454230410E-012   4.8337007930539987E-002
   5.0118988820235799E-012  -2.8100594767765941E-012   5.1505759435861498E-002
   6.0189097629559374E-012  -4.3043864913355767E-012   5.4540823286064279E-002
   7.0259186923243844E-012  -6.9989456396267469E-012   5.7442199481148412E-002
   8.0329284890545694E-012  -1.0893681789969634E-011   6.0209888021113801E-002
   2.9329101474360388E-002  -6.2772299180633151E-003   5.8355343671017607E-002
   2.8980969466271600E-002  -6.6636862830679877E-003   5.9120088847320493E-002
   2.8632837458182816E-002  -6.9875359028531148E-003   5.9921797264929647E-002
   2.8284705450094046E-002  -7.2487787774188073E-003   6.0760468923845026E-002
   2.7936573442005251E-002  -7.4474149067649820E-003   6.1636103824066646E-002
   2.2012673845485071E-002  -4.7079224412708981E-003   5.8662319858621817E-002
   2.1714022519294503E-002  -4.9977647159696811E-003   5.9483798219291194E-002
   2.1415371193103938E-002  -5.2406519313969724E-003   6.0367274702450791E-002
   2.1116719866913373E-002  -5.4365840875527857E-003   6.1312749308100566E-002
   2.0818068540722809E-002  -5.5855611844371628E-003   6.2320222036240588E-002
   1.4685681058138727E-002  -3.1386149644784950E-003   5.9073735979505923E-002
   1.4461545295030367E-002  -3.3318431488713884E-003   5.9936295838593723E-002
   1.4237409531922009E-002  -3.4937679599408161E-003   6.0885888701355709E-002
   1.4013273768813643E-002  -3.6243893976867919E-003   6.1922514567791923E-002
   1.3789138005705288E-002  -3.7237074621092880E-003   6.3046173437902295E-002
   7.3481231123213447E-003  -1.5693074876860780E-003   5.9589592033669897E-002
   7.2235377934791760E-003  -1.6659215817731166E-003   6.0477581705228121E-002
   7.0989524746370098E-003  -1.7468839884847015E-003   6.1477639261644540E-002
   6.9743671557948479E-003  -1.8121947078207495E-003   6.2589764702919187E-002
   6.8497818369526765E-003  -1.8618537397814133E-003   6.3813958029051959E-002
   8.0329284890545694E-012  -1.0893681789969634E-011   6.0209888021113801E-002
   1.4640945573962671E-011  -1.4674796100511145E-011   6.1107655819194411E-002
   2.1248960924147298E-011  -1.7028505341909472E-011   6.2142526383317229E-002
   2.7856980611140614E-011  -1.7954780457546393E-011   6.3314499713482228E-002
   3.4464993359240026E-011  -1.7453594125527161E-011   6.4623575809689360E-002
   2.7936573442005251E-002  -7.4474149067649820E-003   6.1636103824066646E-002
   2.7219739709153028E-002  -7.5680727040103452E-003   6.1332963858405934E-002
   2.6502905976300808E-002  -7.5953805822736448E-003   6.1239757498501565E-002
   2.5786072243448595E-002  -7.5293385415548357E-003   6.1356484744353262E-002
   2.5069238510596364E-002  -7.3699465818539700E-003   6.1683145595961220E-002
   2.0818068540722809E-002  -5.5855611844371628E-003   6.2320222036240588E-002
   2.0303487120271409E-002  -5.6760545316677999E-003   6.2180656322998441E-002
   1.9788905699820013E-002  -5.6965354388625634E-003   6.2235661628801738E-002
   1.9274324279368628E-002  -5.6470039060215896E-003   6.2485237953650463E-002
   1.8759742858917225E-002  -5.5274599331445740E-003   6.2929385297544688E-002
   1.3789138005705288E-002  -3.7237074621092880E-003   6.3046173437902295E-002
   1.3461446310943955E-002  -3.7840363593252338E-003   6.3046844498132484E-002
   1.3133754616182623E-002  -3.7976902954515376E-003   6.3226723990697342E-002
   1.2806062921421290E-002  -3.7646692704882325E-003   6.3585811915596854E-002
   1.2478371226659960E-002  -3.6849732844352612E-003   6.4124108272831104E-002
   6.8497818369526765E-003  -1.8618537397814133E-003   6.3813958029051959E-002
   6.6936172811706551E-003  -1.8920181869826920E-003   6.3931528383808153E-002
   6.5374527253886355E-003  -1.8988451520405118E-003   6.4212944584188303E-002
   6.3812881696066184E-003  -1.8823346349549032E-003   6.4658206630192408E-002
   6.2251236138245970E-003  -1.8424866357259068E-003   6.5267314521820399E-002
   3.4464993359240026E-011  -1.7453594125527161E-011   6.4623575809689360E-002
   3.0951524329636548E-011  -1.4640101630991609E-011   6.4834707980025413E-002
   2.7438051830586119E-011  -8.6294096868222425E-012   6.5194323409274654E-002
   2.3924582800982641E-011   5.7840364442451886E-013   6.5702422097437041E-002
   2.0411110301932212E-011   1.2983419894752046E-011   6.6359004044512587E-002
   2.5069238510596364E-002  -7.3699465818539700E-003   6.1683145595961220E-002
   2.4315327204975673E-002  -7.1633352470274747E-003   6.1370567105716450E-002
   2.3561415899354975E-002  -6.9556350809318879E-003   6.1226194540211110E-002
   2.2807504593734280E-002  -6.7468460835672095E-003   6.1250027899445419E-002
   2.2053593288113585E-002  -6.5369682549335506E-003   6.1442067183419158E-002
   1.8759742858917225E-002  -5.5274599331445740E-003   6.2929385297544688E-002
   1.8179105453012913E-002  -5.3725014290428863E-003   6.2650951528539972E-002
   1.7598468047108604E-002  -5.2167263025273691E-003   6.2550859634228559E-002
   1.7017830641204289E-002  -5.0601345535980571E-003   6.2629109614610434E-002
   1.6437193235299977E-002  -4.9027261822550128E-003   6.2885701469685445E-002
   1.2478371226659960E-002  -3.6849732844352612E-003   6.4124108272831104E-002
   1.2081143670425735E-002  -3.5816676110582563E-003   6.3879547016211305E-002
   1.1683916114191508E-002  -3.4778175241227394E-003   6.3823463584238432E-002
   1.1286688557957277E-002  -3.3734230236287938E-003   6.3955857976912542E-002
   1.0889461001723055E-002  -3.2684841095763639E-003   6.4276730194233467E-002
   6.2251236138245970E-003  -1.8424866357259068E-003   6.5267314521820399E-002
   6.0214418572141467E-003  -1.7908337930736193E-003   6.5056353568730185E-002
   5.8177601006037041E-003  -1.7389087457181929E-003   6.5044006390240522E-002
   5.6140783439932547E-003  -1.6867114936595304E-003   6.5230272986351534E-002
   5.4103965873828104E-003  -1.6342420368977428E-003   6.5615153357063236E-002
   2.0411110301932212E-011   1.2983419894752046E-011   6.6359004044512587E-002
   1.3378138874475809E-011   2.4910934426358722E-011   6.6181371186096627E-002
   6.3451761206367863E-012   3.2686416073790525E-011   6.6212488052234966E-002
  -6.8779010264918838E-013   3.6309637588272103E-011   6.6452354642927758E-002
  -7.7207580606586390E-012   3.5780822749131858E-011   6.6900970958174710E-002
   2.2053593288113585E-002  -6.5369682549335506E-003   6.1442067183419158E-002
   2.1162520428148118E-002  -6.3161537837692627E-003   6.0995249917341343E-002
   2.0271447568182652E-002  -6.0745548588123088E-003   6.0800762107029782E-002
   1.9380374708217178E-002  -5.8121714800632857E-003   6.0858603752484419E-002
   1.8489301848251705E-002  -5.5290036475218463E-003   6.1168774853705199E-002
   1.6437193235299977E-002  -4.9027261822550128E-003   6.2885701469685445E-002
   1.5791059522057033E-002  -4.7371153293385565E-003   6.2518348111063257E-002
   1.5144925808814096E-002  -4.5559161356894112E-003   6.2388543590119860E-002
   1.4498792095571155E-002  -4.3591286013076221E-003   6.2496287906855269E-002
   1.3852658382328201E-002  -4.1467527261929149E-003   6.2841581061269552E-002
   1.0889461001723055E-002  -3.2684841095763639E-003   6.4276730194233467E-002
   1.0473485817115279E-002  -3.1580768749081001E-003   6.3983644630007316E-002
   1.0057510632507500E-002  -3.0372774125665136E-003   6.3913327285372523E-002
   9.6415354478997187E-003  -2.9060857225519030E-003   6.4065778160329170E-002
   9.2255602632919445E-003  -2.7645018048638725E-003   6.4440997254877452E-002
   5.4103965873828104E-003  -1.6342420368977428E-003   6.5615153357063236E-002
   5.2097993133228358E-003  -1.5790384204774632E-003   6.5391139474173410E-002
   5.0092020392628776E-003  -1.5186386894436160E-003   6.5375113192787798E-002
   4.8086047652029090E-003  -1.4530428437960451E-003   6.5567074512906179E-002
   4.6080074911429448E-003  -1.3822508835348579E-003   6.5967023434528926E-002
  -7.7207580606586390E-012   3.5780822749131858E-011   6.6900970958174710E-002
   1.0679724465889606E-011   3.3953090339267078E-011   6.6740832643561732E-002
   2.9080212196608279E-011   3.3679267708031091E-011   6.6773901312365630E-002
   4.7480700794688691E-011   3.4959531797218446E-011   6.7000176964586197E-002
   6.5881182453875198E-011   3.7794101181987116E-011   6.7419659600223669E-002
   1.8489301848251705E-002  -5.5290036475218463E-003   6.1168774853705199E-002
   1.7762803928592502E-002  -5.2355470184565489E-003   6.0932938458489794E-002
   1.7036306008933313E-002  -4.9422972501358409E-003   6.0832647505742299E-002
   1.6309808089274125E-002  -4.6492543425599442E-003   6.0867901995462576E-002
   1.5583310169614908E-002  -4.3564182957286368E-003   6.1038701927650485E-002
   1.3852658382328201E-002  -4.1467527261929149E-003   6.2841581061269552E-002
   1.3273225663441912E-002  -3.9266602532358752E-003   6.2626628768350179E-002
   1.2693792944555610E-002  -3.7067229253274492E-003   6.2570261434508764E-002
   1.2114360225669314E-002  -3.4869407424672136E-003   6.2672479059745462E-002
   1.1534927506783019E-002  -3.2673137046554945E-003   6.2933281644060035E-002
   9.2255602632919445E-003  -2.7645018048638725E-003   6.4440997254877452E-002
   8.8162322617888304E-003  -2.6177734880153541E-003   6.4246980779950197E-002
   8.4069042602856990E-003  -2.4711486005188910E-003   6.4234588780711241E-002
   7.9975762587825711E-003  -2.3246271423745385E-003   6.4403821257160584E-002
   7.5882482572794431E-003  -2.1782091135822967E-003   6.4754678209298255E-002
   4.6080074911429448E-003  -1.3822508835348579E-003   6.5967023434528926E-002
   4.3918237236332570E-003  -1.3088867227946735E-003   6.5793994493289987E-002
   4.1756399561235624E-003  -1.2355742757104160E-003   6.5825629544349729E-002
   3.9594561886138642E-003  -1.1623135422818356E-003   6.6061928587707985E-002
   3.7432724211041721E-003  -1.0891045225091267E-003   6.6502891623364924E-002
   6.5881182453875198E-011   3.7794101181987116E-011   6.7419659600223669E-002
   4.8975195426903539E-011   4.2425896129572038E-011   6.7267669908369465E-002
   3.2069208399931881E-011   4.9098100585176496E-011   6.7343383725424283E-002
   1.5163224842407175E-011   5.7810849857231617E-011   6.7646801051387886E-002
  -1.7427656540114356E-012   6.8563987820624561E-011   6.8177921886260318E-002
   1.5583310169614908E-002  -4.3564182957286368E-003   6.1038701927650485E-002
   1.4555898145254612E-002  -4.0591219611607610E-003   6.0673709070948934E-002
   1.3528486120894335E-002  -3.7526981903749368E-003   6.0588023853971940E-002
   1.2501074096534056E-002  -3.4371469833717749E-003   6.0781646276719836E-002
   1.1473662072173763E-002  -3.1124683401506648E-003   6.1254576339191624E-002
   1.1534927506783019E-002  -3.2673137046554945E-003   6.2933281644060035E-002
   1.0781209488772037E-002  -3.0443414527216994E-003   6.2672365072066527E-002
   1.0027491470761069E-002  -2.8145236274952357E-003   6.2679528873047202E-002
   9.2737734527501281E-003  -2.5778602289768249E-003   6.2954773047001644E-002
   8.5200554347391044E-003  -2.3343512571658565E-003   6.3498097593930325E-002
   7.5882482572794431E-003  -2.1782091135822967E-003   6.4754678209298255E-002
   7.0969969788672559E-003  -2.0295609442825269E-003   6.4595556059087456E-002
   6.6057457004550461E-003  -1.8763490646157011E-003   6.4693287015100090E-002
   6.1144944220428493E-003  -1.7185734745819026E-003   6.5047871077336394E-002
   5.6232431436306629E-003  -1.5562341741809371E-003   6.5659308245796077E-002
   3.7432724211041721E-003  -1.0891045225091267E-003   6.6502891623364924E-002
   3.5032606155402128E-003  -1.0147804358434098E-003   6.6443282032011705E-002
   3.2632488099762426E-003  -9.3817450173591665E-004   6.6629298280131158E-002
   3.0232370044122863E-003  -8.5928672018679986E-004   6.7060940367723740E-002
   2.7832251988483062E-003  -7.7811709119607331E-004   6.7738208294789340E-002
  -1.7427656540114356E-012   6.8563987820624561E-011   6.8177921886260318E-002
   3.9879095165007428E-010   7.2595762734550817E-011   6.8215542990839040E-002
   7.9932466548471304E-010   6.1143576313149595E-011   6.8487562668140073E-002
   1.1998583862582457E-009   3.4207924687335023E-011   6.8993980918163680E-002
   1.6003920966234375E-009  -8.2112094901276578E-012   6.9734797740909515E-002
   1.9526585209872493E-012   0.0000000000000000        2.8447303293978345E-002
   2.4657159994334599E-012  -1.3301703488677319E-012   3.3409666253991083E-002
   2.9787747789222774E-012  -2.1928743543231377E-012   3.8378738013422273E-002
   3.4918324742089224E-012  -2.5881154858131694E-012   4.3354518572271912E-002
   4.0048910368573054E-012  -2.5158963454230410E-012   4.8337007930539987E-002
  -6.7986944717641010E-003   0.0000000000000000        2.8511118855717357E-002
  -6.8312105381748396E-003   1.4621365185937731E-004   3.3546431050451374E-002
  -6.8637266045855766E-003   3.2959235735365890E-004   3.8510002311919353E-002
  -6.8962426709963135E-003   5.5013611648284735E-004   4.3401832640121304E-002
  -6.9287587374070514E-003   8.0784492924693575E-004   4.8221922035057194E-002
  -1.3503797371468515E-002   0.0000000000000000        2.8702565544062197E-002
  -1.3647279237487540E-002   2.9242730504892584E-004   3.3847992026684946E-002
  -1.3790761103506563E-002   6.5918471690019735E-004   3.8843227843357163E-002
  -1.3934242969525586E-002   1.1002722355538128E-003   4.3688272994078854E-002
  -1.4077724835544614E-002   1.6156898610097778E-003   4.8383127478849992E-002
  -2.0115308697160574E-002   0.0000000000000000        2.9021643359012861E-002
  -2.0448206095472380E-002   4.3864095823847437E-004   3.4314349182691779E-002
  -2.0781103493784186E-002   9.8877707644673581E-004   3.9378414607735668E-002
  -2.1114000892095995E-002   1.6504083546247769E-003   4.4213839634144533E-002
  -2.1446898290407791E-002   2.4235347927726112E-003   4.8820624261918376E-002
  -2.6633228448840293E-002   0.0000000000000000        2.9468352300569357E-002
  -2.7233991112129367E-002   5.8485461142802116E-004   3.4945502518471887E-002
  -2.7834753775418445E-002   1.3183694359932708E-003   4.0115562605054889E-002
  -2.8435516438707523E-002   2.2005444736957428E-003   4.4978532560318384E-002
  -2.9036279101996597E-002   3.2313797245354528E-003   4.9534412384262365E-002
   4.0048910368573054E-012  -2.5158963454230410E-012   4.8337007930539987E-002
   5.0118988820235799E-012  -2.8100594767765941E-012   5.1505759435861498E-002
   6.0189097629559374E-012  -4.3043864913355767E-012   5.4540823286064279E-002
   7.0259186923243844E-012  -6.9989456396267469E-012   5.7442199481148412E-002
   8.0329284890545694E-012  -1.0893681789969634E-011   6.0209888021113801E-002
  -6.9287587374070514E-003   8.0784492924693575E-004   4.8221922035057194E-002
  -7.0335998272880911E-003   1.0626548428043867E-003   5.1177831321259533E-002
  -7.1384409171691291E-003   1.2745019043136623E-003   5.4057746080804499E-002
  -7.2432820070501705E-003   1.4433861137747547E-003   5.6861666313692043E-002
  -7.3481230969312085E-003   1.5693074711876573E-003   5.9589592019922193E-002
  -1.4077724835544614E-002   1.6156898610097778E-003   4.8383127478849992E-002
  -1.4229713887852397E-002   2.1253096884188338E-003   5.1083231695085191E-002
  -1.4381702940160180E-002   2.5490038129317178E-003   5.3765034513124303E-002
  -1.4533691992467963E-002   2.8867722345484481E-003   5.6428535932967323E-002
  -1.4685681044775750E-002   3.1386149532690137E-003   5.9073735954614251E-002
  -2.1446898290407791E-002   2.4235347927726112E-003   4.8820624261918376E-002
  -2.1588342176681014E-002   3.1879645340332700E-003   5.1221960557338464E-002
  -2.1729786062954237E-002   3.8235057215497839E-003   5.3662688583023754E-002
  -2.1871229949227466E-002   4.3301583553221551E-003   5.6142808338974282E-002
  -2.2012673835500686E-002   4.7079224353503615E-003   5.8662319825189997E-002
  -2.9036279101996597E-002   3.2313797245354528E-003   4.9534412384262365E-002
  -2.9109484693773953E-002   4.2506193796477210E-003   5.1594017908019346E-002
  -2.9182690285551312E-002   5.0980076301678223E-003   5.3750708290502838E-002
  -2.9255895877328669E-002   5.7735444760958279E-003   5.6004483531712869E-002
  -2.9329101469106025E-002   6.2772299174317092E-003   5.8355343631649390E-002
   8.0329284890545694E-012  -1.0893681789969634E-011   6.0209888021113801E-002
   1.4640945573962671E-011  -1.4674796100511145E-011   6.1107655819194411E-002
   2.1248960924147298E-011  -1.7028505341909472E-011   6.2142526383317229E-002
   2.7856980611140614E-011  -1.7954780457546393E-011   6.3314499713482228E-002
   3.4464993359240026E-011  -1.7453594125527161E-011   6.4623575809689360E-002
  -7.3481230969312085E-003   1.5693074711876573E-003   5.9589592019922193E-002
  -7.2235377658502803E-003   1.6659215598805524E-003   6.0477581691570963E-002
  -7.0989524347693546E-003   1.7468839631816797E-003   6.1477639246123386E-002
  -6.9743671036884280E-003   1.8121946810909268E-003   6.2589764683579421E-002
  -6.8497817726074998E-003   1.8618537136083635E-003   6.3813958003939131E-002
  -1.4685681044775750E-002   3.1386149532690137E-003   5.9073735954614251E-002
  -1.4461545272360442E-002   3.3318431344359599E-003   5.9936295813011894E-002
  -1.4237409499945142E-002   3.4937679433918239E-003   6.0885888671174664E-002
  -1.4013273727529842E-002   3.6243893801366205E-003   6.1922514529102544E-002
  -1.3789137955114533E-002   3.7237074446703489E-003   6.3046173386795523E-002
  -2.2012673835500686E-002   4.7079224353503615E-003   5.8662319825189997E-002
  -2.1714022504889536E-002   4.9977647089913448E-003   5.9483798183517268E-002
  -2.1415371174278400E-002   5.2406519236019820E-003   6.0367274658471123E-002
  -2.1116719843667260E-002   5.4365840791823486E-003   6.1312749250051514E-002
  -2.0818068513056114E-002   5.5855611757323065E-003   6.2320221958258544E-002
  -2.9329101469106025E-002   6.2772299174317092E-003   5.8355343631649390E-002
  -2.8980969463437572E-002   6.6636862835467159E-003   5.9120088803087022E-002
  -2.8632837457769129E-002   6.9875359038121601E-003   5.9921797208012745E-002
  -2.8284705452100684E-002   7.2487787782280089E-003   6.0760468846426448E-002
  -2.7936573446432227E-002   7.4474149067942919E-003   6.1636103718328228E-002
   3.4464993359240026E-011  -1.7453594125527161E-011   6.4623575809689360E-002
   3.0951524329636548E-011  -1.4640101630991609E-011   6.4834707980025413E-002
   2.7438051830586119E-011  -8.6294096868222425E-012   6.5194323409274654E-002
   2.3924582800982641E-011   5.7840364442451886E-013   6.5702422097437041E-002
   2.0411110301932212E-011   1.2983419894752046E-011   6.6359004044512587E-002
  -6.8497817726074998E-003   1.8618537136083635E-003   6.3813958003939131E-002
  -6.6936172229830242E-003   1.8920181647791717E-003   6.3931528356013290E-002
  -6.5374526733585512E-003   1.8988451386485611E-003   6.4212944555450138E-002
  -6.3812881237340757E-003   1.8823346352165142E-003   6.4658206602249718E-002
  -6.2251235741096027E-003   1.8424866544829721E-003   6.5267314496412043E-002
  -1.3789137955114533E-002   3.7237074446703489E-003   6.3046173386795523E-002
  -1.3461446263902558E-002   3.7840363441984763E-003   6.3046844440109148E-002
  -1.3133754572690580E-002   3.7976902859265908E-003   6.3226723929235076E-002
  -1.2806062881478604E-002   3.7646692698545701E-003   6.3585811854173266E-002
  -1.2478371190266620E-002   3.6849732959825382E-003   6.4124108214923703E-002
  -2.0818068513056114E-002   5.5855611757323065E-003   6.2320221958258544E-002
  -2.0303487091807081E-002   5.6760545236177930E-003   6.2180656232312989E-002
  -1.9788905670558056E-002   5.6965354332045772E-003   6.2235661530629330E-002
  -1.9274324249309020E-002   5.6470039044926538E-003   6.2485237853207469E-002
  -1.8759742828059981E-002   5.5274599374820696E-003   6.2929385200047483E-002
  -2.7936573446432227E-002   7.4474149067942919E-003   6.1636103718328228E-002
  -2.7219739706696597E-002   7.5680727030370543E-003   6.1332963732624937E-002
  -2.6502905966960949E-002   7.5953805804825775E-003   6.1239757359633037E-002
  -2.5786072227225298E-002   7.5293385391307609E-003   6.1356484599352584E-002
  -2.5069238487489664E-002   7.3699465789816565E-003   6.1683145451783439E-002
   2.0411110301932212E-011   1.2983419894752046E-011   6.6359004044512587E-002
   1.3378138874475809E-011   2.4910934426358722E-011   6.6181371186096627E-002
   6.3451761206367863E-012   3.2686416073790525E-011   6.6212488052234966E-002
  -6.8779010264918838E-013   3.6309637588272103E-011   6.6452354642927758E-002
  -7.7207580606586390E-012   3.5780822749131858E-011   6.6900970958174710E-002
  -6.2251235741096027E-003   1.8424866544829721E-003   6.5267314496412043E-002
  -6.0214418301714054E-003   1.7908338298994741E-003   6.5056353535501293E-002
  -5.8177600862332098E-003   1.7389087949176082E-003   6.5044006351978559E-002
  -5.6140783422950124E-003   1.6867115495372131E-003   6.5230272945843770E-002
  -5.4103965983568238E-003   1.6342420937583424E-003   6.5615153317097052E-002
  -1.2478371190266620E-002   3.6849732959825382E-003   6.4124108214923703E-002
  -1.2081143642523615E-002   3.5816676348880833E-003   6.3879546945271842E-002
  -1.1683916094780606E-002   3.4778175571488247E-003   6.3823463505841643E-002
  -1.1286688547037594E-002   3.3734230627647877E-003   6.3955857896633078E-002
  -1.0889460999294585E-002   3.2684841517359176E-003   6.4276730117646161E-002
  -1.8759742828059981E-002   5.5274599374820696E-003   6.2929385200047483E-002
  -1.8179105423678496E-002   5.3725014398766577E-003   6.2650951415408190E-002
  -1.7598468019296997E-002   5.2167263193800013E-003   6.2550859513824178E-002
  -1.7017830614915519E-002   5.0601345759922790E-003   6.2629109495295515E-002
  -1.6437193210534023E-002   4.9027262097134650E-003   6.2885701359822119E-002
  -2.5069238487489664E-002   7.3699465789816565E-003   6.1683145451783439E-002
  -2.4315327173636037E-002   7.1633352448652043E-003   6.1370566945910338E-002
  -2.3561415859782407E-002   6.9556350816112750E-003   6.1226194375926302E-002
  -2.2807504545928784E-002   6.7468460892198788E-003   6.1250027741831137E-002
  -2.2053593232075154E-002   6.5369682676909568E-003   6.1442067043624982E-002
  -7.7207580606586390E-012   3.5780822749131858E-011   6.6900970958174710E-002
   1.0679724465889606E-011   3.3953090339267078E-011   6.6740832643561732E-002
   2.9080212196608279E-011   3.3679267708031091E-011   6.6773901312365630E-002
   4.7480700794688691E-011   3.4959531797218446E-011   6.7000176964586197E-002
   6.5881182453875198E-011   3.7794101181987116E-011   6.7419659600223669E-002
  -5.4103965983568238E-003   1.6342420937583424E-003   6.5615153317097052E-002
  -5.2097992892822850E-003   1.5790384768659821E-003   6.5391139444302374E-002
  -5.0092019802077392E-003   1.5186387481448821E-003   6.5375113169439045E-002
  -4.8086046711331935E-003   1.4530429075949973E-003   6.5567074492507066E-002
  -4.6080073620586547E-003   1.3822509552162687E-003   6.5967023413506409E-002
  -1.0889460999294585E-002   3.2684841517359176E-003   6.4276730117646161E-002
  -1.0473485785031406E-002   3.1580769197789987E-003   6.3983644573286882E-002
  -1.0057510570768233E-002   3.0372774626103924E-003   6.3913327241373635E-002
  -9.6415353565050578E-003   2.9060857802302980E-003   6.4065778121906294E-002
  -9.2255601422418891E-003   2.7645018726385473E-003   6.4440997214884735E-002
  -1.6437193210534023E-002   4.9027262097134650E-003   6.2885701359822119E-002
  -1.5791059476567643E-002   4.7371153626919807E-003   6.2518348030515522E-002
  -1.5144925742601274E-002   4.5559161770759825E-003   6.2388543528169429E-002
  -1.4498792008634897E-002   4.3591286528655701E-003   6.2496287852783841E-002
  -1.3852658274668524E-002   4.1467527900606593E-003   6.2841581004358646E-002
  -2.2053593232075154E-002   6.5369682676909568E-003   6.1442067043624982E-002
  -2.1162520363891005E-002   6.3161538056048516E-003   6.0995249815988140E-002
  -2.0271447495706852E-002   6.0745548915415726E-003   6.0800762029826344E-002
  -1.9380374627522706E-002   5.8121715255008005E-003   6.0858603685139706E-002
  -1.8489301759338557E-002   5.5290037074829934E-003   6.1168774781928004E-002
   6.5881182453875198E-011   3.7794101181987116E-011   6.7419659600223669E-002
   4.8975195426903539E-011   4.2425896129572038E-011   6.7267669908369465E-002
   3.2069208399931881E-011   4.9098100585176496E-011   6.7343383725424283E-002
   1.5163224842407175E-011   5.7810849857231617E-011   6.7646801051387886E-002
  -1.7427656540114356E-012   6.8563987820624561E-011   6.8177921886260318E-002
  -4.6080073620586547E-003   1.3822509552162687E-003   6.5967023413506409E-002
  -4.3918236282016673E-003   1.3088868060118219E-003   6.5793994471371853E-002
  -4.1756398943446817E-003   1.2355743749842829E-003   6.5825629521854473E-002
  -3.9594561604876953E-003   1.1623136621339153E-003   6.6061928564954117E-002
  -3.7432724266307088E-003   1.0891046674603722E-003   6.6502891600670855E-002
  -9.2255601422418891E-003   2.7645018726385473E-003   6.4440997214884735E-002
  -8.8162321739136615E-003   2.6177735695978310E-003   6.4246980738606130E-002
  -8.4069042055854339E-003   2.4711487008705832E-003   6.4234588738652953E-002
  -7.9975762372572132E-003   2.3246272664568714E-003   6.4403821215025150E-002
  -7.5882482689289803E-003   2.1782092663567842E-003   6.4754678167722721E-002
  -1.3852658274668524E-002   4.1467527900606593E-003   6.2841581004358646E-002
  -1.3273225588160784E-002   3.9266603331838817E-003   6.2626628710072574E-002
  -1.2693792901653053E-002   3.7067230267569078E-003   6.2570261375820127E-002
  -1.2114360215145325E-002   3.4869408707799377E-003   6.2672479001601361E-002
  -1.1534927528637592E-002   3.2673138652531825E-003   6.2933281587416304E-002
  -1.8489301759338557E-002   5.5290037074829934E-003   6.1168774781928004E-002
  -1.7762803870943034E-002   5.2355470967698214E-003   6.0932938385770963E-002
  -1.7036305982547531E-002   4.9422973526431074E-003   6.0832647433355869E-002
  -1.6309808094152032E-002   4.6492544751028757E-003   6.0867901924682707E-002
  -1.5583310205756512E-002   4.3564184641495252E-003   6.1038701859751410E-002
  -1.7427656540114356E-012   6.8563987820624561E-011   6.8177921886260318E-002
   3.9879095165007428E-010   7.2595762734550817E-011   6.8215542990839040E-002
   7.9932466548471304E-010   6.1143576313149595E-011   6.8487562668140073E-002
   1.1998583862582457E-009   3.4207924687335023E-011   6.8993980918163680E-002
   1.6003920966234375E-009  -8.2112094901276578E-012   6.9734797740909515E-002
  -3.7432724266307088E-003   1.0891046674603722E-003   6.6502891600670855E-002
  -3.5032598325025251E-003   1.0147805910089014E-003   6.6443281960102740E-002
  -3.2632472383743345E-003   9.3817463282427904E-004   6.6629298134001452E-002
  -3.0232346442461509E-003   8.5928679290674798E-004   6.7060940122366561E-002
  -2.7832220501179811E-003   7.7811707125619023E-004   6.7738207925198135E-002
  -7.5882482689289803E-003   2.1782092663567842E-003   6.4754678167722721E-002
  -7.0969962394622031E-003   2.0295611094221233E-003   6.4595555915758718E-002
  -6.6057442099954128E-003   1.8763492045049887E-003   6.4693286720005488E-002
  -6.1144921805286277E-003   1.7185735516055175E-003   6.5047870580462908E-002
  -5.6232401510618452E-003   1.5562341507234789E-003   6.5659307497131059E-002
  -1.1534927528637592E-002   3.2673138652531825E-003   6.2933281587416304E-002
  -1.0781208822088073E-002   3.0443416278354146E-003   6.2672364857806834E-002
  -1.0027490115538572E-002   2.8145237761857504E-003   6.2679528426152209E-002
  -9.2737714089890649E-003   2.5778603103042584E-003   6.2954772292452610E-002
  -8.5200527024395616E-003   2.3343512301907676E-003   6.3498096456707370E-002
  -1.5583310205756512E-002   4.3564184641495252E-003   6.1038701859751410E-002
  -1.4555897580380166E-002   4.0591221462484284E-003   6.0673708786247116E-002
  -1.3528484955003795E-002   3.7526983478662485E-003   6.0588023252441864E-002
  -1.2501072329627447E-002   3.4371470690029333E-003   6.0781645258335251E-002
  -1.1473659704251071E-002   3.1124683096581673E-003   6.1254574803927930E-002
  -2.6633228448840293E-002   0.0000000000000000        2.9468352300569357E-002
  -2.7233991112129367E-002   5.8485461142802116E-004   3.4945502518471887E-002
  -2.7834753775418445E-002   1.3183694359932708E-003   4.0115562605054889E-002
  -2.8435516438707523E-002   2.2005444736957428E-003   4.4978532560318384E-002
  -2.9036279101996597E-002   3.2313797245354528E-003   4.9534412384262365E-002
  -3.3393967315987545E-002   0.0000000000000000        3.0177766921667820E-002
  -3.4236881858726552E-002   9.6001738102362722E-004   3.5266668336747235E-002
  -3.5079796401465552E-002   2.0234600494194585E-003   4.0178356124246306E-002
  -3.5922710944204551E-002   3.1903280051874981E-003   4.4912830284165046E-002
  -3.6765625486943551E-002   4.4606212483277461E-003   4.9470090816503436E-002
  -4.0733935988082219E-002   0.0000000000000000        3.1284961775244403E-002
  -4.1689125906531975E-002   1.3351801506192302E-003   3.5940379461735686E-002
  -4.2644315824981724E-002   2.7285506628456470E-003   4.0548460024385793E-002
  -4.3599505743431473E-002   4.1801115366792508E-003   4.5109203463194740E-002
  -4.4554695661881236E-002   5.6898627721200384E-003   4.9622609778162532E-002
  -4.8653134465124301E-002   0.0000000000000000        3.2789936861299093E-002
  -4.9590723255545643E-002   1.7103429202148352E-003   3.6966635893437218E-002
  -5.0528312045966958E-002   3.4336412762718351E-003   4.1225874305473351E-002
  -5.1465900836388287E-002   5.1698950681709991E-003   4.5567652097407513E-002
  -5.2403489626809616E-002   6.9191042959123317E-003   4.9991969269239690E-002
  -5.7151562747113818E-002   0.0000000000000000        3.4692692179831910E-002
  -5.7941673905767536E-002   2.0855056898104385E-003   3.8345437631851852E-002
  -5.8731785064421255E-002   4.1387318896980232E-003   4.2210598967508992E-002
  -5.9521896223074987E-002   6.1596785996627552E-003   4.6288176186803316E-002
  -6.0312007381728705E-002   8.1483458197046284E-003   5.0578169289734853E-002
  -2.9036279101996597E-002   3.2313797245354528E-003   4.9534412384262365E-002
  -2.9109484693773953E-002   4.2506193796477210E-003   5.1594017908019346E-002
  -2.9182690285551312E-002   5.0980076301678223E-003   5.3750708290502838E-002
  -2.9255895877328669E-002   5.7735444760958279E-003   5.6004483531712869E-002
  -2.9329101469106025E-002   6.2772299174317092E-003   5.8355343631649390E-002
  -3.6765625486943551E-002   4.4606212483277461E-003   4.9470090816503436E-002
  -3.6780074197889041E-002   5.6941764633507159E-003   5.1257268198275620E-002
  -3.6794522908834525E-002   6.7508303347669149E-003   5.3064874482985060E-002
  -3.6808971619780008E-002   7.6305828625763770E-003   5.4892909670631720E-002
  -3.6823420330725491E-002   8.3334340467790882E-003   5.6741373761215644E-002
  -4.4554695661881236E-002   5.6898627721200384E-003   4.9622609778162532E-002
  -4.4587043447784115E-002   7.1377335470537324E-003   5.1132309078935310E-002
  -4.4619391233686995E-002   8.4036530393660214E-003   5.2585781326856047E-002
  -4.4651739019589860E-002   9.4876212490569330E-003   5.3983026521924736E-002
  -4.4684086805492754E-002   1.0389638176126453E-002   5.5324044664141404E-002
  -5.2403489626809616E-002   6.9191042959123317E-003   4.9991969269239690E-002
  -5.2530392443459174E-002   8.5812906307567351E-003   5.1219140549998397E-002
  -5.2657295260108726E-002   1.0056475743965135E-002   5.2313428822115815E-002
  -5.2784198076758292E-002   1.1344659635537472E-002   5.3274834085591895E-002
  -5.2911100893407850E-002   1.2445842305473818E-002   5.4103356340426657E-002
  -6.0312007381728705E-002   8.1483458197046284E-003   5.0578169289734853E-002
  -6.0610121184914219E-002   1.0024847714459752E-002   5.1517762611464880E-002
  -6.0908234988099733E-002   1.1709298448564215E-002   5.2247816968764342E-002
  -6.1206348791285246E-002   1.3201698022018026E-002   5.2768332361633169E-002
  -6.1504462594470753E-002   1.4502046434821191E-002   5.3079308790071424E-002
  -2.9329101469106025E-002   6.2772299174317092E-003   5.8355343631649390E-002
  -2.8980969463437572E-002   6.6636862835467159E-003   5.9120088803087022E-002
  -2.8632837457769129E-002   6.9875359038121601E-003   5.9921797208012745E-002
  -2.8284705452100684E-002   7.2487787782280089E-003   6.0760468846426448E-002
  -2.7936573446432227E-002   7.4474149067942919E-003   6.1636103718328228E-002
  -3.6823420330725491E-002   8.3334340467790882E-003   5.6741373761215644E-002
  -3.6386972876911006E-002   8.8754606159837865E-003   5.7087446218044048E-002
  -3.5950525423096527E-002   9.2727392987992843E-003   5.7573186337676482E-002
  -3.5514077969282062E-002   9.5252700952255642E-003   5.8198594120112947E-002
  -3.5077630515467577E-002   9.6330530052626401E-003   5.8963669565353372E-002
  -4.4684086805492754E-002   1.0389638176126453E-002   5.5324044664141404E-002
  -4.4056619474216276E-002   1.1087234948420857E-002   5.5169303265820972E-002
  -4.3429152142939811E-002   1.1557942693786422E-002   5.5256933959620516E-002
  -4.2801684811663340E-002   1.1801761412223145E-002   5.5586936745540022E-002
  -4.2174217480386862E-002   1.1818691103731044E-002   5.6159311623579525E-002
  -5.2911100893407850E-002   1.2445842305473818E-002   5.4103356340426657E-002
  -5.1989909255353406E-002   1.3299009280857900E-002   5.3365659946417732E-002
  -5.1068717617298955E-002   1.3843146088773553E-002   5.2973040073844749E-002
  -5.0147525979244517E-002   1.4078252729220728E-002   5.2925496722707743E-002
  -4.9226334341190073E-002   1.4004329202199434E-002   5.3223029893006660E-002
  -6.1504462594470753E-002   1.4502046434821191E-002   5.3079308790071424E-002
  -6.0186842220322362E-002   1.5510783613294988E-002   5.1676516259834417E-002
  -5.8869221846173991E-002   1.6128349483760657E-002   5.0721504680349291E-002
  -5.7551601472025600E-002   1.6354744046218270E-002   5.0214274051616131E-002
  -5.6233981097877216E-002   1.6189967300667810E-002   5.0154824373634846E-002
  -2.7936573446432227E-002   7.4474149067942919E-003   6.1636103718328228E-002
  -2.7219739706696597E-002   7.5680727030370543E-003   6.1332963732624937E-002
  -2.6502905966960949E-002   7.5953805804825775E-003   6.1239757359633037E-002
  -2.5786072227225298E-002   7.5293385391307609E-003   6.1356484599352584E-002
  -2.5069238487489664E-002   7.3699465789816565E-003   6.1683145451783439E-002
  -3.5077630515467577E-002   9.6330530052626401E-003   5.8963669565353372E-002
  -3.4153813690670651E-002   9.6351890927483183E-003   5.8622101317360557E-002
  -3.3229996865873732E-002   9.5707794215202820E-003   5.8484565626778964E-002
  -3.2306180041076812E-002   9.4398239915785380E-003   5.8551062493608537E-002
  -3.1382363216279907E-002   9.2423228029231419E-003   5.8821591917849275E-002
  -4.2174217480386862E-002   1.1818691103731044E-002   5.6159311623579525E-002
  -4.1049318625828855E-002   1.1702305482459485E-002   5.5806119273380847E-002
  -3.9924419771270855E-002   1.1546178262557931E-002   5.5651058425293130E-002
  -3.8799520916712849E-002   1.1350309444026303E-002   5.5694129079316396E-002
  -3.7674622062154856E-002   1.1114699026864655E-002   5.5935331235450650E-002
  -4.9226334341190073E-002   1.4004329202199434E-002   5.3223029893006660E-002
  -4.7906254512171197E-002   1.3769421872170701E-002   5.2885017600685744E-002
  -4.6586174683152334E-002   1.3521577103595580E-002   5.2739235755175577E-002
  -4.5266094854133451E-002   1.3260794896474117E-002   5.2785684356476188E-002
  -4.3946015025114582E-002   1.2987075250806113E-002   5.3024363404587577E-002
  -5.6233981097877216E-002   1.6189967300667810E-002   5.0154824373634846E-002
  -5.4724621349697675E-002   1.5836538261881902E-002   4.9858796299275296E-002
  -5.3215261601518127E-002   1.5496975944633309E-002   4.9749097616426284E-002
  -5.1705901853338586E-002   1.5171280348921838E-002   4.9825728325087915E-002
  -5.0196542105159031E-002   1.4859451474747681E-002   5.0088688425260042E-002
  -2.5069238487489664E-002   7.3699465789816565E-003   6.1683145451783439E-002
  -2.4315327173636037E-002   7.1633352448652043E-003   6.1370566945910338E-002
  -2.3561415859782407E-002   6.9556350816112750E-003   6.1226194375926302E-002
  -2.2807504545928784E-002   6.7468460892198788E-003   6.1250027741831137E-002
  -2.2053593232075154E-002   6.5369682676909568E-003   6.1442067043624982E-002
  -3.1382363216279907E-002   9.2423228029231419E-003   5.8821591917849275E-002
  -3.0454127234139448E-002   9.0043606888297045E-003   5.8528265566639370E-002
  -2.9525891251999014E-002   8.7520224825738818E-003   5.8415382616114134E-002
  -2.8597655269858569E-002   8.4853081841558507E-003   5.8482943066273586E-002
  -2.7669419287718121E-002   8.2042177935752192E-003   5.8730946917117610E-002
  -3.7674622062154856E-002   1.1114699026864655E-002   5.5935331235450650E-002
  -3.6559823946931927E-002   1.0845386132794330E-002   5.5647969775879019E-002
  -3.5445025831709005E-002   1.0548409883536634E-002   5.5553289181787667E-002
  -3.4330227716486084E-002   1.0223770279091741E-002   5.5651289453176753E-002
  -3.3215429601263183E-002   9.8714673194593983E-003   5.5941970590046006E-002
  -4.3946015025114582E-002   1.2987075250806113E-002   5.3024363404587577E-002
  -4.2632417312013483E-002   1.2686411576758920E-002   5.2729679573629215E-002
  -4.1318819598912399E-002   1.2344797284499342E-002   5.2639914072946915E-002
  -4.0005221885811279E-002   1.1962232374027618E-002   5.2755066902540552E-002
  -3.8691624172710208E-002   1.1538716845343647E-002   5.3075138062410224E-002
  -5.0196542105159031E-002   1.4859451474747681E-002   5.0088688425260042E-002
  -4.8671907329384111E-002   1.4527437020723469E-002   4.9773394959890083E-002
  -4.7147272553609162E-002   1.4141184685462042E-002   4.9675257289591809E-002
  -4.5622637777834242E-002   1.3700694468963629E-002   4.9794275414365298E-002
  -4.4098003002059308E-002   1.3205966371227784E-002   5.0130449334210292E-002
  -2.2053593232075154E-002   6.5369682676909568E-003   6.1442067043624982E-002
  -2.1162520363891005E-002   6.3161538056048516E-003   6.0995249815988140E-002
  -2.0271447495706852E-002   6.0745548915415726E-003   6.0800762029826344E-002
  -1.9380374627522706E-002   5.8121715255008005E-003   6.0858603685139706E-002
  -1.8489301759338557E-002   5.5290037074829934E-003   6.1168774781928004E-002
  -2.7669419287718121E-002   8.2042177935752192E-003   5.8730946917117610E-002
  -2.6535235747759907E-002   7.9084179496261842E-003   5.8326813028601820E-002
  -2.5401052207801662E-002   7.5975752911022626E-003   5.8156571042159100E-002
  -2.4266868667843416E-002   7.2716898180038535E-003   5.8220220957789587E-002
  -2.3132685127885196E-002   6.9307615303305647E-003   5.8517762775493198E-002
  -3.3215429601263183E-002   9.8714673194593983E-003   5.5941970590046006E-002
  -3.1856572928932764E-002   9.5006820936473779E-003   5.5586261678053778E-002
  -3.0497716256602345E-002   9.1205956906631747E-003   5.5446007128732655E-002
  -2.9138859584271922E-002   8.7312081105067399E-003   5.5521206942082749E-002
  -2.7780002911941513E-002   8.3325193531780806E-003   5.5811861118104059E-002
  -3.8691624172710208E-002   1.1538716845343647E-002   5.3075138062410224E-002
  -3.7126531907409589E-002   1.1092946237668697E-002   5.2773595764344094E-002
  -3.5561439642108943E-002   1.0643616090224003E-002   5.2669070289547135E-002
  -3.3996347376808296E-002   1.0190726403009654E-002   5.2761561638019497E-002
  -3.2431255111507684E-002   9.7342771760256519E-003   5.3051069809761084E-002
  -4.4098003002059308E-002   1.3205966371227784E-002   5.0130449334210292E-002
  -4.2345112683190356E-002   1.2685210381689876E-002   4.9888815287472688E-002
  -4.0592222364321411E-002   1.2166636489784818E-002   4.9825760524602414E-002
  -3.8839332045452465E-002   1.1650244695512690E-002   4.9941285045599401E-002
  -3.7086441726583527E-002   1.1136034998873168E-002   5.0235388850463802E-002
  -1.8489301759338557E-002   5.5290037074829934E-003   6.1168774781928004E-002
  -1.7762803870943034E-002   5.2355470967698214E-003   6.0932938385770963E-002
  -1.7036305982547531E-002   4.9422973526431074E-003   6.0832647433355869E-002
  -1.6309808094152032E-002   4.6492544751028757E-003   6.0867901924682707E-002
  -1.5583310205756512E-002   4.3564184641495252E-003   6.1038701859751410E-002
  -2.3132685127885196E-002   6.9307615303305647E-003   5.8517762775493198E-002
  -2.2260521516800611E-002   6.5824236821128423E-003   5.8288327522809741E-002
  -2.1388357905716034E-002   6.2343095273810767E-003   5.8214678271762604E-002
  -2.0516194294631480E-002   5.8864190661355315E-003   5.8296815022351581E-002
  -1.9644030683546872E-002   5.5387522983756377E-003   5.8534737774576795E-002
  -2.7780002911941513E-002   8.3325193531780806E-003   5.5811861118104059E-002
  -2.6741933020273632E-002   7.9293002674560020E-003   5.5588843835793739E-002
  -2.5703863128605720E-002   7.5263217021192194E-003   5.5541853113013996E-002
  -2.4665793236937811E-002   7.1235836571678004E-003   5.5670888949764560E-002
  -2.3627723345269927E-002   6.7210861326017779E-003   5.5975951346045730E-002
  -3.2431255111507684E-002   9.7342771760256519E-003   5.3051069809761084E-002
  -3.1207038381362146E-002   9.2761768527990368E-003   5.2834487324723095E-002
  -2.9982821651216587E-002   8.8183338768573309E-003   5.2814171957109891E-002
  -2.8758604921071060E-002   8.3607482482002081E-003   5.2990123706921584E-002
  -2.7534388190925494E-002   7.9034199668280153E-003   5.3362342574157756E-002
  -3.7086441726583527E-002   1.1136034998873168E-002   5.0235388850463802E-002
  -3.5655837600066062E-002   1.0623053438142183E-002   5.0025257989597671E-002
  -3.4225233473548632E-002   1.0110346051595387E-002   5.0031634804050623E-002
  -3.2794629347031201E-002   9.5979128392326279E-003   5.0254519293822575E-002
  -3.1364025220513736E-002   9.0857538010540306E-003   5.0693911458913665E-002
  -1.5583310205756512E-002   4.3564184641495252E-003   6.1038701859751410E-002
  -1.4555897580380166E-002   4.0591221462484284E-003   6.0673708786247116E-002
  -1.3528484955003795E-002   3.7526983478662485E-003   6.0588023252441864E-002
  -1.2501072329627447E-002   3.4371470690029333E-003   6.0781645258335251E-002
  -1.1473659704251071E-002   3.1124683096581673E-003   6.1254574803927930E-002
  -1.9644030683546872E-002   5.5387522983756377E-003   5.8534737774576795E-002
  -1.8356606759976680E-002   5.1806974412172413E-003   5.8212412599252750E-002
  -1.7069182836406478E-002   4.8016427117755500E-003   5.8130802480617388E-002
  -1.5781758912836251E-002   4.4015881100510426E-003   5.8289907418670836E-002
  -1.4494334989266035E-002   3.9805336360432264E-003   5.8689727413413384E-002
  -2.3627723345269927E-002   6.7210861326017779E-003   5.5975951346045730E-002
  -2.2118880606515939E-002   6.3022727361858599E-003   5.5684421677099888E-002
  -2.0610037867761978E-002   5.8505870756850112E-003   5.5595014581832657E-002
  -1.9101195129008031E-002   5.3660291510990946E-003   5.5707730060244279E-002
  -1.7592352390254033E-002   4.8485989624283965E-003   5.6022568112334359E-002
  -2.7534388190925494E-002   7.9034199668280153E-003   5.3362342574157756E-002
  -2.5842719119997880E-002   7.4238480311545757E-003   5.3089736019788523E-002
  -2.4151050049070283E-002   6.8995314395943370E-003   5.2980659556087918E-002
  -2.2459380978142655E-002   6.3304701921472863E-003   5.3035113183055642E-002
  -2.0767711907215075E-002   5.7166642888134556E-003   5.3253096900692090E-002
  -3.1364025220513736E-002   9.0857538010540306E-003   5.0693911458913665E-002
  -2.9528122300422593E-002   8.5454233261232915E-003   5.0428355627318844E-002
  -2.7692219380331437E-002   7.9484758035035796E-003   5.0287737403382604E-002
  -2.5856316460240281E-002   7.2949112331952351E-003   5.0272056787104669E-002
  -2.4020413540149110E-002   6.5847296151986257E-003   5.0381313778485426E-002
  -5.7151562747113818E-002   0.0000000000000000        3.4692692179831910E-002
  -5.7941673905767536E-002   2.0855056898104385E-003   3.8345437631851852E-002
  -5.8731785064421255E-002   4.1387318896980232E-003   4.2210598967508992E-002
  -5.9521896223074987E-002   6.1596785996627552E-003   4.6288176186803316E-002
  -6.0312007381728705E-002   8.1483458197046284E-003   5.0578169289734853E-002
  -6.5818213870644030E-002   0.0000000000000000        3.7215294838108801E-002
  -6.6624661271170102E-002   2.9145513423479170E-003   4.0836924002089797E-002
  -6.7431108671696161E-002   5.7710856058278328E-003   4.4213464798688915E-002
  -6.8237556072222219E-002   8.5696027904397561E-003   4.7344917227906153E-002
  -6.9044003472748292E-002   1.1310102896183671E-002   5.0231281289741511E-002
  -7.4242080872308228E-002   0.0000000000000000        4.0579811943395744E-002
  -7.5522368765725698E-002   3.7435969948853942E-003   4.4144587230392641E-002
  -7.6802656659143195E-002   7.4034393219576415E-003   4.7006769898988603E-002
  -7.8082944552560665E-002   1.0979526981216747E-002   4.9166359949183600E-002
  -7.9363232445978149E-002   1.4471859972662713E-002   5.0623357380977632E-002
  -8.2423163752106413E-002   0.0000000000000000        4.4786243495692733E-002
  -8.4634796389434386E-002   4.5726426474228705E-003   4.8268427316760405E-002
  -8.6846429026762373E-002   9.0357930380874519E-003   5.0590514268408049E-002
  -8.9058061664090332E-002   1.3389451171993741E-002   5.1752504350635650E-002
  -9.1269694301418292E-002   1.7633617049141747E-002   5.1754397563443244E-002
  -9.0361462510038570E-002   0.0000000000000000        4.9834589494999776E-002
  -9.3961944142296111E-002   5.4016882999603482E-003   5.3208444261193068E-002
  -9.7562425774553652E-002   1.0668146754217260E-002   5.4964697906947246E-002
 -0.10116290740681119        1.5799375362770741E-002   5.5103350432262325E-002
 -0.10476338903906873        2.0795374125620797E-002   5.3624401837138305E-002
  -6.0312007381728705E-002   8.1483458197046284E-003   5.0578169289734853E-002
  -6.0610121184914219E-002   1.0024847714459752E-002   5.1517762611464880E-002
  -6.0908234988099733E-002   1.1709298448564215E-002   5.2247816968764342E-002
  -6.1206348791285246E-002   1.3201698022018026E-002   5.2768332361633169E-002
  -6.1504462594470753E-002   1.4502046434821191E-002   5.3079308790071424E-002
  -6.9044003472748292E-002   1.1310102896183671E-002   5.0231281289741511E-002
  -6.9314762088247384E-002   1.3753540700957986E-002   4.9456456539517350E-002
  -6.9585520703746503E-002   1.5660870982661154E-002   4.8945881129096605E-002
  -6.9856279319245623E-002   1.7032093741293143E-002   4.8699555058479220E-002
  -7.0127037934744715E-002   1.7867208976853975E-002   4.8717478327665278E-002
  -7.9363232445978149E-002   1.4471859972662713E-002   5.0623357380977632E-002
  -7.9132847569556866E-002   1.7482233687456255E-002   4.7790058196378771E-002
  -7.8902462693135597E-002   1.9612443516758112E-002   4.5694796655817299E-002
  -7.8672077816714300E-002   2.0862489460568283E-002   4.4337572759293203E-002
  -7.8441692940293004E-002   2.1232371518886777E-002   4.3718386506806511E-002
  -9.1269694301418292E-002   1.7633617049141747E-002   5.1754397563443244E-002
  -9.0064377628842632E-002   2.1210926673954522E-002   4.6518567582049135E-002
  -8.8859060956266930E-002   2.3564016050855084E-002   4.2494563548926431E-002
  -8.7653744283691284E-002   2.4692885179843423E-002   3.9682385464075084E-002
  -8.6448427611115569E-002   2.4597534060919551E-002   3.8082033327495192E-002
 -0.10476338903906873        2.0795374125620797E-002   5.3624401837138305E-002
 -0.10210935226610468        2.4939619660452758E-002   4.5641984696528470E-002
  -9.9455315493140600E-002   2.7515588584952008E-002   3.9345181808424043E-002
  -9.6801278720176520E-002   2.8523280899118538E-002   3.4733993172824926E-002
  -9.4147241947212468E-002   2.7962696602952364E-002   3.1808418789731244E-002
  -6.1504462594470753E-002   1.4502046434821191E-002   5.3079308790071424E-002
  -6.0186842220322362E-002   1.5510783613294988E-002   5.1676516259834417E-002
  -5.8869221846173991E-002   1.6128349483760657E-002   5.0721504680349291E-002
  -5.7551601472025600E-002   1.6354744046218270E-002   5.0214274051616131E-002
  -5.6233981097877216E-002   1.6189967300667810E-002   5.0154824373634846E-002
  -7.0127037934744715E-002   1.7867208976853975E-002   4.8717478327665278E-002
  -6.8406254800854188E-002   1.8322935426860733E-002   4.7271067263121642E-002
  -6.6685471666963606E-002   1.8555991828830373E-002   4.6183200767310396E-002
  -6.4964688533073051E-002   1.8566378182763025E-002   4.5453878840231561E-002
  -6.3243905399182482E-002   1.8354094488658615E-002   4.5083101481885171E-002
  -7.8441692940293004E-002   2.1232371518886777E-002   4.3718386506806511E-002
  -7.6406983428679784E-002   2.1135087240426433E-002   4.2396858167927300E-002
  -7.4372273917066550E-002   2.0983634173900076E-002   4.1344638015760965E-002
  -7.2337564405453345E-002   2.0778012319307725E-002   4.0561726050307591E-002
  -7.0302854893840097E-002   2.0518221676649386E-002   4.0048122271567094E-002
  -8.6448427611115569E-002   2.4597534060919551E-002   3.8082033327495192E-002
  -8.4189028103799177E-002   2.3947239053992122E-002   3.7053888974251444E-002
  -8.1929628596482798E-002   2.3411276518969813E-002   3.6205816425701073E-002
  -7.9670229089166419E-002   2.2989646455852438E-002   3.5537815681844144E-002
  -7.7410829581850027E-002   2.2682348864640201E-002   3.5049886742680593E-002
  -9.4147241947212468E-002   2.7962696602952364E-002   3.1808418789731244E-002
  -9.1752388826212408E-002   2.6759390867557870E-002   3.1242159682094012E-002
  -8.9357535705212376E-002   2.5838918864039485E-002   3.0766735997130680E-002
  -8.6962682584212317E-002   2.5201280592397162E-002   3.0382147734841273E-002
  -8.4567829463212299E-002   2.4846476052630947E-002   3.0088394895225648E-002
  -5.6233981097877216E-002   1.6189967300667810E-002   5.0154824373634846E-002
  -5.4724621349697675E-002   1.5836538261881902E-002   4.9858796299275296E-002
  -5.3215261601518127E-002   1.5496975944633309E-002   4.9749097616426284E-002
  -5.1705901853338586E-002   1.5171280348921838E-002   4.9825728325087915E-002
  -5.0196542105159031E-002   1.4859451474747681E-002   5.0088688425260042E-002
  -6.3243905399182482E-002   1.8354094488658615E-002   4.5083101481885171E-002
  -6.1540965740140854E-002   1.8014953508607510E-002   4.4736709832365294E-002
  -5.9838026081099255E-002   1.7644768004700277E-002   4.4591148613058969E-002
  -5.8135086422057655E-002   1.7243537976936688E-002   4.4646417823966264E-002
  -5.6432146763016035E-002   1.6811263425316886E-002   4.4902517465087069E-002
  -7.0302854893840097E-002   2.0518221676649386E-002   4.0048122271567094E-002
  -6.8391834285233405E-002   2.0193368755333195E-002   3.9606455801493357E-002
  -6.6480813676626699E-002   1.9792560064767276E-002   3.9380120800336246E-002
  -6.4569793068019993E-002   1.9315795604951638E-002   3.9369117268095721E-002
  -6.2658772459413370E-002   1.8763075375886243E-002   3.9573445204771761E-002
  -7.7410829581850027E-002   2.2682348864640201E-002   3.5049886742680593E-002
  -7.5277226984975243E-002   2.2371784002058814E-002   3.4468034206659608E-002
  -7.3143624388100473E-002   2.1940352124834285E-002   3.4116014178258186E-002
  -7.1010021791225703E-002   2.1388053232966480E-002   3.3993826657476363E-002
  -6.8876419194350905E-002   2.0714887326455524E-002   3.4101471644314145E-002
  -8.4567829463212299E-002   2.4846476052630947E-002   3.0088394895225648E-002
  -8.2197143839366424E-002   2.4550199248784460E-002   2.9321445047863937E-002
  -7.9826458215520535E-002   2.4088144184901256E-002   2.8798828746824746E-002
  -7.7455772591674660E-002   2.3460310860981427E-002   2.8520545992108185E-002
  -7.5085086967828785E-002   2.2666699277024832E-002   2.8486596783714180E-002
  -5.0196542105159031E-002   1.4859451474747681E-002   5.0088688425260042E-002
  -4.8671907329384111E-002   1.4527437020723469E-002   4.9773394959890083E-002
  -4.7147272553609162E-002   1.4141184685462042E-002   4.9675257289591809E-002
  -4.5622637777834242E-002   1.3700694468963629E-002   4.9794275414365298E-002
  -4.4098003002059308E-002   1.3205966371227784E-002   5.0130449334210292E-002
  -5.6432146763016035E-002   1.6811263425316886E-002   4.4902517465087069E-002
  -5.4694660880931445E-002   1.6349354233124627E-002   4.4550666953151810E-002
  -5.2957174998846820E-002   1.5859220283643415E-002   4.4407362858764128E-002
  -5.1219689116762224E-002   1.5340861576873440E-002   4.4472605181924155E-002
  -4.9482203234677641E-002   1.4794278112814585E-002   4.4746393922631883E-002
  -6.2658772459413370E-002   1.8763075375886243E-002   3.9573445204771761E-002
  -6.0717044848543067E-002   1.8171271445525723E-002   3.9211050770219517E-002
  -5.8775317237672833E-002   1.7577255881824762E-002   3.9048593375690888E-002
  -5.6833589626802572E-002   1.6981028684783198E-002   3.9086073021185844E-002
  -5.4891862015932311E-002   1.6382589854401247E-002   3.9323489706704531E-002
  -6.8876419194350905E-002   2.0714887326455524E-002   3.4101471644314145E-002
  -6.6739059232219067E-002   1.9993188657926850E-002   3.3754546411093239E-002
  -6.4601699270087215E-002   1.9295291480006055E-002   3.3598948840371963E-002
  -6.2464339307955377E-002   1.8621195792693064E-002   3.3634678932150129E-002
  -6.0326979345823588E-002   1.7970901595987979E-002   3.3861736686428071E-002
  -7.5085086967828785E-002   2.2666699277024832E-002   2.8486596783714180E-002
  -7.2760704031959375E-002   2.1815105870328019E-002   2.8181153875772996E-002
  -7.0436321096089965E-002   2.1013327078187476E-002   2.8058429252807354E-002
  -6.8111938160220542E-002   2.0261362900602820E-002   2.8118422914817205E-002
  -6.5787555224351119E-002   1.9559213337574655E-002   2.8361134861802750E-002
  -4.4098003002059308E-002   1.3205966371227784E-002   5.0130449334210292E-002
  -4.2345112683190356E-002   1.2685210381689876E-002   4.9888815287472688E-002
  -4.0592222364321411E-002   1.2166636489784818E-002   4.9825760524602414E-002
  -3.8839332045452465E-002   1.1650244695512690E-002   4.9941285045599401E-002
  -3.7086441726583527E-002   1.1136034998873168E-002   5.0235388850463802E-002
  -4.9482203234677641E-002   1.4794278112814585E-002   4.4746393922631883E-002
  -4.7545987491428590E-002   1.4236645735929934E-002   4.4488201982405676E-002
  -4.5609771748179588E-002   1.3685140290682934E-002   4.4418081607072335E-002
  -4.3673556004930530E-002   1.3139761777073440E-002   4.4536032796631840E-002
  -4.1737340261681535E-002   1.2600510195101389E-002   4.4842055551084115E-002
  -5.4891862015932311E-002   1.6382589854401247E-002   3.9323489706704531E-002
  -5.2762828567277750E-002   1.5788081090170089E-002   3.9052684706994439E-002
  -5.0633795118623141E-002   1.5203644091581058E-002   3.8979443553202646E-002
  -4.8504761669968581E-002   1.4629278858634192E-002   3.9103766245329269E-002
  -4.6375728221313972E-002   1.4064985391329443E-002   3.9425652783374093E-002
  -6.0326979345823588E-002   1.7970901595987979E-002   3.3861736686428071E-002
  -5.7995635910737864E-002   1.7339516444410057E-002   3.3582263461238764E-002
  -5.5664292475652272E-002   1.6722147892479149E-002   3.3509846362993354E-002
  -5.3332949040566610E-002   1.6118795940195028E-002   3.3644485391691584E-002
  -5.1001605605481032E-002   1.5529460587557581E-002   3.3986180547333808E-002
  -6.5787555224351119E-002   1.9559213337574655E-002   2.8361134861802750E-002
  -6.3244409521808959E-002   1.8890951798650274E-002   2.8076938245139016E-002
  -6.0701263819266785E-002   1.8240651693377255E-002   2.8009290036444340E-002
  -5.8158118116724604E-002   1.7608313021755740E-002   2.8158190235719180E-002
  -5.5614972414182451E-002   1.6993935783785719E-002   2.8523638842963162E-002
  -3.7086441726583527E-002   1.1136034998873168E-002   5.0235388850463802E-002
  -3.5655837600066062E-002   1.0623053438142183E-002   5.0025257989597671E-002
  -3.4225233473548632E-002   1.0110346051595387E-002   5.0031634804050623E-002
  -3.2794629347031201E-002   9.5979128392326279E-003   5.0254519293822575E-002
  -3.1364025220513736E-002   9.0857538010540306E-003   5.0693911458913665E-002
  -4.1737340261681535E-002   1.2600510195101389E-002   4.4842055551084115E-002
  -4.0115784642130239E-002   1.2051748511164445E-002   4.4606442602706908E-002
  -3.8494229022578950E-002   1.1477839691660871E-002   4.4536224965078197E-002
  -3.6872673403027689E-002   1.0878783736589969E-002   4.4631402638198231E-002
  -3.5251117783476352E-002   1.0254580645952416E-002   4.4891975622066704E-002
  -4.6375728221313972E-002   1.4064985391329443E-002   3.9425652783374093E-002
  -4.4614333473299364E-002   1.3480443584186819E-002   3.9139136437734826E-002
  -4.2852938725284687E-002   1.2845333331726189E-002   3.8966903038273354E-002
  -4.1091543977270086E-002   1.2159654633947477E-002   3.8908952584990227E-002
  -3.9330149229255401E-002   1.1423407490850801E-002   3.8965285077885242E-002
  -5.1001605605481032E-002   1.5529460587557581E-002   3.3986180547333808E-002
  -4.9151484093573401E-002   1.4909138657208887E-002   3.3623339494681201E-002
  -4.7301362581665791E-002   1.4212826971791506E-002   3.3323669023636038E-002
  -4.5451241069758244E-002   1.3440525531304846E-002   3.3087169134198943E-002
  -4.3601119557850558E-002   1.2592234335749186E-002   3.2913839826369327E-002
  -5.5614972414182451E-002   1.6993935783785719E-002   2.8523638842963162E-002
  -5.3727236502952386E-002   1.6337833730231482E-002   2.8059051773546173E-002
  -5.1839500591722321E-002   1.5580320611856852E-002   2.7606522921166415E-002
  -4.9951764680492283E-002   1.4721396428662291E-002   2.7166052285823972E-002
  -4.8064028769262246E-002   1.3761061180647571E-002   2.6737639867518759E-002
  -3.1364025220513736E-002   9.0857538010540306E-003   5.0693911458913665E-002
  -2.9528122300422593E-002   8.5454233261232915E-003   5.0428355627318844E-002
  -2.7692219380331437E-002   7.9484758035035796E-003   5.0287737403382604E-002
  -2.5856316460240281E-002   7.2949112331952351E-003   5.0272056787104669E-002
  -2.4020413540149110E-002   6.5847296151986257E-003   5.0381313778485426E-002
  -3.5251117783476352E-002   1.0254580645952416E-002   4.4891975622066704E-002
  -3.3242781399092369E-002   9.6213092039129089E-003   4.4457173456827398E-002
  -3.1234445014708331E-002   8.9950481946368122E-003   4.4242300612515217E-002
  -2.9226108630324300E-002   8.3757976181235427E-003   4.4247357089130399E-002
  -2.7217772245940242E-002   7.7635574743738500E-003   4.4472342886673011E-002
  -3.9330149229255401E-002   1.1423407490850801E-002   3.8965285077885242E-002
  -3.7054387667309639E-002   1.0697195081702748E-002   3.8424864059453168E-002
  -3.4778626105363933E-002   1.0041620585769753E-002   3.8199364075217027E-002
  -3.2502864543418261E-002   9.4566840030517636E-003   3.8288785125177131E-002
  -3.0227102981472520E-002   8.9423853335489634E-003   3.8693127209333211E-002
  -4.3601119557850558E-002   1.2592234335749186E-002   3.2913839826369327E-002
  -4.0962941105074417E-002   1.1773080959492643E-002   3.2331427435196271E-002
  -3.8324762652298269E-002   1.1088192976902729E-002   3.2158927791488143E-002
  -3.5686584199522094E-002   1.0537570387979972E-002   3.2396340895244909E-002
  -3.3048405746745932E-002   1.0121213192724132E-002   3.3043666746466346E-002
  -4.8064028769262246E-002   1.3761061180647571E-002   2.6737639867518759E-002
  -4.4968441712386786E-002   1.2848966837282316E-002   2.6176863584056687E-002
  -4.1872854655511355E-002   1.2134765368035927E-002   2.6120991761328316E-002
  -3.8777267598635937E-002   1.1618456772908126E-002   2.6570024399333703E-002
  -3.5681680541760408E-002   1.1300041051899301E-002   2.7523961498072680E-002
  -9.0361462510038570E-002   0.0000000000000000        4.9834589494999776E-002
  -9.3961944142296111E-002   5.4016882999603482E-003   5.3208444261193068E-002
  -9.7562425774553652E-002   1.0668146754217260E-002   5.4964697906947246E-002
 -0.10116290740681119        1.5799375362770741E-002   5.5103350432262325E-002
 -0.10476338903906873        2.0795374125620797E-002   5.3624401837138305E-002
 -0.10329437883432729        0.0000000000000000        5.8659531533929110E-002
 -0.10683124331387553        1.0882952879302311E-002   5.2117342420095657E-002
 -0.11036810779342374        1.9170649807116007E-002   4.7319988732119948E-002
 -0.11390497227297196        2.4863090783441087E-002   4.4267470470001992E-002
 -0.11744183675252018        2.7960275808277563E-002   4.2959787633741746E-002
 -0.12645931441319516        0.0000000000000000        7.4195751205093016E-002
 -0.12657012519373723        1.6364217458644269E-002   5.5277492105447613E-002
 -0.12668093597427926        2.7673152860014736E-002   4.1466504977956835E-002
 -0.12679174675482133        3.3926806204111419E-002   3.2762789822620646E-002
 -0.12690255753536336        3.5125177490934328E-002   2.9166346639439063E-002
 -0.15985626924664220        0.0000000000000000        9.6443248508491453E-002
 -0.15317858978188123        2.1845482037986235E-002   6.2688893317248959E-002
 -0.14650091031712026        3.6175655912913489E-002   3.7404246644457913E-002
 -0.13982323085235929        4.2990521624781786E-002   2.0589308490118311E-002
 -0.13314555138759832        4.2290079173591087E-002   1.2244078854230192E-002
 -0.20348524333466836        0.0000000000000000       0.12540202344412443     
 -0.18665663707830754        2.7326746617328191E-002   7.4351546055499665E-002
 -0.16982803082194670        4.4678158965812224E-002   3.5133213731623189E-002
 -0.15299942456558585        5.2054237045452111E-002   7.7470264724950194E-003
 -0.13617081830922501        4.9454980856247860E-002  -7.8070157218848718E-003
 -0.10476338903906873        2.0795374125620797E-002   5.3624401837138305E-002
 -0.10210935226610468        2.4939619660452758E-002   4.5641984696528470E-002
  -9.9455315493140600E-002   2.7515588584952008E-002   3.9345181808424043E-002
  -9.6801278720176520E-002   2.8523280899118538E-002   3.4733993172824926E-002
  -9.4147241947212468E-002   2.7962696602952364E-002   3.1808418789731244E-002
 -0.11744183675252018        2.7960275808277563E-002   4.2959787633741746E-002
 -0.11348866923949809        2.9434322625379445E-002   3.6698965374136194E-002
 -0.10953550172647600        3.0257348978500832E-002   3.1350790342141256E-002
 -0.10558233421345389        3.0429354867641662E-002   2.6915262537756997E-002
 -0.10162916670043179        2.9950340292801969E-002   2.3392381960983411E-002
 -0.12690255753536336        3.5125177490934328E-002   2.9166346639439063E-002
 -0.12242322630717797        3.3929025590306160E-002   2.5544375407189873E-002
 -0.11794389507899256        3.2999109372049674E-002   2.2062084377656725E-002
 -0.11346456385080714        3.2335428836164776E-002   1.8719473550839489E-002
 -0.10898523262262176        3.1937983982651547E-002   1.5516542926738132E-002
 -0.13314555138759832        4.2290079173591087E-002   1.2244078854230192E-002
 -0.12891302346914435        3.8423728555232864E-002   1.2178214795689653E-002
 -0.12468049555069032        3.5740869765598440E-002   1.1479063914970333E-002
 -0.12044796763223635        3.4241502804687879E-002   1.0146626212072319E-002
 -0.11621543971378234        3.3925627672501069E-002   8.1809016869955238E-003
 -0.13617081830922501        4.9454980856247860E-002  -7.8070157218848718E-003
 -0.13295806072539718        4.2918431520159533E-002  -3.3995164603646232E-003
 -0.12974530314156932        3.8482630159147296E-002  -3.9827104591779253E-004
 -0.12653254555774143        3.6147576773210982E-002   1.1967205214555672E-003
 -0.12331978797391360        3.5913271362350729E-002   1.3854582417553996E-003
  -9.4147241947212468E-002   2.7962696602952364E-002   3.1808418789731244E-002
  -9.1752388826212408E-002   2.6759390867557870E-002   3.1242159682094012E-002
  -8.9357535705212376E-002   2.5838918864039485E-002   3.0766735997130680E-002
  -8.6962682584212317E-002   2.5201280592397162E-002   3.0382147734841273E-002
  -8.4567829463212299E-002   2.4846476052630947E-002   3.0088394895225648E-002
 -0.10162916670043179        2.9950340292801969E-002   2.3392381960983411E-002
  -9.9134873645647076E-002   2.9173945136381343E-002   2.3130132711833798E-002
  -9.6640580590862363E-002   2.8453809280779598E-002   2.2975927907579637E-002
  -9.4146287536077622E-002   2.7789932725996586E-002   2.2929767548221014E-002
  -9.1651994481292853E-002   2.7182315472032398E-002   2.2991651633757812E-002
 -0.10898523262262176        3.1937983982651547E-002   1.5516542926738132E-002
 -0.10637429061183075        3.1588499405204869E-002   1.5331729105018857E-002
 -0.10376334860103975        3.1068699697519707E-002   1.5272168750416608E-002
 -0.10115240659024873        3.0378584859596013E-002   1.5337861862931370E-002
  -9.8541464579457713E-002   2.9518154891433800E-002   1.5528808442563272E-002
 -0.11621543971378234        3.3925627672501069E-002   8.1809016869955238E-003
 -0.11347063972476348        3.4003053674028345E-002   7.8469488616490710E-003
 -0.11072583973574462        3.3683590114259768E-002   7.6554585256414249E-003
 -0.10798103974672574        3.2967236993195349E-002   7.6064306789724650E-003
 -0.10523623975770691        3.1853994310835201E-002   7.6998653216421046E-003
 -0.12331978797391360        3.5913271362350729E-002   1.3854582417553996E-003
 -0.12042392098444529        3.6417607942851885E-002   6.7579198172475208E-004
 -0.11752805399497694        3.6298480530999946E-002   1.2579723325444048E-004
 -0.11463218700550862        3.5555889126794846E-002  -2.6452600365591342E-004
 -0.11173632001604028        3.4189833730236596E-002  -4.9517772900575796E-004
  -8.4567829463212299E-002   2.4846476052630947E-002   3.0088394895225648E-002
  -8.2197143839366424E-002   2.4550199248784460E-002   2.9321445047863937E-002
  -7.9826458215520535E-002   2.4088144184901256E-002   2.8798828746824746E-002
  -7.7455772591674660E-002   2.3460310860981427E-002   2.8520545992108185E-002
  -7.5085086967828785E-002   2.2666699277024832E-002   2.8486596783714180E-002
  -9.1651994481292853E-002   2.7182315472032398E-002   2.2991651633757812E-002
  -8.9044800064999818E-002   2.6575633037307207E-002   2.2301487991247641E-002
  -8.6437605648706700E-002   2.5914560940241471E-002   2.1840008387309345E-002
  -8.3830411232413624E-002   2.5199099180834884E-002   2.1607212821942723E-002
  -8.1223216816120561E-002   2.4429247759087752E-002   2.1603101295148072E-002
  -9.8541464579457713E-002   2.9518154891433800E-002   1.5528808442563272E-002
  -9.5713410878468269E-002   2.8601066825829954E-002   1.5026819602600744E-002
  -9.2885357177478783E-002   2.7740977695581516E-002   1.4737865293459296E-002
  -9.0057303476489298E-002   2.6937887500688370E-002   1.4661945515138816E-002
  -8.7229249775499798E-002   2.6191796241150714E-002   1.4799060267639295E-002
 -0.10523623975770691        3.1853994310835201E-002   7.6998653216421046E-003
 -0.10220297627977183        3.0626500614352702E-002   7.4974398819233345E-003
  -9.9169712801836743E-002   2.9567394450921620E-002   7.4923994652747270E-003
  -9.6136449323901654E-002   2.8676675820541921E-002   7.6847440716961606E-003
  -9.3103185845966566E-002   2.7954344723213516E-002   8.0744737011878582E-003
 -0.11173632001604028        3.4189833730236596E-002  -4.9517772900575796E-004
 -0.10851349626891044        3.2651934402875504E-002  -2.8665117078499613E-004
 -0.10529067252178057        3.1393811206261835E-002   1.0361090275530505E-004
 -0.10206784877465074        3.0415464140395310E-002   6.7560849161489925E-004
  -9.8845025027520850E-002   2.9716893205276540E-002   1.4293415957940536E-003
  -7.5085086967828785E-002   2.2666699277024832E-002   2.8486596783714180E-002
  -7.2760704031959375E-002   2.1815105870328019E-002   2.8181153875772996E-002
  -7.0436321096089965E-002   2.1013327078187476E-002   2.8058429252807354E-002
  -6.8111938160220542E-002   2.0261362900602820E-002   2.8118422914817205E-002
  -6.5787555224351119E-002   1.9559213337574655E-002   2.8361134861802750E-002
  -8.1223216816120561E-002   2.4429247759087752E-002   2.1603101295148072E-002
  -7.8738174990060333E-002   2.3633351206203440E-002   2.1433752888645866E-002
  -7.6253133164000120E-002   2.2839754053385668E-002   2.1403003977549816E-002
  -7.3768091337939920E-002   2.2048456300634275E-002   2.1510854561859683E-002
  -7.1283049511879734E-002   2.1259457947949367E-002   2.1757304641575770E-002
  -8.7229249775499798E-002   2.6191796241150714E-002   1.4799060267639295E-002
  -8.4627667848818339E-002   2.5451596542078868E-002   1.4718291148086531E-002
  -8.2026085922136893E-002   2.4666181028583919E-002   1.4732002734370201E-002
  -7.9424503995455406E-002   2.3835549700665787E-002   1.4840195026490475E-002
  -7.6822922068773919E-002   2.2959702558324219E-002   1.5042868024447154E-002
  -9.3103185845966566E-002   2.7954344723213516E-002   8.0744737011878582E-003
  -9.0429182608233363E-002   2.7269841877954459E-002   8.0347686540947951E-003
  -8.7755179370500161E-002   2.6492608003782225E-002   8.0454255232685450E-003
  -8.5081176132766959E-002   2.5622643100697159E-002   8.1064443087095865E-003
  -8.2407172895033742E-002   2.4659947168698945E-002   8.2178250104172380E-003
  -9.8845025027520850E-002   2.9716893205276540E-002   1.4293415957940536E-003
  -9.6142719268305421E-002   2.9088087213829800E-002   1.3831854066707616E-003
  -9.3440413509090020E-002   2.8319034978980515E-002   1.3432723442449584E-003
  -9.0738107749874605E-002   2.7409736500728431E-002   1.3096024085166129E-003
  -8.8035801990659190E-002   2.6360191779073672E-002   1.2821755994857353E-003
  -6.5787555224351119E-002   1.9559213337574655E-002   2.8361134861802750E-002
  -6.3244409521808959E-002   1.8890951798650274E-002   2.8076938245139016E-002
  -6.0701263819266785E-002   1.8240651693377255E-002   2.8009290036444340E-002
  -5.8158118116724604E-002   1.7608313021755740E-002   2.8158190235719180E-002
  -5.5614972414182451E-002   1.6993935783785719E-002   2.8523638842963162E-002
  -7.1283049511879734E-002   2.1259457947949367E-002   2.1757304641575770E-002
  -6.8522071207548593E-002   2.0484887857593753E-002   2.1452273228487750E-002
  -6.5761092903217494E-002   1.9736874891830153E-002   2.1366358611008288E-002
  -6.3000114598886367E-002   1.9015419050658601E-002   2.1499560789137603E-002
  -6.0239136294555240E-002   1.8320520334078827E-002   2.1851879762875448E-002
  -7.6822922068773919E-002   2.2959702558324219E-002   1.5042868024447154E-002
  -7.3841542775014507E-002   2.2078823916537357E-002   1.4725597505875571E-002
  -7.0860163481255123E-002   2.1233098090282877E-002   1.4630012170551911E-002
  -6.7878784187495669E-002   2.0422525079561292E-002   1.4756112018476115E-002
  -6.4897404893736313E-002   1.9647104884371991E-002   1.5103897049648429E-002
  -8.2407172895033742E-002   2.4659947168698945E-002   8.2178250104172380E-003
  -7.9202824224206644E-002   2.3672759975480927E-002   7.8969110773024279E-003
  -7.5998475553379588E-002   2.2729321288735966E-002   7.8002507150749193E-003
  -7.2794126882552504E-002   2.1829631108464042E-002   7.9278439237348702E-003
  -6.9589778211725434E-002   2.0973689434665238E-002   8.2796907032820291E-003
  -8.8035801990659190E-002   2.6360191779073672E-002   1.2821755994857353E-003
  -8.4605915555125089E-002   2.5266696034424330E-002   9.6621394276807937E-004
  -8.1176029119590987E-002   2.4225544487188694E-002   8.7707424457794669E-004
  -7.7746142684056857E-002   2.3236737137366813E-002   1.0147565049138108E-003
  -7.4316256248522783E-002   2.2300273984958263E-002   1.3792607237764765E-003
  -5.5614972414182451E-002   1.6993935783785719E-002   2.8523638842963162E-002
  -5.3727236502952386E-002   1.6337833730231482E-002   2.8059051773546173E-002
  -5.1839500591722321E-002   1.5580320611856852E-002   2.7606522921166415E-002
  -4.9951764680492283E-002   1.4721396428662291E-002   2.7166052285823972E-002
  -4.8064028769262246E-002   1.3761061180647571E-002   2.6737639867518759E-002
  -6.0239136294555240E-002   1.8320520334078827E-002   2.1851879762875448E-002
  -5.8267615577929199E-002   1.7614372029487457E-002   2.1349680880291239E-002
  -5.6296094861303131E-002   1.6859167424280286E-002   2.1002993391461680E-002
  -5.4324574144677069E-002   1.6054906518457507E-002   2.0811817296387002E-002
  -5.2353053428050966E-002   1.5201589312019259E-002   2.0776152595066988E-002
  -6.4897404893736313E-002   1.9647104884371991E-002   1.5103897049648429E-002
  -6.2698646194996654E-002   1.8890910328743418E-002   1.4616441118101439E-002
  -6.0499887496257038E-002   1.8138014236703845E-002   1.4427949757026576E-002
  -5.8301128797517414E-002   1.7388416608252837E-002   1.4538422966424179E-002
  -5.6102370098777762E-002   1.6642117443390836E-002   1.4947860746294117E-002
  -6.9589778211725434E-002   2.0973689434665238E-002   8.2796907032820291E-003
  -6.7020328354154751E-002   2.0167448627999747E-002   7.8593324869766293E-003
  -6.4450878496584027E-002   1.9416861049127286E-002   7.8813920178610782E-003
  -6.1881428639013393E-002   1.8721926698048168E-002   8.3458692959356290E-003
  -5.9311978781442634E-002   1.8082645574762746E-002   9.2527643211996261E-003
  -7.4316256248522783E-002   2.2300273984958263E-002   1.3792607237764765E-003
  -7.1232662055403462E-002   2.1443986927255410E-002   1.0783549869171627E-003
  -6.8149067862284196E-002   2.0695707861550700E-002   1.3633201739652601E-003
  -6.5065473669164875E-002   2.0055436787843293E-002   2.2341562849208588E-003
  -6.1981879476045609E-002   1.9523173706134211E-002   3.6908633197835217E-003
  -4.8064028769262246E-002   1.3761061180647571E-002   2.6737639867518759E-002
  -4.4968441712386786E-002   1.2848966837282316E-002   2.6176863584056687E-002
  -4.1872854655511355E-002   1.2134765368035927E-002   2.6120991761328316E-002
  -3.8777267598635937E-002   1.1618456772908126E-002   2.6570024399333703E-002
  -3.5681680541760408E-002   1.1300041051899301E-002   2.7523961498072680E-002
  -5.2353053428050966E-002   1.5201589312019259E-002   2.0776152595066988E-002
  -4.8951737297171352E-002   1.4346367727743475E-002   2.0677479122467007E-002
  -4.5550421166291682E-002   1.3536393688407866E-002   2.0685359337141884E-002
  -4.2149105035412075E-002   1.2771667194012654E-002   2.0799793239091438E-002
  -3.8747788904532399E-002   1.2052188244558115E-002   2.1020780828315599E-002
  -5.6102370098777762E-002   1.6642117443390836E-002   1.4947860746294117E-002
  -5.2793675667352893E-002   1.5843768618204412E-002   1.5158644755377731E-002
  -4.9484981235928004E-002   1.4938022008780028E-002   1.5077631678277303E-002
  -4.6176286804503155E-002   1.3924877615117431E-002   1.4704821514992583E-002
  -4.2867592373078231E-002   1.2804335437217040E-002   1.4040214265523543E-002
  -5.9311978781442634E-002   1.8082645574762746E-002   9.2527643211996261E-003
  -5.6494256822931493E-002   1.7341169508665349E-002   9.6203604827885397E-003
  -5.3676534864420387E-002   1.6339650329152133E-002   9.2978087847345008E-003
  -5.0858812905909281E-002   1.5078088036222084E-002   8.2851092270374016E-003
  -4.8041090947398141E-002   1.3556482629875799E-002   6.5822618096964686E-003
  -6.1981879476045609E-002   1.9523173706134211E-002   3.6908633197835217E-003
  -6.0053480763907152E-002   1.8838570399126842E-002   4.0626263046998901E-003
  -5.8125082051768695E-002   1.7741278649524045E-002   3.3458906565133062E-003
  -5.6196683339630155E-002   1.6231298457326772E-002   1.5406563752249219E-003
  -5.4268284627491781E-002   1.4308629822534780E-002  -1.3530765391653876E-003
 </DataArray>
 </PointData>
 </Piece>
 <Piece  NumberOfPoints="          1600 "  NumberOfCells="         1024 ">
 <Points>
 <DataArray  type="Float64" NumberOfComponents="3"  format="ascii" >
  0.50000000000000000        0.0000000000000000        0.0000000000000000     
  0.53125000000000000        0.0000000000000000        0.0000000000000000     
  0.56250000000000000        0.0000000000000000        0.0000000000000000     
  0.59375000000000000        0.0000000000000000        0.0000000000000000     
  0.62500000000000000        0.0000000000000000        0.0000000000000000     
  0.50000000000000000        3.1250000000000000E-002   0.0000000000000000     
  0.53125000000000000        3.1250000000000000E-002   0.0000000000000000     
  0.56250000000000000        3.1250000000000000E-002   0.0000000000000000     
  0.59375000000000000        3.1250000000000000E-002   0.0000000000000000     
  0.62500000000000000        3.1250000000000000E-002   0.0000000000000000     
  0.50000000000000000        6.2500000000000000E-002   0.0000000000000000     
  0.53125000000000000        6.2500000000000000E-002   0.0000000000000000     
  0.56250000000000000        6.2500000000000000E-002   0.0000000000000000     
  0.59375000000000000        6.2500000000000000E-002   0.0000000000000000     
  0.62500000000000000        6.2500000000000000E-002   0.0000000000000000     
  0.50000000000000000        9.3750000000000000E-002   0.0000000000000000     
  0.53125000000000000        9.3750000000000000E-002   0.0000000000000000     
  0.56250000000000000        9.3750000000000000E-002   0.0000000000000000     
  0.59375000000000000        9.3750000000000000E-002   0.0000000000000000     
  0.62500000000000000        9.3750000000000000E-002   0.0000000000000000     
  0.50000000000000000       0.12500000000000000        0.0000000000000000     
  0.53125000000000000       0.12500000000000000        0.0000000000000000     
  0.56250000000000000       0.12500000000000000        0.0000000000000000     
  0.59375000000000000       0.12500000000000000        0.0000000000000000     
  0.62500000000000000       0.12500000000000000        0.0000000000000000     
  0.62500000000000000        0.0000000000000000        0.0000000000000000     
  0.65625000000000000        0.0000000000000000        0.0000000000000000     
  0.68750000000000000        0.0000000000000000        0.0000000000000000     
  0.71875000000000000        0.0000000000000000        0.0000000000000000     
  0.75000000000000000        0.0000000000000000        0.0000000000000000     
  0.62500000000000000        3.1250000000000000E-002   0.0000000000000000     
  0.65625000000000000        3.1250000000000000E-002   0.0000000000000000     
  0.68750000000000000        3.1250000000000000E-002   0.0000000000000000     
  0.71875000000000000        3.1250000000000000E-002   0.0000000000000000     
  0.75000000000000000        3.1250000000000000E-002   0.0000000000000000     
  0.62500000000000000        6.2500000000000000E-002   0.0000000000000000     
  0.65625000000000000        6.2500000000000000E-002   0.0000000000000000     
  0.68750000000000000        6.2500000000000000E-002   0.0000000000000000     
  0.71875000000000000        6.2500000000000000E-002   0.0000000000000000     
  0.75000000000000000        6.2500000000000000E-002   0.0000000000000000     
  0.62500000000000000        9.3750000000000000E-002   0.0000000000000000     
  0.65625000000000000        9.3750000000000000E-002   0.0000000000000000     
  0.68750000000000000        9.3750000000000000E-002   0.0000000000000000     
  0.71875000000000000        9.3750000000000000E-002   0.0000000000000000     
  0.75000000000000000        9.3750000000000000E-002   0.0000000000000000     
  0.62500000000000000       0.12500000000000000        0.0000000000000000     
  0.65625000000000000       0.12500000000000000        0.0000000000000000     
  0.68750000000000000       0.12500000000000000        0.0000000000000000     
  0.71875000000000000       0.12500000000000000        0.0000000000000000     
  0.75000000000000000       0.12500000000000000        0.0000000000000000     
  0.75000000000000000        0.0000000000000000        0.0000000000000000     
  0.78125000000000000        0.0000000000000000        0.0000000000000000     
  0.81250000000000000        0.0000000000000000        0.0000000000000000     
  0.84375000000000000        0.0000000000000000        0.0000000000000000     
  0.87500000000000000        0.0000000000000000        0.0000000000000000     
  0.75000000000000000        3.1250000000000000E-002   0.0000000000000000     
  0.78125000000000000        3.1250000000000000E-002   0.0000000000000000     
  0.81250000000000000        3.1250000000000000E-002   0.0000000000000000     
  0.84375000000000000        3.1250000000000000E-002   0.0000000000000000     
  0.87500000000000000        3.1250000000000000E-002   0.0000000000000000     
  0.75000000000000000        6.2500000000000000E-002   0.0000000000000000     
  0.78125000000000000        6.2500000000000000E-002   0.0000000000000000     
  0.81250000000000000        6.2500000000000000E-002   0.0000000000000000     
  0.84375000000000000        6.2500000000000000E-002   0.0000000000000000     
  0.87500000000000000        6.2500000000000000E-002   0.0000000000000000     
  0.75000000000000000        9.3750000000000000E-002   0.0000000000000000     
  0.78125000000000000        9.3750000000000000E-002   0.0000000000000000     
  0.81250000000000000        9.3750000000000000E-002   0.0000000000000000     
  0.84375000000000000        9.3750000000000000E-002   0.0000000000000000     
  0.87500000000000000        9.3750000000000000E-002   0.0000000000000000     
  0.75000000000000000       0.12500000000000000        0.0000000000000000     
  0.78125000000000000       0.12500000000000000        0.0000000000000000     
  0.81250000000000000       0.12500000000000000        0.0000000000000000     
  0.84375000000000000       0.12500000000000000        0.0000000000000000     
  0.87500000000000000       0.12500000000000000        0.0000000000000000     
  0.87500000000000000        0.0000000000000000        0.0000000000000000     
  0.90625000000000000        0.0000000000000000        0.0000000000000000     
  0.93750000000000000        0.0000000000000000        0.0000000000000000     
  0.96875000000000000        0.0000000000000000        0.0000000000000000     
   1.0000000000000000        0.0000000000000000        0.0000000000000000     
  0.87500000000000000        3.1250000000000000E-002   0.0000000000000000     
  0.90625000000000000        3.1250000000000000E-002   0.0000000000000000     
  0.93750000000000000        3.1250000000000000E-002   0.0000000000000000     
  0.96875000000000000        3.1250000000000000E-002   0.0000000000000000     
   1.0000000000000000        3.1250000000000000E-002   0.0000000000000000     
  0.87500000000000000        6.2500000000000000E-002   0.0000000000000000     
  0.90625000000000000        6.2500000000000000E-002   0.0000000000000000     
  0.93750000000000000        6.2500000000000000E-002   0.0000000000000000     
  0.96875000000000000        6.2500000000000000E-002   0.0000000000000000     
   1.0000000000000000        6.2500000000000000E-002   0.0000000000000000     
  0.87500000000000000        9.3750000000000000E-002   0.0000000000000000     
  0.90625000000000000        9.3750000000000000E-002   0.0000000000000000     
  0.93750000000000000        9.3750000000000000E-002   0.0000000000000000     
  0.96875000000000000        9.3750000000000000E-002   0.0000000000000000     
   1.0000000000000000        9.3750000000000000E-002   0.0000000000000000     
  0.87500000000000000       0.12500000000000000        0.0000000000000000     
  0.90625000000000000       0.12500000000000000        0.0000000000000000     
  0.93750000000000000       0.12500000000000000        0.0000000000000000     
  0.96875000000000000       0.12500000000000000        0.0000000000000000     
   1.0000000000000000       0.12500000000000000        0.0000000000000000     
   1.0000000000000000        0.0000000000000000        0.0000000000000000     
   1.0312500000000000        0.0000000000000000        0.0000000000000000     
   1.0625000000000000        0.0000000000000000        0.0000000000000000     
   1.0937500000000000        0.0000000000000000        0.0000000000000000     
   1.1250000000000000        0.0000000000000000        0.0000000000000000     
   1.0000000000000000        3.1250000000000000E-002   0.0000000000000000     
   1.0312500000000000        3.1250000000000000E-002   0.0000000000000000     
   1.0625000000000000        3.1250000000000000E-002   0.0000000000000000     
   1.0937500000000000        3.1250000000000000E-002   0.0000000000000000     
   1.1250000000000000        3.1250000000000000E-002   0.0000000000000000     
   1.0000000000000000        6.2500000000000000E-002   0.0000000000000000     
   1.0312500000000000        6.2500000000000000E-002   0.0000000000000000     
   1.0625000000000000        6.2500000000000000E-002   0.0000000000000000     
   1.0937500000000000        6.2500000000000000E-002   0.0000000000000000     
   1.1250000000000000        6.2500000000000000E-002   0.0000000000000000     
   1.0000000000000000        9.3750000000000000E-002   0.0000000000000000     
   1.0312500000000000        9.3750000000000000E-002   0.0000000000000000     
   1.0625000000000000        9.3750000000000000E-002   0.0000000000000000     
   1.0937500000000000        9.3750000000000000E-002   0.0000000000000000     
   1.1250000000000000        9.3750000000000000E-002   0.0000000000000000     
   1.0000000000000000       0.12500000000000000        0.0000000000000000     
   1.0312500000000000       0.12500000000000000        0.0000000000000000     
   1.0625000000000000       0.12500000000000000        0.0000000000000000     
   1.0937500000000000       0.12500000000000000        0.0000000000000000     
   1.1250000000000000       0.12500000000000000        0.0000000000000000     
   1.1250000000000000        0.0000000000000000        0.0000000000000000     
   1.1562500000000000        0.0000000000000000        0.0000000000000000     
   1.1875000000000000        0.0000000000000000        0.0000000000000000     
   1.2187500000000000        0.0000000000000000        0.0000000000000000     
   1.2500000000000000        0.0000000000000000        0.0000000000000000     
   1.1250000000000000        3.1250000000000000E-002   0.0000000000000000     
   1.1562500000000000        3.1250000000000000E-002   0.0000000000000000     
   1.1875000000000000        3.1250000000000000E-002   0.0000000000000000     
   1.2187500000000000        3.1250000000000000E-002   0.0000000000000000     
   1.2500000000000000        3.1250000000000000E-002   0.0000000000000000     
   1.1250000000000000        6.2500000000000000E-002   0.0000000000000000     
   1.1562500000000000        6.2500000000000000E-002   0.0000000000000000     
   1.1875000000000000        6.2500000000000000E-002   0.0000000000000000     
   1.2187500000000000        6.2500000000000000E-002   0.0000000000000000     
   1.2500000000000000        6.2500000000000000E-002   0.0000000000000000     
   1.1250000000000000        9.3750000000000000E-002   0.0000000000000000     
   1.1562500000000000        9.3750000000000000E-002   0.0000000000000000     
   1.1875000000000000        9.3750000000000000E-002   0.0000000000000000     
   1.2187500000000000        9.3750000000000000E-002   0.0000000000000000     
   1.2500000000000000        9.3750000000000000E-002   0.0000000000000000     
   1.1250000000000000       0.12500000000000000        0.0000000000000000     
   1.1562500000000000       0.12500000000000000        0.0000000000000000     
   1.1875000000000000       0.12500000000000000        0.0000000000000000     
   1.2187500000000000       0.12500000000000000        0.0000000000000000     
   1.2500000000000000       0.12500000000000000        0.0000000000000000     
   1.2500000000000000        0.0000000000000000        0.0000000000000000     
   1.2812500000000000        0.0000000000000000        0.0000000000000000     
   1.3125000000000000        0.0000000000000000        0.0000000000000000     
   1.3437500000000000        0.0000000000000000        0.0000000000000000     
   1.3750000000000000        0.0000000000000000        0.0000000000000000     
   1.2500000000000000        3.1250000000000000E-002   0.0000000000000000     
   1.2812500000000000        3.1250000000000000E-002   0.0000000000000000     
   1.3125000000000000        3.1250000000000000E-002   0.0000000000000000     
   1.3437500000000000        3.1250000000000000E-002   0.0000000000000000     
   1.3750000000000000        3.1250000000000000E-002   0.0000000000000000     
   1.2500000000000000        6.2500000000000000E-002   0.0000000000000000     
   1.2812500000000000        6.2500000000000000E-002   0.0000000000000000     
   1.3125000000000000        6.2500000000000000E-002   0.0000000000000000     
   1.3437500000000000        6.2500000000000000E-002   0.0000000000000000     
   1.3750000000000000        6.2500000000000000E-002   0.0000000000000000     
   1.2500000000000000        9.3750000000000000E-002   0.0000000000000000     
   1.2812500000000000        9.3750000000000000E-002   0.0000000000000000     
   1.3125000000000000        9.3750000000000000E-002   0.0000000000000000     
   1.3437500000000000        9.3750000000000000E-002   0.0000000000000000     
   1.3750000000000000        9.3750000000000000E-002   0.0000000000000000     
   1.2500000000000000       0.12500000000000000        0.0000000000000000     
   1.2812500000000000       0.12500000000000000        0.0000000000000000     
   1.3125000000000000       0.12500000000000000        0.0000000000000000     
   1.3437500000000000       0.12500000000000000        0.0000000000000000     
   1.3750000000000000       0.12500000000000000        0.0000000000000000     
   1.3750000000000000        0.0000000000000000        0.0000000000000000     
   1.4062500000000000        0.0000000000000000        0.0000000000000000     
   1.4375000000000000        0.0000000000000000        0.0000000000000000     
   1.4687500000000000        0.0000000000000000        0.0000000000000000     
   1.5000000000000000        0.0000000000000000        0.0000000000000000     
   1.3750000000000000        3.1250000000000000E-002   0.0000000000000000     
   1.4062500000000000        3.1250000000000000E-002   0.0000000000000000     
   1.4375000000000000        3.1250000000000000E-002   0.0000000000000000     
   1.4687500000000000        3.1250000000000000E-002   0.0000000000000000     
   1.5000000000000000        3.1250000000000000E-002   0.0000000000000000     
   1.3750000000000000        6.2500000000000000E-002   0.0000000000000000     
   1.4062500000000000        6.2500000000000000E-002   0.0000000000000000     
   1.4375000000000000        6.2500000000000000E-002   0.0000000000000000     
   1.4687500000000000        6.2500000000000000E-002   0.0000000000000000     
   1.5000000000000000        6.2500000000000000E-002   0.0000000000000000     
   1.3750000000000000        9.3750000000000000E-002   0.0000000000000000     
   1.4062500000000000        9.3750000000000000E-002   0.0000000000000000     
   1.4375000000000000        9.3750000000000000E-002   0.0000000000000000     
   1.4687500000000000        9.3750000000000000E-002   0.0000000000000000     
   1.5000000000000000        9.3750000000000000E-002   0.0000000000000000     
   1.3750000000000000       0.12500000000000000        0.0000000000000000     
   1.4062500000000000       0.12500000000000000        0.0000000000000000     
   1.4375000000000000       0.12500000000000000        0.0000000000000000     
   1.4687500000000000       0.12500000000000000        0.0000000000000000     
   1.5000000000000000       0.12500000000000000        0.0000000000000000     
  0.50000000000000000       0.12500000000000000        0.0000000000000000     
  0.53125000000000000       0.12500000000000000        0.0000000000000000     
  0.56250000000000000       0.12500000000000000        0.0000000000000000     
  0.59375000000000000       0.12500000000000000        0.0000000000000000     
  0.62500000000000000       0.12500000000000000        0.0000000000000000     
  0.50000000000000000       0.15625000000000000        0.0000000000000000     
  0.53125000000000000       0.15625000000000000        0.0000000000000000     
  0.56250000000000000       0.15625000000000000        0.0000000000000000     
  0.59375000000000000       0.15625000000000000        0.0000000000000000     
  0.62500000000000000       0.15625000000000000        0.0000000000000000     
  0.50000000000000000       0.18750000000000000        0.0000000000000000     
  0.53125000000000000       0.18750000000000000        0.0000000000000000     
  0.56250000000000000       0.18750000000000000        0.0000000000000000     
  0.59375000000000000       0.18750000000000000        0.0000000000000000     
  0.62500000000000000       0.18750000000000000        0.0000000000000000     
  0.50000000000000000       0.21875000000000000        0.0000000000000000     
  0.53125000000000000       0.21875000000000000        0.0000000000000000     
  0.56250000000000000       0.21875000000000000        0.0000000000000000     
  0.59375000000000000       0.21875000000000000        0.0000000000000000     
  0.62500000000000000       0.21875000000000000        0.0000000000000000     
  0.50000000000000000       0.25000000000000000        0.0000000000000000     
  0.53125000000000000       0.25000000000000000        0.0000000000000000     
  0.56250000000000000       0.25000000000000000        0.0000000000000000     
  0.59375000000000000       0.25000000000000000        0.0000000000000000     
  0.62500000000000000       0.25000000000000000        0.0000000000000000     
  0.62500000000000000       0.12500000000000000        0.0000000000000000     
  0.65625000000000000       0.12500000000000000        0.0000000000000000     
  0.68750000000000000       0.12500000000000000        0.0000000000000000     
  0.71875000000000000       0.12500000000000000        0.0000000000000000     
  0.75000000000000000       0.12500000000000000        0.0000000000000000     
  0.62500000000000000       0.15625000000000000        0.0000000000000000     
  0.65625000000000000       0.15625000000000000        0.0000000000000000     
  0.68750000000000000       0.15625000000000000        0.0000000000000000     
  0.71875000000000000       0.15625000000000000        0.0000000000000000     
  0.75000000000000000       0.15625000000000000        0.0000000000000000     
  0.62500000000000000       0.18750000000000000        0.0000000000000000     
  0.65625000000000000       0.18750000000000000        0.0000000000000000     
  0.68750000000000000       0.18750000000000000        0.0000000000000000     
  0.71875000000000000       0.18750000000000000        0.0000000000000000     
  0.75000000000000000       0.18750000000000000        0.0000000000000000     
  0.62500000000000000       0.21875000000000000        0.0000000000000000     
  0.65625000000000000       0.21875000000000000        0.0000000000000000     
  0.68750000000000000       0.21875000000000000        0.0000000000000000     
  0.71875000000000000       0.21875000000000000        0.0000000000000000     
  0.75000000000000000       0.21875000000000000        0.0000000000000000     
  0.62500000000000000       0.25000000000000000        0.0000000000000000     
  0.65625000000000000       0.25000000000000000        0.0000000000000000     
  0.68750000000000000       0.25000000000000000        0.0000000000000000     
  0.71875000000000000       0.25000000000000000        0.0000000000000000     
  0.75000000000000000       0.25000000000000000        0.0000000000000000     
  0.75000000000000000       0.12500000000000000        0.0000000000000000     
  0.78125000000000000       0.12500000000000000        0.0000000000000000     
  0.81250000000000000       0.12500000000000000        0.0000000000000000     
  0.84375000000000000       0.12500000000000000        0.0000000000000000     
  0.87500000000000000       0.12500000000000000        0.0000000000000000     
  0.75000000000000000       0.15625000000000000        0.0000000000000000     
  0.78125000000000000       0.15625000000000000        0.0000000000000000     
  0.81250000000000000       0.15625000000000000        0.0000000000000000     
  0.84375000000000000       0.15625000000000000        0.0000000000000000     
  0.87500000000000000       0.15625000000000000        0.0000000000000000     
  0.75000000000000000       0.18750000000000000        0.0000000000000000     
  0.78125000000000000       0.18750000000000000        0.0000000000000000     
  0.81250000000000000       0.18750000000000000        0.0000000000000000     
  0.84375000000000000       0.18750000000000000        0.0000000000000000     
  0.87500000000000000       0.18750000000000000        0.0000000000000000     
  0.75000000000000000       0.21875000000000000        0.0000000000000000     
  0.78125000000000000       0.21875000000000000        0.0000000000000000     
  0.81250000000000000       0.21875000000000000        0.0000000000000000     
  0.84375000000000000       0.21875000000000000        0.0000000000000000     
  0.87500000000000000       0.21875000000000000        0.0000000000000000     
  0.75000000000000000       0.25000000000000000        0.0000000000000000     
  0.78125000000000000       0.25000000000000000        0.0000000000000000     
  0.81250000000000000       0.25000000000000000        0.0000000000000000     
  0.84375000000000000       0.25000000000000000        0.0000000000000000     
  0.87500000000000000       0.25000000000000000        0.0000000000000000     
  0.87500000000000000       0.12500000000000000        0.0000000000000000     
  0.90625000000000000       0.12500000000000000        0.0000000000000000     
  0.93750000000000000       0.12500000000000000        0.0000000000000000     
  0.96875000000000000       0.12500000000000000        0.0000000000000000     
   1.0000000000000000       0.12500000000000000        0.0000000000000000     
  0.87500000000000000       0.15625000000000000        0.0000000000000000     
  0.90625000000000000       0.15625000000000000        0.0000000000000000     
  0.93750000000000000       0.15625000000000000        0.0000000000000000     
  0.96875000000000000       0.15625000000000000        0.0000000000000000     
   1.0000000000000000       0.15625000000000000        0.0000000000000000     
  0.87500000000000000       0.18750000000000000        0.0000000000000000     
  0.90625000000000000       0.18750000000000000        0.0000000000000000     
  0.93750000000000000       0.18750000000000000        0.0000000000000000     
  0.96875000000000000       0.18750000000000000        0.0000000000000000     
   1.0000000000000000       0.18750000000000000        0.0000000000000000     
  0.87500000000000000       0.21875000000000000        0.0000000000000000     
  0.90625000000000000       0.21875000000000000        0.0000000000000000     
  0.93750000000000000       0.21875000000000000        0.0000000000000000     
  0.96875000000000000       0.21875000000000000        0.0000000000000000     
   1.0000000000000000       0.21875000000000000        0.0000000000000000     
  0.87500000000000000       0.25000000000000000        0.0000000000000000     
  0.90625000000000000       0.25000000000000000        0.0000000000000000     
  0.93750000000000000       0.25000000000000000        0.0000000000000000     
  0.96875000000000000       0.25000000000000000        0.0000000000000000     
   1.0000000000000000       0.25000000000000000        0.0000000000000000     
   1.0000000000000000       0.12500000000000000        0.0000000000000000     
   1.0312500000000000       0.12500000000000000        0.0000000000000000     
   1.0625000000000000       0.12500000000000000        0.0000000000000000     
   1.0937500000000000       0.12500000000000000        0.0000000000000000     
   1.1250000000000000       0.12500000000000000        0.0000000000000000     
   1.0000000000000000       0.15625000000000000        0.0000000000000000     
   1.0312500000000000       0.15625000000000000        0.0000000000000000     
   1.0625000000000000       0.15625000000000000        0.0000000000000000     
   1.0937500000000000       0.15625000000000000        0.0000000000000000     
   1.1250000000000000       0.15625000000000000        0.0000000000000000     
   1.0000000000000000       0.18750000000000000        0.0000000000000000     
   1.0312500000000000       0.18750000000000000        0.0000000000000000     
   1.0625000000000000       0.18750000000000000        0.0000000000000000     
   1.0937500000000000       0.18750000000000000        0.0000000000000000     
   1.1250000000000000       0.18750000000000000        0.0000000000000000     
   1.0000000000000000       0.21875000000000000        0.0000000000000000     
   1.0312500000000000       0.21875000000000000        0.0000000000000000     
   1.0625000000000000       0.21875000000000000        0.0000000000000000     
   1.0937500000000000       0.21875000000000000        0.0000000000000000     
   1.1250000000000000       0.21875000000000000        0.0000000000000000     
   1.0000000000000000       0.25000000000000000        0.0000000000000000     
   1.0312500000000000       0.25000000000000000        0.0000000000000000     
   1.0625000000000000       0.25000000000000000        0.0000000000000000     
   1.0937500000000000       0.25000000000000000        0.0000000000000000     
   1.1250000000000000       0.25000000000000000        0.0000000000000000     
   1.1250000000000000       0.12500000000000000        0.0000000000000000     
   1.1562500000000000       0.12500000000000000        0.0000000000000000     
   1.1875000000000000       0.12500000000000000        0.0000000000000000     
   1.2187500000000000       0.12500000000000000        0.0000000000000000     
   1.2500000000000000       0.12500000000000000        0.0000000000000000     
   1.1250000000000000       0.15625000000000000        0.0000000000000000     
   1.1562500000000000       0.15625000000000000        0.0000000000000000     
   1.1875000000000000       0.15625000000000000        0.0000000000000000     
   1.2187500000000000       0.15625000000000000        0.0000000000000000     
   1.2500000000000000       0.15625000000000000        0.0000000000000000     
   1.1250000000000000       0.18750000000000000        0.0000000000000000     
   1.1562500000000000       0.18750000000000000        0.0000000000000000     
   1.1875000000000000       0.18750000000000000        0.0000000000000000     
   1.2187500000000000       0.18750000000000000        0.0000000000000000     
   1.2500000000000000       0.18750000000000000        0.0000000000000000     
   1.1250000000000000       0.21875000000000000        0.0000000000000000     
   1.1562500000000000       0.21875000000000000        0.0000000000000000     
   1.1875000000000000       0.21875000000000000        0.0000000000000000     
   1.2187500000000000       0.21875000000000000        0.0000000000000000     
   1.2500000000000000       0.21875000000000000        0.0000000000000000     
   1.1250000000000000       0.25000000000000000        0.0000000000000000     
   1.1562500000000000       0.25000000000000000        0.0000000000000000     
   1.1875000000000000       0.25000000000000000        0.0000000000000000     
   1.2187500000000000       0.25000000000000000        0.0000000000000000     
   1.2500000000000000       0.25000000000000000        0.0000000000000000     
   1.2500000000000000       0.12500000000000000        0.0000000000000000     
   1.2812500000000000       0.12500000000000000        0.0000000000000000     
   1.3125000000000000       0.12500000000000000        0.0000000000000000     
   1.3437500000000000       0.12500000000000000        0.0000000000000000     
   1.3750000000000000       0.12500000000000000        0.0000000000000000     
   1.2500000000000000       0.15625000000000000        0.0000000000000000     
   1.2812500000000000       0.15625000000000000        0.0000000000000000     
   1.3125000000000000       0.15625000000000000        0.0000000000000000     
   1.3437500000000000       0.15625000000000000        0.0000000000000000     
   1.3750000000000000       0.15625000000000000        0.0000000000000000     
   1.2500000000000000       0.18750000000000000        0.0000000000000000     
   1.2812500000000000       0.18750000000000000        0.0000000000000000     
   1.3125000000000000       0.18750000000000000        0.0000000000000000     
   1.3437500000000000       0.18750000000000000        0.0000000000000000     
   1.3750000000000000       0.18750000000000000        0.0000000000000000     
   1.2500000000000000       0.21875000000000000        0.0000000000000000     
   1.2812500000000000       0.21875000000000000        0.0000000000000000     
   1.3125000000000000       0.21875000000000000        0.0000000000000000     
   1.3437500000000000       0.21875000000000000        0.0000000000000000     
   1.3750000000000000       0.21875000000000000        0.0000000000000000     
   1.2500000000000000       0.25000000000000000        0.0000000000000000     
   1.2812500000000000       0.25000000000000000        0.0000000000000000     
   1.3125000000000000       0.25000000000000000        0.0000000000000000     
   1.3437500000000000       0.25000000000000000        0.0000000000000000     
   1.3750000000000000       0.25000000000000000        0.0000000000000000     
   1.3750000000000000       0.12500000000000000        0.0000000000000000     
   1.4062500000000000       0.12500000000000000        0.0000000000000000     
   1.4375000000000000       0.12500000000000000        0.0000000000000000     
   1.4687500000000000       0.12500000000000000        0.0000000000000000     
   1.5000000000000000       0.12500000000000000        0.0000000000000000     
   1.3750000000000000       0.15625000000000000        0.0000000000000000     
   1.4062500000000000       0.15625000000000000        0.0000000000000000     
   1.4375000000000000       0.15625000000000000        0.0000000000000000     
   1.4687500000000000       0.15625000000000000        0.0000000000000000     
   1.5000000000000000       0.15625000000000000        0.0000000000000000     
   1.3750000000000000       0.18750000000000000        0.0000000000000000     
   1.4062500000000000       0.18750000000000000        0.0000000000000000     
   1.4375000000000000       0.18750000000000000        0.0000000000000000     
   1.4687500000000000       0.18750000000000000        0.0000000000000000     
   1.5000000000000000       0.18750000000000000        0.0000000000000000     
   1.3750000000000000       0.21875000000000000        0.0000000000000000     
   1.4062500000000000       0.21875000000000000        0.0000000000000000     
   1.4375000000000000       0.21875000000000000        0.0000000000000000     
   1.4687500000000000       0.21875000000000000        0.0000000000000000     
   1.5000000000000000       0.21875000000000000        0.0000000000000000     
   1.3750000000000000       0.25000000000000000        0.0000000000000000     
   1.4062500000000000       0.25000000000000000        0.0000000000000000     
   1.4375000000000000       0.25000000000000000        0.0000000000000000     
   1.4687500000000000       0.25000000000000000        0.0000000000000000     
   1.5000000000000000       0.25000000000000000        0.0000000000000000     
  0.50000000000000000       0.25000000000000000        0.0000000000000000     
  0.53125000000000000       0.25000000000000000        0.0000000000000000     
  0.56250000000000000       0.25000000000000000        0.0000000000000000     
  0.59375000000000000       0.25000000000000000        0.0000000000000000     
  0.62500000000000000       0.25000000000000000        0.0000000000000000     
  0.50000000000000000       0.28125000000000000        0.0000000000000000     
  0.53125000000000000       0.28125000000000000        0.0000000000000000     
  0.56250000000000000       0.28125000000000000        0.0000000000000000     
  0.59375000000000000       0.28125000000000000        0.0000000000000000     
  0.62500000000000000       0.28125000000000000        0.0000000000000000     
  0.50000000000000000       0.31250000000000000        0.0000000000000000     
  0.53125000000000000       0.31250000000000000        0.0000000000000000     
  0.56250000000000000       0.31250000000000000        0.0000000000000000     
  0.59375000000000000       0.31250000000000000        0.0000000000000000     
  0.62500000000000000       0.31250000000000000        0.0000000000000000     
  0.50000000000000000       0.34375000000000000        0.0000000000000000     
  0.53125000000000000       0.34375000000000000        0.0000000000000000     
  0.56250000000000000       0.34375000000000000        0.0000000000000000     
  0.59375000000000000       0.34375000000000000        0.0000000000000000     
  0.62500000000000000       0.34375000000000000        0.0000000000000000     
  0.50000000000000000       0.37500000000000000        0.0000000000000000     
  0.53125000000000000       0.37500000000000000        0.0000000000000000     
  0.56250000000000000       0.37500000000000000        0.0000000000000000     
  0.59375000000000000       0.37500000000000000        0.0000000000000000     
  0.62500000000000000       0.37500000000000000        0.0000000000000000     
  0.62500000000000000       0.25000000000000000        0.0000000000000000     
  0.65625000000000000       0.25000000000000000        0.0000000000000000     
  0.68750000000000000       0.25000000000000000        0.0000000000000000     
  0.71875000000000000       0.25000000000000000        0.0000000000000000     
  0.75000000000000000       0.25000000000000000        0.0000000000000000     
  0.62500000000000000       0.28125000000000000        0.0000000000000000     
  0.65625000000000000       0.28125000000000000        0.0000000000000000     
  0.68750000000000000       0.28125000000000000        0.0000000000000000     
  0.71875000000000000       0.28125000000000000        0.0000000000000000     
  0.75000000000000000       0.28125000000000000        0.0000000000000000     
  0.62500000000000000       0.31250000000000000        0.0000000000000000     
  0.65625000000000000       0.31250000000000000        0.0000000000000000     
  0.68750000000000000       0.31250000000000000        0.0000000000000000     
  0.71875000000000000       0.31250000000000000        0.0000000000000000     
  0.75000000000000000       0.31250000000000000        0.0000000000000000     
  0.62500000000000000       0.34375000000000000        0.0000000000000000     
  0.65625000000000000       0.34375000000000000        0.0000000000000000     
  0.68750000000000000       0.34375000000000000        0.0000000000000000     
  0.71875000000000000       0.34375000000000000        0.0000000000000000     
  0.75000000000000000       0.34375000000000000        0.0000000000000000     
  0.62500000000000000       0.37500000000000000        0.0000000000000000     
  0.65625000000000000       0.37500000000000000        0.0000000000000000     
  0.68750000000000000       0.37500000000000000        0.0000000000000000     
  0.71875000000000000       0.37500000000000000        0.0000000000000000     
  0.75000000000000000       0.37500000000000000        0.0000000000000000     
  0.75000000000000000       0.25000000000000000        0.0000000000000000     
  0.78125000000000000       0.25000000000000000        0.0000000000000000     
  0.81250000000000000       0.25000000000000000        0.0000000000000000     
  0.84375000000000000       0.25000000000000000        0.0000000000000000     
  0.87500000000000000       0.25000000000000000        0.0000000000000000     
  0.75000000000000000       0.28125000000000000        0.0000000000000000     
  0.78125000000000000       0.28125000000000000        0.0000000000000000     
  0.81250000000000000       0.28125000000000000        0.0000000000000000     
  0.84375000000000000       0.28125000000000000        0.0000000000000000     
  0.87500000000000000       0.28125000000000000        0.0000000000000000     
  0.75000000000000000       0.31250000000000000        0.0000000000000000     
  0.78125000000000000       0.31250000000000000        0.0000000000000000     
  0.81250000000000000       0.31250000000000000        0.0000000000000000     
  0.84375000000000000       0.31250000000000000        0.0000000000000000     
  0.87500000000000000       0.31250000000000000        0.0000000000000000     
  0.75000000000000000       0.34375000000000000        0.0000000000000000     
  0.78125000000000000       0.34375000000000000        0.0000000000000000     
  0.81250000000000000       0.34375000000000000        0.0000000000000000     
  0.84375000000000000       0.34375000000000000        0.0000000000000000     
  0.87500000000000000       0.34375000000000000        0.0000000000000000     
  0.75000000000000000       0.37500000000000000        0.0000000000000000     
  0.78125000000000000       0.37500000000000000        0.0000000000000000     
  0.81250000000000000       0.37500000000000000        0.0000000000000000     
  0.84375000000000000       0.37500000000000000        0.0000000000000000     
  0.87500000000000000       0.37500000000000000        0.0000000000000000     
  0.87500000000000000       0.25000000000000000        0.0000000000000000     
  0.90625000000000000       0.25000000000000000        0.0000000000000000     
  0.93750000000000000       0.25000000000000000        0.0000000000000000     
  0.96875000000000000       0.25000000000000000        0.0000000000000000     
   1.0000000000000000       0.25000000000000000        0.0000000000000000     
  0.87500000000000000       0.28125000000000000        0.0000000000000000     
  0.90625000000000000       0.28125000000000000        0.0000000000000000     
  0.93750000000000000       0.28125000000000000        0.0000000000000000     
  0.96875000000000000       0.28125000000000000        0.0000000000000000     
   1.0000000000000000       0.28125000000000000        0.0000000000000000     
  0.87500000000000000       0.31250000000000000        0.0000000000000000     
  0.90625000000000000       0.31250000000000000        0.0000000000000000     
  0.93750000000000000       0.31250000000000000        0.0000000000000000     
  0.96875000000000000       0.31250000000000000        0.0000000000000000     
   1.0000000000000000       0.31250000000000000        0.0000000000000000     
  0.87500000000000000       0.34375000000000000        0.0000000000000000     
  0.90625000000000000       0.34375000000000000        0.0000000000000000     
  0.93750000000000000       0.34375000000000000        0.0000000000000000     
  0.96875000000000000       0.34375000000000000        0.0000000000000000     
   1.0000000000000000       0.34375000000000000        0.0000000000000000     
  0.87500000000000000       0.37500000000000000        0.0000000000000000     
  0.90625000000000000       0.37500000000000000        0.0000000000000000     
  0.93750000000000000       0.37500000000000000        0.0000000000000000     
  0.96875000000000000       0.37500000000000000        0.0000000000000000     
   1.0000000000000000       0.37500000000000000        0.0000000000000000     
   1.0000000000000000       0.25000000000000000        0.0000000000000000     
   1.0312500000000000       0.25000000000000000        0.0000000000000000     
   1.0625000000000000       0.25000000000000000        0.0000000000000000     
   1.0937500000000000       0.25000000000000000        0.0000000000000000     
   1.1250000000000000       0.25000000000000000        0.0000000000000000     
   1.0000000000000000       0.28125000000000000        0.0000000000000000     
   1.0312500000000000       0.28125000000000000        0.0000000000000000     
   1.0625000000000000       0.28125000000000000        0.0000000000000000     
   1.0937500000000000       0.28125000000000000        0.0000000000000000     
   1.1250000000000000       0.28125000000000000        0.0000000000000000     
   1.0000000000000000       0.31250000000000000        0.0000000000000000     
   1.0312500000000000       0.31250000000000000        0.0000000000000000     
   1.0625000000000000       0.31250000000000000        0.0000000000000000     
   1.0937500000000000       0.31250000000000000        0.0000000000000000     
   1.1250000000000000       0.31250000000000000        0.0000000000000000     
   1.0000000000000000       0.34375000000000000        0.0000000000000000     
   1.0312500000000000       0.34375000000000000        0.0000000000000000     
   1.0625000000000000       0.34375000000000000        0.0000000000000000     
   1.0937500000000000       0.34375000000000000        0.0000000000000000     
   1.1250000000000000       0.34375000000000000        0.0000000000000000     
   1.0000000000000000       0.37500000000000000        0.0000000000000000     
   1.0312500000000000       0.37500000000000000        0.0000000000000000     
   1.0625000000000000       0.37500000000000000        0.0000000000000000     
   1.0937500000000000       0.37500000000000000        0.0000000000000000     
   1.1250000000000000       0.37500000000000000        0.0000000000000000     
   1.1250000000000000       0.25000000000000000        0.0000000000000000     
   1.1562500000000000       0.25000000000000000        0.0000000000000000     
   1.1875000000000000       0.25000000000000000        0.0000000000000000     
   1.2187500000000000       0.25000000000000000        0.0000000000000000     
   1.2500000000000000       0.25000000000000000        0.0000000000000000     
   1.1250000000000000       0.28125000000000000        0.0000000000000000     
   1.1562500000000000       0.28125000000000000        0.0000000000000000     
   1.1875000000000000       0.28125000000000000        0.0000000000000000     
   1.2187500000000000       0.28125000000000000        0.0000000000000000     
   1.2500000000000000       0.28125000000000000        0.0000000000000000     
   1.1250000000000000       0.31250000000000000        0.0000000000000000     
   1.1562500000000000       0.31250000000000000        0.0000000000000000     
   1.1875000000000000       0.31250000000000000        0.0000000000000000     
   1.2187500000000000       0.31250000000000000        0.0000000000000000     
   1.2500000000000000       0.31250000000000000        0.0000000000000000     
   1.1250000000000000       0.34375000000000000        0.0000000000000000     
   1.1562500000000000       0.34375000000000000        0.0000000000000000     
   1.1875000000000000       0.34375000000000000        0.0000000000000000     
   1.2187500000000000       0.34375000000000000        0.0000000000000000     
   1.2500000000000000       0.34375000000000000        0.0000000000000000     
   1.1250000000000000       0.37500000000000000        0.0000000000000000     
   1.1562500000000000       0.37500000000000000        0.0000000000000000     
   1.1875000000000000       0.37500000000000000        0.0000000000000000     
   1.2187500000000000       0.37500000000000000        0.0000000000000000     
   1.2500000000000000       0.37500000000000000        0.0000000000000000     
   1.2500000000000000       0.25000000000000000        0.0000000000000000     
   1.2812500000000000       0.25000000000000000        0.0000000000000000     
   1.3125000000000000       0.25000000000000000        0.0000000000000000     
   1.3437500000000000       0.25000000000000000        0.0000000000000000     
   1.3750000000000000       0.25000000000000000        0.0000000000000000     
   1.2500000000000000       0.28125000000000000        0.0000000000000000     
   1.2812500000000000       0.28125000000000000        0.0000000000000000     
   1.3125000000000000       0.28125000000000000        0.0000000000000000     
   1.3437500000000000       0.28125000000000000        0.0000000000000000     
   1.3750000000000000       0.28125000000000000        0.0000000000000000     
   1.2500000000000000       0.31250000000000000        0.0000000000000000     
   1.2812500000000000       0.31250000000000000        0.0000000000000000     
   1.3125000000000000       0.31250000000000000        0.0000000000000000     
   1.3437500000000000       0.31250000000000000        0.0000000000000000     
   1.3750000000000000       0.31250000000000000        0.0000000000000000     
   1.2500000000000000       0.34375000000000000        0.0000000000000000     
   1.2812500000000000       0.34375000000000000        0.0000000000000000     
   1.3125000000000000       0.34375000000000000        0.0000000000000000     
   1.3437500000000000       0.34375000000000000        0.0000000000000000     
   1.3750000000000000       0.34375000000000000        0.0000000000000000     
   1.2500000000000000       0.37500000000000000        0.0000000000000000     
   1.2812500000000000       0.37500000000000000        0.0000000000000000     
   1.3125000000000000       0.37500000000000000        0.0000000000000000     
   1.3437500000000000       0.37500000000000000        0.0000000000000000     
   1.3750000000000000       0.37500000000000000        0.0000000000000000     
   1.3750000000000000       0.25000000000000000        0.0000000000000000     
   1.4062500000000000       0.25000000000000000        0.0000000000000000     
   1.4375000000000000       0.25000000000000000        0.0000000000000000     
   1.4687500000000000       0.25000000000000000        0.0000000000000000     
   1.5000000000000000       0.25000000000000000        0.0000000000000000     
   1.3750000000000000       0.28125000000000000        0.0000000000000000     
   1.4062500000000000       0.28125000000000000        0.0000000000000000     
   1.4375000000000000       0.28125000000000000        0.0000000000000000     
   1.4687500000000000       0.28125000000000000        0.0000000000000000     
   1.5000000000000000       0.28125000000000000        0.0000000000000000     
   1.3750000000000000       0.31250000000000000        0.0000000000000000     
   1.4062500000000000       0.31250000000000000        0.0000000000000000     
   1.4375000000000000       0.31250000000000000        0.0000000000000000     
   1.4687500000000000       0.31250000000000000        0.0000000000000000     
   1.5000000000000000       0.31250000000000000        0.0000000000000000     
   1.3750000000000000       0.34375000000000000        0.0000000000000000     
   1.4062500000000000       0.34375000000000000        0.0000000000000000     
   1.4375000000000000       0.34375000000000000        0.0000000000000000     
   1.4687500000000000       0.34375000000000000        0.0000000000000000     
   1.5000000000000000       0.34375000000000000        0.0000000000000000     
   1.3750000000000000       0.37500000000000000        0.0000000000000000     
   1.4062500000000000       0.37500000000000000        0.0000000000000000     
   1.4375000000000000       0.37500000000000000        0.0000000000000000     
   1.4687500000000000       0.37500000000000000        0.0000000000000000     
   1.5000000000000000       0.37500000000000000        0.0000000000000000     
  0.50000000000000000       0.37500000000000000        0.0000000000000000     
  0.53125000000000000       0.37500000000000000        0.0000000000000000     
  0.56250000000000000       0.37500000000000000        0.0000000000000000     
  0.59375000000000000       0.37500000000000000        0.0000000000000000     
  0.62500000000000000       0.37500000000000000        0.0000000000000000     
  0.50000000000000000       0.40625000000000000        0.0000000000000000     
  0.53125000000000000       0.40625000000000000        0.0000000000000000     
  0.56250000000000000       0.40625000000000000        0.0000000000000000     
  0.59375000000000000       0.40625000000000000        0.0000000000000000     
  0.62500000000000000       0.40625000000000000        0.0000000000000000     
  0.50000000000000000       0.43750000000000000        0.0000000000000000     
  0.53125000000000000       0.43750000000000000        0.0000000000000000     
  0.56250000000000000       0.43750000000000000        0.0000000000000000     
  0.59375000000000000       0.43750000000000000        0.0000000000000000     
  0.62500000000000000       0.43750000000000000        0.0000000000000000     
  0.50000000000000000       0.46875000000000000        0.0000000000000000     
  0.53125000000000000       0.46875000000000000        0.0000000000000000     
  0.56250000000000000       0.46875000000000000        0.0000000000000000     
  0.59375000000000000       0.46875000000000000        0.0000000000000000     
  0.62500000000000000       0.46875000000000000        0.0000000000000000     
  0.50000000000000000       0.50000000000000000        0.0000000000000000     
  0.53125000000000000       0.50000000000000000        0.0000000000000000     
  0.56250000000000000       0.50000000000000000        0.0000000000000000     
  0.59375000000000000       0.50000000000000000        0.0000000000000000     
  0.62500000000000000       0.50000000000000000        0.0000000000000000     
  0.62500000000000000       0.37500000000000000        0.0000000000000000     
  0.65625000000000000       0.37500000000000000        0.0000000000000000     
  0.68750000000000000       0.37500000000000000        0.0000000000000000     
  0.71875000000000000       0.37500000000000000        0.0000000000000000     
  0.75000000000000000       0.37500000000000000        0.0000000000000000     
  0.62500000000000000       0.40625000000000000        0.0000000000000000     
  0.65625000000000000       0.40625000000000000        0.0000000000000000     
  0.68750000000000000       0.40625000000000000        0.0000000000000000     
  0.71875000000000000       0.40625000000000000        0.0000000000000000     
  0.75000000000000000       0.40625000000000000        0.0000000000000000     
  0.62500000000000000       0.43750000000000000        0.0000000000000000     
  0.65625000000000000       0.43750000000000000        0.0000000000000000     
  0.68750000000000000       0.43750000000000000        0.0000000000000000     
  0.71875000000000000       0.43750000000000000        0.0000000000000000     
  0.75000000000000000       0.43750000000000000        0.0000000000000000     
  0.62500000000000000       0.46875000000000000        0.0000000000000000     
  0.65625000000000000       0.46875000000000000        0.0000000000000000     
  0.68750000000000000       0.46875000000000000        0.0000000000000000     
  0.71875000000000000       0.46875000000000000        0.0000000000000000     
  0.75000000000000000       0.46875000000000000        0.0000000000000000     
  0.62500000000000000       0.50000000000000000        0.0000000000000000     
  0.65625000000000000       0.50000000000000000        0.0000000000000000     
  0.68750000000000000       0.50000000000000000        0.0000000000000000     
  0.71875000000000000       0.50000000000000000        0.0000000000000000     
  0.75000000000000000       0.50000000000000000        0.0000000000000000     
  0.75000000000000000       0.37500000000000000        0.0000000000000000     
  0.78125000000000000       0.37500000000000000        0.0000000000000000     
  0.81250000000000000       0.37500000000000000        0.0000000000000000     
  0.84375000000000000       0.37500000000000000        0.0000000000000000     
  0.87500000000000000       0.37500000000000000        0.0000000000000000     
  0.75000000000000000       0.40625000000000000        0.0000000000000000     
  0.78125000000000000       0.40625000000000000        0.0000000000000000     
  0.81250000000000000       0.40625000000000000        0.0000000000000000     
  0.84375000000000000       0.40625000000000000        0.0000000000000000     
  0.87500000000000000       0.40625000000000000        0.0000000000000000     
  0.75000000000000000       0.43750000000000000        0.0000000000000000     
  0.78125000000000000       0.43750000000000000        0.0000000000000000     
  0.81250000000000000       0.43750000000000000        0.0000000000000000     
  0.84375000000000000       0.43750000000000000        0.0000000000000000     
  0.87500000000000000       0.43750000000000000        0.0000000000000000     
  0.75000000000000000       0.46875000000000000        0.0000000000000000     
  0.78125000000000000       0.46875000000000000        0.0000000000000000     
  0.81250000000000000       0.46875000000000000        0.0000000000000000     
  0.84375000000000000       0.46875000000000000        0.0000000000000000     
  0.87500000000000000       0.46875000000000000        0.0000000000000000     
  0.75000000000000000       0.50000000000000000        0.0000000000000000     
  0.78125000000000000       0.50000000000000000        0.0000000000000000     
  0.81250000000000000       0.50000000000000000        0.0000000000000000     
  0.84375000000000000       0.50000000000000000        0.0000000000000000     
  0.87500000000000000       0.50000000000000000        0.0000000000000000     
  0.87500000000000000       0.37500000000000000        0.0000000000000000     
  0.90625000000000000       0.37500000000000000        0.0000000000000000     
  0.93750000000000000       0.37500000000000000        0.0000000000000000     
  0.96875000000000000       0.37500000000000000        0.0000000000000000     
   1.0000000000000000       0.37500000000000000        0.0000000000000000     
  0.87500000000000000       0.40625000000000000        0.0000000000000000     
  0.90625000000000000       0.40625000000000000        0.0000000000000000     
  0.93750000000000000       0.40625000000000000        0.0000000000000000     
  0.96875000000000000       0.40625000000000000        0.0000000000000000     
   1.0000000000000000       0.40625000000000000        0.0000000000000000     
  0.87500000000000000       0.43750000000000000        0.0000000000000000     
  0.90625000000000000       0.43750000000000000        0.0000000000000000     
  0.93750000000000000       0.43750000000000000        0.0000000000000000     
  0.96875000000000000       0.43750000000000000        0.0000000000000000     
   1.0000000000000000       0.43750000000000000        0.0000000000000000     
  0.87500000000000000       0.46875000000000000        0.0000000000000000     
  0.90625000000000000       0.46875000000000000        0.0000000000000000     
  0.93750000000000000       0.46875000000000000        0.0000000000000000     
  0.96875000000000000       0.46875000000000000        0.0000000000000000     
   1.0000000000000000       0.46875000000000000        0.0000000000000000     
  0.87500000000000000       0.50000000000000000        0.0000000000000000     
  0.90625000000000000       0.50000000000000000        0.0000000000000000     
  0.93750000000000000       0.50000000000000000        0.0000000000000000     
  0.96875000000000000       0.50000000000000000        0.0000000000000000     
   1.0000000000000000       0.50000000000000000        0.0000000000000000     
   1.0000000000000000       0.37500000000000000        0.0000000000000000     
   1.0312500000000000       0.37500000000000000        0.0000000000000000     
   1.0625000000000000       0.37500000000000000        0.0000000000000000     
   1.0937500000000000       0.37500000000000000        0.0000000000000000     
   1.1250000000000000       0.37500000000000000        0.0000000000000000     
   1.0000000000000000       0.40625000000000000        0.0000000000000000     
   1.0312500000000000       0.40625000000000000        0.0000000000000000     
   1.0625000000000000       0.40625000000000000        0.0000000000000000     
   1.0937500000000000       0.40625000000000000        0.0000000000000000     
   1.1250000000000000       0.40625000000000000        0.0000000000000000     
   1.0000000000000000       0.43750000000000000        0.0000000000000000     
   1.0312500000000000       0.43750000000000000        0.0000000000000000     
   1.0625000000000000       0.43750000000000000        0.0000000000000000     
   1.0937500000000000       0.43750000000000000        0.0000000000000000     
   1.1250000000000000       0.43750000000000000        0.0000000000000000     
   1.0000000000000000       0.46875000000000000        0.0000000000000000     
   1.0312500000000000       0.46875000000000000        0.0000000000000000     
   1.0625000000000000       0.46875000000000000        0.0000000000000000     
   1.0937500000000000       0.46875000000000000        0.0000000000000000     
   1.1250000000000000       0.46875000000000000        0.0000000000000000     
   1.0000000000000000       0.50000000000000000        0.0000000000000000     
   1.0312500000000000       0.50000000000000000        0.0000000000000000     
   1.0625000000000000       0.50000000000000000        0.0000000000000000     
   1.0937500000000000       0.50000000000000000        0.0000000000000000     
   1.1250000000000000       0.50000000000000000        0.0000000000000000     
   1.1250000000000000       0.37500000000000000        0.0000000000000000     
   1.1562500000000000       0.37500000000000000        0.0000000000000000     
   1.1875000000000000       0.37500000000000000        0.0000000000000000     
   1.2187500000000000       0.37500000000000000        0.0000000000000000     
   1.2500000000000000       0.37500000000000000        0.0000000000000000     
   1.1250000000000000       0.40625000000000000        0.0000000000000000     
   1.1562500000000000       0.40625000000000000        0.0000000000000000     
   1.1875000000000000       0.40625000000000000        0.0000000000000000     
   1.2187500000000000       0.40625000000000000        0.0000000000000000     
   1.2500000000000000       0.40625000000000000        0.0000000000000000     
   1.1250000000000000       0.43750000000000000        0.0000000000000000     
   1.1562500000000000       0.43750000000000000        0.0000000000000000     
   1.1875000000000000       0.43750000000000000        0.0000000000000000     
   1.2187500000000000       0.43750000000000000        0.0000000000000000     
   1.2500000000000000       0.43750000000000000        0.0000000000000000     
   1.1250000000000000       0.46875000000000000        0.0000000000000000     
   1.1562500000000000       0.46875000000000000        0.0000000000000000     
   1.1875000000000000       0.46875000000000000        0.0000000000000000     
   1.2187500000000000       0.46875000000000000        0.0000000000000000     
   1.2500000000000000       0.46875000000000000        0.0000000000000000     
   1.1250000000000000       0.50000000000000000        0.0000000000000000     
   1.1562500000000000       0.50000000000000000        0.0000000000000000     
   1.1875000000000000       0.50000000000000000        0.0000000000000000     
   1.2187500000000000       0.50000000000000000        0.0000000000000000     
   1.2500000000000000       0.50000000000000000        0.0000000000000000     
   1.2500000000000000       0.37500000000000000        0.0000000000000000     
   1.2812500000000000       0.37500000000000000        0.0000000000000000     
   1.3125000000000000       0.37500000000000000        0.0000000000000000     
   1.3437500000000000       0.37500000000000000        0.0000000000000000     
   1.3750000000000000       0.37500000000000000        0.0000000000000000     
   1.2500000000000000       0.40625000000000000        0.0000000000000000     
   1.2812500000000000       0.40625000000000000        0.0000000000000000     
   1.3125000000000000       0.40625000000000000        0.0000000000000000     
   1.3437500000000000       0.40625000000000000        0.0000000000000000     
   1.3750000000000000       0.40625000000000000        0.0000000000000000     
   1.2500000000000000       0.43750000000000000        0.0000000000000000     
   1.2812500000000000       0.43750000000000000        0.0000000000000000     
   1.3125000000000000       0.43750000000000000        0.0000000000000000     
   1.3437500000000000       0.43750000000000000        0.0000000000000000     
   1.3750000000000000       0.43750000000000000        0.0000000000000000     
   1.2500000000000000       0.46875000000000000        0.0000000000000000     
   1.2812500000000000       0.46875000000000000        0.0000000000000000     
   1.3125000000000000       0.46875000000000000        0.0000000000000000     
   1.3437500000000000       0.46875000000000000        0.0000000000000000     
   1.3750000000000000       0.46875000000000000        0.0000000000000000     
   1.2500000000000000       0.50000000000000000        0.0000000000000000     
   1.2812500000000000       0.50000000000000000        0.0000000000000000     
   1.3125000000000000       0.50000000000000000        0.0000000000000000     
   1.3437500000000000       0.50000000000000000        0.0000000000000000     
   1.3750000000000000       0.50000000000000000        0.0000000000000000     
   1.3750000000000000       0.37500000000000000        0.0000000000000000     
   1.4062500000000000       0.37500000000000000        0.0000000000000000     
   1.4375000000000000       0.37500000000000000        0.0000000000000000     
   1.4687500000000000       0.37500000000000000        0.0000000000000000     
   1.5000000000000000       0.37500000000000000        0.0000000000000000     
   1.3750000000000000       0.40625000000000000        0.0000000000000000     
   1.4062500000000000       0.40625000000000000        0.0000000000000000     
   1.4375000000000000       0.40625000000000000        0.0000000000000000     
   1.4687500000000000       0.40625000000000000        0.0000000000000000     
   1.5000000000000000       0.40625000000000000        0.0000000000000000     
   1.3750000000000000       0.43750000000000000        0.0000000000000000     
   1.4062500000000000       0.43750000000000000        0.0000000000000000     
   1.4375000000000000       0.43750000000000000        0.0000000000000000     
   1.4687500000000000       0.43750000000000000        0.0000000000000000     
   1.5000000000000000       0.43750000000000000        0.0000000000000000     
   1.3750000000000000       0.46875000000000000        0.0000000000000000     
   1.4062500000000000       0.46875000000000000        0.0000000000000000     
   1.4375000000000000       0.46875000000000000        0.0000000000000000     
   1.4687500000000000       0.46875000000000000        0.0000000000000000     
   1.5000000000000000       0.46875000000000000        0.0000000000000000     
   1.3750000000000000       0.50000000000000000        0.0000000000000000     
   1.4062500000000000       0.50000000000000000        0.0000000000000000     
   1.4375000000000000       0.50000000000000000        0.0000000000000000     
   1.4687500000000000       0.50000000000000000        0.0000000000000000     
   1.5000000000000000       0.50000000000000000        0.0000000000000000     
  0.50000000000000000       0.50000000000000000        0.0000000000000000     
  0.53125000000000000       0.50000000000000000        0.0000000000000000     
  0.56250000000000000       0.50000000000000000        0.0000000000000000     
  0.59375000000000000       0.50000000000000000        0.0000000000000000     
  0.62500000000000000       0.50000000000000000        0.0000000000000000     
  0.50000000000000000       0.53125000000000000        0.0000000000000000     
  0.53125000000000000       0.53125000000000000        0.0000000000000000     
  0.56250000000000000       0.53125000000000000        0.0000000000000000     
  0.59375000000000000       0.53125000000000000        0.0000000000000000     
  0.62500000000000000       0.53125000000000000        0.0000000000000000     
  0.50000000000000000       0.56250000000000000        0.0000000000000000     
  0.53125000000000000       0.56250000000000000        0.0000000000000000     
  0.56250000000000000       0.56250000000000000        0.0000000000000000     
  0.59375000000000000       0.56250000000000000        0.0000000000000000     
  0.62500000000000000       0.56250000000000000        0.0000000000000000     
  0.50000000000000000       0.59375000000000000        0.0000000000000000     
  0.53125000000000000       0.59375000000000000        0.0000000000000000     
  0.56250000000000000       0.59375000000000000        0.0000000000000000     
  0.59375000000000000       0.59375000000000000        0.0000000000000000     
  0.62500000000000000       0.59375000000000000        0.0000000000000000     
  0.50000000000000000       0.62500000000000000        0.0000000000000000     
  0.53125000000000000       0.62500000000000000        0.0000000000000000     
  0.56250000000000000       0.62500000000000000        0.0000000000000000     
  0.59375000000000000       0.62500000000000000        0.0000000000000000     
  0.62500000000000000       0.62500000000000000        0.0000000000000000     
  0.62500000000000000       0.50000000000000000        0.0000000000000000     
  0.65625000000000000       0.50000000000000000        0.0000000000000000     
  0.68750000000000000       0.50000000000000000        0.0000000000000000     
  0.71875000000000000       0.50000000000000000        0.0000000000000000     
  0.75000000000000000       0.50000000000000000        0.0000000000000000     
  0.62500000000000000       0.53125000000000000        0.0000000000000000     
  0.65625000000000000       0.53125000000000000        0.0000000000000000     
  0.68750000000000000       0.53125000000000000        0.0000000000000000     
  0.71875000000000000       0.53125000000000000        0.0000000000000000     
  0.75000000000000000       0.53125000000000000        0.0000000000000000     
  0.62500000000000000       0.56250000000000000        0.0000000000000000     
  0.65625000000000000       0.56250000000000000        0.0000000000000000     
  0.68750000000000000       0.56250000000000000        0.0000000000000000     
  0.71875000000000000       0.56250000000000000        0.0000000000000000     
  0.75000000000000000       0.56250000000000000        0.0000000000000000     
  0.62500000000000000       0.59375000000000000        0.0000000000000000     
  0.65625000000000000       0.59375000000000000        0.0000000000000000     
  0.68750000000000000       0.59375000000000000        0.0000000000000000     
  0.71875000000000000       0.59375000000000000        0.0000000000000000     
  0.75000000000000000       0.59375000000000000        0.0000000000000000     
  0.62500000000000000       0.62500000000000000        0.0000000000000000     
  0.65625000000000000       0.62500000000000000        0.0000000000000000     
  0.68750000000000000       0.62500000000000000        0.0000000000000000     
  0.71875000000000000       0.62500000000000000        0.0000000000000000     
  0.75000000000000000       0.62500000000000000        0.0000000000000000     
  0.75000000000000000       0.50000000000000000        0.0000000000000000     
  0.78125000000000000       0.50000000000000000        0.0000000000000000     
  0.81250000000000000       0.50000000000000000        0.0000000000000000     
  0.84375000000000000       0.50000000000000000        0.0000000000000000     
  0.87500000000000000       0.50000000000000000        0.0000000000000000     
  0.75000000000000000       0.53125000000000000        0.0000000000000000     
  0.78125000000000000       0.53125000000000000        0.0000000000000000     
  0.81250000000000000       0.53125000000000000        0.0000000000000000     
  0.84375000000000000       0.53125000000000000        0.0000000000000000     
  0.87500000000000000       0.53125000000000000        0.0000000000000000     
  0.75000000000000000       0.56250000000000000        0.0000000000000000     
  0.78125000000000000       0.56250000000000000        0.0000000000000000     
  0.81250000000000000       0.56250000000000000        0.0000000000000000     
  0.84375000000000000       0.56250000000000000        0.0000000000000000     
  0.87500000000000000       0.56250000000000000        0.0000000000000000     
  0.75000000000000000       0.59375000000000000        0.0000000000000000     
  0.78125000000000000       0.59375000000000000        0.0000000000000000     
  0.81250000000000000       0.59375000000000000        0.0000000000000000     
  0.84375000000000000       0.59375000000000000        0.0000000000000000     
  0.87500000000000000       0.59375000000000000        0.0000000000000000     
  0.75000000000000000       0.62500000000000000        0.0000000000000000     
  0.78125000000000000       0.62500000000000000        0.0000000000000000     
  0.81250000000000000       0.62500000000000000        0.0000000000000000     
  0.84375000000000000       0.62500000000000000        0.0000000000000000     
  0.87500000000000000       0.62500000000000000        0.0000000000000000     
  0.87500000000000000       0.50000000000000000        0.0000000000000000     
  0.90625000000000000       0.50000000000000000        0.0000000000000000     
  0.93750000000000000       0.50000000000000000        0.0000000000000000     
  0.96875000000000000       0.50000000000000000        0.0000000000000000     
   1.0000000000000000       0.50000000000000000        0.0000000000000000     
  0.87500000000000000       0.53125000000000000        0.0000000000000000     
  0.90625000000000000       0.53125000000000000        0.0000000000000000     
  0.93750000000000000       0.53125000000000000        0.0000000000000000     
  0.96875000000000000       0.53125000000000000        0.0000000000000000     
   1.0000000000000000       0.53125000000000000        0.0000000000000000     
  0.87500000000000000       0.56250000000000000        0.0000000000000000     
  0.90625000000000000       0.56250000000000000        0.0000000000000000     
  0.93750000000000000       0.56250000000000000        0.0000000000000000     
  0.96875000000000000       0.56250000000000000        0.0000000000000000     
   1.0000000000000000       0.56250000000000000        0.0000000000000000     
  0.87500000000000000       0.59375000000000000        0.0000000000000000     
  0.90625000000000000       0.59375000000000000        0.0000000000000000     
  0.93750000000000000       0.59375000000000000        0.0000000000000000     
  0.96875000000000000       0.59375000000000000        0.0000000000000000     
   1.0000000000000000       0.59375000000000000        0.0000000000000000     
  0.87500000000000000       0.62500000000000000        0.0000000000000000     
  0.90625000000000000       0.62500000000000000        0.0000000000000000     
  0.93750000000000000       0.62500000000000000        0.0000000000000000     
  0.96875000000000000       0.62500000000000000        0.0000000000000000     
   1.0000000000000000       0.62500000000000000        0.0000000000000000     
   1.0000000000000000       0.50000000000000000        0.0000000000000000     
   1.0312500000000000       0.50000000000000000        0.0000000000000000     
   1.0625000000000000       0.50000000000000000        0.0000000000000000     
   1.0937500000000000       0.50000000000000000        0.0000000000000000     
   1.1250000000000000       0.50000000000000000        0.0000000000000000     
   1.0000000000000000       0.53125000000000000        0.0000000000000000     
   1.0312500000000000       0.53125000000000000        0.0000000000000000     
   1.0625000000000000       0.53125000000000000        0.0000000000000000     
   1.0937500000000000       0.53125000000000000        0.0000000000000000     
   1.1250000000000000       0.53125000000000000        0.0000000000000000     
   1.0000000000000000       0.56250000000000000        0.0000000000000000     
   1.0312500000000000       0.56250000000000000        0.0000000000000000     
   1.0625000000000000       0.56250000000000000        0.0000000000000000     
   1.0937500000000000       0.56250000000000000        0.0000000000000000     
   1.1250000000000000       0.56250000000000000        0.0000000000000000     
   1.0000000000000000       0.59375000000000000        0.0000000000000000     
   1.0312500000000000       0.59375000000000000        0.0000000000000000     
   1.0625000000000000       0.59375000000000000        0.0000000000000000     
   1.0937500000000000       0.59375000000000000        0.0000000000000000     
   1.1250000000000000       0.59375000000000000        0.0000000000000000     
   1.0000000000000000       0.62500000000000000        0.0000000000000000     
   1.0312500000000000       0.62500000000000000        0.0000000000000000     
   1.0625000000000000       0.62500000000000000        0.0000000000000000     
   1.0937500000000000       0.62500000000000000        0.0000000000000000     
   1.1250000000000000       0.62500000000000000        0.0000000000000000     
   1.1250000000000000       0.50000000000000000        0.0000000000000000     
   1.1562500000000000       0.50000000000000000        0.0000000000000000     
   1.1875000000000000       0.50000000000000000        0.0000000000000000     
   1.2187500000000000       0.50000000000000000        0.0000000000000000     
   1.2500000000000000       0.50000000000000000        0.0000000000000000     
   1.1250000000000000       0.53125000000000000        0.0000000000000000     
   1.1562500000000000       0.53125000000000000        0.0000000000000000     
   1.1875000000000000       0.53125000000000000        0.0000000000000000     
   1.2187500000000000       0.53125000000000000        0.0000000000000000     
   1.2500000000000000       0.53125000000000000        0.0000000000000000     
   1.1250000000000000       0.56250000000000000        0.0000000000000000     
   1.1562500000000000       0.56250000000000000        0.0000000000000000     
   1.1875000000000000       0.56250000000000000        0.0000000000000000     
   1.2187500000000000       0.56250000000000000        0.0000000000000000     
   1.2500000000000000       0.56250000000000000        0.0000000000000000     
   1.1250000000000000       0.59375000000000000        0.0000000000000000     
   1.1562500000000000       0.59375000000000000        0.0000000000000000     
   1.1875000000000000       0.59375000000000000        0.0000000000000000     
   1.2187500000000000       0.59375000000000000        0.0000000000000000     
   1.2500000000000000       0.59375000000000000        0.0000000000000000     
   1.1250000000000000       0.62500000000000000        0.0000000000000000     
   1.1562500000000000       0.62500000000000000        0.0000000000000000     
   1.1875000000000000       0.62500000000000000        0.0000000000000000     
   1.2187500000000000       0.62500000000000000        0.0000000000000000     
   1.2500000000000000       0.62500000000000000        0.0000000000000000     
   1.2500000000000000       0.50000000000000000        0.0000000000000000     
   1.2812500000000000       0.50000000000000000        0.0000000000000000     
   1.3125000000000000       0.50000000000000000        0.0000000000000000     
   1.3437500000000000       0.50000000000000000        0.0000000000000000     
   1.3750000000000000       0.50000000000000000        0.0000000000000000     
   1.2500000000000000       0.53125000000000000        0.0000000000000000     
   1.2812500000000000       0.53125000000000000        0.0000000000000000     
   1.3125000000000000       0.53125000000000000        0.0000000000000000     
   1.3437500000000000       0.53125000000000000        0.0000000000000000     
   1.3750000000000000       0.53125000000000000        0.0000000000000000     
   1.2500000000000000       0.56250000000000000        0.0000000000000000     
   1.2812500000000000       0.56250000000000000        0.0000000000000000     
   1.3125000000000000       0.56250000000000000        0.0000000000000000     
   1.3437500000000000       0.56250000000000000        0.0000000000000000     
   1.3750000000000000       0.56250000000000000        0.0000000000000000     
   1.2500000000000000       0.59375000000000000        0.0000000000000000     
   1.2812500000000000       0.59375000000000000        0.0000000000000000     
   1.3125000000000000       0.59375000000000000        0.0000000000000000     
   1.3437500000000000       0.59375000000000000        0.0000000000000000     
   1.3750000000000000       0.59375000000000000        0.0000000000000000     
   1.2500000000000000       0.62500000000000000        0.0000000000000000     
   1.2812500000000000       0.62500000000000000        0.0000000000000000     
   1.3125000000000000       0.62500000000000000        0.0000000000000000     
   1.3437500000000000       0.62500000000000000        0.0000000000000000     
   1.3750000000000000       0.62500000000000000        0.0000000000000000     
   1.3750000000000000       0.50000000000000000        0.0000000000000000     
   1.4062500000000000       0.50000000000000000        0.0000000000000000     
   1.4375000000000000       0.50000000000000000        0.0000000000000000     
   1.4687500000000000       0.50000000000000000        0.0000000000000000     
   1.5000000000000000       0.50000000000000000        0.0000000000000000     
   1.3750000000000000       0.53125000000000000        0.0000000000000000     
   1.4062500000000000       0.53125000000000000        0.0000000000000000     
   1.4375000000000000       0.53125000000000000        0.0000000000000000     
   1.4687500000000000       0.53125000000000000        0.0000000000000000     
   1.5000000000000000       0.53125000000000000        0.0000000000000000     
   1.3750000000000000       0.56250000000000000        0.0000000000000000     
   1.4062500000000000       0.56250000000000000        0.0000000000000000     
   1.4375000000000000       0.56250000000000000        0.0000000000000000     
   1.4687500000000000       0.56250000000000000        0.0000000000000000     
   1.5000000000000000       0.56250000000000000        0.0000000000000000     
   1.3750000000000000       0.59375000000000000        0.0000000000000000     
   1.4062500000000000       0.59375000000000000        0.0000000000000000     
   1.4375000000000000       0.59375000000000000        0.0000000000000000     
   1.4687500000000000       0.59375000000000000        0.0000000000000000     
   1.5000000000000000       0.59375000000000000        0.0000000000000000     
   1.3750000000000000       0.62500000000000000        0.0000000000000000     
   1.4062500000000000       0.62500000000000000        0.0000000000000000     
   1.4375000000000000       0.62500000000000000        0.0000000000000000     
   1.4687500000000000       0.62500000000000000        0.0000000000000000     
   1.5000000000000000       0.62500000000000000        0.0000000000000000     
  0.50000000000000000       0.62500000000000000        0.0000000000000000     
  0.53125000000000000       0.62500000000000000        0.0000000000000000     
  0.56250000000000000       0.62500000000000000        0.0000000000000000     
  0.59375000000000000       0.62500000000000000        0.0000000000000000     
  0.62500000000000000       0.62500000000000000        0.0000000000000000     
  0.50000000000000000       0.65625000000000000        0.0000000000000000     
  0.53125000000000000       0.65625000000000000        0.0000000000000000     
  0.56250000000000000       0.65625000000000000        0.0000000000000000     
  0.59375000000000000       0.65625000000000000        0.0000000000000000     
  0.62500000000000000       0.65625000000000000        0.0000000000000000     
  0.50000000000000000       0.68750000000000000        0.0000000000000000     
  0.53125000000000000       0.68750000000000000        0.0000000000000000     
  0.56250000000000000       0.68750000000000000        0.0000000000000000     
  0.59375000000000000       0.68750000000000000        0.0000000000000000     
  0.62500000000000000       0.68750000000000000        0.0000000000000000     
  0.50000000000000000       0.71875000000000000        0.0000000000000000     
  0.53125000000000000       0.71875000000000000        0.0000000000000000     
  0.56250000000000000       0.71875000000000000        0.0000000000000000     
  0.59375000000000000       0.71875000000000000        0.0000000000000000     
  0.62500000000000000       0.71875000000000000        0.0000000000000000     
  0.50000000000000000       0.75000000000000000        0.0000000000000000     
  0.53125000000000000       0.75000000000000000        0.0000000000000000     
  0.56250000000000000       0.75000000000000000        0.0000000000000000     
  0.59375000000000000       0.75000000000000000        0.0000000000000000     
  0.62500000000000000       0.75000000000000000        0.0000000000000000     
  0.62500000000000000       0.62500000000000000        0.0000000000000000     
  0.65625000000000000       0.62500000000000000        0.0000000000000000     
  0.68750000000000000       0.62500000000000000        0.0000000000000000     
  0.71875000000000000       0.62500000000000000        0.0000000000000000     
  0.75000000000000000       0.62500000000000000        0.0000000000000000     
  0.62500000000000000       0.65625000000000000        0.0000000000000000     
  0.65625000000000000       0.65625000000000000        0.0000000000000000     
  0.68750000000000000       0.65625000000000000        0.0000000000000000     
  0.71875000000000000       0.65625000000000000        0.0000000000000000     
  0.75000000000000000       0.65625000000000000        0.0000000000000000     
  0.62500000000000000       0.68750000000000000        0.0000000000000000     
  0.65625000000000000       0.68750000000000000        0.0000000000000000     
  0.68750000000000000       0.68750000000000000        0.0000000000000000     
  0.71875000000000000       0.68750000000000000        0.0000000000000000     
  0.75000000000000000       0.68750000000000000        0.0000000000000000     
  0.62500000000000000       0.71875000000000000        0.0000000000000000     
  0.65625000000000000       0.71875000000000000        0.0000000000000000     
  0.68750000000000000       0.71875000000000000        0.0000000000000000     
  0.71875000000000000       0.71875000000000000        0.0000000000000000     
  0.75000000000000000       0.71875000000000000        0.0000000000000000     
  0.62500000000000000       0.75000000000000000        0.0000000000000000     
  0.65625000000000000       0.75000000000000000        0.0000000000000000     
  0.68750000000000000       0.75000000000000000        0.0000000000000000     
  0.71875000000000000       0.75000000000000000        0.0000000000000000     
  0.75000000000000000       0.75000000000000000        0.0000000000000000     
  0.75000000000000000       0.62500000000000000        0.0000000000000000     
  0.78125000000000000       0.62500000000000000        0.0000000000000000     
  0.81250000000000000       0.62500000000000000        0.0000000000000000     
  0.84375000000000000       0.62500000000000000        0.0000000000000000     
  0.87500000000000000       0.62500000000000000        0.0000000000000000     
  0.75000000000000000       0.65625000000000000        0.0000000000000000     
  0.78125000000000000       0.65625000000000000        0.0000000000000000     
  0.81250000000000000       0.65625000000000000        0.0000000000000000     
  0.84375000000000000       0.65625000000000000        0.0000000000000000     
  0.87500000000000000       0.65625000000000000        0.0000000000000000     
  0.75000000000000000       0.68750000000000000        0.0000000000000000     
  0.78125000000000000       0.68750000000000000        0.0000000000000000     
  0.81250000000000000       0.68750000000000000        0.0000000000000000     
  0.84375000000000000       0.68750000000000000        0.0000000000000000     
  0.87500000000000000       0.68750000000000000        0.0000000000000000     
  0.75000000000000000       0.71875000000000000        0.0000000000000000     
  0.78125000000000000       0.71875000000000000        0.0000000000000000     
  0.81250000000000000       0.71875000000000000        0.0000000000000000     
  0.84375000000000000       0.71875000000000000        0.0000000000000000     
  0.87500000000000000       0.71875000000000000        0.0000000000000000     
  0.75000000000000000       0.75000000000000000        0.0000000000000000     
  0.78125000000000000       0.75000000000000000        0.0000000000000000     
  0.81250000000000000       0.75000000000000000        0.0000000000000000     
  0.84375000000000000       0.75000000000000000        0.0000000000000000     
  0.87500000000000000       0.75000000000000000        0.0000000000000000     
  0.87500000000000000       0.62500000000000000        0.0000000000000000     
  0.90625000000000000       0.62500000000000000        0.0000000000000000     
  0.93750000000000000       0.62500000000000000        0.0000000000000000     
  0.96875000000000000       0.62500000000000000        0.0000000000000000     
   1.0000000000000000       0.62500000000000000        0.0000000000000000     
  0.87500000000000000       0.65625000000000000        0.0000000000000000     
  0.90625000000000000       0.65625000000000000        0.0000000000000000     
  0.93750000000000000       0.65625000000000000        0.0000000000000000     
  0.96875000000000000       0.65625000000000000        0.0000000000000000     
   1.0000000000000000       0.65625000000000000        0.0000000000000000     
  0.87500000000000000       0.68750000000000000        0.0000000000000000     
  0.90625000000000000       0.68750000000000000        0.0000000000000000     
  0.93750000000000000       0.68750000000000000        0.0000000000000000     
  0.96875000000000000       0.68750000000000000        0.0000000000000000     
   1.0000000000000000       0.68750000000000000        0.0000000000000000     
  0.87500000000000000       0.71875000000000000        0.0000000000000000     
  0.90625000000000000       0.71875000000000000        0.0000000000000000     
  0.93750000000000000       0.71875000000000000        0.0000000000000000     
  0.96875000000000000       0.71875000000000000        0.0000000000000000     
   1.0000000000000000       0.71875000000000000        0.0000000000000000     
  0.87500000000000000       0.75000000000000000        0.0000000000000000     
  0.90625000000000000       0.75000000000000000        0.0000000000000000     
  0.93750000000000000       0.75000000000000000        0.0000000000000000     
  0.96875000000000000       0.75000000000000000        0.0000000000000000     
   1.0000000000000000       0.75000000000000000        0.0000000000000000     
   1.0000000000000000       0.62500000000000000        0.0000000000000000     
   1.0312500000000000       0.62500000000000000        0.0000000000000000     
   1.0625000000000000       0.62500000000000000        0.0000000000000000     
   1.0937500000000000       0.62500000000000000        0.0000000000000000     
   1.1250000000000000       0.62500000000000000        0.0000000000000000     
   1.0000000000000000       0.65625000000000000        0.0000000000000000     
   1.0312500000000000       0.65625000000000000        0.0000000000000000     
   1.0625000000000000       0.65625000000000000        0.0000000000000000     
   1.0937500000000000       0.65625000000000000        0.0000000000000000     
   1.1250000000000000       0.65625000000000000        0.0000000000000000     
   1.0000000000000000       0.68750000000000000        0.0000000000000000     
   1.0312500000000000       0.68750000000000000        0.0000000000000000     
   1.0625000000000000       0.68750000000000000        0.0000000000000000     
   1.0937500000000000       0.68750000000000000        0.0000000000000000     
   1.1250000000000000       0.68750000000000000        0.0000000000000000     
   1.0000000000000000       0.71875000000000000        0.0000000000000000     
   1.0312500000000000       0.71875000000000000        0.0000000000000000     
   1.0625000000000000       0.71875000000000000        0.0000000000000000     
   1.0937500000000000       0.71875000000000000        0.0000000000000000     
   1.1250000000000000       0.71875000000000000        0.0000000000000000     
   1.0000000000000000       0.75000000000000000        0.0000000000000000     
   1.0312500000000000       0.75000000000000000        0.0000000000000000     
   1.0625000000000000       0.75000000000000000        0.0000000000000000     
   1.0937500000000000       0.75000000000000000        0.0000000000000000     
   1.1250000000000000       0.75000000000000000        0.0000000000000000     
   1.1250000000000000       0.62500000000000000        0.0000000000000000     
   1.1562500000000000       0.62500000000000000        0.0000000000000000     
   1.1875000000000000       0.62500000000000000        0.0000000000000000     
   1.2187500000000000       0.62500000000000000        0.0000000000000000     
   1.2500000000000000       0.62500000000000000        0.0000000000000000     
   1.1250000000000000       0.65625000000000000        0.0000000000000000     
   1.1562500000000000       0.65625000000000000        0.0000000000000000     
   1.1875000000000000       0.65625000000000000        0.0000000000000000     
   1.2187500000000000       0.65625000000000000        0.0000000000000000     
   1.2500000000000000       0.65625000000000000        0.0000000000000000     
   1.1250000000000000       0.68750000000000000        0.0000000000000000     
   1.1562500000000000       0.68750000000000000        0.0000000000000000     
   1.1875000000000000       0.68750000000000000        0.0000000000000000     
   1.2187500000000000       0.68750000000000000        0.0000000000000000     
   1.2500000000000000       0.68750000000000000        0.0000000000000000     
   1.1250000000000000       0.71875000000000000        0.0000000000000000     
   1.1562500000000000       0.71875000000000000        0.0000000000000000     
   1.1875000000000000       0.71875000000000000        0.0000000000000000     
   1.2187500000000000       0.71875000000000000        0.0000000000000000     
   1.2500000000000000       0.71875000000000000        0.0000000000000000     
   1.1250000000000000       0.75000000000000000        0.0000000000000000     
   1.1562500000000000       0.75000000000000000        0.0000000000000000     
   1.1875000000000000       0.75000000000000000        0.0000000000000000     
   1.2187500000000000       0.75000000000000000        0.0000000000000000     
   1.2500000000000000       0.75000000000000000        0.0000000000000000     
   1.2500000000000000       0.62500000000000000        0.0000000000000000     
   1.2812500000000000       0.62500000000000000        0.0000000000000000     
   1.3125000000000000       0.62500000000000000        0.0000000000000000     
   1.3437500000000000       0.62500000000000000        0.0000000000000000     
   1.3750000000000000       0.62500000000000000        0.0000000000000000     
   1.2500000000000000       0.65625000000000000        0.0000000000000000     
   1.2812500000000000       0.65625000000000000        0.0000000000000000     
   1.3125000000000000       0.65625000000000000        0.0000000000000000     
   1.3437500000000000       0.65625000000000000        0.0000000000000000     
   1.3750000000000000       0.65625000000000000        0.0000000000000000     
   1.2500000000000000       0.68750000000000000        0.0000000000000000     
   1.2812500000000000       0.68750000000000000        0.0000000000000000     
   1.3125000000000000       0.68750000000000000        0.0000000000000000     
   1.3437500000000000       0.68750000000000000        0.0000000000000000     
   1.3750000000000000       0.68750000000000000        0.0000000000000000     
   1.2500000000000000       0.71875000000000000        0.0000000000000000     
   1.2812500000000000       0.71875000000000000        0.0000000000000000     
   1.3125000000000000       0.71875000000000000        0.0000000000000000     
   1.3437500000000000       0.71875000000000000        0.0000000000000000     
   1.3750000000000000       0.71875000000000000        0.0000000000000000     
   1.2500000000000000       0.75000000000000000        0.0000000000000000     
   1.2812500000000000       0.75000000000000000        0.0000000000000000     
   1.3125000000000000       0.75000000000000000        0.0000000000000000     
   1.3437500000000000       0.75000000000000000        0.0000000000000000     
   1.3750000000000000       0.75000000000000000        0.0000000000000000     
   1.3750000000000000       0.62500000000000000        0.0000000000000000     
   1.4062500000000000       0.62500000000000000        0.0000000000000000     
   1.4375000000000000       0.62500000000000000        0.0000000000000000     
   1.4687500000000000       0.62500000000000000        0.0000000000000000     
   1.5000000000000000       0.62500000000000000        0.0000000000000000     
   1.3750000000000000       0.65625000000000000        0.0000000000000000     
   1.4062500000000000       0.65625000000000000        0.0000000000000000     
   1.4375000000000000       0.65625000000000000        0.0000000000000000     
   1.4687500000000000       0.65625000000000000        0.0000000000000000     
   1.5000000000000000       0.65625000000000000        0.0000000000000000     
   1.3750000000000000       0.68750000000000000        0.0000000000000000     
   1.4062500000000000       0.68750000000000000        0.0000000000000000     
   1.4375000000000000       0.68750000000000000        0.0000000000000000     
   1.4687500000000000       0.68750000000000000        0.0000000000000000     
   1.5000000000000000       0.68750000000000000        0.0000000000000000     
   1.3750000000000000       0.71875000000000000        0.0000000000000000     
   1.4062500000000000       0.71875000000000000        0.0000000000000000     
   1.4375000000000000       0.71875000000000000        0.0000000000000000     
   1.4687500000000000       0.71875000000000000        0.0000000000000000     
   1.5000000000000000       0.71875000000000000        0.0000000000000000     
   1.3750000000000000       0.75000000000000000        0.0000000000000000     
   1.4062500000000000       0.75000000000000000        0.0000000000000000     
   1.4375000000000000       0.75000000000000000        0.0000000000000000     
   1.4687500000000000       0.75000000000000000        0.0000000000000000     
   1.5000000000000000       0.75000000000000000        0.0000000000000000     
  0.50000000000000000       0.75000000000000000        0.0000000000000000     
  0.53125000000000000       0.75000000000000000        0.0000000000000000     
  0.56250000000000000       0.75000000000000000        0.0000000000000000     
  0.59375000000000000       0.75000000000000000        0.0000000000000000     
  0.62500000000000000       0.75000000000000000        0.0000000000000000     
  0.50000000000000000       0.78125000000000000        0.0000000000000000     
  0.53125000000000000       0.78125000000000000        0.0000000000000000     
  0.56250000000000000       0.78125000000000000        0.0000000000000000     
  0.59375000000000000       0.78125000000000000        0.0000000000000000     
  0.62500000000000000       0.78125000000000000        0.0000000000000000     
  0.50000000000000000       0.81250000000000000        0.0000000000000000     
  0.53125000000000000       0.81250000000000000        0.0000000000000000     
  0.56250000000000000       0.81250000000000000        0.0000000000000000     
  0.59375000000000000       0.81250000000000000        0.0000000000000000     
  0.62500000000000000       0.81250000000000000        0.0000000000000000     
  0.50000000000000000       0.84375000000000000        0.0000000000000000     
  0.53125000000000000       0.84375000000000000        0.0000000000000000     
  0.56250000000000000       0.84375000000000000        0.0000000000000000     
  0.59375000000000000       0.84375000000000000        0.0000000000000000     
  0.62500000000000000       0.84375000000000000        0.0000000000000000     
  0.50000000000000000       0.87500000000000000        0.0000000000000000     
  0.53125000000000000       0.87500000000000000        0.0000000000000000     
  0.56250000000000000       0.87500000000000000        0.0000000000000000     
  0.59375000000000000       0.87500000000000000        0.0000000000000000     
  0.62500000000000000       0.87500000000000000        0.0000000000000000     
  0.62500000000000000       0.75000000000000000        0.0000000000000000     
  0.65625000000000000       0.75000000000000000        0.0000000000000000     
  0.68750000000000000       0.75000000000000000        0.0000000000000000     
  0.71875000000000000       0.75000000000000000        0.0000000000000000     
  0.75000000000000000       0.75000000000000000        0.0000000000000000     
  0.62500000000000000       0.78125000000000000        0.0000000000000000     
  0.65625000000000000       0.78125000000000000        0.0000000000000000     
  0.68750000000000000       0.78125000000000000        0.0000000000000000     
  0.71875000000000000       0.78125000000000000        0.0000000000000000     
  0.75000000000000000       0.78125000000000000        0.0000000000000000     
  0.62500000000000000       0.81250000000000000        0.0000000000000000     
  0.65625000000000000       0.81250000000000000        0.0000000000000000     
  0.68750000000000000       0.81250000000000000        0.0000000000000000     
  0.71875000000000000       0.81250000000000000        0.0000000000000000     
  0.75000000000000000       0.81250000000000000        0.0000000000000000     
  0.62500000000000000       0.84375000000000000        0.0000000000000000     
  0.65625000000000000       0.84375000000000000        0.0000000000000000     
  0.68750000000000000       0.84375000000000000        0.0000000000000000     
  0.71875000000000000       0.84375000000000000        0.0000000000000000     
  0.75000000000000000       0.84375000000000000        0.0000000000000000     
  0.62500000000000000       0.87500000000000000        0.0000000000000000     
  0.65625000000000000       0.87500000000000000        0.0000000000000000     
  0.68750000000000000       0.87500000000000000        0.0000000000000000     
  0.71875000000000000       0.87500000000000000        0.0000000000000000     
  0.75000000000000000       0.87500000000000000        0.0000000000000000     
  0.75000000000000000       0.75000000000000000        0.0000000000000000     
  0.78125000000000000       0.75000000000000000        0.0000000000000000     
  0.81250000000000000       0.75000000000000000        0.0000000000000000     
  0.84375000000000000       0.75000000000000000        0.0000000000000000     
  0.87500000000000000       0.75000000000000000        0.0000000000000000     
  0.75000000000000000       0.78125000000000000        0.0000000000000000     
  0.78125000000000000       0.78125000000000000        0.0000000000000000     
  0.81250000000000000       0.78125000000000000        0.0000000000000000     
  0.84375000000000000       0.78125000000000000        0.0000000000000000     
  0.87500000000000000       0.78125000000000000        0.0000000000000000     
  0.75000000000000000       0.81250000000000000        0.0000000000000000     
  0.78125000000000000       0.81250000000000000        0.0000000000000000     
  0.81250000000000000       0.81250000000000000        0.0000000000000000     
  0.84375000000000000       0.81250000000000000        0.0000000000000000     
  0.87500000000000000       0.81250000000000000        0.0000000000000000     
  0.75000000000000000       0.84375000000000000        0.0000000000000000     
  0.78125000000000000       0.84375000000000000        0.0000000000000000     
  0.81250000000000000       0.84375000000000000        0.0000000000000000     
  0.84375000000000000       0.84375000000000000        0.0000000000000000     
  0.87500000000000000       0.84375000000000000        0.0000000000000000     
  0.75000000000000000       0.87500000000000000        0.0000000000000000     
  0.78125000000000000       0.87500000000000000        0.0000000000000000     
  0.81250000000000000       0.87500000000000000        0.0000000000000000     
  0.84375000000000000       0.87500000000000000        0.0000000000000000     
  0.87500000000000000       0.87500000000000000        0.0000000000000000     
  0.87500000000000000       0.75000000000000000        0.0000000000000000     
  0.90625000000000000       0.75000000000000000        0.0000000000000000     
  0.93750000000000000       0.75000000000000000        0.0000000000000000     
  0.96875000000000000       0.75000000000000000        0.0000000000000000     
   1.0000000000000000       0.75000000000000000        0.0000000000000000     
  0.87500000000000000       0.78125000000000000        0.0000000000000000     
  0.90625000000000000       0.78125000000000000        0.0000000000000000     
  0.93750000000000000       0.78125000000000000        0.0000000000000000     
  0.96875000000000000       0.78125000000000000        0.0000000000000000     
   1.0000000000000000       0.78125000000000000        0.0000000000000000     
  0.87500000000000000       0.81250000000000000        0.0000000000000000     
  0.90625000000000000       0.81250000000000000        0.0000000000000000     
  0.93750000000000000       0.81250000000000000        0.0000000000000000     
  0.96875000000000000       0.81250000000000000        0.0000000000000000     
   1.0000000000000000       0.81250000000000000        0.0000000000000000     
  0.87500000000000000       0.84375000000000000        0.0000000000000000     
  0.90625000000000000       0.84375000000000000        0.0000000000000000     
  0.93750000000000000       0.84375000000000000        0.0000000000000000     
  0.96875000000000000       0.84375000000000000        0.0000000000000000     
   1.0000000000000000       0.84375000000000000        0.0000000000000000     
  0.87500000000000000       0.87500000000000000        0.0000000000000000     
  0.90625000000000000       0.87500000000000000        0.0000000000000000     
  0.93750000000000000       0.87500000000000000        0.0000000000000000     
  0.96875000000000000       0.87500000000000000        0.0000000000000000     
   1.0000000000000000       0.87500000000000000        0.0000000000000000     
   1.0000000000000000       0.75000000000000000        0.0000000000000000     
   1.0312500000000000       0.75000000000000000        0.0000000000000000     
   1.0625000000000000       0.75000000000000000        0.0000000000000000     
   1.0937500000000000       0.75000000000000000        0.0000000000000000     
   1.1250000000000000       0.75000000000000000        0.0000000000000000     
   1.0000000000000000       0.78125000000000000        0.0000000000000000     
   1.0312500000000000       0.78125000000000000        0.0000000000000000     
   1.0625000000000000       0.78125000000000000        0.0000000000000000     
   1.0937500000000000       0.78125000000000000        0.0000000000000000     
   1.1250000000000000       0.78125000000000000        0.0000000000000000     
   1.0000000000000000       0.81250000000000000        0.0000000000000000     
   1.0312500000000000       0.81250000000000000        0.0000000000000000     
   1.0625000000000000       0.81250000000000000        0.0000000000000000     
   1.0937500000000000       0.81250000000000000        0.0000000000000000     
   1.1250000000000000       0.81250000000000000        0.0000000000000000     
   1.0000000000000000       0.84375000000000000        0.0000000000000000     
   1.0312500000000000       0.84375000000000000        0.0000000000000000     
   1.0625000000000000       0.84375000000000000        0.0000000000000000     
   1.0937500000000000       0.84375000000000000        0.0000000000000000     
   1.1250000000000000       0.84375000000000000        0.0000000000000000     
   1.0000000000000000       0.87500000000000000        0.0000000000000000     
   1.0312500000000000       0.87500000000000000        0.0000000000000000     
   1.0625000000000000       0.87500000000000000        0.0000000000000000     
   1.0937500000000000       0.87500000000000000        0.0000000000000000     
   1.1250000000000000       0.87500000000000000        0.0000000000000000     
   1.1250000000000000       0.75000000000000000        0.0000000000000000     
   1.1562500000000000       0.75000000000000000        0.0000000000000000     
   1.1875000000000000       0.75000000000000000        0.0000000000000000     
   1.2187500000000000       0.75000000000000000        0.0000000000000000     
   1.2500000000000000       0.75000000000000000        0.0000000000000000     
   1.1250000000000000       0.78125000000000000        0.0000000000000000     
   1.1562500000000000       0.78125000000000000        0.0000000000000000     
   1.1875000000000000       0.78125000000000000        0.0000000000000000     
   1.2187500000000000       0.78125000000000000        0.0000000000000000     
   1.2500000000000000       0.78125000000000000        0.0000000000000000     
   1.1250000000000000       0.81250000000000000        0.0000000000000000     
   1.1562500000000000       0.81250000000000000        0.0000000000000000     
   1.1875000000000000       0.81250000000000000        0.0000000000000000     
   1.2187500000000000       0.81250000000000000        0.0000000000000000     
   1.2500000000000000       0.81250000000000000        0.0000000000000000     
   1.1250000000000000       0.84375000000000000        0.0000000000000000     
   1.1562500000000000       0.84375000000000000        0.0000000000000000     
   1.1875000000000000       0.84375000000000000        0.0000000000000000     
   1.2187500000000000       0.84375000000000000        0.0000000000000000     
   1.2500000000000000       0.84375000000000000        0.0000000000000000     
   1.1250000000000000       0.87500000000000000        0.0000000000000000     
   1.1562500000000000       0.87500000000000000        0.0000000000000000     
   1.1875000000000000       0.87500000000000000        0.0000000000000000     
   1.2187500000000000       0.87500000000000000        0.0000000000000000     
   1.2500000000000000       0.87500000000000000        0.0000000000000000     
   1.2500000000000000       0.75000000000000000        0.0000000000000000     
   1.2812500000000000       0.75000000000000000        0.0000000000000000     
   1.3125000000000000       0.75000000000000000        0.0000000000000000     
   1.3437500000000000       0.75000000000000000        0.0000000000000000     
   1.3750000000000000       0.75000000000000000        0.0000000000000000     
   1.2500000000000000       0.78125000000000000        0.0000000000000000     
   1.2812500000000000       0.78125000000000000        0.0000000000000000     
   1.3125000000000000       0.78125000000000000        0.0000000000000000     
   1.3437500000000000       0.78125000000000000        0.0000000000000000     
   1.3750000000000000       0.78125000000000000        0.0000000000000000     
   1.2500000000000000       0.81250000000000000        0.0000000000000000     
   1.2812500000000000       0.81250000000000000        0.0000000000000000     
   1.3125000000000000       0.81250000000000000        0.0000000000000000     
   1.3437500000000000       0.81250000000000000        0.0000000000000000     
   1.3750000000000000       0.81250000000000000        0.0000000000000000     
   1.2500000000000000       0.84375000000000000        0.0000000000000000     
   1.2812500000000000       0.84375000000000000        0.0000000000000000     
   1.3125000000000000       0.84375000000000000        0.0000000000000000     
   1.3437500000000000       0.84375000000000000        0.0000000000000000     
   1.3750000000000000       0.84375000000000000        0.0000000000000000     
   1.2500000000000000       0.87500000000000000        0.0000000000000000     
   1.2812500000000000       0.87500000000000000        0.0000000000000000     
   1.3125000000000000       0.87500000000000000        0.0000000000000000     
   1.3437500000000000       0.87500000000000000        0.0000000000000000     
   1.3750000000000000       0.87500000000000000        0.0000000000000000     
   1.3750000000000000       0.75000000000000000        0.0000000000000000     
   1.4062500000000000       0.75000000000000000        0.0000000000000000     
   1.4375000000000000       0.75000000000000000        0.0000000000000000     
   1.4687500000000000       0.75000000000000000        0.0000000000000000     
   1.5000000000000000       0.75000000000000000        0.0000000000000000     
   1.3750000000000000       0.78125000000000000        0.0000000000000000     
   1.4062500000000000       0.78125000000000000        0.0000000000000000     
   1.4375000000000000       0.78125000000000000        0.0000000000000000     
   1.4687500000000000       0.78125000000000000        0.0000000000000000     
   1.5000000000000000       0.78125000000000000        0.0000000000000000     
   1.3750000000000000       0.81250000000000000        0.0000000000000000     
   1.4062500000000000       0.81250000000000000        0.0000000000000000     
   1.4375000000000000       0.81250000000000000        0.0000000000000000     
   1.4687500000000000       0.81250000000000000        0.0000000000000000     
   1.5000000000000000       0.81250000000000000        0.0000000000000000     
   1.3750000000000000       0.84375000000000000        0.0000000000000000     
   1.4062500000000000       0.84375000000000000        0.0000000000000000     
   1.4375000000000000       0.84375000000000000        0.0000000000000000     
   1.4687500000000000       0.84375000000000000        0.0000000000000000     
   1.5000000000000000       0.84375000000000000        0.0000000000000000     
   1.3750000000000000       0.87500000000000000        0.0000000000000000     
   1.4062500000000000       0.87500000000000000        0.0000000000000000     
   1.4375000000000000       0.87500000000000000        0.0000000000000000     
   1.4687500000000000       0.87500000000000000        0.0000000000000000     
   1.5000000000000000       0.87500000000000000        0.0000000000000000     
  0.50000000000000000       0.87500000000000000        0.0000000000000000     
  0.53125000000000000       0.87500000000000000        0.0000000000000000     
  0.56250000000000000       0.87500000000000000        0.0000000000000000     
  0.59375000000000000       0.87500000000000000        0.0000000000000000     
  0.62500000000000000       0.87500000000000000        0.0000000000000000     
  0.50000000000000000       0.90625000000000000        0.0000000000000000     
  0.53125000000000000       0.90625000000000000        0.0000000000000000     
  0.56250000000000000       0.90625000000000000        0.0000000000000000     
  0.59375000000000000       0.90625000000000000        0.0000000000000000     
  0.62500000000000000       0.90625000000000000        0.0000000000000000     
  0.50000000000000000       0.93750000000000000        0.0000000000000000     
  0.53125000000000000       0.93750000000000000        0.0000000000000000     
  0.56250000000000000       0.93750000000000000        0.0000000000000000     
  0.59375000000000000       0.93750000000000000        0.0000000000000000     
  0.62500000000000000       0.93750000000000000        0.0000000000000000     
  0.50000000000000000       0.96875000000000000        0.0000000000000000     
  0.53125000000000000       0.96875000000000000        0.0000000000000000     
  0.56250000000000000       0.96875000000000000        0.0000000000000000     
  0.59375000000000000       0.96875000000000000        0.0000000000000000     
  0.62500000000000000       0.96875000000000000        0.0000000000000000     
  0.50000000000000000        1.0000000000000000        0.0000000000000000     
  0.53125000000000000        1.0000000000000000        0.0000000000000000     
  0.56250000000000000        1.0000000000000000        0.0000000000000000     
  0.59375000000000000        1.0000000000000000        0.0000000000000000     
  0.62500000000000000        1.0000000000000000        0.0000000000000000     
  0.62500000000000000       0.87500000000000000        0.0000000000000000     
  0.65625000000000000       0.87500000000000000        0.0000000000000000     
  0.68750000000000000       0.87500000000000000        0.0000000000000000     
  0.71875000000000000       0.87500000000000000        0.0000000000000000     
  0.75000000000000000       0.87500000000000000        0.0000000000000000     
  0.62500000000000000       0.90625000000000000        0.0000000000000000     
  0.65625000000000000       0.90625000000000000        0.0000000000000000     
  0.68750000000000000       0.90625000000000000        0.0000000000000000     
  0.71875000000000000       0.90625000000000000        0.0000000000000000     
  0.75000000000000000       0.90625000000000000        0.0000000000000000     
  0.62500000000000000       0.93750000000000000        0.0000000000000000     
  0.65625000000000000       0.93750000000000000        0.0000000000000000     
  0.68750000000000000       0.93750000000000000        0.0000000000000000     
  0.71875000000000000       0.93750000000000000        0.0000000000000000     
  0.75000000000000000       0.93750000000000000        0.0000000000000000     
  0.62500000000000000       0.96875000000000000        0.0000000000000000     
  0.65625000000000000       0.96875000000000000        0.0000000000000000     
  0.68750000000000000       0.96875000000000000        0.0000000000000000     
  0.71875000000000000       0.96875000000000000        0.0000000000000000     
  0.75000000000000000       0.96875000000000000        0.0000000000000000     
  0.62500000000000000        1.0000000000000000        0.0000000000000000     
  0.65625000000000000        1.0000000000000000        0.0000000000000000     
  0.68750000000000000        1.0000000000000000        0.0000000000000000     
  0.71875000000000000        1.0000000000000000        0.0000000000000000     
  0.75000000000000000        1.0000000000000000        0.0000000000000000     
  0.75000000000000000       0.87500000000000000        0.0000000000000000     
  0.78125000000000000       0.87500000000000000        0.0000000000000000     
  0.81250000000000000       0.87500000000000000        0.0000000000000000     
  0.84375000000000000       0.87500000000000000        0.0000000000000000     
  0.87500000000000000       0.87500000000000000        0.0000000000000000     
  0.75000000000000000       0.90625000000000000        0.0000000000000000     
  0.78125000000000000       0.90625000000000000        0.0000000000000000     
  0.81250000000000000       0.90625000000000000        0.0000000000000000     
  0.84375000000000000       0.90625000000000000        0.0000000000000000     
  0.87500000000000000       0.90625000000000000        0.0000000000000000     
  0.75000000000000000       0.93750000000000000        0.0000000000000000     
  0.78125000000000000       0.93750000000000000        0.0000000000000000     
  0.81250000000000000       0.93750000000000000        0.0000000000000000     
  0.84375000000000000       0.93750000000000000        0.0000000000000000     
  0.87500000000000000       0.93750000000000000        0.0000000000000000     
  0.75000000000000000       0.96875000000000000        0.0000000000000000     
  0.78125000000000000       0.96875000000000000        0.0000000000000000     
  0.81250000000000000       0.96875000000000000        0.0000000000000000     
  0.84375000000000000       0.96875000000000000        0.0000000000000000     
  0.87500000000000000       0.96875000000000000        0.0000000000000000     
  0.75000000000000000        1.0000000000000000        0.0000000000000000     
  0.78125000000000000        1.0000000000000000        0.0000000000000000     
  0.81250000000000000        1.0000000000000000        0.0000000000000000     
  0.84375000000000000        1.0000000000000000        0.0000000000000000     
  0.87500000000000000        1.0000000000000000        0.0000000000000000     
  0.87500000000000000       0.87500000000000000        0.0000000000000000     
  0.90625000000000000       0.87500000000000000        0.0000000000000000     
  0.93750000000000000       0.87500000000000000        0.0000000000000000     
  0.96875000000000000       0.87500000000000000        0.0000000000000000     
   1.0000000000000000       0.87500000000000000        0.0000000000000000     
  0.87500000000000000       0.90625000000000000        0.0000000000000000     
  0.90625000000000000       0.90625000000000000        0.0000000000000000     
  0.93750000000000000       0.90625000000000000        0.0000000000000000     
  0.96875000000000000       0.90625000000000000        0.0000000000000000     
   1.0000000000000000       0.90625000000000000        0.0000000000000000     
  0.87500000000000000       0.93750000000000000        0.0000000000000000     
  0.90625000000000000       0.93750000000000000        0.0000000000000000     
  0.93750000000000000       0.93750000000000000        0.0000000000000000     
  0.96875000000000000       0.93750000000000000        0.0000000000000000     
   1.0000000000000000       0.93750000000000000        0.0000000000000000     
  0.87500000000000000       0.96875000000000000        0.0000000000000000     
  0.90625000000000000       0.96875000000000000        0.0000000000000000     
  0.93750000000000000       0.96875000000000000        0.0000000000000000     
  0.96875000000000000       0.96875000000000000        0.0000000000000000     
   1.0000000000000000       0.96875000000000000        0.0000000000000000     
  0.87500000000000000        1.0000000000000000        0.0000000000000000     
  0.90625000000000000        1.0000000000000000        0.0000000000000000     
  0.93750000000000000        1.0000000000000000        0.0000000000000000     
  0.96875000000000000        1.0000000000000000        0.0000000000000000     
   1.0000000000000000        1.0000000000000000        0.0000000000000000     
   1.0000000000000000       0.87500000000000000        0.0000000000000000     
   1.0312500000000000       0.87500000000000000        0.0000000000000000     
   1.0625000000000000       0.87500000000000000        0.0000000000000000     
   1.0937500000000000       0.87500000000000000        0.0000000000000000     
   1.1250000000000000       0.87500000000000000        0.0000000000000000     
   1.0000000000000000       0.90625000000000000        0.0000000000000000     
   1.0312500000000000       0.90625000000000000        0.0000000000000000     
   1.0625000000000000       0.90625000000000000        0.0000000000000000     
   1.0937500000000000       0.90625000000000000        0.0000000000000000     
   1.1250000000000000       0.90625000000000000        0.0000000000000000     
   1.0000000000000000       0.93750000000000000        0.0000000000000000     
   1.0312500000000000       0.93750000000000000        0.0000000000000000     
   1.0625000000000000       0.93750000000000000        0.0000000000000000     
   1.0937500000000000       0.93750000000000000        0.0000000000000000     
   1.1250000000000000       0.93750000000000000        0.0000000000000000     
   1.0000000000000000       0.96875000000000000        0.0000000000000000     
   1.0312500000000000       0.96875000000000000        0.0000000000000000     
   1.0625000000000000       0.96875000000000000        0.0000000000000000     
   1.0937500000000000       0.96875000000000000        0.0000000000000000     
   1.1250000000000000       0.96875000000000000        0.0000000000000000     
   1.0000000000000000        1.0000000000000000        0.0000000000000000     
   1.0312500000000000        1.0000000000000000        0.0000000000000000     
   1.0625000000000000        1.0000000000000000        0.0000000000000000     
   1.0937500000000000        1.0000000000000000        0.0000000000000000     
   1.1250000000000000        1.0000000000000000        0.0000000000000000     
   1.1250000000000000       0.87500000000000000        0.0000000000000000     
   1.1562500000000000       0.87500000000000000        0.0000000000000000     
   1.1875000000000000       0.87500000000000000        0.0000000000000000     
   1.2187500000000000       0.87500000000000000        0.0000000000000000     
   1.2500000000000000       0.87500000000000000        0.0000000000000000     
   1.1250000000000000       0.90625000000000000        0.0000000000000000     
   1.1562500000000000       0.90625000000000000        0.0000000000000000     
   1.1875000000000000       0.90625000000000000        0.0000000000000000     
   1.2187500000000000       0.90625000000000000        0.0000000000000000     
   1.2500000000000000       0.90625000000000000        0.0000000000000000     
   1.1250000000000000       0.93750000000000000        0.0000000000000000     
   1.1562500000000000       0.93750000000000000        0.0000000000000000     
   1.1875000000000000       0.93750000000000000        0.0000000000000000     
   1.2187500000000000       0.93750000000000000        0.0000000000000000     
   1.2500000000000000       0.93750000000000000        0.0000000000000000     
   1.1250000000000000       0.96875000000000000        0.0000000000000000     
   1.1562500000000000       0.96875000000000000        0.0000000000000000     
   1.1875000000000000       0.96875000000000000        0.0000000000000000     
   1.2187500000000000       0.96875000000000000        0.0000000000000000     
   1.2500000000000000       0.96875000000000000        0.0000000000000000     
   1.1250000000000000        1.0000000000000000        0.0000000000000000     
   1.1562500000000000        1.0000000000000000        0.0000000000000000     
   1.1875000000000000        1.0000000000000000        0.0000000000000000     
   1.2187500000000000        1.0000000000000000        0.0000000000000000     
   1.2500000000000000        1.0000000000000000        0.0000000000000000     
   1.2500000000000000       0.87500000000000000        0.0000000000000000     
   1.2812500000000000       0.87500000000000000        0.0000000000000000     
   1.3125000000000000       0.87500000000000000        0.0000000000000000     
   1.3437500000000000       0.87500000000000000        0.0000000000000000     
   1.3750000000000000       0.87500000000000000        0.0000000000000000     
   1.2500000000000000       0.90625000000000000        0.0000000000000000     
   1.2812500000000000       0.90625000000000000        0.0000000000000000     
   1.3125000000000000       0.90625000000000000        0.0000000000000000     
   1.3437500000000000       0.90625000000000000        0.0000000000000000     
   1.3750000000000000       0.90625000000000000        0.0000000000000000     
   1.2500000000000000       0.93750000000000000        0.0000000000000000     
   1.2812500000000000       0.93750000000000000        0.0000000000000000     
   1.3125000000000000       0.93750000000000000        0.0000000000000000     
   1.3437500000000000       0.93750000000000000        0.0000000000000000     
   1.3750000000000000       0.93750000000000000        0.0000000000000000     
   1.2500000000000000       0.96875000000000000        0.0000000000000000     
   1.2812500000000000       0.96875000000000000        0.0000000000000000     
   1.3125000000000000       0.96875000000000000        0.0000000000000000     
   1.3437500000000000       0.96875000000000000        0.0000000000000000     
   1.3750000000000000       0.96875000000000000        0.0000000000000000     
   1.2500000000000000        1.0000000000000000        0.0000000000000000     
   1.2812500000000000        1.0000000000000000        0.0000000000000000     
   1.3125000000000000        1.0000000000000000        0.0000000000000000     
   1.3437500000000000        1.0000000000000000        0.0000000000000000     
   1.3750000000000000        1.0000000000000000        0.0000000000000000     
   1.3750000000000000       0.87500000000000000        0.0000000000000000     
   1.4062500000000000       0.87500000000000000        0.0000000000000000     
   1.4375000000000000       0.87500000000000000        0.0000000000000000     
   1.4687500000000000       0.87500000000000000        0.0000000000000000     
   1.5000000000000000       0.87500000000000000        0.0000000000000000     
   1.3750000000000000       0.90625000000000000        0.0000000000000000     
   1.4062500000000000       0.90625000000000000        0.0000000000000000     
   1.4375000000000000       0.90625000000000000        0.0000000000000000     
   1.4687500000000000       0.90625000000000000        0.0000000000000000     
   1.5000000000000000       0.90625000000000000        0.0000000000000000     
   1.3750000000000000       0.93750000000000000        0.0000000000000000     
   1.4062500000000000       0.93750000000000000        0.0000000000000000     
   1.4375000000000000       0.93750000000000000        0.0000000000000000     
   1.4687500000000000       0.93750000000000000        0.0000000000000000     
   1.5000000000000000       0.93750000000000000        0.0000000000000000     
   1.3750000000000000       0.96875000000000000        0.0000000000000000     
   1.4062500000000000       0.96875000000000000        0.0000000000000000     
   1.4375000000000000       0.96875000000000000        0.0000000000000000     
   1.4687500000000000       0.96875000000000000        0.0000000000000000     
   1.5000000000000000       0.96875000000000000        0.0000000000000000     
   1.3750000000000000        1.0000000000000000        0.0000000000000000     
   1.4062500000000000        1.0000000000000000        0.0000000000000000     
   1.4375000000000000        1.0000000000000000        0.0000000000000000     
   1.4687500000000000        1.0000000000000000        0.0000000000000000     
   1.5000000000000000        1.0000000000000000        0.0000000000000000     
 </DataArray>
 </Points>
 <Cells>
 <DataArray  type="Int32"  Name="connectivity"  format="ascii">
           0           1           6           5
           1           2           7           6
           2           3           8           7
           3           4           9           8
           5           6          11          10
           6           7          12          11
           7           8          13          12
           8           9          14          13
          10          11          16          15
          11          12          17          16
          12          13          18          17
          13          14          19          18
          15          16          21          20
          16          17          22          21
          17          18          23          22
          18          19          24          23
          25          26          31          30
          26          27          32          31
          27          28          33          32
          28          29          34          33
          30          31          36          35
          31          32          37          36
          32          33          38          37
          33          34          39          38
          35          36          41          40
          36          37          42          41
          37          38          43          42
          38          39          44          43
          40          41          46          45
          41          42          47          46
          42          43          48          47
          43          44          49          48
          50          51          56          55
          51          52          57          56
          52          53          58          57
          53          54          59          58
          55          56          61          60
          56          57          62          61
          57          58          63          62
          58          59          64          63
          60          61          66          65
          61          62          67          66
          62          63          68          67
          63          64          69          68
          65          66          71          70
          66          67          72          71
          67          68          73          72
          68          69          74          73
          75          76          81          80
          76          77          82          81
          77          78          83          82
          78          79          84          83
          80          81          86          85
          81          82          87          86
          82          83          88          87
          83          84          89          88
          85          86          91          90
          86          87          92          91
          87          88          93          92
          88          89          94          93
          90          91          96          95
          91          92          97          96
          92          93          98          97
          93          94          99          98
         100         101         106         105
         101         102         107         106
         102         103         108         107
         103         104         109         108
         105         106         111         110
         106         107         112         111
         107         108         113         112
         108         109         114         113
         110         111         116         115
         111         112         117         116
         112         113         118         117
         113         114         119         118
         115         116         121         120
         116         117         122         121
         117         118         123         122
         118         119         124         123
         125         126         131         130
         126         127         132         131
         127         128         133         132
         128         129         134         133
         130         131         136         135
         131         132         137         136
         132         133         138         137
         133         134         139         138
         135         136         141         140
         136         137         142         141
         137         138         143         142
         138         139         144         143
         140         141         146         145
         141         142         147         146
         142         143         148         147
         143         144         149         148
         150         151         156         155
         151         152         157         156
         152         153         158         157
         153         154         159         158
         155         156         161         160
         156         157         162         161
         157         158         163         162
         158         159         164         163
         160         161         166         165
         161         162         167         166
         162         163         168         167
         163         164         169         168
         165         166         171         170
         166         167         172         171
         167         168         173         172
         168         169         174         173
         175         176         181         180
         176         177         182         181
         177         178         183         182
         178         179         184         183
         180         181         186         185
         181         182         187         186
         182         183         188         187
         183         184         189         188
         185         186         191         190
         186         187         192         191
         187         188         193         192
         188         189         194         193
         190         191         196         195
         191         192         197         196
         192         193         198         197
         193         194         199         198
         200         201         206         205
         201         202         207         206
         202         203         208         207
         203         204         209         208
         205         206         211         210
         206         207         212         211
         207         208         213         212
         208         209         214         213
         210         211         216         215
         211         212         217         216
         212         213         218         217
         213         214         219         218
         215         216         221         220
         216         217         222         221
         217         218         223         222
         218         219         224         223
         225         226         231         230
         226         227         232         231
         227         228         233         232
         228         229         234         233
         230         231         236         235
         231         232         237         236
         232         233         238         237
         233         234         239         238
         235         236         241         240
         236         237         242         241
         237         238         243         242
         238         239         244         243
         240         241         246         245
         241         242         247         246
         242         243         248         247
         243         244         249         248
         250         251         256         255
         251         252         257         256
         252         253         258         257
         253         254         259         258
         255         256         261         260
         256         257         262         261
         257         258         263         262
         258         259         264         263
         260         261         266         265
         261         262         267         266
         262         263         268         267
         263         264         269         268
         265         266         271         270
         266         267         272         271
         267         268         273         272
         268         269         274         273
         275         276         281         280
         276         277         282         281
         277         278         283         282
         278         279         284         283
         280         281         286         285
         281         282         287         286
         282         283         288         287
         283         284         289         288
         285         286         291         290
         286         287         292         291
         287         288         293         292
         288         289         294         293
         290         291         296         295
         291         292         297         296
         292         293         298         297
         293         294         299         298
         300         301         306         305
         301         302         307         306
         302         303         308         307
         303         304         309         308
         305         306         311         310
         306         307         312         311
         307         308         313         312
         308         309         314         313
         310         311         316         315
         311         312         317         316
         312         313         318         317
         313         314         319         318
         315         316         321         320
         316         317         322         321
         317         318         323         322
         318         319         324         323
         325         326         331         330
         326         327         332         331
         327         328         333         332
         328         329         334         333
         330         331         336         335
         331         332         337         336
         332         333         338         337
         333         334         339         338
         335         336         341         340
         336         337         342         341
         337         338         343         342
         338         339         344         343
         340         341         346         345
         341         342         347         346
         342         343         348         347
         343         344         349         348
         350         351         356         355
         351         352         357         356
         352         353         358         357
         353         354         359         358
         355         356         361         360
         356         357         362         361
         357         358         363         362
         358         359         364         363
         360         361         366         365
         361         362         367         366
         362         363         368         367
         363         364         369         368
         365         366         371         370
         366         367         372         371
         367         368         373         372
         368         369         374         373
         375         376         381         380
         376         377         382         381
         377         378         383         382
         378         379         384         383
         380         381         386         385
         381         382         387         386
         382         383         388         387
         383         384         389         388
         385         386         391         390
         386         387         392         391
         387         388         393         392
         388         389         394         393
         390         391         396         395
         391         392         397         396
         392         393         398         397
         393         394         399         398
         400         401         406         405
         401         402         407         406
         402         403         408         407
         403         404         409         408
         405         406         411         410
         406         407         412         411
         407         408         413         412
         408         409         414         413
         410         411         416         415
         411         412         417         416
         412         413         418         417
         413         414         419         418
         415         416         421         420
         416         417         422         421
         417         418         423         422
         418         419         424         423
         425         426         431         430
         426         427         432         431
         427         428         433         432
         428         429         434         433
         430         431         436         435
         431         432         437         436
         432         433         438         437
         433         434         439         438
         435         436         441         440
         436         437         442         441
         437         438         443         442
         438         439         444         443
         440         441         446         445
         441         442         447         446
         442         443         448         447
         443         444         449         448
         450         451         456         455
         451         452         457         456
         452         453         458         457
         453         454         459         458
         455         456         461         460
         456         457         462         461
         457         458         463         462
         458         459         464         463
         460         461         466         465
         461         462         467         466
         462         463         468         467
         463         464         469         468
         465         466         471         470
         466         467         472         471
         467         468         473         472
         468         469         474         473
         475         476         481         480
         476         477         482         481
         477         478         483         482
         478         479         484         483
         480         481         486         485
         481         482         487         486
         482         483         488         487
         483         484         489         488
         485         486         491         490
         486         487         492         491
         487         488         493         492
         488         489         494         493
         490         491         496         495
         491         492         497         496
         492         493         498         497
         493         494         499         498
         500         501         506         505
         501         502         507         506
         502         503         508         507
         503         504         509         508
         505         506         511         510
         506         507         512         511
         507         508         513         512
         508         509         514         513
         510         511         516         515
         511         512         517         516
         512         513         518         517
         513         514         519         518
         515         516         521         520
         516         517         522         521
         517         518         523         522
         518         519         524         523
         525         526         531         530
         526         527         532         531
         527         528         533         532
         528         529         534         533
         530         531         536         535
         531         532         537         536
         532         533         538         537
         533         534         539         538
         535         536         541         540
         536         537         542         541
         537         538         543         542
         538         539         544         543
         540         541         546         545
         541         542         547         546
         542         543         548         547
         543         544         549         548
         550         551         556         555
         551         552         557         556
         552         553         558         557
         553         554         559         558
         555         556         561         560
         556         557         562         561
         557         558         563         562
         558         559         564         563
         560         561         566         565
         561         562         567         566
         562         563         568         567
         563         564         569         568
         565         566         571         570
         566         567         572         571
         567         568         573         572
         568         569         574         573
         575         576         581         580
         576         577         582         581
         577         578         583         582
         578         579         584         583
         580         581         586         585
         581         582         587         586
         582         583         588         587
         583         584         589         588
         585         586         591         590
         586         587         592         591
         587         588         593         592
         588         589         594         593
         590         591         596         595
         591         592         597         596
         592         593         598         597
         593         594         599         598
         600         601         606         605
         601         602         607         606
         602         603         608         607
         603         604         609         608
         605         606         611         610
         606         607         612         611
         607         608         613         612
         608         609         614         613
         610         611         616         615
         611         612         617         616
         612         613         618         617
         613         614         619         618
         615         616         621         620
         616         617         622         621
         617         618         623         622
         618         619         624         623
         625         626         631         630
         626         627         632         631
         627         628         633         632
         628         629         634         633
         630         631         636         635
         631         632         637         636
         632         633         638         637
         633         634         639         638
         635         636         641         640
         636         637         642         641
         637         638         643         642
         638         639         644         643
         640         641         646         645
         641         642         647         646
         642         643         648         647
         643         644         649         648
         650         651         656         655
         651         652         657         656
         652         653         658         657
         653         654         659         658
         655         656         661         660
         656         657         662         661
         657         658         663         662
         658         659         664         663
         660         661         666         665
         661         662         667         666
         662         663         668         667
         663         664         669         668
         665         666         671         670
         666         667         672         671
         667         668         673         672
         668         669         674         673
         675         676         681         680
         676         677         682         681
         677         678         683         682
         678         679         684         683
         680         681         686         685
         681         682         687         686
         682         683         688         687
         683         684         689         688
         685         686         691         690
         686         687         692         691
         687         688         693         692
         688         689         694         693
         690         691         696         695
         691         692         697         696
         692         693         698         697
         693         694         699         698
         700         701         706         705
         701         702         707         706
         702         703         708         707
         703         704         709         708
         705         706         711         710
         706         707         712         711
         707         708         713         712
         708         709         714         713
         710         711         716         715
         711         712         717         716
         712         713         718         717
         713         714         719         718
         715         716         721         720
         716         717         722         721
         717         718         723         722
         718         719         724         723
         725         726         731         730
         726         727         732         731
         727         728         733         732
         728         729         734         733
         730         731         736         735
         731         732         737         736
         732         733         738         737
         733         734         739         738
         735         736         741         740
         736         737         742         741
         737         738         743         742
         738         739         744         743
         740         741         746         745
         741         742         747         746
         742         743         748         747
         743         744         749         748
         750         751         756         755
         751         752         757         756
         752         753         758         757
         753         754         759         758
         755         756         761         760
         756         757         762         761
         757         758         763         762
         758         759         764         763
         760         761         766         765
         761         762         767         766
         762         763         768         767
         763         764         769         768
         765         766         771         770
         766         767         772         771
         767         768         773         772
         768         769         774         773
         775         776         781         780
         776         777         782         781
         777         778         783         782
         778         779         784         783
         780         781         786         785
         781         782         787         786
         782         783         788         787
         783         784         789         788
         785         786         791         790
         786         787         792         791
         787         788         793         792
         788         789         794         793
         790         791         796         795
         791         792         797         796
         792         793         798         797
         793         794         799         798
         800         801         806         805
         801         802         807         806
         802         803         808         807
         803         804         809         808
         805         806         811         810
         806         807         812         811
         807         808         813         812
         808         809         814         813
         810         811         816         815
         811         812         817         816
         812         813         818         817
         813         814         819         818
         815         816         821         820
         816         817         822         821
         817         818         823         822
         818         819         824         823
         825         826         831         830
         826         827         832         831
         827         828         833         832
         828         829         834         833
         830         831         836         835
         831         832         837         836
         832         833         838         837
         833         834         839         838
         835         836         841         840
         836         837         842         841
         837         838         843         842
         838         839         844         843
         840         841         846         845
         841         842         847         846
         842         843         848         847
         843         844         849         848
         850         851         856         855
         851         852         857         856
         852         853         858         857
         853         854         859         858
         855         856         861         860
         856         857         862         861
         857         858         863         862
         858         859         864         863
         860         861         866         865
         861         862         867         866
         862         863         868         867
         863         864         869         868
         865         866         871         870
         866         867         872         871
         867         868         873         872
         868         869         874         873
         875         876         881         880
         876         877         882         881
         877         878         883         882
         878         879         884         883
         880         881         886         885
         881         882         887         886
         882         883         888         887
         883         884         889         888
         885         886         891         890
         886         887         892         891
         887         888         893         892
         888         889         894         893
         890         891         896         895
         891         892         897         896
         892         893         898         897
         893         894         899         898
         900         901         906         905
         901         902         907         906
         902         903         908         907
         903         904         909         908
         905         906         911         910
         906         907         912         911
         907         908         913         912
         908         909         914         913
         910         911         916         915
         911         912         917         916
         912         913         918         917
         913         914         919         918
         915         916         921         920
         916         917         922         921
         917         918         923         922
         918         919         924         923
         925         926         931         930
         926         927         932         931
         927         928         933         932
         928         929         934         933
         930         931         936         935
         931         932         937         936
         932         933         938         937
         933         934         939         938
         935         936         941         940
         936         937         942         941
         937         938         943         942
         938         939         944         943
         940         941         946         945
         941         942         947         946
         942         943         948         947
         943         944         949         948
         950         951         956         955
         951         952         957         956
         952         953         958         957
         953         954         959         958
         955         956         961         960
         956         957         962         961
         957         958         963         962
         958         959         964         963
         960         961         966         965
         961         962         967         966
         962         963         968         967
         963         964         969         968
         965         966         971         970
         966         967         972         971
         967         968         973         972
         968         969         974         973
         975         976         981         980
         976         977         982         981
         977         978         983         982
         978         979         984         983
         980         981         986         985
         981         982         987         986
         982         983         988         987
         983         984         989         988
         985         986         991         990
         986         987         992         991
         987         988         993         992
         988         989         994         993
         990         991         996         995
         991         992         997         996
         992         993         998         997
         993         994         999         998
        1000        1001        1006        1005
        1001        1002        1007        1006
        1002        1003        1008        1007
        1003        1004        1009        1008
        1005        1006        1011        1010
        1006        1007        1012        1011
        1007        1008        1013        1012
        1008        1009        1014        1013
        1010        1011        1016        1015
        1011        1012        1017        1016
        1012        1013        1018        1017
        1013        1014        1019        1018
        1015        1016        1021        1020
        1016        1017        1022        1021
        1017        1018        1023        1022
        1018        1019        1024        1023
        1025        1026        1031        1030
        1026        1027        1032        1031
        1027        1028        1033        1032
        1028        1029        1034        1033
        1030        1031        1036        1035
        1031        1032        1037        1036
        1032        1033        1038        1037
        1033        1034        1039        1038
        1035        1036        1041        1040
        1036        1037        1042        1041
        1037        1038        1043        1042
        1038        1039        1044        1043
        1040        1041        1046        1045
        1041        1042        1047        1046
        1042        1043        1048        1047
        1043        1044        1049        1048
        1050        1051        1056        1055
        1051        1052        1057        1056
        1052        1053        1058        1057
        1053        1054        1059        1058
        1055        1056        1061        1060
        1056        1057        1062        1061
        1057        1058        1063        1062
        1058        1059        1064        1063
        1060        1061        1066        1065
        1061        1062        1067        1066
        1062        1063        1068        1067
        1063        1064        1069        1068
        1065        1066        1071        1070
        1066        1067        1072        1071
        1067        1068        1073        1072
        1068        1069        1074        1073
        1075        1076        1081        1080
        1076        1077        1082        1081
        1077        1078        1083        1082
        1078        1079        1084        1083
        1080        1081        1086        1085
        1081        1082        1087        1086
        1082        1083        1088        1087
        1083        1084        1089        1088
        1085        1086        1091        1090
        1086        1087        1092        1091
        1087        1088        1093        1092
        1088        1089        1094        1093
        1090        1091        1096        1095
        1091        1092        1097        1096
        1092        1093        1098        1097
        1093        1094        1099        1098
        1100        1101        1106        1105
        1101        1102        1107        1106
        1102        1103        1108        1107
        1103        1104        1109        1108
        1105        1106        1111        1110
        1106        1107        1112        1111
        1107        1108        1113        1112
        1108        1109        1114        1113
        1110        1111        1116        1115
        1111        1112        1117        1116
        1112        1113        1118        1117
        1113        1114        1119        1118
        1115        1116        1121        1120
        1116        1117        1122        1121
        1117        1118        1123        1122
        1118        1119        1124        1123
        1125        1126        1131        1130
        1126        1127        1132        1131
        1127        1128        1133        1132
        1128        1129        1134        1133
        1130        1131        1136        1135
        1131        1132        1137        1136
        1132        1133        1138        1137
        1133        1134        1139        1138
        1135        1136        1141        1140
        1136        1137        1142        1141
        1137        1138        1143        1142
        1138        1139        1144        1143
        1140        1141        1146        1145
        1141        1142        1147        1146
        1142        1143        1148        1147
        1143        1144        1149        1148
        1150        1151        1156        1155
        1151        1152        1157        1156
        1152        1153        1158        1157
        1153        1154        1159        1158
        1155        1156        1161        1160
        1156        1157        1162        1161
        1157        1158        1163        1162
        1158        1159        1164        1163
        1160        1161        1166        1165
        1161        1162        1167        1166
        1162        1163        1168        1167
        1163        1164        1169        1168
        1165        1166        1171        1170
        1166        1167        1172        1171
        1167        1168        1173        1172
        1168        1169        1174        1173
        1175        1176        1181        1180
        1176        1177        1182        1181
        1177        1178        1183        1182
        1178        1179        1184        1183
        1180        1181        1186        1185
        1181        1182        1187        1186
        1182        1183        1188        1187
        1183        1184        1189        1188
        1185        1186        1191        1190
        1186        1187        1192        1191
        1187        1188        1193        1192
        1188        1189        1194        1193
        1190        1191        1196        1195
        1191        1192        1197        1196
        1192        1193        1198        1197
        1193        1194        1199        1198
        1200        1201        1206        1205
        1201        1202        1207        1206
        1202        1203        1208        1207
        1203        1204        1209        1208
        1205        1206        1211        1210
        1206        1207        1212        1211
        1207        1208        1213        1212
        1208        1209        1214        1213
        1210        1211        1216        1215
        1211        1212        1217        1216
        1212        1213        1218        1217
        1213        1214        1219        1218
        1215        1216        1221        1220
        1216        1217        1222        1221
        1217        1218        1223        1222
        1218        1219        1224        1223
        1225        1226        1231        1230
        1226        1227        1232        1231
        1227        1228        1233        1232
        1228        1229        1234        1233
        1230        1231        1236        1235
        1231        1232        1237        1236
        1232        1233        1238        1237
        1233        1234        1239        1238
        1235        1236        1241        1240
        1236        1237        1242        1241
        1237        1238        1243        1242
        1238        1239        1244        1243
        1240        1241        1246        1245
        1241        1242        1247        1246
        1242        1243        1248        1247
        1243        1244        1249        1248
        1250        1251        1256        1255
        1251        1252        1257        1256
        1252        1253        1258        1257
        1253        1254        1259        1258
        1255        1256        1261        1260
        1256        1257        1262        1261
        1257        1258        1263        1262
        1258        1259        1264        1263
        1260        1261        1266        1265
        1261        1262        1267        1266
        1262        1263        1268        1267
        1263        1264        1269        1268
        1265        1266        1271        1270
        1266        1267        1272        1271
        1267        1268        1273        1272
        1268        1269        1274        1273
        1275        1276        1281        1280
        1276        1277        1282        1281
        1277        1278        1283        1282
        1278        1279        1284        1283
        1280        1281        1286        1285
        1281        1282        1287        1286
        1282        1283        1288        1287
        1283        1284        1289        1288
        1285        1286        1291        1290
        1286        1287        1292        1291
        1287        1288        1293        1292
        1288        1289        1294        1293
        1290        1291        1296        1295
        1291        1292        1297        1296
        1292        1293        1298        1297
        1293        1294        1299        1298
        1300        1301        1306        1305
        1301        1302        1307        1306
        1302        1303        1308        1307
        1303        1304        1309        1308
        1305        1306        1311        1310
        1306        1307        1312        1311
        1307        1308        1313        1312
        1308        1309        1314        1313
        1310        1311        1316        1315
        1311        1312        1317        1316
        1312        1313        1318        1317
        1313        1314        1319        1318
        1315        1316        1321        1320
        1316        1317        1322        1321
        1317        1318        1323        1322
        1318        1319        1324        1323
        1325        1326        1331        1330
        1326        1327        1332        1331
        1327        1328        1333        1332
        1328        1329        1334        1333
        1330        1331        1336        1335
        1331        1332        1337        1336
        1332        1333        1338        1337
        1333        1334        1339        1338
        1335        1336        1341        1340
        1336        1337        1342        1341
        1337        1338        1343        1342
        1338        1339        1344        1343
        1340        1341        1346        1345
        1341        1342        1347        1346
        1342        1343        1348        1347
        1343        1344        1349        1348
        1350        1351        1356        1355
        1351        1352        1357        1356
        1352        1353        1358        1357
        1353        1354        1359        1358
        1355        1356        1361        1360
        1356        1357        1362        1361
        1357        1358        1363        1362
        1358        1359        1364        1363
        1360        1361        1366        1365
        1361        1362        1367        1366
        1362        1363        1368        1367
        1363        1364        1369        1368
        1365        1366        1371        1370
        1366        1367        1372        1371
        1367        1368        1373        1372
        1368        1369        1374        1373
        1375        1376        1381        1380
        1376        1377        1382        1381
        1377        1378        1383        1382
        1378        1379        1384        1383
        1380        1381        1386        1385
        1381        1382        1387        1386
        1382        1383        1388        1387
        1383        1384        1389        1388
        1385        1386        1391        1390
        1386        1387        1392        1391
        1387        1388        1393        1392
        1388        1389        1394        1393
        1390        1391        1396        1395
        1391        1392        1397        1396
        1392        1393        1398        1397
        1393        1394        1399        1398
        1400        1401        1406        1405
        1401        1402        1407        1406
        1402        1403        1408        1407
        1403        1404        1409        1408
        1405        1406        1411        1410
        1406        1407        1412        1411
        1407        1408        1413        1412
        1408        1409        1414        1413
        1410        1411        1416        1415
        1411        1412        1417        1416
        1412        1413        1418        1417
        1413        1414        1419        1418
        1415        1416        1421        1420
        1416        1417        1422        1421
        1417        1418        1423        1422
        1418        1419        1424        1423
        1425        1426        1431        1430
        1426        1427        1432        1431
        1427        1428        1433        1432
        1428        1429        1434        1433
        1430        1431        1436        1435
        1431        1432        1437        1436
        1432        1433        1438        1437
        1433        1434        1439        1438
        1435        1436        1441        1440
        1436        1437        1442        1441
        1437        1438        1443        1442
        1438        1439        1444        1443
        1440        1441        1446        1445
        1441        1442        1447        1446
        1442        1443        1448        1447
        1443        1444        1449        1448
        1450        1451        1456        1455
        1451        1452        1457        1456
        1452        1453        1458        1457
        1453        1454        1459        1458
        1455        1456        1461        1460
        1456        1457        1462        1461
        1457        1458        1463        1462
        1458        1459        1464        1463
        1460        1461        1466        1465
        1461        1462        1467        1466
        1462        1463        1468        1467
        1463        1464        1469        1468
        1465        1466        1471        1470
        1466        1467        1472        1471
        1467        1468        1473        1472
        1468        1469        1474        1473
        1475        1476        1481        1480
        1476        1477        1482        1481
        1477        1478        1483        1482
        1478        1479        1484        1483
        1480        1481        1486        1485
        1481        1482        1487        1486
        1482        1483        1488        1487
        1483        1484        1489        1488
        1485        1486        1491        1490
        1486        1487        1492        1491
        1487        1488        1493        1492
        1488        1489        1494        1493
        1490        1491        1496        1495
        1491        1492        1497        1496
        1492        1493        1498        1497
        1493        1494        1499        1498
        1500        1501        1506        1505
        1501        1502        1507        1506
        1502        1503        1508        1507
        1503        1504        1509        1508
        1505        1506        1511        1510
        1506        1507        1512        1511
        1507        1508        1513        1512
        1508        1509        1514        1513
        1510        1511        1516        1515
        1511        1512        1517        1516
        1512        1513        1518        1517
        1513        1514        1519        1518
        1515        1516        1521        1520
        1516        1517        1522        1521
        1517        1518        1523        1522
        1518        1519        1524        1523
        1525        1526        1531        1530
        1526        1527        1532        1531
        1527        1528        1533        1532
        1528        1529        1534        1533
        1530        1531        1536        1535
        1531        1532        1537        1536
        1532        1533        1538        1537
        1533        1534        1539        1538
        1535        1536        1541        1540
        1536        1537        1542        1541
        1537        1538        1543        1542
        1538        1539        1544        1543
        1540        1541        1546        1545
        1541        1542        1547        1546
        1542        1543        1548        1547
        1543        1544        1549        1548
        1550        1551        1556        1555
        1551        1552        1557        1556
        1552        1553        1558        1557
        1553        1554        1559        1558
        1555        1556        1561        1560
        1556        1557        1562        1561
        1557        1558        1563        1562
        1558        1559        1564        1563
        1560        1561        1566        1565
        1561        1562        1567        1566
        1562        1563        1568        1567
        1563        1564        1569        1568
        1565        1566        1571        1570
        1566        1567        1572        1571
        1567        1568        1573        1572
        1568        1569        1574        1573
        1575        1576        1581        1580
        1576        1577        1582        1581
        1577        1578        1583        1582
        1578        1579        1584        1583
        1580        1581        1586        1585
        1581        1582        1587        1586
        1582        1583        1588        1587
        1583        1584        1589        1588
        1585        1586        1591        1590
        1586        1587        1592        1591
        1587        1588        1593        1592
        1588        1589        1594        1593
        1590        1591        1596        1595
        1591        1592        1597        1596
        1592        1593        1598        1597
        1593        1594        1599        1598
 </DataArray>
 <DataArray  type="Int32"  Name="offsets"  format="ascii"> 
           4
           8
          12
          16
          20
          24
          28
          32
          36
          40
          44
          48
          52
          56
          60
          64
          68
          72
          76
          80
          84
          88
          92
          96
         100
         104
         108
         112
         116
         120
         124
         128
         132
         136
         140
         144
         148
         152
         156
         160
         164
         168
         172
         176
         180
         184
         188
         192
         196
         200
         204
         208
         212
         216
         220
         224
         228
         232
         236
         240
         244
         248
         252
         256
         260
         264
         268
         272
         276
         280
         284
         288
         292
         296
         300
         304
         308
         312
         316
         320
         324
         328
         332
         336
         340
         344
         348
         352
         356
         360
         364
         368
         372
         376
         380
         384
         388
         392
         396
         400
         404
         408
         412
         416
         420
         424
         428
         432
         436
         440
         444
         448
         452
         456
         460
         464
         468
         472
         476
         480
         484
         488
         492
         496
         500
         504
         508
         512
         516
         520
         524
         528
         532
         536
         540
         544
         548
         552
         556
         560
         564
         568
         572
         576
         580
         584
         588
         592
         596
         600
         604
         608
         612
         616
         620
         624
         628
         632
         636
         640
         644
         648
         652
         656
         660
         664
         668
         672
         676
         680
         684
         688
         692
         696
         700
         704
         708
         712
         716
         720
         724
         728
         732
         736
         740
         744
         748
         752
         756
         760
         764
         768
         772
         776
         780
         784
         788
         792
         796
         800
         804
         808
         812
         816
         820
         824
         828
         832
         836
         840
         844
         848
         852
         856
         860
         864
         868
         872
         876
         880
         884
         888
         892
         896
         900
         904
         908
         912
         916
         920
         924
         928
         932
         936
         940
         944
         948
         952
         956
         960
         964
         968
         972
         976
         980
         984
         988
         992
         996
        1000
        1004
        1008
        1012
        1016
        1020
        1024
        1028
        1032
        1036
        1040
        1044
        1048
        1052
        1056
        1060
        1064
        1068
        1072
        1076
        1080
        1084
        1088
        1092
        1096
        1100
        1104
        1108
        1112
        1116
        1120
        1124
        1128
        1132
        1136
        1140
        1144
        1148
        1152
        1156
        1160
        1164
        1168
        1172
        1176
        1180
        1184
        1188
        1192
        1196
        1200
        1204
        1208
        1212
        1216
        1220
        1224
        1228
        1232
        1236
        1240
        1244
        1248
        1252
        1256
        1260
        1264
        1268
        1272
        1276
        1280
        1284
        1288
        1292
        1296
        1300
        1304
        1308
        1312
        1316
        1320
        1324
        1328
        1332
        1336
        1340
        1344
        1348
        1352
        1356
        1360
        1364
        1368
        1372
        1376
        1380
        1384
        1388
        1392
        1396
        1400
        1404
        1408
        1412
        1416
        1420
        1424
        1428
        1432
        1436
        1440
        1444
        1448
        1452
        1456
        1460
        1464
        1468
        1472
        1476
        1480
        1484
        1488
        1492
        1496
        1500
        1504
        1508
        1512
        1516
        1520
        1524
        1528
        1532
        1536
        1540
        1544
        1548
        1552
        1556
        1560
        1564
        1568
        1572
        1576
        1580
        1584
        1588
        1592
        1596
        1600
        1604
        1608
        1612
        1616
        1620
        1624
        1628
        1632
        1636
        1640
        1644
        1648
        1652
        1656
        1660
        1664
        1668
        1672
        1676
        1680
        1684
        1688
        1692
        1696
        1700
        1704
        1708
        1712
        1716
        1720
        1724
        1728
        1732
        1736
        1740
        1744
        1748
        1752
        1756
        1760
        1764
        1768
        1772
        1776
        1780
        1784
        1788
        1792
        1796
        1800
        1804
        1808
        1812
        1816
        1820
        1824
        1828
        1832
        1836
        1840
        1844
        1848
        1852
        1856
        1860
        1864
        1868
        1872
        1876
        1880
        1884
        1888
        1892
        1896
        1900
        1904
        1908
        1912
        1916
        1920
        1924
        1928
        1932
        1936
        1940
        1944
        1948
        1952
        1956
        1960
        1964
        1968
        1972
        1976
        1980
        1984
        1988
        1992
        1996
        2000
        2004
        2008
        2012
        2016
        2020
        2024
        2028
        2032
        2036
        2040
        2044
        2048
        2052
        2056
        2060
        2064
        2068
        2072
        2076
        2080
        2084
        2088
        2092
        2096
        2100
        2104
        2108
        2112
        2116
        2120
        2124
        2128
        2132
        2136
        2140
        2144
        2148
        2152
        2156
        2160
        2164
        2168
        2172
        2176
        2180
        2184
        2188
        2192
        2196
        2200
        2204
        2208
        2212
        2216
        2220
        2224
        2228
        2232
        2236
        2240
        2244
        2248
        2252
        2256
        2260
        2264
        2268
        2272
        2276
        2280
        2284
        2288
        2292
        2296
        2300
        2304
        2308
        2312
        2316
        2320
        2324
        2328
        2332
        2336
        2340
        2344
        2348
        2352
        2356
        2360
        2364
        2368
        2372
        2376
        2380
        2384
        2388
        2392
        2396
        2400
        2404
        2408
        2412
        2416
        2420
        2424
        2428
        2432
        2436
        2440
        2444
        2448
        2452
        2456
        2460
        2464
        2468
        2472
        2476
        2480
        2484
        2488
        2492
        2496
        2500
        2504
        2508
        2512
        2516
        2520
        2524
        2528
        2532
        2536
        2540
        2544
        2548
        2552
        2556
        2560
        2564
        2568
        2572
        2576
        2580
        2584
        2588
        2592
        2596
        2600
        2604
        2608
        2612
        2616
        2620
        2624
        2628
        2632
        2636
        2640
        2644
        2648
        2652
        2656
        2660
        2664
        2668
        2672
        2676
        2680
        2684
        2688
        2692
        2696
        2700
        2704
        2708
        2712
        2716
        2720
        2724
        2728
        2732
        2736
        2740
        2744
        2748
        2752
        2756
        2760
        2764
        2768
        2772
        2776
        2780
        2784
        2788
        2792
        2796
        2800
        2804
        2808
        2812
        2816
        2820
        2824
        2828
        2832
        2836
        2840
        2844
        2848
        2852
        2856
        2860
        2864
        2868
        2872
        2876
        2880
        2884
        2888
        2892
        2896
        2900
        2904
        2908
        2912
        2916
        2920
        2924
        2928
        2932
        2936
        2940
        2944
        2948
        2952
        2956
        2960
        2964
        2968
        2972
        2976
        2980
        2984
        2988
        2992
        2996
        3000
        3004
        3008
        3012
        3016
        3020
        3024
        3028
        3032
        3036
        3040
        3044
        3048
        3052
        3056
        3060
        3064
        3068
        3072
        3076
        3080
        3084
        3088
        3092
        3096
        3100
        3104
        3108
        3112
        3116
        3120
        3124
        3128
        3132
        3136
        3140
        3144
        3148
        3152
        3156
        3160
        3164
        3168
        3172
        3176
        3180
        3184
        3188
        3192
        3196
        3200
        3204
        3208
        3212
        3216
        3220
        3224
        3228
        3232
        3236
        3240
        3244
        3248
        3252
        3256
        3260
        3264
        3268
        3272
        3276
        3280
        3284
        3288
        3292
        3296
        3300
        3304
        3308
        3312
        3316
        3320
        3324
        3328
        3332
        3336
        3340
        3344
        3348
        3352
        3356
        3360
        3364
        3368
        3372
        3376
        3380
        3384
        3388
        3392
        3396
        3400
        3404
        3408
        3412
        3416
        3420
        3424
        3428
        3432
        3436
        3440
        3444
        3448
        3452
        3456
        3460
        3464
        3468
        3472
        3476
        3480
        3484
        3488
        3492
        3496
        3500
        3504
        3508
        3512
        3516
        3520
        3524
        3528
        3532
        3536
        3540
        3544
        3548
        3552
        3556
        3560
        3564
        3568
        3572
        3576
        3580
        3584
        3588
        3592
        3596
        3600
        3604
        3608
        3612
        3616
        3620
        3624
        3628
        3632
        3636
        3640
        3644
        3648
        3652
        3656
        3660
        3664
        3668
        3672
        3676
        3680
        3684
        3688
        3692
        3696
        3700
        3704
        3708
        3712
        3716
        3720
        3724
        3728
        3732
        3736
        3740
        3744
        3748
        3752
        3756
        3760
        3764
        3768
        3772
        3776
        3780
        3784
        3788
        3792
        3796
        3800
        3804
        3808
        3812
        3816
        3820
        3824
        3828
        3832
        3836
        3840
        3844
        3848
        3852
        3856
        3860
        3864
        3868
        3872
        3876
        3880
        3884
        3888
        3892
        3896
        3900
        3904
        3908
        3912
        3916
        3920
        3924
        3928
        3932
        3936
        3940
        3944
        3948
        3952
        3956
        3960
        3964
        3968
        3972
        3976
        3980
        3984
        3988
        3992
        3996
        4000
        4004
        4008
        4012
        4016
        4020
        4024
        4028
        4032
        4036
        4040
        4044
        4048
        4052
        4056
        4060
        4064
        4068
        4072
        4076
        4080
        4084
        4088
        4092
        4096
 </DataArray>
 <DataArray  type="UInt8"  Name="types"  format="ascii">
 9
 9
 9
 9
 9
 9
 9
 9
 9
 9
 9
 9
 9
 9
 9
 9
 9
 9
 9
 9
 9
 9
 9
 9
 9
 9
 9
 9
 9
 9
 9
 9
 9
 9
 9
 9
 9
 9
 9
 9
 9
 9
 9
 9
 9
 9
 9
 9
 9
 9
 9
 9
 9
 9
 9
 9
 9
 9
 9
 9
 9
 9
 9
 9
 9
 9
 9
 9
 9
 9
 9
 9
 9
 9
 9
 9
 9
 9
 9
 9
 9
 9
 9
 9
 9
 9
 9
 9
 9
 9
 9
 9
 9
 9
 9
 9
 9
 9
 9
 9
 9
 9
 9
 9
 9
 9
 9
 9
 9
 9
 9
 9
 9
 9
 9
 9
 9
 9
 9
 9
 9
 9
 9
 9
 9
 9
 9
 9
 9
 9
 9
 9
 9
 9
 9
 9
 9
 9
 9
 9
 9
 9
 9
 9
 9
 9
 9
 9
 9
 9
 9
 9
 9
 9
 9
 9
 9
 9
 9
 9
 9
 9
 9
 9
 9
 9
 9
 9
 9
 9
 9
 9
 9
 9
 9
 9
 9
 9
 9
 9
 9
 9
 9
 9
 9
 9
 9
 9
 9
 9
 9
 9
 9
 9
 9
 9
 9
 9
 9
 9
 9
 9
 9
 9
 9
 9
 9
 9
 9
 9
 9
 9
 9
 9
 9
 9
 9
 9
 9
 9
 9
 9
 9
 9
 9
 9
 9
 9
 9
 9
 9
 9
 9
 9
 9
 9
 9
 9
 9
 9
 9
 9
 9
 9
 9
 9
 9
 9
 9
 9
 9
 9
 9
 9
 9
 9
 9
 9
 9
 9
 9
 9
 9
 9
 9
 9
 9
 9
 9
 9
 9
 9
 9
 9
 9
 9
 9
 9
 9
 9
 9
 9
 9
 9
 9
 9
 9
 9
 9
 9
 9
 9
 9
 9
 9
 9
 9
 9
 9
 9
 9
 9
 9
 9
 9
 9
 9
 9
 9
 9
 9
 9
 9
 9
 9
 9
 9
 9
 9
 9
 9
 9
 9
 9
 9
 9
 9
 9
 9
 9
 9
 9
 9
 9
 9
 9
 9
 9
 9
 9
 9
 9
 9
 9
 9
 9
 9
 9
 9
 9
 9
 9
 9
 9
 9
 9
 9
 9
 9
 9
 9
 9
 9
 9
 9
 9
 9
 9
 9
 9
 9
 9
 9
 9
 9
 9
 9
 9
 9
 9
 9
 9
 9
 9
 9
 9
 9
 9
 9
 9
 9
 9
 9
 9
 9
 9
 9
 9
 9
 9
 9
 9
 9
 9
 9
 9
 9
 9
 9
 9
 9
 9
 9
 9
 9
 9
 9
 9
 9
 9
 9
 9
 9
 9
 9
 9
 9
 9
 9
 9
 9
 9
 9
 9
 9
 9
 9
 9
 9
 9
 9
 9
 9
 9
 9
 9
 9
 9
 9
 9
 9
 9
 9
 9
 9
 9
 9
 9
 9
 9
 9
 9
 9
 9
 9
 9
 9
 9
 9
 9
 9
 9
 9
 9
 9
 9
 9
 9
 9
 9
 9
 9
 9
 9
 9
 9
 9
 9
 9
 9
 9
 9
 9
 9
 9
 9
 9
 9
 9
 9
 9
 9
 9
 9
 9
 9
 9
 9
 9
 9
 9
 9
 9
 9
 9
 9
 9
 9
 9
 9
 9
 9
 9
 9
 9
 9
 9
 9
 9
 9
 9
 9
 9
 9
 9
 9
 9
 9
 9
 9
 9
 9
 9
 9
 9
 9
 9
 9
 9
 9
 9
 9
 9
 9
 9
 9
 9
 9
 9
 9
 9
 9
 9
 9
 9
 9
 9
 9
 9
 9
 9
 9
 9
 9
 9
 9
 9
 9
 9
 9
 9
 9
 9
 9
 9
 9
 9
 9
 9
 9
 9
 9
 9
 9
 9
 9
 9
 9
 9
 9
 9
 9
 9
 9
 9
 9
 9
 9
 9
 9
 9
 9
 9
 9
 9
 9
 9
 9
 9
 9
 9
 9
 9
 9
 9
 9
 9
 9
 9
 9
 9
 9
 9
 9
 9
 9
 9
 9
 9
 9
 9
 9
 9
 9
 9
 9
 9
 9
 9
 9
 9
 9
 9
 9
 9
 9
 9
 9
 9
 9
 9
 9
 9
 9
 9
 9
 9
 9
 9
 9
 9
 9
 9
 9
 9
 9
 9
 9
 9
 9
 9
 9
 9
 9
 9
 9
 9
 9
 9
 9
 9
 9
 9
 9
 9
 9
 9
 9
 9
 9
 9
 9
 9
 9
 9
 9
 9
 9
 9
 9
 9
 9
 9
 9
 9
 9
 9
 9
 9
 9
 9
 9
 9
 9
 9
 9
 9
 9
 9
 9
 9
 9
 9
 9
 9
 9
 9
 9
 9
 9
 9
 9
 9
 9
 9
 9
 9
 9
 9
 9
 9
 9
 9
 9
 9
 9
 9
 9
 9
 9
 9
 9
 9
 9
 9
 9
 9
 9
 9
 9
 9
 9
 9
 9
 9
 9
 9
 9
 9
 9
 9
 9
 9
 9
 9
 9
 9
 9
 9
 9
 9
 9
 9
 9
 9
 9
 9
 9
 9
 9
 9
 9
 9
 9
 9
 9
 9
 9
 9
 9
 9
 9
 9
 9
 9
 9
 9
 9
 9
 9
 9
 9
 9
 9
 9
 9
 9
 9
 9
 9
 9
 9
 9
 9
 9
 9
 9
 9
 9
 9
 9
 9
 9
 9
 9
 9
 9
 9
 9
 9
 9
 9
 9
 9
 9
 9
 9
 9
 9
 9
 9
 9
 9
 9
 9
 9
 9
 9
 9
 9
 9
 9
 9
 9
 9
 9
 9
 9
 9
 9
 9
 9
 9
 9
 9
 9
 9
 9
 9
 9
 9
 9
 9
 9
 9
 9
 9
 9
 9
 9
 9
 9
 9
 9
 9
 9
 9
 9
 9
 9
 9
 9
 9
 9
 9
 9
 9
 9
 9
 9
 9
 9
 9
 9
 9
 9
 9
 9
 9
 9
 9
 9
 9
 9
 9
 9
 9
 9
 9
 9
 9
 9
 9
 9
 9
 9
 9
 9
 9
 9
 9
 9
 9
 9
 9
 9
 9
 9
 9
 9
 9
 9
 9
 9
 9
 9
 9
 9
 9
 9
 9
 9
 9
 9
 9
 9
 9
 9
 9
 9
 9
 9
 9
 9
 9
 9
 9
 9
 9
 9
 9
 9
 9
 9
 9
 9
 9
 9
 9
 9
 9
 9
 9
 9
 9
 9
 9
 9
 9
 9
 9
 9
 9
 9
 9
 9
 9
 9
 9
 9
 9
 9
 9
 9
 </DataArray>
 </Cells> 
 <PointData>
 <DataArray  type="Float64" Name="disp" NumberOfComponents="3" format="ascii">
   6.5218400873692961E-002   6.2846824287334693E-002   0.0000000000000000     
   6.8460921046725590E-002   6.8152947053264912E-002   0.0000000000000000     
   7.1523524950124123E-002   7.3676748786398572E-002   0.0000000000000000     
   7.4406212583888534E-002   7.9418229486735645E-002   0.0000000000000000     
   7.7108983948018822E-002   8.5377389154276145E-002   0.0000000000000000     
   6.0065501637993478E-002   6.1906553176406393E-002   0.0000000000000000     
   6.3011235579707683E-002   6.7282699362247719E-002   0.0000000000000000     
   6.5832135513774176E-002   7.2858352453519584E-002   0.0000000000000000     
   6.8528201440193018E-002   7.8633512450221987E-002   0.0000000000000000     
   7.1099433358964154E-002   8.4608179352354929E-002   0.0000000000000000     
   5.5118637010197362E-002   6.1035401222494678E-002   0.0000000000000000     
   5.7804944069060837E-002   6.6466791660090396E-002   0.0000000000000000     
   6.0403574152487524E-002   7.2084959640383056E-002   0.0000000000000000     
   6.2914527260477443E-002   7.7889905163372714E-002   0.0000000000000000     
   6.5337803393030552E-002   8.3881628229059313E-002   0.0000000000000000     
   5.0377806990304613E-002   6.0233368425599572E-002   0.0000000000000000     
   5.2842046514785093E-002   6.5705223946792929E-002   0.0000000000000000     
   5.5237840866264161E-002   7.1356570346988987E-002   0.0000000000000000     
   5.7565190044741817E-002   7.7187407626187768E-002   0.0000000000000000     
   5.9824094050218046E-002   8.3197735784389285E-002   0.0000000000000000     
   4.5843011578315218E-002   5.9500454785721052E-002   0.0000000000000000     
   4.8122542916880423E-002   6.4997996222355317E-002   0.0000000000000000     
   5.0334935655104066E-002   7.0673184573337364E-002   0.0000000000000000     
   5.2480189792986132E-002   7.6526019838667247E-002   0.0000000000000000     
   5.4558305330526621E-002   8.2556502018344885E-002   0.0000000000000000     
   7.7108983948018822E-002   8.5377389154276145E-002   0.0000000000000000     
   7.9692523847983907E-002   9.1515075025736636E-002   0.0000000000000000     
   8.2217517089252679E-002   9.7792134337833680E-002   0.0000000000000000     
   8.4683963671825110E-002  0.10420856709056729        0.0000000000000000     
   8.7091863595701230E-002  0.11076437328393748        0.0000000000000000     
   7.1099433358964154E-002   8.4608179352354929E-002   0.0000000000000000     
   7.3572969763654322E-002   9.0755629401420915E-002   0.0000000000000000     
   7.5975949147830291E-002   9.7049138838922494E-002   0.0000000000000000     
   7.8308371511492003E-002  0.10348870766485960        0.0000000000000000     
   8.0570236854639501E-002  0.11007433587923229        0.0000000000000000     
   6.5337803393030552E-002   8.3881628229059313E-002   0.0000000000000000     
   6.7679206892747090E-002   9.0042289615127891E-002   0.0000000000000000     
   6.9944542102227281E-002   9.6354050099263441E-002   0.0000000000000000     
   7.2133809021471110E-002  0.10281690968146594        0.0000000000000000     
   7.4247007650478564E-002  0.10943086836173541        0.0000000000000000     
   5.9824094050218046E-002   8.3197735784389285E-002   0.0000000000000000     
   6.2011235235262217E-002   8.9375055666857536E-002   0.0000000000000000     
   6.4123295952443662E-002   9.5706868118856550E-002   0.0000000000000000     
   6.6160276201762402E-002  0.10219317314038627        0.0000000000000000     
   6.8122175983218416E-002  0.10883397073144675        0.0000000000000000     
   5.4558305330526621E-002   8.2556502018344885E-002   0.0000000000000000     
   5.6569054791199683E-002   8.8753927556609893E-002   0.0000000000000000     
   5.8512210698479436E-002   9.5107592897701806E-002   0.0000000000000000     
   6.0387773052365909E-002  0.10161749804162065        0.0000000000000000     
   6.2195741852859074E-002  0.10828364298836642        0.0000000000000000     
   8.7091863595701230E-002  0.11076437328393748        0.0000000000000000     
   8.9417468975889397E-002  0.11745974371265593        0.0000000000000000     
   9.1637031927398013E-002  0.12429486917143441        0.0000000000000000     
   9.3750552450227051E-002  0.13126974966027288        0.0000000000000000     
   9.5758030544376566E-002  0.13838438517917134        0.0000000000000000     
   8.0570236854639501E-002  0.11007433587923229        0.0000000000000000     
   8.2747186578342735E-002  0.11680231906072928        0.0000000000000000     
   8.4824862083671668E-002  0.12366895278803933        0.0000000000000000     
   8.6803263370626313E-002  0.13067423706116241        0.0000000000000000     
   8.8682390439206671E-002  0.13781817188009854        0.0000000000000000     
   7.4247007650478564E-002  0.10943086836173541        0.0000000000000000     
   7.6275826878026309E-002  0.11618914935221633        0.0000000000000000     
   7.8211955592890972E-002  0.12308497586505326        0.0000000000000000     
   8.0055393795072594E-002  0.13011834790024623        0.0000000000000000     
   8.1806141484571160E-002  0.13728926545779518        0.0000000000000000     
   6.8122175983218416E-002  0.10883397073144675        0.0000000000000000     
   7.0003389874940133E-002  0.11562023458711707        0.0000000000000000     
   7.1798312455055968E-002  0.12254293840247624        0.0000000000000000     
   7.3506943723565921E-002  0.12960208217752434        0.0000000000000000     
   7.5129283680469977E-002  0.13679766591226128        0.0000000000000000     
   6.2195741852859074E-002  0.10828364298836642        0.0000000000000000     
   6.3929875569084221E-002  0.11509557476543147        0.0000000000000000     
   6.5583932670166614E-002  0.12204284040030823        0.0000000000000000     
   6.7157913156106253E-002  0.12912543989299671        0.0000000000000000     
   6.8651817026903150E-002  0.13634337324349691        0.0000000000000000     
   9.5758030544376566E-002  0.13838438517917134        0.0000000000000000     
   9.7665933058725257E-002  0.14562379554718519        0.0000000000000000     
   9.9480726842151979E-002  0.15297300058336960        0.0000000000000000     
  0.10120241189465667       0.16043200028772467        0.0000000000000000     
  0.10283098821623937       0.16800079466025042        0.0000000000000000     
   8.8682390439206671E-002  0.13781817188009854        0.0000000000000000     
   9.0469289599708277E-002  0.14508562095994990        0.0000000000000000     
   9.2171007162426696E-002  0.15246144801581876        0.0000000000000000     
   9.3787543127361886E-002  0.15994565304770506        0.0000000000000000     
   9.5318897494513860E-002  0.16753823605560886        0.0000000000000000     
   8.1806141484571160E-002  0.13728926545779518        0.0000000000000000     
   8.3471283694400017E-002  0.14458280265670689        0.0000000000000000     
   8.5057905457572566E-002  0.15198403361598814        0.0000000000000000     
   8.6566006774088780E-002  0.15949295833563892        0.0000000000000000     
   8.7995587643948686E-002  0.16710957681565924        0.0000000000000000     
   7.5129283680469977E-002  0.13679766591226128        0.0000000000000000     
   7.6671915342800434E-002  0.14411534063745612        0.0000000000000000     
   7.8141421727589574E-002  0.15154075738387779        0.0000000000000000     
   7.9537802834837398E-002  0.15907391615152625        0.0000000000000000     
   8.0861058664543864E-002  0.16671481694040152        0.0000000000000000     
   6.8651817026903150E-002  0.13634337324349691        0.0000000000000000     
   7.0071184544909557E-002  0.14368323490219764        0.0000000000000000     
   7.1421555972477735E-002  0.15113161931948768        0.0000000000000000     
   7.2702931309607671E-002  0.15868852649536708        0.0000000000000000     
   7.3915310556299380E-002  0.16635395642983583        0.0000000000000000     
  0.10283098821623937       0.16800079466025042        0.0000000000000000     
  0.10437131661306370       0.17566859819167513        0.0000000000000000     
  0.10582825789129333       0.18342462537272722        0.0000000000000000     
  0.10720181205092821       0.19126887620340660        0.0000000000000000     
  0.10849197909196839       0.19920135068371336        0.0000000000000000     
   9.5318897494513860E-002  0.16753823605560886        0.0000000000000000     
   9.6765886905891080E-002  0.17522980058282309        0.0000000000000000     
   9.8129328003502006E-002  0.18301095017264082        0.0000000000000000     
   9.9409220787346667E-002  0.19088168482506193        0.0000000000000000     
  0.10060556525742503       0.19884200454008655        0.0000000000000000     
   8.7995587643948686E-002  0.16710957681565924        0.0000000000000000     
   8.9344762480737083E-002  0.17482518577316991        0.0000000000000000     
   9.0611645698038826E-002  0.18263108192529187        0.0000000000000000     
   9.1796237295853900E-002  0.19052726527202504        0.0000000000000000     
   9.2898537274182305E-002  0.19851373581336945        0.0000000000000000     
   8.0861058664543864E-002  0.16671481694040152        0.0000000000000000     
   8.2107943337601741E-002  0.17445475376271560        0.0000000000000000     
   8.3275210974903743E-002  0.18228502063068039        0.0000000000000000     
   8.4362861576449885E-002  0.19020561754429594        0.0000000000000000     
   8.5370895142240139E-002  0.19821654450356205        0.0000000000000000     
   7.3915310556299380E-002  0.16635395642983583        0.0000000000000000     
   7.5055429476485025E-002  0.17411850455146016        0.0000000000000000     
   7.6120023834096787E-002  0.18197276628880638        0.0000000000000000     
   7.7109093629134651E-002  0.18991674164187450        0.0000000000000000     
   7.8022638861598617E-002  0.19795043061066445        0.0000000000000000     
  0.10849197909196839       0.19920135068371336        0.0000000000000000     
  0.10970235141394345       0.20721919241748632        0.0000000000000000     
  0.11083652141638300       0.21531954500856434        0.0000000000000000     
  0.11189448909928704       0.22350240845694744        0.0000000000000000     
  0.11287625446265558       0.23176778276263560        0.0000000000000000     
  0.10060556525742503       0.19884200454008655        0.0000000000000000     
  0.10172341783347200       0.20688612746366508        0.0000000000000000     
  0.10276783493522243       0.21500827174174805        0.0000000000000000     
  0.10373881656267632       0.22320843737433552        0.0000000000000000     
  0.10463636271583365       0.23148662436142733        0.0000000000000000     
   9.2898537274182305E-002  0.19851373581336945        0.0000000000000000     
   9.3923701034125354E-002  0.20658301702948922        0.0000000000000000     
   9.4876883976784440E-002  0.21472763240054854        0.0000000000000000     
   9.5758086102159523E-002  0.22294758192654740        0.0000000000000000     
   9.6567307410250630E-002  0.23124286560748580        0.0000000000000000     
   8.5370895142240139E-002  0.19821654450356205        0.0000000000000000     
   8.6303201015903538E-002  0.20630986111495880        0.0000000000000000     
   8.7163668541069064E-002  0.21447762698496584        0.0000000000000000     
   8.7952297717736674E-002  0.22271984211358323        0.0000000000000000     
   8.8669088545906424E-002  0.23103650650081092        0.0000000000000000     
   7.8022638861598617E-002  0.19795043061066445        0.0000000000000000     
   7.8861917778806551E-002  0.20606665972007379        0.0000000000000000     
   7.9628188628076246E-002  0.21425825549499994        0.0000000000000000     
   8.0321451409407760E-002  0.22252521793544294        0.0000000000000000     
   8.0941706122801091E-002  0.23086754704140278        0.0000000000000000     
  0.11287625446265558       0.23176778276263560        0.0000000000000000     
  0.11381049603703156       0.24013167159815624        0.0000000000000000     
  0.11472589235295794       0.24861007863603674        0.0000000000000000     
  0.11562244341043471       0.25720300387627715        0.0000000000000000     
  0.11650014920946189       0.26591044731887736        0.0000000000000000     
  0.10463636271583365       0.23148662436142733        0.0000000000000000     
  0.10546565012546219       0.23986595604653133        0.0000000000000000     
  0.10623185552232962       0.24836955577315506        0.0000000000000000     
  0.10693497890643594       0.25699742354129862        0.0000000000000000     
  0.10757502027778115       0.26574955935096189        0.0000000000000000     
   9.6567307410250630E-002  0.23124286560748580        0.0000000000000000     
   9.7295320249255149E-002  0.23963974208909256        0.0000000000000000     
   9.7932896967370536E-002  0.24816447001709652        0.0000000000000000     
   9.8480037564596792E-002  0.25681704939149780        0.0000000000000000     
   9.8936742040933903E-002  0.26559748021229629        0.0000000000000000     
   8.8669088545906424E-002  0.23103650650081092        0.0000000000000000     
   8.9299506408410390E-002  0.23945302972583990        0.0000000000000000     
   8.9829016688080673E-002  0.24799482136786116        0.0000000000000000     
   9.0257619384917248E-002  0.25666188142687468        0.0000000000000000     
   9.0585314498920169E-002  0.26545420990288049        0.0000000000000000     
   8.0941706122801091E-002  0.23086754704140278        0.0000000000000000     
   8.1478208602927926E-002  0.23930581895677344        0.0000000000000000     
   8.1920214684460022E-002  0.24786060982544897        0.0000000000000000     
   8.2267724367397335E-002  0.25653191964742933        0.0000000000000000     
   8.2520737651739923E-002  0.26531974842271450        0.0000000000000000     
  0.11650014920946189       0.26591044731887736        0.0000000000000000     
  0.11729924839258812       0.27489727077391557        0.0000000000000000     
  0.11795997960236206       0.28432833605146962        0.0000000000000000     
  0.11848234283878367       0.29420364315153985        0.0000000000000000     
  0.11886633810185297       0.30452319207412593        0.0000000000000000     
  0.10757502027778115       0.26574955935096189        0.0000000000000000     
  0.10813296537254692       0.27475827526999735        0.0000000000000000     
  0.10858979992691489       0.28415588336625713        0.0000000000000000     
  0.10894552394088509       0.29394238363974129        0.0000000000000000     
  0.10920013741445753       0.30411777609044988        0.0000000000000000     
   9.8936742040933903E-002  0.26559748021229629        0.0000000000000000     
   9.9314037469727834E-002  0.27460414806648376        0.0000000000000000     
   9.9622950924324438E-002  0.28393543854105197        0.0000000000000000     
   9.9863482404723786E-002  0.29359135163600092        0.0000000000000000     
  0.10003563191092582       0.30357188735133056        0.0000000000000000     
   9.0585314498920169E-002  0.26545420990288049        0.0000000000000000     
   9.0842464684130819E-002  0.27443488916337488        0.0000000000000000     
   9.1059432594590650E-002  0.28366700157585428        0.0000000000000000     
   9.1236218230299662E-002  0.29315054714031863        0.0000000000000000     
   9.1372821591257855E-002  0.30288552585676798        0.0000000000000000     
   8.2520737651739923E-002  0.26531974842271450        0.0000000000000000     
   8.2718247015755933E-002  0.27425049856067074        0.0000000000000000     
   8.2899244937713543E-002  0.28335057247066403        0.0000000000000000     
   8.3063731417612793E-002  0.29261997015269453        0.0000000000000000     
   8.3211706455453643E-002  0.30205869160676213        0.0000000000000000     
   4.5843011578315218E-002   5.9500454785721052E-002   0.0000000000000000     
   4.8122542916880423E-002   6.4997996222355317E-002   0.0000000000000000     
   5.0334935655104066E-002   7.0673184573337364E-002   0.0000000000000000     
   5.2480189792986132E-002   7.6526019838667247E-002   0.0000000000000000     
   5.4558305330526621E-002   8.2556502018344885E-002   0.0000000000000000     
   4.1463500298506317E-002   5.8831217233983726E-002   0.0000000000000000     
   4.3573958624444735E-002   6.4346200166290071E-002   0.0000000000000000     
   4.5611892012263171E-002   7.0039759753564912E-002   0.0000000000000000     
   4.7577300461961639E-002   7.5911895995808262E-002   0.0000000000000000     
   4.9470183973540131E-002   8.1962608893020095E-002   0.0000000000000000     
   3.7188522675155031E-002   5.8220212701512203E-002   0.0000000000000000     
   3.9123818986575895E-002   6.3750927458109716E-002   0.0000000000000000     
   4.0985743430997403E-002   6.9461253321808331E-002   0.0000000000000000     
   4.2774296008419588E-002   7.5351190292608075E-002   0.0000000000000000     
   4.4489476718842430E-002   8.1420738370508949E-002   0.0000000000000000     
   3.3018078708261352E-002   5.7667441188306488E-002   0.0000000000000000     
   3.4772124003273903E-002   6.3212178097814209E-002   0.0000000000000000     
   3.6456489911306782E-002   6.8937665278067606E-002   0.0000000000000000     
   3.8071176432359979E-002   7.4843902729066686E-002   0.0000000000000000     
   3.9616183566433504E-002   8.0930890450811463E-002   0.0000000000000000     
   2.8952168397825297E-002   5.7172902694366576E-002   0.0000000000000000     
   3.0518873674538771E-002   6.2729952085403565E-002   0.0000000000000000     
   3.2024131453191274E-002   6.8468995622342738E-002   0.0000000000000000     
   3.3467941733782806E-002   7.4390033305184081E-002   0.0000000000000000     
   3.4850304516313366E-002   8.0493065133927594E-002   0.0000000000000000     
   5.4558305330526621E-002   8.2556502018344885E-002   0.0000000000000000     
   5.6569054791199683E-002   8.8753927556609893E-002   0.0000000000000000     
   5.8512210698479436E-002   9.5107592897701806E-002   0.0000000000000000     
   6.0387773052365909E-002  0.10161749804162065        0.0000000000000000     
   6.2195741852859074E-002  0.10828364298836642        0.0000000000000000     
   4.9470183973540131E-002   8.1962608893020095E-002   0.0000000000000000     
   5.1297848507863272E-002   8.8181126111363875E-002   0.0000000000000000     
   5.3067600025795698E-002   9.4556675317003083E-002   0.0000000000000000     
   5.4779438527337396E-002  0.10108925650993773        0.0000000000000000     
   5.6433364012488392E-002  0.10777886969016780        0.0000000000000000     
   4.4489476718842430E-002   8.1420738370508949E-002   0.0000000000000000     
   4.6142799332556786E-002   8.7658872158098491E-002   0.0000000000000000     
   4.7745777619853540E-002   9.4054566257964212E-002   0.0000000000000000     
   4.9298411580732691E-002  0.10060782067010621        0.0000000000000000     
   5.0800701215194241E-002  0.10731863539452437        0.0000000000000000     
   3.9616183566433504E-002   8.0930890450811463E-002   0.0000000000000000     
   4.1103907265280210E-002   8.7187165696813715E-002   0.0000000000000000     
   4.2546743480652974E-002   9.3601265720585233E-002   0.0000000000000000     
   4.3944692212551775E-002  0.10017319052212605        0.0000000000000000     
   4.5297753460976635E-002  0.10690294010143613        0.0000000000000000     
   3.4850304516313366E-002   8.0493065133927594E-002   0.0000000000000000     
   3.6181172306033557E-002   8.6766006727509531E-002   0.0000000000000000     
   3.7470497608193987E-002   9.3196773704866093E-002   0.0000000000000000     
   3.8718280422794654E-002   9.9785366065997277E-002   0.0000000000000000     
   3.9924520749835560E-002  0.10653178381090309        0.0000000000000000     
   6.2195741852859074E-002  0.10828364298836642        0.0000000000000000     
   6.3929875569084221E-002  0.11509557476543147        0.0000000000000000     
   6.5583932670166614E-002  0.12204284040030823        0.0000000000000000     
   6.7157913156106253E-002  0.12912543989299671        0.0000000000000000     
   6.8651817026903150E-002  0.13634337324349691        0.0000000000000000     
   5.6433364012488392E-002  0.10777886969016780        0.0000000000000000     
   5.8021348321924716E-002  0.11461422360551018        0.0000000000000000     
   5.9535363296322419E-002  0.12158402700378183        0.0000000000000000     
   6.0975408935681485E-002  0.12868827988498274        0.0000000000000000     
   6.2341485240001937E-002  0.13592698224911293        0.0000000000000000     
   5.0800701215194241E-002  0.10731863539452437        0.0000000000000000     
   5.2243872494927769E-002  0.11417523482570380        0.0000000000000000     
   5.3619151391622835E-002  0.12116584335812958        0.0000000000000000     
   5.4926537905279446E-002  0.12829046099180172        0.0000000000000000     
   5.6166032035897595E-002  0.13554908772672014        0.0000000000000000     
   4.5297753460976635E-002  0.10690294010143613        0.0000000000000000     
   4.6597448088093393E-002  0.11377860842601234        0.0000000000000000     
   4.7835296956067891E-002  0.12078828946335150        0.0000000000000000     
   4.9011300064900135E-002  0.12793198321345362        0.0000000000000000     
   5.0125457414590131E-002  0.13520968967631869        0.0000000000000000     
   3.9924520749835560E-002  0.10653178381090309        0.0000000000000000     
   4.1082075101421568E-002  0.11342434440643577        0.0000000000000000     
   4.2183799989657572E-002  0.12045136531944756        0.0000000000000000     
   4.3229695414543558E-002  0.12761284654993849        0.0000000000000000     
   4.4219761376079532E-002  0.13490878809790846        0.0000000000000000     
   6.8651817026903150E-002  0.13634337324349691        0.0000000000000000     
   7.0071184544909557E-002  0.14368323490219764        0.0000000000000000     
   7.1421555972477735E-002  0.15113161931948768        0.0000000000000000     
   7.2702931309607671E-002  0.15868852649536708        0.0000000000000000     
   7.3915310556299380E-002  0.16635395642983583        0.0000000000000000     
   6.2341485240001937E-002  0.13592698224911293        0.0000000000000000     
   6.3637944258572665E-002  0.14328767349617083        0.0000000000000000     
   6.4869138040682520E-002  0.15075789302615489        0.0000000000000000     
   6.6035066586331556E-002  0.15833764083906526        0.0000000000000000     
   6.7135729895519733E-002  0.16602691693490179        0.0000000000000000     
   5.6166032035897595E-002  0.13554908772672014        0.0000000000000000     
   5.7341047441635033E-002  0.14292984446461504        0.0000000000000000     
   5.8454997780649484E-002  0.15042085210721653        0.0000000000000000     
   5.9507883052940948E-002  0.15802211065452459        0.0000000000000000     
   6.0499703258509417E-002  0.16573362010653919        0.0000000000000000     
   5.0125457414590131E-002  0.13520968967631869        0.0000000000000000     
   5.1180494094096668E-002  0.14260974780753044        0.0000000000000000     
   5.2179135192378566E-002  0.15012049656267257        0.0000000000000000     
   5.3121380709435818E-002  0.15774193594174513        0.0000000000000000     
   5.4007230645268425E-002  0.16547406594474809        0.0000000000000000     
   4.4219761376079532E-002  0.13490878809790846        0.0000000000000000     
   4.5156284215957583E-002  0.14232738352491689        0.0000000000000000     
   4.6041550275869807E-002  0.14985682639252304        0.0000000000000000     
   4.6875559555816189E-002  0.15749711670072686        0.0000000000000000     
   4.7658312055796750E-002  0.16524825444952840        0.0000000000000000     
   7.3915310556299380E-002  0.16635395642983583        0.0000000000000000     
   7.5055429476485025E-002  0.17411850455146016        0.0000000000000000     
   7.6120023834096787E-002  0.18197276628880638        0.0000000000000000     
   7.7109093629134651E-002  0.18991674164187450        0.0000000000000000     
   7.8022638861598617E-002  0.19795043061066445        0.0000000000000000     
   6.7135729895519733E-002  0.16602691693490179        0.0000000000000000     
   6.8168407743992299E-002  0.17381542111440124        0.0000000000000000     
   6.9130379907494433E-002  0.18169285317830047        0.0000000000000000     
   7.0021646386026148E-002  0.18965921312659928        0.0000000000000000     
   7.0842207179587433E-002  0.19771450095929785        0.0000000000000000     
   6.0499703258509417E-002  0.16573362010653919        0.0000000000000000     
   6.1428064986728849E-002  0.17354448642653664        0.0000000000000000     
   6.2290574826973137E-002  0.18144381557779318        0.0000000000000000     
   6.3087232779242303E-002  0.18943160756030886        0.0000000000000000     
   6.3818038843536345E-002  0.19750786237408363        0.0000000000000000     
   5.4007230645268425E-002  0.16547406594474809        0.0000000000000000     
   5.4834401204694690E-002  0.17330570048786628        0.0000000000000000     
   5.5600608592532949E-002  0.18122565348728462        0.0000000000000000     
   5.6305852808783169E-002  0.18923392494300306        0.0000000000000000     
   5.6950133853445370E-002  0.19733051485502168        0.0000000000000000     
   4.7658312055796750E-002  0.16524825444952840        0.0000000000000000     
   4.8387416397889842E-002  0.17309906329839020        0.0000000000000000     
   4.9060481204173834E-002  0.18103836690677474        0.0000000000000000     
   4.9677506474648712E-002  0.18906616527468204        0.0000000000000000     
   5.0238492209314485E-002  0.19718245840211210        0.0000000000000000     
   7.8022638861598617E-002  0.19795043061066445        0.0000000000000000     
   7.8861917778806551E-002  0.20606665972007379        0.0000000000000000     
   7.9628188628076246E-002  0.21425825549499994        0.0000000000000000     
   8.0321451409407760E-002  0.22252521793544294        0.0000000000000000     
   8.0941706122801091E-002  0.23086754704140278        0.0000000000000000     
   7.0842207179587433E-002  0.19771450095929785        0.0000000000000000     
   7.1590611942608781E-002  0.20585250175258601        0.0000000000000000     
   7.2265410329520705E-002  0.21406700058265377        0.0000000000000000     
   7.2866602340323175E-002  0.22235799744950105        0.0000000000000000     
   7.3394187975016192E-002  0.23072549235312789        0.0000000000000000     
   6.3818038843536345E-002  0.19750786237408363        0.0000000000000000     
   6.4480044127084774E-002  0.20566647612024741        0.0000000000000000     
   6.5070299737117060E-002  0.21390134489993021        0.0000000000000000     
   6.5588805673633246E-002  0.22221246871313205        0.0000000000000000     
   6.6035561936633319E-002  0.23059984755985291        0.0000000000000000     
   5.6950133853445370E-002  0.19733051485502168        0.0000000000000000     
   5.7530214332234465E-002  0.20550858282305792        0.0000000000000000     
   5.8042856850865333E-002  0.21376128844682932        0.0000000000000000     
   5.8488061409338002E-002  0.22208863172633597        0.0000000000000000     
   5.8865828007652457E-002  0.23049061266157775        0.0000000000000000     
   5.0238492209314485E-002  0.19718245840211210        0.0000000000000000     
   5.0741122558057863E-002  0.20537882186101761        0.0000000000000000     
   5.1183081670765504E-002  0.21364683122335115        0.0000000000000000     
   5.1564369547437421E-002  0.22198648648911282        0.0000000000000000     
   5.1884986188073606E-002  0.23039778765830252        0.0000000000000000     
   8.0941706122801091E-002  0.23086754704140278        0.0000000000000000     
   8.1478208602927926E-002  0.23930581895677344        0.0000000000000000     
   8.1920214684460022E-002  0.24786060982544897        0.0000000000000000     
   8.2267724367397335E-002  0.25653191964742933        0.0000000000000000     
   8.2520737651739923E-002  0.26531974842271450        0.0000000000000000     
   7.3394187975016192E-002  0.23072549235312789        0.0000000000000000     
   7.3844856912633441E-002  0.23918313349749135        0.0000000000000000     
   7.4215298832208565E-002  0.24774456908654835        0.0000000000000000     
   7.4505513733741605E-002  0.25640979912029893        0.0000000000000000     
   7.4715501617232533E-002  0.26517882359874312        0.0000000000000000     
   6.6035561936633319E-002  0.23059984755985291        0.0000000000000000     
   6.6412881417352576E-002  0.23906999706359183        0.0000000000000000     
   6.6723077007026330E-002  0.24762943284784786        0.0000000000000000     
   6.6966148705654593E-002  0.25627815491262101        0.0000000000000000     
   6.7142096513237354E-002  0.26501616325791122        0.0000000000000000     
   5.8865828007652457E-002  0.23049061266157775        0.0000000000000000     
   5.9182282117085344E-002  0.23896640965507487        0.0000000000000000     
   5.9443549208913302E-002  0.24751520110934741        0.0000000000000000     
   5.9649629283136302E-002  0.25613698702439536        0.0000000000000000     
   5.9800522339754379E-002  0.26483176740021880        0.0000000000000000     
   5.1884986188073606E-002  0.23039778765830252        0.0000000000000000     
   5.2153059011831739E-002  0.23887237127194055        0.0000000000000000     
   5.2376715437869453E-002  0.24740187387104706        0.0000000000000000     
   5.2555955466186743E-002  0.25598629545562213        0.0000000000000000     
   5.2690779096783616E-002  0.26462563602566569        0.0000000000000000     
   8.2520737651739923E-002  0.26531974842271450        0.0000000000000000     
   8.2718247015755933E-002  0.27425049856067074        0.0000000000000000     
   8.2899244937713543E-002  0.28335057247066403        0.0000000000000000     
   8.3063731417612793E-002  0.29261997015269453        0.0000000000000000     
   8.3211706455453643E-002  0.30205869160676213        0.0000000000000000     
   7.4715501617232533E-002  0.26517882359874312        0.0000000000000000     
   7.4886202095998250E-002  0.27404529117372900        0.0000000000000000     
   7.5058554783355672E-002  0.28300285049710472        0.0000000000000000     
   7.5232559679304797E-002  0.29205150156887022        0.0000000000000000     
   7.5408216783845641E-002  0.30119124438902545        0.0000000000000000     
   6.7142096513237354E-002  0.26501616325791122        0.0000000000000000     
   6.7291147556252900E-002  0.27381358191790783        0.0000000000000000     
   6.7453528961179593E-002  0.28264053492679986        0.0000000000000000     
   6.7629240728017390E-002  0.29149702228458740        0.0000000000000000     
   6.7818282856766304E-002  0.30038304399127047        0.0000000000000000     
   5.9800522339754379E-002  0.26483176740021880        0.0000000000000000     
   5.9933083396519912E-002  0.27355537079320691        0.0000000000000000     
   6.0084167471185300E-002  0.28226362575974945        0.0000000000000000     
   6.0253774563750535E-002  0.29095653229984614        0.0000000000000000     
   6.0441904674215639E-002  0.29963409041349720        0.0000000000000000     
   5.2690779096783616E-002  0.26462563602566569        0.0000000000000000     
   5.2812009616799251E-002  0.27327065779962656        0.0000000000000000     
   5.2950470313372799E-002  0.28187212299595343        0.0000000000000000     
   5.3106161186504262E-002  0.29043003161464648        0.0000000000000000     
   5.3279082236193639E-002  0.29894438365570564        0.0000000000000000     
   2.8952168397825297E-002   5.7172902694366576E-002   0.0000000000000000     
   3.0518873674538771E-002   6.2729952085403565E-002   0.0000000000000000     
   3.2024131453191274E-002   6.8468995622342738E-002   0.0000000000000000     
   3.3467941733782806E-002   7.4390033305184081E-002   0.0000000000000000     
   3.4850304516313366E-002   8.0493065133927594E-002   0.0000000000000000     
   2.5009182262039360E-002   5.6736903208328103E-002   0.0000000000000000     
   2.6383592566592187E-002   6.2304689188497180E-002   0.0000000000000000     
   2.7706574946224808E-002   6.8055664935899485E-002   0.0000000000000000     
   2.8978129400937226E-002   7.3989830450534963E-002   0.0000000000000000     
   3.0198255930729438E-002   8.0107185732403691E-002   0.0000000000000000     
   2.1207510819096054E-002   5.6359748718826722E-002   0.0000000000000000     
   2.2385805245655845E-002   6.1936829174714450E-002   0.0000000000000000     
   2.3521727279981287E-002   6.7698093800003592E-002   0.0000000000000000     
   2.4615276922072386E-002   7.3643542594694106E-002   0.0000000000000000     
   2.5666454171929132E-002   7.9773175558786033E-002   0.0000000000000000     
   1.7547154068995374E-002   5.6041439225862431E-002   0.0000000000000000     
   1.8525511711729746E-002   6.1626372044055369E-002   0.0000000000000000     
   1.9469588454460725E-002   6.7396282214655046E-002   0.0000000000000000     
   2.0379384297188292E-002   7.3351169737661440E-002   0.0000000000000000     
   2.1254899239912448E-002   7.9491034613074593E-002   0.0000000000000000     
   1.4028112011737322E-002   5.5781974729435226E-002   0.0000000000000000     
   1.4802711964813899E-002   6.1373317796519930E-002   0.0000000000000000     
   1.5550158469663102E-002   6.7150230179853859E-002   0.0000000000000000     
   1.6270451526284934E-002   7.3112711879437020E-002   0.0000000000000000     
   1.6963591134679400E-002   7.9260762895269399E-002   0.0000000000000000     
   3.4850304516313366E-002   8.0493065133927594E-002   0.0000000000000000     
   3.6181172306033557E-002   8.6766006727509531E-002   0.0000000000000000     
   3.7470497608193987E-002   9.3196773704866093E-002   0.0000000000000000     
   3.8718280422794654E-002   9.9785366065997277E-002   0.0000000000000000     
   3.9924520749835560E-002  0.10653178381090309        0.0000000000000000     
   3.0198255930729438E-002   8.0107185732403691E-002   0.0000000000000000     
   3.1373353315632707E-002   8.6395007471886998E-002   0.0000000000000000     
   3.2509820335678286E-002   9.2840572359366269E-002   0.0000000000000000     
   3.3607656990866194E-002   9.9443880394841463E-002   0.0000000000000000     
   3.4666863281196406E-002  0.10620493157831264        0.0000000000000000     
   2.5666454171929132E-002   7.9773175558786033E-002   0.0000000000000000     
   2.6679209154893527E-002   8.6073780151647142E-002   0.0000000000000000     
   2.7657491996307567E-002   9.2532143832645214E-002   0.0000000000000000     
   2.8601302696171251E-002   9.9148266601780222E-002   0.0000000000000000     
   2.9510641254484594E-002  0.10592214845905221        0.0000000000000000     
   2.1254899239912448E-002   7.9491034613074593E-002   0.0000000000000000     
   2.2098739823816022E-002   8.5802324766789936E-002   0.0000000000000000     
   2.2913512590081828E-002   9.2271488124702927E-002   0.0000000000000000     
   2.3699217538709849E-002   9.8898524686813510E-002   0.0000000000000000     
   2.4455854669700097E-002  0.10568343445312177        0.0000000000000000     
   1.6963591134679400E-002   7.9260762895269399E-002   0.0000000000000000     
   1.7631945322400203E-002   8.5580641317315409E-002   0.0000000000000000     
   1.8277882117001060E-002   9.2058605235539381E-002   0.0000000000000000     
   1.8901401518481971E-002   9.8694654649941371E-002   0.0000000000000000     
   1.9502503526842928E-002  0.10548878956052135        0.0000000000000000     
   3.9924520749835560E-002  0.10653178381090309        0.0000000000000000     
   4.1082075101421568E-002  0.11342434440643577        0.0000000000000000     
   4.2183799989657572E-002  0.12045136531944756        0.0000000000000000     
   4.3229695414543558E-002  0.12761284654993849        0.0000000000000000     
   4.4219761376079532E-002  0.13490878809790846        0.0000000000000000     
   3.4666863281196406E-002  0.10620493157831264        0.0000000000000000     
   3.5681943236848090E-002  0.11311239387825096        0.0000000000000000     
   3.6647400888000392E-002  0.12015493526312764        0.0000000000000000     
   3.7563236234653290E-002  0.12733255573294261        0.0000000000000000     
   3.8429449276806811E-002  0.13464525528769594        0.0000000000000000     
   2.9510641254484594E-002  0.10592214845905221        0.0000000000000000     
   3.0381242196308729E-002  0.11284270795273475        0.0000000000000000     
   3.1208840046704836E-002  0.11989886363110148        0.0000000000000000     
   3.1993434805672911E-002  0.12709061549415238        0.0000000000000000     
   3.2735026473212948E-002  0.13441796354188748        0.0000000000000000     
   2.4455854669700097E-002  0.10568343445312177        0.0000000000000000     
   2.5179971979803484E-002  0.11261528662988714        0.0000000000000000     
   2.5868117465770921E-002  0.11968315042336916        0.0000000000000000     
   2.6520291127602416E-002  0.12688702583356778        0.0000000000000000     
   2.7136492965297954E-002  0.13422691286048305        0.0000000000000000     
   1.9502503526842928E-002  0.10548878956052135        0.0000000000000000     
   2.0078132587332355E-002  0.11243012990970813        0.0000000000000000     
   2.0625233145198641E-002  0.11950779563993064        0.0000000000000000     
   2.1143805200441804E-002  0.12672178675118884        0.0000000000000000     
   2.1633848753061832E-002  0.13407210324348270        0.0000000000000000     
   4.4219761376079532E-002  0.13490878809790846        0.0000000000000000     
   4.5156284215957583E-002  0.14232738352491689        0.0000000000000000     
   4.6041550275869807E-002  0.14985682639252304        0.0000000000000000     
   4.6875559555816189E-002  0.15749711670072686        0.0000000000000000     
   4.7658312055796750E-002  0.16524825444952840        0.0000000000000000     
   3.8429449276806811E-002  0.13464525528769594        0.0000000000000000     
   3.9247997135041041E-002  0.14208094004504351        0.0000000000000000     
   4.0020836929936118E-002  0.14962751612264127        0.0000000000000000     
   4.0747968661492023E-002  0.15728498352048914        0.0000000000000000     
   4.1429392329708770E-002  0.16505334223858723        0.0000000000000000     
   3.2735026473212948E-002  0.13441796354188748        0.0000000000000000     
   3.3435212179170337E-002  0.14186860579617935        0.0000000000000000     
   3.4095589053390454E-002  0.14943024027890064        0.0000000000000000     
   3.4716157095873293E-002  0.15710286699005135        0.0000000000000000     
   3.5296916306618867E-002  0.16488648592963145        0.0000000000000000     
   2.7136492965297954E-002  0.13422691286048305        0.0000000000000000     
   2.7717929348345445E-002  0.14169038077832438        0.0000000000000000     
   2.8265806646232794E-002  0.14926499886130115        0.0000000000000000     
   2.8780124858959984E-002  0.15695076710941341        0.0000000000000000     
   2.9260883986527035E-002  0.16474768552266114        0.0000000000000000     
   2.1633848753061832E-002  0.13407210324348270        0.0000000000000000     
   2.2096148642566395E-002  0.14154626499147863        0.0000000000000000     
   2.2531489708463154E-002  0.14913179186984285        0.0000000000000000     
   2.2939871950752116E-002  0.15682868387857540        0.0000000000000000     
   2.3321295369433274E-002  0.16463694101767629        0.0000000000000000     
   4.7658312055796750E-002  0.16524825444952840        0.0000000000000000     
   4.8387416397889842E-002  0.17309906329839020        0.0000000000000000     
   4.9060481204173834E-002  0.18103836690677474        0.0000000000000000     
   4.9677506474648712E-002  0.18906616527468204        0.0000000000000000     
   5.0238492209314485E-002  0.19718245840211210        0.0000000000000000     
   4.1429392329708770E-002  0.16505334223858723        0.0000000000000000     
   4.2062597111558228E-002  0.17292150750806690        0.0000000000000000     
   4.2645072184012270E-002  0.18087839456005969        0.0000000000000000     
   4.3176817547070888E-002  0.18892400339456558        0.0000000000000000     
   4.3657833200734096E-002  0.19705833401158465        0.0000000000000000     
   3.5296916306618867E-002  0.16488648592963145        0.0000000000000000     
   3.5835429890943800E-002  0.17276996576685491        0.0000000000000000     
   3.6329261054164723E-002  0.18074217517093569        0.0000000000000000     
   3.6778409796281643E-002  0.18880311414187373        0.0000000000000000     
   3.7182876117294560E-002  0.19695278267966915        0.0000000000000000     
   2.9260883986527035E-002  0.16474768552266114        0.0000000000000000     
   2.9705914736046567E-002  0.17264443807475424        0.0000000000000000     
   3.0113047814631217E-002  0.18062970873940268        0.0000000000000000     
   3.0482283222280988E-002  0.18870349751660642        0.0000000000000000     
   3.0813620958995883E-002  0.19686580440636550        0.0000000000000000     
   2.3321295369433274E-002  0.16463694101767629        0.0000000000000000     
   2.3674051646866520E-002  0.17254492443176489        0.0000000000000000     
   2.3996432465411735E-002  0.18054099526546069        0.0000000000000000     
   2.4288437825068915E-002  0.18862515351876369        0.0000000000000000     
   2.4550067725838072E-002  0.19679739919167377        0.0000000000000000     
   5.0238492209314485E-002  0.19718245840211210        0.0000000000000000     
   5.0741122558057863E-002  0.20537882186101761        0.0000000000000000     
   5.1183081670765504E-002  0.21364683122335115        0.0000000000000000     
   5.1564369547437421E-002  0.22198648648911282        0.0000000000000000     
   5.1884986188073606E-002  0.23039778765830252        0.0000000000000000     
   4.3657833200734096E-002  0.19705833401158465        0.0000000000000000     
   4.4087132088669587E-002  0.20527102329235361        0.0000000000000000     
   4.4463727154545073E-002  0.21355170811810922        0.0000000000000000     
   4.4787618398360540E-002  0.22190038848885152        0.0000000000000000     
   4.5058805820116003E-002  0.23031706440458050        0.0000000000000000     
   3.7182876117294560E-002  0.19695278267966915        0.0000000000000000     
   3.7542606208184261E-002  0.20517901717529313        0.0000000000000000     
   3.7857546259931540E-002  0.21346965401971718        0.0000000000000000     
   3.8127696272536413E-002  0.22182469321294110        0.0000000000000000     
   3.8353056245998850E-002  0.23024413475496508        0.0000000000000000     
   3.0813620958995883E-002  0.19686580440636550        0.0000000000000000     
   3.1107544916601868E-002  0.20510280350983620        0.0000000000000000     
   3.1364538986924907E-002  0.21340066892817489        0.0000000000000000     
   3.1584603169964996E-002  0.22175940066138158        0.0000000000000000     
   3.1767737465722139E-002  0.23017899870945618        0.0000000000000000     
   2.4550067725838072E-002  0.19679739919167377        0.0000000000000000     
   2.4781948213922416E-002  0.20504238229598282        0.0000000000000000     
   2.4984705335525163E-002  0.21334475284348253        0.0000000000000000     
   2.5158339090646319E-002  0.22170451083417286        0.0000000000000000     
   2.5302849479285884E-002  0.23012165626805392        0.0000000000000000     
   5.1884986188073606E-002  0.23039778765830252        0.0000000000000000     
   5.2153059011831739E-002  0.23887237127194055        0.0000000000000000     
   5.2376715437869453E-002  0.24740187387104706        0.0000000000000000     
   5.2555955466186743E-002  0.25598629545562213        0.0000000000000000     
   5.2690779096783616E-002  0.26462563602566569        0.0000000000000000     
   4.5058805820116003E-002  0.23031706440458050        0.0000000000000000     
   4.5286123349904749E-002  0.23878644477769942        0.0000000000000000     
   4.5478404917820070E-002  0.24729323852061169        0.0000000000000000     
   4.5635650523861974E-002  0.25583744563331717        0.0000000000000000     
   4.5757860168030441E-002  0.26441906611581600        0.0000000000000000     
   3.8353056245998850E-002  0.23024413475496508        0.0000000000000000     
   3.8542386379617363E-002  0.23870719303586230        0.0000000000000000     
   3.8704446872690423E-002  0.24719308244570615        0.0000000000000000     
   3.8839237725218044E-002  0.25570180298449668        0.0000000000000000     
   3.8946758937200211E-002  0.26423335465223380        0.0000000000000000     
   3.1767737465722139E-002  0.23017899870945618        0.0000000000000000     
   3.1921848100969562E-002  0.23863461604642910        0.0000000000000000     
   3.2054841302480507E-002  0.24710140564633051        0.0000000000000000     
   3.2166717070254959E-002  0.25557936750916049        0.0000000000000000     
   3.2257475404292919E-002  0.26406850163491902        0.0000000000000000     
   2.5302849479285884E-002  0.23012165626805392        0.0000000000000000     
   2.5424508513961372E-002  0.23856871380939984        0.0000000000000000     
   2.5529588207190323E-002  0.24701820812248473        0.0000000000000000     
   2.5618088558972723E-002  0.25547013920730866        0.0000000000000000     
   2.5690009569308579E-002  0.26392450706387172        0.0000000000000000     
   5.2690779096783616E-002  0.26462563602566569        0.0000000000000000     
   5.2812009616799251E-002  0.27327065779962656        0.0000000000000000     
   5.2950470313372799E-002  0.28187212299595343        0.0000000000000000     
   5.3106161186504262E-002  0.29043003161464648        0.0000000000000000     
   5.3279082236193639E-002  0.29894438365570564        0.0000000000000000     
   4.5757860168030441E-002  0.26441906611581600        0.0000000000000000     
   4.5869171750023405E-002  0.27298815455417075        0.0000000000000000     
   4.5993723169538786E-002  0.28149476553444408        0.0000000000000000     
   4.6131514426576550E-002  0.28993889905663589        0.0000000000000000     
   4.6282545521136739E-002  0.29832055512074629        0.0000000000000000     
   3.8946758937200211E-002  0.26423335465223380        0.0000000000000000     
   3.9045815329124871E-002  0.27273657267384388        0.0000000000000000     
   3.9155211721479934E-002  0.28116029227425327        0.0000000000000000     
   3.9274948114265434E-002  0.28950451345346190        0.0000000000000000     
   3.9405024507481345E-002  0.29776923621146978        0.0000000000000000     
   3.2257475404292919E-002  0.26406850163491902        0.0000000000000000     
   3.2341940354103614E-002  0.27251591215864596        0.0000000000000000     
   3.2434935969196277E-002  0.28086870321538121        0.0000000000000000     
   3.2536462249570894E-002  0.28912687480512456        0.0000000000000000     
   3.2646519195227479E-002  0.29729042692787622        0.0000000000000000     
   2.5690009569308579E-002  0.26392450706387172        0.0000000000000000     
   2.5757546824959673E-002  0.27232617300857692        0.0000000000000000     
   2.5832895912687795E-002  0.28061999835782769        0.0000000000000000     
   2.5916056832492942E-002  0.28880598311162375        0.0000000000000000     
   2.6007029584375119E-002  0.29688412726996538        0.0000000000000000     
   1.4028112011737322E-002   5.5781974729435226E-002   0.0000000000000000     
   1.4802711964813899E-002   6.1373317796519930E-002   0.0000000000000000     
   1.5550158469663102E-002   6.7150230179853859E-002   0.0000000000000000     
   1.6270451526284934E-002   7.3112711879437020E-002   0.0000000000000000     
   1.6963591134679400E-002   7.9260762895269399E-002   0.0000000000000000     
   1.0565066472797133E-002   5.5580687979029514E-002   0.0000000000000000     
   1.1137002824200099E-002   6.1177009089669901E-002   0.0000000000000000     
   1.1688466890911443E-002   6.6959329451495478E-002   0.0000000000000000     
   1.2219458672931163E-002   7.2927649064506189E-002   0.0000000000000000     
   1.2729978170259263E-002   7.9081967928702077E-002   0.0000000000000000     
   7.0726992776500323E-003   5.5436911724129699E-002   0.0000000000000000     
   7.4479811091801625E-003   6.1036788581067078E-002   0.0000000000000000     
   7.8095432835287573E-003   6.6822971785475291E-002   0.0000000000000000     
   8.1573858006958166E-003   7.2795461337354345E-002   0.0000000000000000     
   8.4915086606813378E-003   7.8954257236704226E-002   0.0000000000000000     
   3.5510104262960213E-003   5.5350645964735781E-002   0.0000000000000000     
   3.7356468197540871E-003   6.0952656270711406E-002   0.0000000000000000     
   3.9133876475150433E-003   6.6741157181793312E-002   0.0000000000000000     
   4.0842329095788880E-003   7.2716148697981486E-002   0.0000000000000000     
   4.2481826059456258E-003   7.8877630819275915E-002   0.0000000000000000     
  -8.1264900191058143E-011   5.5321890700847767E-002   0.0000000000000000     
  -4.4078127432733982E-011   6.0924612158602939E-002   0.0000000000000000     
  -1.7129699785359276E-011   6.6713885640449541E-002   0.0000000000000000     
  -4.1961546000043870E-013   7.2689711146387587E-002   0.0000000000000000     
   6.0521232123078583E-012   7.8852088676417048E-002   0.0000000000000000     
   1.6963591134679400E-002   7.9260762895269399E-002   0.0000000000000000     
   1.7631945322400203E-002   8.5580641317315409E-002   0.0000000000000000     
   1.8277882117001060E-002   9.2058605235539381E-002   0.0000000000000000     
   1.8901401518481971E-002   9.8694654649941371E-002   0.0000000000000000     
   1.9502503526842928E-002  0.10548878956052135        0.0000000000000000     
   1.2729978170259263E-002   7.9081967928702077E-002   0.0000000000000000     
   1.3222480925267691E-002   8.5408443520273866E-002   0.0000000000000000     
   1.3699422480328405E-002   9.1893233315412270E-002   0.0000000000000000     
   1.4160802835441398E-002   9.8536337314117331E-002   0.0000000000000000     
   1.4606621990606677E-002  0.10533775551638901        0.0000000000000000     
   8.4915086606813378E-003   7.8954257236704226E-002   0.0000000000000000     
   8.8140019070401289E-003   8.5285445092715656E-002   0.0000000000000000     
   9.1269555833269882E-003   9.1775110514579220E-002   0.0000000000000000     
   9.4303696895419228E-003   9.8423253502294972E-002   0.0000000000000000     
   9.7242442256849256E-003  0.10522987405586288        0.0000000000000000     
   4.2481826059456258E-003   7.8877630819275915E-002   0.0000000000000000     
   4.4065082677175148E-003   8.5211646034640764E-002   0.0000000000000000     
   4.5604814259968193E-003   9.1704236833040229E-002   0.0000000000000000     
   4.7101020807835386E-003   9.8355403214474321E-002   0.0000000000000000     
   4.8553702320776725E-003  0.10516514517894300        0.0000000000000000     
   6.0521232123078583E-012   7.8852088676417048E-002   0.0000000000000000     
   7.2998486595754475E-012   8.5187046346049233E-002   0.0000000000000000     
   8.3378889730034711E-012   9.1680612270795311E-002   0.0000000000000000     
   9.1662479472995328E-012   9.8332786450655338E-002   0.0000000000000000     
   9.7849211372347256E-012  0.10514356888562931        0.0000000000000000     
   1.9502503526842928E-002  0.10548878956052135        0.0000000000000000     
   2.0078132587332355E-002  0.11243012990970813        0.0000000000000000     
   2.0625233145198641E-002  0.11950779563993064        0.0000000000000000     
   2.1143805200441804E-002  0.12672178675118884        0.0000000000000000     
   2.1633848753061832E-002  0.13407210324348270        0.0000000000000000     
   1.4606621990606677E-002  0.10533775551638901        0.0000000000000000     
   1.5034156315914791E-002  0.11228660854304186        0.0000000000000000     
   1.5440682181456293E-002  0.11937201701489032        0.0000000000000000     
   1.5826199587231186E-002  0.12659398093193447        0.0000000000000000     
   1.6190708533239465E-002  0.13395250029417427        0.0000000000000000     
   9.7242442256849256E-003  0.10522987405586288        0.0000000000000000     
   1.0006475462570254E-002  0.11218409328073234        0.0000000000000000     
   1.0274959671012166E-002  0.11927503228235259        0.0000000000000000     
   1.0529696851010661E-002  0.12650269106072368        0.0000000000000000     
   1.0770687002565739E-002  0.13386706961584563        0.0000000000000000     
   4.8553702320776725E-003  0.10516514517894300        0.0000000000000000     
   4.9950900272987403E-003  0.11212258412277960        0.0000000000000000     
   5.1280656138662601E-003  0.11921684144231741        0.0000000000000000     
   5.2542969917802312E-003  0.12644791713755646        0.0000000000000000     
   5.3737841610406534E-003  0.13381581120849673        0.0000000000000000     
   9.7849211372347256E-012  0.10514356888562931        0.0000000000000000     
   1.0100250497080410E-011  0.11210208106918364        0.0000000000000000     
   1.0018574945341863E-011  0.11919744449478481        0.0000000000000000     
   9.5398949156999535E-012  0.12642965916243276        0.0000000000000000     
   8.6642121428781582E-012  0.13379872507212756        0.0000000000000000     
   2.1633848753061832E-002  0.13407210324348270        0.0000000000000000     
   2.2096148642566395E-002  0.14154626499147863        0.0000000000000000     
   2.2531489708463154E-002  0.14913179186984285        0.0000000000000000     
   2.2939871950752116E-002  0.15682868387857540        0.0000000000000000     
   2.3321295369433274E-002  0.16463694101767629        0.0000000000000000     
   1.6190708533239465E-002  0.13395250029417427        0.0000000000000000     
   1.6534617120440312E-002  0.14143508646647279        0.0000000000000000     
   1.6858333449792907E-002  0.14902925081369298        0.0000000000000000     
   1.7161857521297251E-002  0.15673499333583485        0.0000000000000000     
   1.7445189334953343E-002  0.16455231403289849        0.0000000000000000     
   1.0770687002565739E-002  0.13386706961584563        0.0000000000000000     
   1.0998081840574341E-002  0.14135567323413759        0.0000000000000000     
   1.1212033079933417E-002  0.14895600720201890        0.0000000000000000     
   1.1412540720642964E-002  0.15666807151948942        0.0000000000000000     
   1.1599604762702985E-002  0.16449186618654926        0.0000000000000000     
   5.3737841610406534E-003  0.13381581120849673        0.0000000000000000     
   5.4865428029684882E-003  0.14130802529447309        0.0000000000000000     
   5.5925885988846909E-003  0.14891206103482052        0.0000000000000000     
   5.6919215487892649E-003  0.15662791842953910        0.0000000000000000     
   5.7845416526822076E-003  0.16445559747862870        0.0000000000000000     
   8.6642121428781582E-012  0.13379872507212756        0.0000000000000000     
   7.6227468347872529E-012  0.14129214264747927        0.0000000000000000     
   6.6467250540297451E-012  0.14889741231209805        0.0000000000000000     
   5.7361470716561780E-012  0.15661453406598388        0.0000000000000000     
   4.8910103397914462E-012  0.16444350790913681        0.0000000000000000     
   2.3321295369433274E-002  0.16463694101767629        0.0000000000000000     
   2.3674051646866520E-002  0.17254492443176489        0.0000000000000000     
   2.3996432465411735E-002  0.18054099526546069        0.0000000000000000     
   2.4288437825068915E-002  0.18862515351876369        0.0000000000000000     
   2.4550067725838072E-002  0.19679739919167377        0.0000000000000000     
   1.7445189334953343E-002  0.16455231403289849        0.0000000000000000     
   1.7707145626961497E-002  0.17246923114060689        0.0000000000000000     
   1.7946543133522043E-002  0.18047376289468325        0.0000000000000000     
   1.8163381854634973E-002  0.18856590929512754        0.0000000000000000     
   1.8357661790300295E-002  0.19674567034193977        0.0000000000000000     
   1.1599604762702985E-002  0.16449186618654926        0.0000000000000000     
   1.1772501679889346E-002  0.17241516450400016        0.0000000000000000     
   1.1930507945977923E-002  0.18042573977264378        0.0000000000000000     
   1.2073623560968711E-002  0.18852359199248009        0.0000000000000000     
   1.2201848524861716E-002  0.19670872116350926        0.0000000000000000     
   5.7845416526822076E-003  0.16445559747862870        0.0000000000000000     
   5.8701198056500632E-003  0.17238272452194467        0.0000000000000000     
   5.9483269027793707E-003  0.18039692589934225        0.0000000000000000     
   6.0191629440701309E-003  0.18849820161082145        0.0000000000000000     
   6.0826279295223438E-003  0.19668655165638224        0.0000000000000000     
   4.8910103397914462E-012  0.16444350790913681        0.0000000000000000     
   4.2436471003881593E-012  0.17237191119444051        0.0000000000000000     
   3.9263877522552337E-012  0.18038732127477869        0.0000000000000000     
   3.9392302083034875E-012  0.18848973815015146        0.0000000000000000     
   4.2821757424704732E-012  0.19667916182055872        0.0000000000000000     
   2.4550067725838072E-002  0.19679739919167377        0.0000000000000000     
   2.4781948213922416E-002  0.20504238229598282        0.0000000000000000     
   2.4984705335525163E-002  0.21334475284348253        0.0000000000000000     
   2.5158339090646319E-002  0.22170451083417286        0.0000000000000000     
   2.5302849479285884E-002  0.23012165626805392        0.0000000000000000     
   1.8357661790300295E-002  0.19674567034193977        0.0000000000000000     
   1.8529928144676550E-002  0.20499642293141640        0.0000000000000000     
   1.8680726121922293E-002  0.21330154395985382        0.0000000000000000     
   1.8810055722037530E-002  0.22166103342725202        0.0000000000000000     
   1.8917916945022255E-002  0.23007489133361111        0.0000000000000000     
   1.2201848524861716E-002  0.19670872116350926        0.0000000000000000     
   1.2315596753394907E-002  0.20496359481382037        0.0000000000000000     
   1.2415282162306258E-002  0.21327068047150260        0.0000000000000000     
   1.2500904751595770E-002  0.22162997813655602        0.0000000000000000     
   1.2572464521263444E-002  0.23004148780898065        0.0000000000000000     
   6.0826279295223438E-003  0.19668655165638224        0.0000000000000000     
   6.1389540400774920E-003  0.20494389794319473        0.0000000000000000     
   6.1883734566770578E-003  0.21325216237842892        0.0000000000000000     
   6.2308861793210421E-003  0.22161134496208482        0.0000000000000000     
   6.2664922080094432E-003  0.23002144569416252        0.0000000000000000     
   4.2821757424704732E-012  0.19667916182055872        0.0000000000000000     
   4.7243031969096405E-012  0.20493733231953951        0.0000000000000000     
   5.0346919558755254E-012  0.21324598968063277        0.0000000000000000     
   5.2133422633136167E-012  0.22160513390383849        0.0000000000000000     
   5.2602540379087515E-012  0.23001476498915668        0.0000000000000000     
   2.5302849479285884E-002  0.23012165626805392        0.0000000000000000     
   2.5424508513961372E-002  0.23856871380939984        0.0000000000000000     
   2.5529588207190323E-002  0.24701820812248473        0.0000000000000000     
   2.5618088558972723E-002  0.25547013920730866        0.0000000000000000     
   2.5690009569308579E-002  0.26392450706387172        0.0000000000000000     
   1.8917916945022255E-002  0.23007489133361111        0.0000000000000000     
   1.9008671551275485E-002  0.23851396955616780        0.0000000000000000     
   1.9086681301196225E-002  0.24694911997215901        0.0000000000000000     
   1.9151946194784483E-002  0.25538034258158465        0.0000000000000000     
   1.9204466232040251E-002  0.26380763738444479        0.0000000000000000     
   1.2572464521263444E-002  0.23004148780898065        0.0000000000000000     
   1.2632641145594606E-002  0.23847486651812644        0.0000000000000000     
   1.2684114298874588E-002  0.24689977129334348        0.0000000000000000     
   1.2726883981103389E-002  0.25531620213463180        0.0000000000000000     
   1.2760950192281009E-002  0.26372415904199137        0.0000000000000000     
   6.2664922080094432E-003  0.23002144569416252        0.0000000000000000     
   6.2964172969187373E-003  0.23845140469527565        0.0000000000000000     
   6.3218872002254066E-003  0.24687016208603821        0.0000000000000000     
   6.3429019179294449E-003  0.25527771786645009        0.0000000000000000     
   6.3594614500308549E-003  0.26367407203651128        0.0000000000000000     
   5.2602540379087515E-012  0.23001476498915668        0.0000000000000000     
   5.2478811227163469E-012  0.23844358408761551        0.0000000000000000     
   5.2486799628770342E-012  0.24686029235024312        0.0000000000000000     
   5.2626488236673374E-012  0.25526488977703948        0.0000000000000000     
   5.2897877050872566E-012  0.26365737636800468        0.0000000000000000     
   2.5690009569308579E-002  0.26392450706387172        0.0000000000000000     
   2.5757546824959673E-002  0.27232617300857692        0.0000000000000000     
   2.5832895912687795E-002  0.28061999835782769        0.0000000000000000     
   2.5916056832492942E-002  0.28880598311162375        0.0000000000000000     
   2.6007029584375119E-002  0.29688412726996538        0.0000000000000000     
   1.9204466232040251E-002  0.26380763738444479        0.0000000000000000     
   1.9254210544078117E-002  0.27217367934950804        0.0000000000000000     
   1.9311148262012665E-002  0.28042114344554303        0.0000000000000000     
   1.9375279385843890E-002  0.28855002967254983        0.0000000000000000     
   1.9446603915571799E-002  0.29656033803052834        0.0000000000000000     
   1.2760950192281009E-002  0.26372415904199137        0.0000000000000000     
   1.2793507313844033E-002  0.27206475530731050        0.0000000000000000     
   1.2831749727229048E-002  0.28027910422247770        0.0000000000000000     
   1.2875677432436051E-002  0.28836720578749275        0.0000000000000000     
   1.2925290429465048E-002  0.29632906000235598        0.0000000000000000     
   6.3594614500308549E-003  0.26367407203651128        0.0000000000000000     
   6.3754371342574275E-003  0.27199940088198432        0.0000000000000000     
   6.3947003083369520E-003  0.28019388068863149        0.0000000000000000     
   6.4172509722694284E-003  0.28825751145645290        0.0000000000000000     
   6.4430891260548566E-003  0.29619029318544843        0.0000000000000000     
   5.2897877050872566E-012  0.26365737636800468        0.0000000000000000     
   5.3182959338510249E-012  0.27197761607352944        0.0000000000000000     
   5.3363730535133103E-012  0.28016547284400445        0.0000000000000000     
   5.3440180340820487E-012  0.28822094667942982        0.0000000000000000     
   5.3412317971290868E-012  0.29614403757980556        0.0000000000000000     
  -8.1264900191058143E-011   5.5321890700847767E-002   0.0000000000000000     
  -4.4078127432733982E-011   6.0924612158602939E-002   0.0000000000000000     
  -1.7129699785359276E-011   6.6713885640449541E-002   0.0000000000000000     
  -4.1961546000043870E-013   7.2689711146387587E-002   0.0000000000000000     
   6.0521232123078583E-012   7.8852088676417048E-002   0.0000000000000000     
  -3.5510105716215655E-003   5.5350645936388151E-002   0.0000000000000000     
  -3.7356468973676451E-003   6.0952656247965038E-002   0.0000000000000000     
  -3.9133876760808432E-003   6.6741157164005110E-002   0.0000000000000000     
  -4.0842329077611607E-003   7.2716148684508305E-002   0.0000000000000000     
  -4.2481825924085941E-003   7.8877630809474686E-002   0.0000000000000000     
  -7.0726993713628094E-003   5.5436911675279400E-002   0.0000000000000000     
  -7.4479811551656314E-003   6.1036788542021131E-002   0.0000000000000000     
  -7.8095432950137629E-003   6.6822971755021110E-002   0.0000000000000000     
  -8.1573857909072039E-003   7.2795461314279317E-002   0.0000000000000000     
  -8.4915086428459553E-003   7.8954257219795765E-002   0.0000000000000000     
  -1.0565066480488629E-002   5.5580687917521542E-002   0.0000000000000000     
  -1.1137002817472081E-002   6.1177009040771196E-002   0.0000000000000000     
  -1.1688466873928454E-002   6.6959329413497540E-002   0.0000000000000000     
  -1.2219458649857745E-002   7.2927649035700579E-002   0.0000000000000000     
  -1.2729978145259958E-002   7.9081967907380285E-002   0.0000000000000000     
  -1.4028111898999031E-002   5.5781974663114561E-002   0.0000000000000000     
  -1.4802711884287001E-002   6.1373317744215249E-002   0.0000000000000000     
  -1.5550158412824920E-002   6.7150230139434428E-002   0.0000000000000000     
  -1.6270451484612786E-002   7.3112711848772119E-002   0.0000000000000000     
  -1.6963591099650604E-002   7.9260762872228260E-002   0.0000000000000000     
   6.0521232123078583E-012   7.8852088676417048E-002   0.0000000000000000     
   7.2998486595754475E-012   8.5187046346049233E-002   0.0000000000000000     
   8.3378889730034711E-012   9.1680612270795311E-002   0.0000000000000000     
   9.1662479472995328E-012   9.8332786450655338E-002   0.0000000000000000     
   9.7849211372347256E-012  0.10514356888562931        0.0000000000000000     
  -4.2481825924085941E-003   7.8877630809474686E-002   0.0000000000000000     
  -4.4065082519828200E-003   8.5211646027787968E-002   0.0000000000000000     
  -4.5604814084435107E-003   9.1704236828331953E-002   0.0000000000000000     
  -4.7101020617906627E-003   9.8355403211106612E-002   0.0000000000000000     
  -4.8553702120242796E-003  0.10516514517611196        0.0000000000000000     
  -8.4915086428459553E-003   7.8954257219795765E-002   0.0000000000000000     
  -8.8140018879004425E-003   8.5285445080704000E-002   0.0000000000000000     
  -9.1269555631410919E-003   9.1775110506137653E-002   0.0000000000000000     
  -9.4303696685679051E-003   9.8423253496096666E-002   0.0000000000000000     
  -9.7242442041808753E-003  0.10522987405058105        0.0000000000000000     
  -1.2729978145259958E-002   7.9081967907380285E-002   0.0000000000000000     
  -1.3222480900453019E-002   8.5408443504797343E-002   0.0000000000000000     
  -1.3699422455754858E-002   9.1893233304212424E-002   0.0000000000000000     
  -1.4160802811165475E-002   9.8536337305625527E-002   0.0000000000000000     
  -1.4606621966684871E-002  0.10533775550903664        0.0000000000000000     
  -1.6963591099650604E-002   7.9260762872228260E-002   0.0000000000000000     
  -1.7631945289640544E-002   8.5580641300067969E-002   0.0000000000000000     
  -1.8277882086284804E-002   9.2058605222556281E-002   0.0000000000000000     
  -1.8901401489583379E-002   9.8694654639693180E-002   0.0000000000000000     
  -1.9502503499536264E-002  0.10548878955147868        0.0000000000000000     
   9.7849211372347256E-012  0.10514356888562931        0.0000000000000000     
   1.0100250497080410E-011  0.11210208106918364        0.0000000000000000     
   1.0018574945341863E-011  0.11919744449478481        0.0000000000000000     
   9.5398949156999535E-012  0.12642965916243276        0.0000000000000000     
   8.6642121428781582E-012  0.13379872507212756        0.0000000000000000     
  -4.8553702120242796E-003  0.10516514517611196        0.0000000000000000     
  -4.9950900067512937E-003  0.11212258412012135        0.0000000000000000     
  -5.1280655935786396E-003  0.11921684143990824        0.0000000000000000     
  -5.2542969725063206E-003  0.12644791713547254        0.0000000000000000     
  -5.3737841435343324E-003  0.13381581120681438        0.0000000000000000     
  -9.7242442041808753E-003  0.10522987405058105        0.0000000000000000     
  -1.0006475440981972E-002  0.11218409327576966        0.0000000000000000     
  -1.0274959649973141E-002  0.11927503227784124        0.0000000000000000     
  -1.0529696831154392E-002  0.12650269105679582        0.0000000000000000     
  -1.0770686984525721E-002  0.13386706961263342        0.0000000000000000     
  -1.4606621966684871E-002  0.10533775550903664        0.0000000000000000     
  -1.5034156292591779E-002  0.11228660853612847        0.0000000000000000     
  -1.5440682159164923E-002  0.11937201700858377        0.0000000000000000     
  -1.5826199566404322E-002  0.12659398092640248        0.0000000000000000     
  -1.6190708514309950E-002  0.13395250028958472        0.0000000000000000     
  -1.9502503499536264E-002  0.10548878955147868        0.0000000000000000     
  -2.0078132561580714E-002  0.11243012990119787        0.0000000000000000     
  -2.0625233121153996E-002  0.11950779563213584        0.0000000000000000     
  -2.1143805178256099E-002  0.12672178674429260        0.0000000000000000     
  -2.1633848732887033E-002  0.13407210323766816        0.0000000000000000     
   8.6642121428781582E-012  0.13379872507212756        0.0000000000000000     
   7.6227468347872529E-012  0.14129214264747927        0.0000000000000000     
   6.6467250540297451E-012  0.14889741231209805        0.0000000000000000     
   5.7361470716561780E-012  0.15661453406598388        0.0000000000000000     
   4.8910103397914462E-012  0.16444350790913681        0.0000000000000000     
  -5.3737841435343324E-003  0.13381581120681438        0.0000000000000000     
  -5.4865427875430677E-003  0.14130802529319164        0.0000000000000000     
  -5.5925885854129168E-003  0.14891206103386237        0.0000000000000000     
  -5.6919215371438814E-003  0.15662791842882656        0.0000000000000000     
  -5.7845416427359589E-003  0.16445559747808428        0.0000000000000000     
  -1.0770686984525721E-002  0.13386706961263342        0.0000000000000000     
  -1.0998081824609143E-002  0.14135567323164577        0.0000000000000000     
  -1.1212033065926674E-002  0.14895600720012467        0.0000000000000000     
  -1.1412540708478308E-002  0.15666807151807002        0.0000000000000000     
  -1.1599604752264051E-002  0.16449186618548189        0.0000000000000000     
  -1.6190708514309950E-002  0.13395250028958472        0.0000000000000000     
  -1.6534617103575476E-002  0.14143508646284170        0.0000000000000000     
  -1.6858333434894537E-002  0.14902925081088483        0.0000000000000000     
  -1.7161857508267132E-002  0.15673499333371421        0.0000000000000000     
  -1.7445189323693263E-002  0.16455231403132972        0.0000000000000000     
  -2.1633848732887033E-002  0.13407210323766816        0.0000000000000000     
  -2.2096148624442074E-002  0.14154626498677936        0.0000000000000000     
  -2.2531489692316518E-002  0.14913179186614298        0.0000000000000000     
  -2.2939871936510359E-002  0.15682868387575910        0.0000000000000000     
  -2.3321295357023597E-002  0.16463694101562770        0.0000000000000000     
   4.8910103397914462E-012  0.16444350790913681        0.0000000000000000     
   4.2436471003881593E-012  0.17237191119444051        0.0000000000000000     
   3.9263877522552337E-012  0.18038732127477869        0.0000000000000000     
   3.9392302083034875E-012  0.18848973815015146        0.0000000000000000     
   4.2821757424704732E-012  0.19667916182055872        0.0000000000000000     
  -5.7845416427359589E-003  0.16445559747808428        0.0000000000000000     
  -5.8701197970116893E-003  0.17238272452151199        0.0000000000000000     
  -5.9483268947936102E-003  0.18039692589898634        0.0000000000000000     
  -6.0191629360817189E-003  0.18849820161050732        0.0000000000000000     
  -6.0826279208760188E-003  0.19668655165607490        0.0000000000000000     
  -1.1599604752264051E-002  0.16449186618548189        0.0000000000000000     
  -1.1772501670797735E-002  0.17241516450318359        0.0000000000000000     
  -1.1930507937593204E-002  0.18042573977199830        0.0000000000000000     
  -1.2073623552650448E-002  0.18852359199192609        0.0000000000000000     
  -1.2201848515969475E-002  0.19670872116296692        0.0000000000000000     
  -1.7445189323693263E-002  0.16455231403132972        0.0000000000000000     
  -1.7707145617114495E-002  0.17246923113945523        0.0000000000000000     
  -1.7946543124472390E-002  0.18047376289381459        0.0000000000000000     
  -1.8163381845766952E-002  0.18856590929440775        0.0000000000000000     
  -1.8357661780998187E-002  0.19674567034123477        0.0000000000000000     
  -2.3321295357023597E-002  0.16463694101562770        0.0000000000000000     
  -2.3674051635961962E-002  0.17254492443032698        0.0000000000000000     
  -2.3996432455431174E-002  0.18054099526443523        0.0000000000000000     
  -2.4288437815431243E-002  0.18862515351795239        0.0000000000000000     
  -2.4550067715962156E-002  0.19679739919087855        0.0000000000000000     
   4.2821757424704732E-012  0.19667916182055872        0.0000000000000000     
   4.7243031969096405E-012  0.20493733231953951        0.0000000000000000     
   5.0346919558755254E-012  0.21324598968063277        0.0000000000000000     
   5.2133422633136167E-012  0.22160513390383849        0.0000000000000000     
   5.2602540379087515E-012  0.23001476498915668        0.0000000000000000     
  -6.0826279208760188E-003  0.19668655165607490        0.0000000000000000     
  -6.1389540305739430E-003  0.20494389794288703        0.0000000000000000     
  -6.1883734465729224E-003  0.21325216237814171        0.0000000000000000     
  -6.2308861688729561E-003  0.22161134496183887        0.0000000000000000     
  -6.2664921974740486E-003  0.23002144569397850        0.0000000000000000     
  -1.2201848515969475E-002  0.19670872116296692        0.0000000000000000     
  -1.2315596743726530E-002  0.20496359481326970        0.0000000000000000     
  -1.2415282152097870E-002  0.21327068047098341        0.0000000000000000     
  -1.2500904741083490E-002  0.22162997813610785        0.0000000000000000     
  -1.2572464510683392E-002  0.23004148780864325        0.0000000000000000     
  -1.8357661780998187E-002  0.19674567034123477        0.0000000000000000     
  -1.8529928134733458E-002  0.20499642293068751        0.0000000000000000     
  -1.8680726111540143E-002  0.21330154395915774        0.0000000000000000     
  -1.8810055711418253E-002  0.22166103342664556        0.0000000000000000     
  -1.8917916934367774E-002  0.23007489133315090        0.0000000000000000     
  -2.4550067715962156E-002  0.19679739919087855        0.0000000000000000     
  -2.4781948203594729E-002  0.20504238229514041        0.0000000000000000     
  -2.4984705324899763E-002  0.21334475284266488        0.0000000000000000     
  -2.5158339079877249E-002  0.22170451083345191        0.0000000000000000     
  -2.5302849468527198E-002  0.23012165626750147        0.0000000000000000     
   5.2602540379087515E-012  0.23001476498915668        0.0000000000000000     
   5.2478811227163469E-012  0.23844358408761551        0.0000000000000000     
   5.2486799628770342E-012  0.24686029235024312        0.0000000000000000     
   5.2626488236673374E-012  0.25526488977703948        0.0000000000000000     
   5.2897877050872566E-012  0.26365737636800468        0.0000000000000000     
  -6.2664921974740486E-003  0.23002144569397850        0.0000000000000000     
  -6.2964172864110306E-003  0.23845140469515519        0.0000000000000000     
  -6.3218871897187372E-003  0.24687016208596335        0.0000000000000000     
  -6.3429019073971615E-003  0.25527771786640302        0.0000000000000000     
  -6.3594614394463147E-003  0.26367407203647419        0.0000000000000000     
  -1.2572464510683392E-002  0.23004148780864325        0.0000000000000000     
  -1.2632641135051061E-002  0.23847486651790384        0.0000000000000000     
  -1.2684114288339980E-002  0.24689977129320387        0.0000000000000000     
  -1.2726883970550154E-002  0.25531620213454354        0.0000000000000000     
  -1.2760950181681576E-002  0.26372415904192265        0.0000000000000000     
  -1.8917916934367774E-002  0.23007489133315090        0.0000000000000000     
  -1.9008671540672217E-002  0.23851396955586143        0.0000000000000000     
  -1.9086681290615057E-002  0.24694911997196478        0.0000000000000000     
  -1.9151946184196324E-002  0.25538034258146092        0.0000000000000000     
  -1.9204466221415997E-002  0.26380763738434987        0.0000000000000000     
  -2.5302849468527198E-002  0.23012165626750147        0.0000000000000000     
  -2.5424508503274483E-002  0.23856871380902803        0.0000000000000000     
  -2.5529588196543967E-002  0.24701820812224598        0.0000000000000000     
  -2.5618088548335666E-002  0.25547013920715528        0.0000000000000000     
  -2.5690009558649571E-002  0.26392450706375598        0.0000000000000000     
   5.2897877050872566E-012  0.26365737636800468        0.0000000000000000     
   5.3182959338510249E-012  0.27197761607352944        0.0000000000000000     
   5.3363730535133103E-012  0.28016547284400445        0.0000000000000000     
   5.3440180340820487E-012  0.28822094667942982        0.0000000000000000     
   5.3412317971290868E-012  0.29614403757980556        0.0000000000000000     
  -6.3594614394463147E-003  0.26367407203647419        0.0000000000000000     
  -6.3754371236175011E-003  0.27199940088194918        0.0000000000000000     
  -6.3947002976620275E-003  0.28019388068860018        0.0000000000000000     
  -6.4172509615798958E-003  0.28825751145642720        0.0000000000000000     
  -6.4430891153711041E-003  0.29619029318543022        0.0000000000000000     
  -1.2760950181681576E-002  0.26372415904192265        0.0000000000000000     
  -1.2793507303194108E-002  0.27206475530724694        0.0000000000000000     
  -1.2831749716547585E-002  0.28027910422242219        0.0000000000000000     
  -1.2875677421742030E-002  0.28836720578744823        0.0000000000000000     
  -1.2925290418777427E-002  0.29632906000232528        0.0000000000000000     
  -1.9204466221415997E-002  0.26380763738434987        0.0000000000000000     
  -1.9254210533411514E-002  0.27217367934942271        0.0000000000000000     
  -1.9311148251320312E-002  0.28042114344547042        0.0000000000000000     
  -1.9375279375142388E-002  0.28855002967249305        0.0000000000000000     
  -1.9446603904877735E-002  0.29656033803049064        0.0000000000000000     
  -2.5690009558649571E-002  0.26392450706375598        0.0000000000000000     
  -2.5757546814269734E-002  0.27232617300847639        0.0000000000000000     
  -2.5832895901980190E-002  0.28061999835774498        0.0000000000000000     
  -2.5916056821780959E-002  0.28880598311156158        0.0000000000000000     
  -2.6007029573672031E-002  0.29688412726992630        0.0000000000000000     
  -1.4028111898999031E-002   5.5781974663114561E-002   0.0000000000000000     
  -1.4802711884287001E-002   6.1373317744215249E-002   0.0000000000000000     
  -1.5550158412824920E-002   6.7150230139434428E-002   0.0000000000000000     
  -1.6270451484612786E-002   7.3112711848772119E-002   0.0000000000000000     
  -1.6963591099650604E-002   7.9260762872228260E-002   0.0000000000000000     
  -1.7547153844526691E-002   5.6041439163335656E-002   0.0000000000000000     
  -1.8525511562733965E-002   6.1626371994590368E-002   0.0000000000000000     
  -1.9469588360634497E-002   6.7396282176153260E-002   0.0000000000000000     
  -2.0379384238228302E-002   7.3351169708024341E-002   0.0000000000000000     
  -2.1254899195515372E-002   7.9491034590203596E-002   0.0000000000000000     
  -2.1207510534704294E-002   5.6359748669462049E-002   0.0000000000000000     
  -2.2385805059936540E-002   6.1936829134133647E-002   0.0000000000000000     
  -2.3521727166288531E-002   6.7698093766975526E-002   0.0000000000000000     
  -2.4615276853760273E-002   7.3643542567987705E-002   0.0000000000000000     
  -2.5666454122351762E-002   7.9773175537170185E-002   0.0000000000000000     
  -2.5009181969531839E-002   5.6736903181493735E-002   0.0000000000000000     
  -2.6383592375894733E-002   6.2304689162845074E-002   0.0000000000000000     
  -2.7706574829787022E-002   6.8055664911901223E-002   0.0000000000000000     
  -2.8978129331208698E-002   7.3989830428662209E-002   0.0000000000000000     
  -3.0198255880159765E-002   8.0107185713127985E-002   0.0000000000000000     
  -2.8952168149009326E-002   5.7172902699430705E-002   0.0000000000000000     
  -3.0518873510608537E-002   6.2729952080724655E-002   0.0000000000000000     
  -3.2024131351129956E-002   6.8468995610930339E-002   0.0000000000000000     
  -3.3467941670573570E-002   7.4390033290047813E-002   0.0000000000000000     
  -3.4850304468939386E-002   8.0493065118077051E-002   0.0000000000000000     
  -1.6963591099650604E-002   7.9260762872228260E-002   0.0000000000000000     
  -1.7631945289640544E-002   8.5580641300067969E-002   0.0000000000000000     
  -1.8277882086284804E-002   9.2058605222556281E-002   0.0000000000000000     
  -1.8901401489583379E-002   9.8694654639693180E-002   0.0000000000000000     
  -1.9502503499536264E-002  0.10548878955147868        0.0000000000000000     
  -2.1254899195515372E-002   7.9491034590203596E-002   0.0000000000000000     
  -2.2098739783593870E-002   8.5802324748987149E-002   0.0000000000000000     
  -2.2913512553561947E-002   9.2271488110671124E-002   0.0000000000000000     
  -2.3699217505419604E-002   9.8898524675255478E-002   0.0000000000000000     
  -2.4455854639166837E-002  0.10568343444274027        0.0000000000000000     
  -2.5666454122351762E-002   7.9773175537170185E-002   0.0000000000000000     
  -2.6679209110443827E-002   8.6073780134026154E-002   0.0000000000000000     
  -2.7657491956417288E-002   9.2532143818058882E-002   0.0000000000000000     
  -2.8601302660272138E-002   9.9148266589268327E-002   0.0000000000000000     
  -2.9510641222008391E-002  0.10592214844765449        0.0000000000000000     
  -3.0198255880159765E-002   8.0107185713127985E-002   0.0000000000000000     
  -3.1373353270190418E-002   8.6395007455184969E-002   0.0000000000000000     
  -3.2509820294850826E-002   9.2840572344719527E-002   0.0000000000000000     
  -3.3607656954140981E-002   9.9443880381731672E-002   0.0000000000000000     
  -3.4666863248060904E-002  0.10620493156622138        0.0000000000000000     
  -3.4850304468939386E-002   8.0493065118077051E-002   0.0000000000000000     
  -3.6181172262833634E-002   8.6766006712463623E-002   0.0000000000000000     
  -3.7470497568862567E-002   9.3196773690653129E-002   0.0000000000000000     
  -3.8718280387026148E-002   9.9785366052645541E-002   0.0000000000000000     
  -3.9924520717324406E-002  0.10653178379844089        0.0000000000000000     
  -1.9502503499536264E-002  0.10548878955147868        0.0000000000000000     
  -2.0078132561580714E-002  0.11243012990119787        0.0000000000000000     
  -2.0625233121153996E-002  0.11950779563213584        0.0000000000000000     
  -2.1143805178256099E-002  0.12672178674429260        0.0000000000000000     
  -2.1633848732887033E-002  0.13407210323766816        0.0000000000000000     
  -2.4455854639166837E-002  0.10568343444274027        0.0000000000000000     
  -2.5179971951733503E-002  0.11261528662012218        0.0000000000000000     
  -2.5868117440049444E-002  0.11968315041439800        0.0000000000000000     
  -2.6520291104114666E-002  0.12688702582556768        0.0000000000000000     
  -2.7136492943929155E-002  0.13422691285363123        0.0000000000000000     
  -2.9510641222008391E-002  0.10592214844765449        0.0000000000000000     
  -3.0381242166834858E-002  0.11284270794204584        0.0000000000000000     
  -3.1208840019960368E-002  0.11989886362127074        0.0000000000000000     
  -3.1993434781384930E-002  0.12709061548532921        0.0000000000000000     
  -3.2735026451108526E-002  0.13441796353422125        0.0000000000000000     
  -3.4666863248060904E-002  0.10620493156622138        0.0000000000000000     
  -3.5681943206884774E-002  0.11311239386696878        0.0000000000000000     
  -3.6647400860886768E-002  0.12015493525275407        0.0000000000000000     
  -3.7563236210066894E-002  0.12733255572357721        0.0000000000000000     
  -3.8429449254425145E-002  0.13464525527943824        0.0000000000000000     
  -3.9924520717324406E-002  0.10653178379844089        0.0000000000000000     
  -4.1082075071883252E-002  0.11342434439489107        0.0000000000000000     
  -4.2183799962828644E-002  0.12045136530884802        0.0000000000000000     
  -4.3229695390160562E-002  0.12761284654031171        0.0000000000000000     
  -4.4219761353879006E-002  0.13490878808928217        0.0000000000000000     
  -2.1633848732887033E-002  0.13407210323766816        0.0000000000000000     
  -2.2096148624442074E-002  0.14154626498677936        0.0000000000000000     
  -2.2531489692316518E-002  0.14913179186614298        0.0000000000000000     
  -2.2939871936510359E-002  0.15682868387575910        0.0000000000000000     
  -2.3321295357023597E-002  0.16463694101562770        0.0000000000000000     
  -2.7136492943929155E-002  0.13422691285363123        0.0000000000000000     
  -2.7717929329013305E-002  0.14169038077267321        0.0000000000000000     
  -2.8265806628887485E-002  0.14926499885677813        0.0000000000000000     
  -2.8780124843551691E-002  0.15695076710594602        0.0000000000000000     
  -2.9260883973005938E-002  0.16474768552017688        0.0000000000000000     
  -3.2735026451108526E-002  0.13441796353422125        0.0000000000000000     
  -3.3435212159093543E-002  0.14186860578973767        0.0000000000000000     
  -3.4095589035302298E-002  0.14943024027366933        0.0000000000000000     
  -3.4716157079734848E-002  0.15710286698601617        0.0000000000000000     
  -3.5296916292391151E-002  0.16488648592677821        0.0000000000000000     
  -3.8429449254425145E-002  0.13464525527943824        0.0000000000000000     
  -3.9247997114682756E-002  0.14208094003797281        0.0000000000000000     
  -4.0020836911560990E-002  0.14962751611681657        0.0000000000000000     
  -4.0747968645059814E-002  0.15728498351596953        0.0000000000000000     
  -4.1429392315179246E-002  0.16505334223543178        0.0000000000000000     
  -4.4219761353879006E-002  0.13490878808928217        0.0000000000000000     
  -4.5156284195780994E-002  0.14232738351737848        0.0000000000000000     
  -4.6041550257663523E-002  0.14985682638621986        0.0000000000000000     
  -4.6875559539526601E-002  0.15749711669580618        0.0000000000000000     
  -4.7658312041370221E-002  0.16524825444613753        0.0000000000000000     
  -2.3321295357023597E-002  0.16463694101562770        0.0000000000000000     
  -2.3674051635961962E-002  0.17254492443032698        0.0000000000000000     
  -2.3996432455431174E-002  0.18054099526443523        0.0000000000000000     
  -2.4288437815431243E-002  0.18862515351795239        0.0000000000000000     
  -2.4550067715962156E-002  0.19679739919087855        0.0000000000000000     
  -2.9260883973005938E-002  0.16474768552017688        0.0000000000000000     
  -2.9705914724114817E-002  0.17264443807308386        0.0000000000000000     
  -3.0113047803742948E-002  0.18062970873828016        0.0000000000000000     
  -3.0482283211890338E-002  0.18870349751576582        0.0000000000000000     
  -3.0813620948556983E-002  0.19686580440554080        0.0000000000000000     
  -3.5296916292391151E-002  0.16488648592677821        0.0000000000000000     
  -3.5835429878347730E-002  0.17276996576501083        0.0000000000000000     
  -3.6329261042681110E-002  0.18074217516976943        0.0000000000000000     
  -3.6778409785391278E-002  0.18880311414105383        0.0000000000000000     
  -3.7182876106478246E-002  0.19695278267886426        0.0000000000000000     
  -4.1429392315179246E-002  0.16505334223543178        0.0000000000000000     
  -4.2062597098660712E-002  0.17292150750610796        0.0000000000000000     
  -4.2645072172245654E-002  0.18087839455890292        0.0000000000000000     
  -4.3176817535934060E-002  0.18892400339381657        0.0000000000000000     
  -4.3657833189725950E-002  0.19705833401084899        0.0000000000000000     
  -4.7658312041370221E-002  0.16524825444613753        0.0000000000000000     
  -4.8387416385053755E-002  0.17309906329637528        0.0000000000000000     
  -4.9060481192436584E-002  0.18103836690568070        0.0000000000000000     
  -4.9677506463518699E-002  0.18906616527405393        0.0000000000000000     
  -5.0238492198300101E-002  0.19718245840149490        0.0000000000000000     
  -2.4550067715962156E-002  0.19679739919087855        0.0000000000000000     
  -2.4781948203594729E-002  0.20504238229514041        0.0000000000000000     
  -2.4984705324899763E-002  0.21334475284266488        0.0000000000000000     
  -2.5158339079877249E-002  0.22170451083345191        0.0000000000000000     
  -2.5302849468527198E-002  0.23012165626750147        0.0000000000000000     
  -3.0813620948556983E-002  0.19686580440554080        0.0000000000000000     
  -3.1107544905895734E-002  0.20510280350893687        0.0000000000000000     
  -3.1364538976059467E-002  0.21340066892728579        0.0000000000000000     
  -3.1584603159048166E-002  0.22175940066058752        0.0000000000000000     
  -3.1767737454861847E-002  0.23017899870884215        0.0000000000000000     
  -3.7182876106478246E-002  0.19695278267886426        0.0000000000000000     
  -3.7542606197221870E-002  0.20517901717438530        0.0000000000000000     
  -3.7857546248902016E-002  0.21346965401880158        0.0000000000000000     
  -3.8127696261518698E-002  0.22182469321211318        0.0000000000000000     
  -3.8353056235071903E-002  0.23024413475432001        0.0000000000000000     
  -4.3657833189725950E-002  0.19705833401084899        0.0000000000000000     
  -4.4087132077573130E-002  0.20527102329148567        0.0000000000000000     
  -4.4463727143427431E-002  0.21355170811721227        0.0000000000000000     
  -4.4787618387288841E-002  0.22190038848802873        0.0000000000000000     
  -4.5058805809157373E-002  0.23031706440393515        0.0000000000000000     
  -5.0238492198300101E-002  0.19718245840149490        0.0000000000000000     
  -5.0741122546949527E-002  0.20537882186023804        0.0000000000000000     
  -5.1183081659635699E-002  0.21364683122251785        0.0000000000000000     
  -5.1564369536358602E-002  0.22198648648833436        0.0000000000000000     
  -5.1884986177118252E-002  0.23039778765768751        0.0000000000000000     
  -2.5302849468527198E-002  0.23012165626750147        0.0000000000000000     
  -2.5424508503274483E-002  0.23856871380902803        0.0000000000000000     
  -2.5529588196543967E-002  0.24701820812224598        0.0000000000000000     
  -2.5618088548335666E-002  0.25547013920715528        0.0000000000000000     
  -2.5690009558649571E-002  0.26392450706375598        0.0000000000000000     
  -3.1767737454861847E-002  0.23017899870884215        0.0000000000000000     
  -3.1921848090202862E-002  0.23863461604601205        0.0000000000000000     
  -3.2054841291773571E-002  0.24710140564605987        0.0000000000000000     
  -3.2166717059573954E-002  0.25557936750898558        0.0000000000000000     
  -3.2257475393604046E-002  0.26406850163478912        0.0000000000000000     
  -3.8353056235071903E-002  0.23024413475432001        0.0000000000000000     
  -3.8542386368802334E-002  0.23870719303542198        0.0000000000000000     
  -3.8704446861950695E-002  0.24719308244541888        0.0000000000000000     
  -3.8839237714516979E-002  0.25570180298431072        0.0000000000000000     
  -3.8946758926501165E-002  0.26423335465209757        0.0000000000000000     
  -4.5058805809157373E-002  0.23031706440393515        0.0000000000000000     
  -4.5286123339072899E-002  0.23878644477725774        0.0000000000000000     
  -4.5478404907075352E-002  0.24729323852032295        0.0000000000000000     
  -4.5635650513164698E-002  0.25583744563313077        0.0000000000000000     
  -4.5757860157340943E-002  0.26441906611568122        0.0000000000000000     
  -5.1884986177118252E-002  0.23039778765768751        0.0000000000000000     
  -5.2153059001014579E-002  0.23887237127151939        0.0000000000000000     
  -5.2376715427147544E-002  0.24740187387077212        0.0000000000000000     
  -5.2555955455517125E-002  0.25598629545544577        0.0000000000000000     
  -5.2690779086123345E-002  0.26462563602554018        0.0000000000000000     
  -2.5690009558649571E-002  0.26392450706375598        0.0000000000000000     
  -2.5757546814269734E-002  0.27232617300847639        0.0000000000000000     
  -2.5832895901980190E-002  0.28061999835774498        0.0000000000000000     
  -2.5916056821780959E-002  0.28880598311156158        0.0000000000000000     
  -2.6007029573672031E-002  0.29688412726992630        0.0000000000000000     
  -3.2257475393604046E-002  0.26406850163478912        0.0000000000000000     
  -3.2341940343395041E-002  0.27251591215853693        0.0000000000000000     
  -3.2434935958478135E-002  0.28086870321529517        0.0000000000000000     
  -3.2536462238853349E-002  0.28912687480506399        0.0000000000000000     
  -3.2646519184520668E-002  0.29729042692784330        0.0000000000000000     
  -3.8946758926501165E-002  0.26423335465209757        0.0000000000000000     
  -3.9045815318413717E-002  0.27273657267373297        0.0000000000000000     
  -3.9155211710765053E-002  0.28116029227417055        0.0000000000000000     
  -3.9274948103555134E-002  0.28950451345341049        0.0000000000000000     
  -3.9405024496784014E-002  0.29776923621145257        0.0000000000000000     
  -4.5757860157340943E-002  0.26441906611568122        0.0000000000000000     
  -4.5869171739325774E-002  0.27298815455406461        0.0000000000000000     
  -4.5993723158840913E-002  0.28149476553437125        0.0000000000000000     
  -4.6131514415886338E-002  0.28993889905660108        0.0000000000000000     
  -4.6282545510462049E-002  0.29832055512075412        0.0000000000000000     
  -5.2690779086123345E-002  0.26462563602554018        0.0000000000000000     
  -5.2812009606131215E-002  0.27327065779953175        0.0000000000000000     
  -5.2950470302705749E-002  0.28187212299589698        0.0000000000000000     
  -5.3106161175846933E-002  0.29043003161463571        0.0000000000000000     
  -5.3279082225554789E-002  0.29894438365574794        0.0000000000000000     
  -2.8952168149009326E-002   5.7172902699430705E-002   0.0000000000000000     
  -3.0518873510608537E-002   6.2729952080724655E-002   0.0000000000000000     
  -3.2024131351129956E-002   6.8468995610930339E-002   0.0000000000000000     
  -3.3467941670573570E-002   7.4390033290047813E-002   0.0000000000000000     
  -3.4850304468939386E-002   8.0493065118077051E-002   0.0000000000000000     
  -3.3018078534626447E-002   5.7667441223580598E-002   0.0000000000000000     
  -3.4772123885144744E-002   6.3212178112317649E-002   0.0000000000000000     
  -3.6456489833652905E-002   6.8937665277538904E-002   0.0000000000000000     
  -3.8071176380150930E-002   7.4843902719244362E-002   0.0000000000000000     
  -3.9616183524638818E-002   8.0930890437434039E-002   0.0000000000000000     
  -3.7188522587872884E-002   5.8220212754251051E-002   0.0000000000000000     
  -3.9123818920570132E-002   6.3750927482169345E-002   0.0000000000000000     
  -4.0985743380691435E-002   6.9461253325202879E-002   0.0000000000000000     
  -4.2774295968236807E-002   7.5351190283351660E-002   0.0000000000000000     
  -4.4489476683206235E-002   8.1420738356615618E-002   0.0000000000000000     
  -4.1463500308748638E-002   5.8831217291442049E-002   0.0000000000000000     
  -4.3573958616884692E-002   6.4346200190279743E-002   0.0000000000000000     
  -4.5611891992245558E-002   7.0039759753922293E-002   0.0000000000000000     
  -4.7577300434831195E-002   7.5911895982369623E-002   0.0000000000000000     
  -4.9470183944641637E-002   8.1962608875621804E-002   0.0000000000000000     
  -4.5843011697253716E-002   5.9500454835153621E-002   0.0000000000000000     
  -4.8122542974088453E-002   6.4997996236648842E-002   0.0000000000000000     
  -5.0334935668315248E-002   7.0673184563697089E-002   0.0000000000000000     
  -5.2480189779934114E-002   7.6526019816298335E-002   0.0000000000000000     
  -5.4558305308945038E-002   8.2556501994452594E-002   0.0000000000000000     
  -3.4850304468939386E-002   8.0493065118077051E-002   0.0000000000000000     
  -3.6181172262833634E-002   8.6766006712463623E-002   0.0000000000000000     
  -3.7470497568862567E-002   9.3196773690653129E-002   0.0000000000000000     
  -3.8718280387026148E-002   9.9785366052645541E-002   0.0000000000000000     
  -3.9924520717324406E-002  0.10653178379844089        0.0000000000000000     
  -3.9616183524638818E-002   8.0930890437434039E-002   0.0000000000000000     
  -4.1103907226344494E-002   8.7187165682966153E-002   0.0000000000000000     
  -4.2546743444495924E-002   9.3601265706698938E-002   0.0000000000000000     
  -4.3944692179093109E-002  0.10017319050863240        0.0000000000000000     
  -4.5297753430136027E-002  0.10690294008876655        0.0000000000000000     
  -4.4489476683206235E-002   8.1420738356615618E-002   0.0000000000000000     
  -4.6142799298693991E-002   8.7658872143796585E-002   0.0000000000000000     
  -4.7745777587794365E-002   9.4054566243696264E-002   0.0000000000000000     
  -4.9298411550507341E-002  0.10060782065631470        0.0000000000000000     
  -5.0800701186832956E-002  0.10731863538165184        0.0000000000000000     
  -4.9470183944641637E-002   8.1962608875621804E-002   0.0000000000000000     
  -5.1297848479882113E-002   8.8181126094954931E-002   0.0000000000000000     
  -5.3067599998757861E-002   9.4556675301645132E-002   0.0000000000000000     
  -5.4779438501268873E-002  0.10108925649569242        0.0000000000000000     
  -5.6433363987415164E-002  0.10777886967709677        0.0000000000000000     
  -5.4558305308945038E-002   8.2556501994452594E-002   0.0000000000000000     
  -5.6569054769908873E-002   8.8753927536441193E-002   0.0000000000000000     
  -5.8512210677386427E-002   9.5107592880545516E-002   0.0000000000000000     
  -6.0387773031377684E-002  0.10161749802676558        0.0000000000000000     
  -6.2195741831882673E-002  0.10828364297510135        0.0000000000000000     
  -3.9924520717324406E-002  0.10653178379844089        0.0000000000000000     
  -4.1082075071883252E-002  0.11342434439489107        0.0000000000000000     
  -4.2183799962828644E-002  0.12045136530884802        0.0000000000000000     
  -4.3229695390160562E-002  0.12761284654031171        0.0000000000000000     
  -4.4219761353879006E-002  0.13490878808928217        0.0000000000000000     
  -4.5297753430136027E-002  0.10690294008876655        0.0000000000000000     
  -4.6597448059763215E-002  0.11377860841436187        0.0000000000000000     
  -4.7835296930113180E-002  0.12078828945267886        0.0000000000000000     
  -4.9011300041185910E-002  0.12793198320371749        0.0000000000000000     
  -5.0125457392981423E-002  0.13520968966747779        0.0000000000000000     
  -5.0800701186832956E-002  0.10731863538165184        0.0000000000000000     
  -5.2243872468457561E-002  0.11417523481393037        0.0000000000000000     
  -5.3619151367067540E-002  0.12116584334737288        0.0000000000000000     
  -5.4926537882662940E-002  0.12829046098197938        0.0000000000000000     
  -5.6166032015243707E-002  0.13554908771774990        0.0000000000000000     
  -5.6433363987415164E-002  0.10777886967709677        0.0000000000000000     
  -5.8021348297966270E-002  0.11461422359359655        0.0000000000000000     
  -5.9535363273691765E-002  0.12158402699293008        0.0000000000000000     
  -6.0975408914591619E-002  0.12868827987509737        0.0000000000000000     
  -6.2341485220665835E-002  0.13592698224009842        0.0000000000000000     
  -6.2195741831882673E-002  0.10828364297510135        0.0000000000000000     
  -6.3929875548289383E-002  0.11509557475336044        0.0000000000000000     
  -6.5583932649985813E-002  0.12204284038935048        0.0000000000000000     
  -6.7157913136971961E-002  0.12912543988307146        0.0000000000000000     
  -6.8651817009247829E-002  0.13634337323452339        0.0000000000000000     
  -4.4219761353879006E-002  0.13490878808928217        0.0000000000000000     
  -4.5156284195780994E-002  0.14232738351737848        0.0000000000000000     
  -4.6041550257663523E-002  0.14985682638621986        0.0000000000000000     
  -4.6875559539526601E-002  0.15749711669580618        0.0000000000000000     
  -4.7658312041370221E-002  0.16524825444613753        0.0000000000000000     
  -5.0125457392981423E-002  0.13520968966747779        0.0000000000000000     
  -5.1180494074489755E-002  0.14260974779967595        0.0000000000000000     
  -5.2179135174700977E-002  0.15012049655602802        0.0000000000000000     
  -5.3121380693615071E-002  0.15774193593653413        0.0000000000000000     
  -5.4007230631232035E-002  0.16547406594119421        0.0000000000000000     
  -5.6166032015243707E-002  0.13554908771774990        0.0000000000000000     
  -5.7341047422910608E-002  0.14292984445658619        0.0000000000000000     
  -5.8454997763764414E-002  0.15042085210039002        0.0000000000000000     
  -5.9507883037805104E-002  0.15802211064916147        0.0000000000000000     
  -6.0499703245032684E-002  0.16573362010290049        0.0000000000000000     
  -6.2341485220665835E-002  0.13592698224009842        0.0000000000000000     
  -6.3637944241043534E-002  0.14328767348810925        0.0000000000000000     
  -6.4869138024853806E-002  0.15075789301930584        0.0000000000000000     
  -6.6035066572096693E-002  0.15833764083368823        0.0000000000000000     
  -6.7135729882772124E-002  0.16602691693125643        0.0000000000000000     
  -6.8651817009247829E-002  0.13634337323452339        0.0000000000000000     
  -7.0071184528888553E-002  0.14368323489424512        0.0000000000000000     
  -7.1421555957969216E-002  0.15113161931277544        0.0000000000000000     
  -7.2702931296489831E-002  0.15868852649011445        0.0000000000000000     
  -7.3915310544450399E-002  0.16635395642626200        0.0000000000000000     
  -4.7658312041370221E-002  0.16524825444613753        0.0000000000000000     
  -4.8387416385053755E-002  0.17309906329637528        0.0000000000000000     
  -4.9060481192436584E-002  0.18103836690568070        0.0000000000000000     
  -4.9677506463518699E-002  0.18906616527405393        0.0000000000000000     
  -5.0238492198300101E-002  0.19718245840149490        0.0000000000000000     
  -5.4007230631232035E-002  0.16547406594119421        0.0000000000000000     
  -5.4834401192165878E-002  0.17330570048583005        0.0000000000000000     
  -5.5600608581030546E-002  0.18122565348626346        0.0000000000000000     
  -5.6305852797826066E-002  0.18923392494249439        0.0000000000000000     
  -5.6950133842552410E-002  0.19733051485452294        0.0000000000000000     
  -6.0499703245032684E-002  0.16573362010290049        0.0000000000000000     
  -6.1428064974636064E-002  0.17354448642448972        0.0000000000000000     
  -6.2290574815804182E-002  0.18144381557681169        0.0000000000000000     
  -6.3087232768537005E-002  0.18943160755986646        0.0000000000000000     
  -6.3818038832834587E-002  0.19750786237365395        0.0000000000000000     
  -6.7135729882772124E-002  0.16602691693125643        0.0000000000000000     
  -6.8168407732464339E-002  0.17381542111235423        0.0000000000000000     
  -6.9130379896757493E-002  0.18169285317732548        0.0000000000000000     
  -7.0021646375651586E-002  0.18965921312617007        0.0000000000000000     
  -7.0842207169146618E-002  0.19771450095888812        0.0000000000000000     
  -7.3915310544450399E-002  0.16635395642626200        0.0000000000000000     
  -7.5055429465650692E-002  0.17411850454942362        0.0000000000000000     
  -7.6120023823890465E-002  0.18197276628780470        0.0000000000000000     
  -7.7109093619169747E-002  0.18991674164140526        0.0000000000000000     
  -7.8022638851488510E-002  0.19795043061022524        0.0000000000000000     
  -5.0238492198300101E-002  0.19718245840149490        0.0000000000000000     
  -5.0741122546949527E-002  0.20537882186023804        0.0000000000000000     
  -5.1183081659635699E-002  0.21364683122251785        0.0000000000000000     
  -5.1564369536358602E-002  0.22198648648833436        0.0000000000000000     
  -5.1884986177118252E-002  0.23039778765768751        0.0000000000000000     
  -5.6950133842552410E-002  0.19733051485452294        0.0000000000000000     
  -5.7530214321207772E-002  0.20550858282237344        0.0000000000000000     
  -5.8042856839790311E-002  0.21376128844607042        0.0000000000000000     
  -5.8488061398300019E-002  0.22208863172561386        0.0000000000000000     
  -5.8865827996736918E-002  0.23049061266100379        0.0000000000000000     
  -6.3818038832834587E-002  0.19750786237365395        0.0000000000000000     
  -6.4480044116204602E-002  0.20566647611962299        0.0000000000000000     
  -6.5070299726154801E-002  0.21390134489922213        0.0000000000000000     
  -6.5588805662685198E-002  0.22221246871245140        0.0000000000000000     
  -6.6035561925795766E-002  0.23059984755931076        0.0000000000000000     
  -7.0842207169146618E-002  0.19771450095888812        0.0000000000000000     
  -7.1590611931939996E-002  0.20585250175198666        0.0000000000000000     
  -7.2265410318729129E-002  0.21406700058197292        0.0000000000000000     
  -7.2866602329514099E-002  0.22235799744884685        0.0000000000000000     
  -7.3394187964294810E-002  0.23072549235260847        0.0000000000000000     
  -7.8022638851488510E-002  0.19795043061022524        0.0000000000000000     
  -7.8861917768413975E-002  0.20606665971946450        0.0000000000000000     
  -7.9628188617513404E-002  0.21425825549432287        0.0000000000000000     
  -8.0321451398786742E-002  0.22252521793480026        0.0000000000000000     
  -8.0941706112234002E-002  0.23086754704089674        0.0000000000000000     
  -5.1884986177118252E-002  0.23039778765768751        0.0000000000000000     
  -5.2153059001014579E-002  0.23887237127151939        0.0000000000000000     
  -5.2376715427147544E-002  0.24740187387077212        0.0000000000000000     
  -5.2555955455517125E-002  0.25598629545544577        0.0000000000000000     
  -5.2690779086123345E-002  0.26462563602554018        0.0000000000000000     
  -5.8865827996736918E-002  0.23049061266100379        0.0000000000000000     
  -5.9182282106312538E-002  0.23896640965468258        0.0000000000000000     
  -5.9443549198238396E-002  0.24751520110909261        0.0000000000000000     
  -5.9649629272514527E-002  0.25613698702423388        0.0000000000000000     
  -5.9800522329140925E-002  0.26483176740010639        0.0000000000000000     
  -6.6035561925795766E-002  0.23059984755931076        0.0000000000000000     
  -6.6412881406651914E-002  0.23906999706322302        0.0000000000000000     
  -6.6723076996419051E-002  0.24762943284761058        0.0000000000000000     
  -6.6966148695097136E-002  0.25627815491247363        0.0000000000000000     
  -6.7142096502686197E-002  0.26501616325781202        0.0000000000000000     
  -7.3394187964294810E-002  0.23072549235260847        0.0000000000000000     
  -7.3844856902032754E-002  0.23918313349714057        0.0000000000000000     
  -7.4215298821689465E-002  0.24774456908632600        0.0000000000000000     
  -7.4505513723264929E-002  0.25640979912016487        0.0000000000000000     
  -7.4715501606759133E-002  0.26517882359865708        0.0000000000000000     
  -8.0941706112234002E-002  0.23086754704089674        0.0000000000000000     
  -8.1478208592455054E-002  0.23930581895643535        0.0000000000000000     
  -8.1920214674049696E-002  0.24786060982523897        0.0000000000000000     
  -8.2267724357017930E-002  0.25653191964730765        0.0000000000000000     
  -8.2520737641359754E-002  0.26531974842264144        0.0000000000000000     
  -5.2690779086123345E-002  0.26462563602554018        0.0000000000000000     
  -5.2812009606131215E-002  0.27327065779953175        0.0000000000000000     
  -5.2950470302705749E-002  0.28187212299589698        0.0000000000000000     
  -5.3106161175846933E-002  0.29043003161463571        0.0000000000000000     
  -5.3279082225554789E-002  0.29894438365574794        0.0000000000000000     
  -5.9800522329140925E-002  0.26483176740010639        0.0000000000000000     
  -5.9933083385897271E-002  0.27355537079312686        0.0000000000000000     
  -6.0084167460563241E-002  0.28226362575971187        0.0000000000000000     
  -6.0253774553138850E-002  0.29095653229986129        0.0000000000000000     
  -6.0441904663624084E-002  0.29963409041357530        0.0000000000000000     
  -6.7142096502686197E-002  0.26501616325781202        0.0000000000000000     
  -6.7291147545691182E-002  0.27381358191784205        0.0000000000000000     
  -6.7453528950617112E-002  0.28264053492677965        0.0000000000000000     
  -6.7629240717463970E-002  0.29149702228462476        0.0000000000000000     
  -6.7818282846231787E-002  0.30038304399137755        0.0000000000000000     
  -7.4715501606759133E-002  0.26517882359865708        0.0000000000000000     
  -7.4886202085512985E-002  0.27404529117367726        0.0000000000000000     
  -7.5058554772867381E-002  0.28300285049710033        0.0000000000000000     
  -7.5232559668822349E-002  0.29205150156892606        0.0000000000000000     
  -7.5408216773377862E-002  0.30119124438915462        0.0000000000000000     
  -8.2520737641359754E-002  0.26531974842264144        0.0000000000000000     
  -8.2718247005362650E-002  0.27425049856063277        0.0000000000000000     
  -8.2899244927314042E-002  0.28335057247067402        0.0000000000000000     
  -8.3063731407213931E-002  0.29261997015276525        0.0000000000000000     
  -8.3211706445062372E-002  0.30205869160690652        0.0000000000000000     
  -4.5843011697253716E-002   5.9500454835153621E-002   0.0000000000000000     
  -4.8122542974088453E-002   6.4997996236648842E-002   0.0000000000000000     
  -5.0334935668315248E-002   7.0673184563697089E-002   0.0000000000000000     
  -5.2480189779934114E-002   7.6526019816298335E-002   0.0000000000000000     
  -5.4558305308945038E-002   8.2556501994452594E-002   0.0000000000000000     
  -5.0377807194220289E-002   6.0233368453303342E-002   0.0000000000000000     
  -5.2842046623609765E-002   6.5705223942834248E-002   0.0000000000000000     
  -5.5237840907100773E-002   7.1356570322622936E-002   0.0000000000000000     
  -5.7565190044693335E-002   7.7187407592669385E-002   0.0000000000000000     
  -5.9824094036387443E-002   8.3197735752973609E-002   0.0000000000000000     
  -5.5118637240480522E-002   6.1035401213808835E-002   0.0000000000000000     
  -5.7804944196877026E-002   6.6466791630393526E-002   0.0000000000000000     
  -6.0403574206802403E-002   7.2084959598795351E-002   0.0000000000000000     
  -6.2914527270256690E-002   7.7889905119014391E-002   0.0000000000000000     
  -6.5337803387239837E-002   8.3881628191050564E-002   0.0000000000000000     
  -6.0065501836034416E-002   6.1906553116670100E-002   0.0000000000000000     
  -6.3011235693890236E-002   6.7282699299326704E-002   0.0000000000000000     
  -6.5832135567420166E-002   7.2858352392214443E-002   0.0000000000000000     
  -6.8528201456624124E-002   7.8633512395333338E-002   0.0000000000000000     
  -7.1099433361502207E-002   8.4608179308683404E-002   0.0000000000000000     
  -6.5218400980881983E-002   6.2846824161887138E-002   0.0000000000000000     
  -6.8460921114649409E-002   6.8152946949633753E-002   0.0000000000000000     
  -7.1523524988953979E-002   7.3676748702880129E-002   0.0000000000000000     
  -7.4406212603795707E-002   7.9418229421626255E-002   0.0000000000000000     
  -7.7108983959174579E-002   8.5377389105872142E-002   0.0000000000000000     
  -5.4558305308945038E-002   8.2556501994452594E-002   0.0000000000000000     
  -5.6569054769908873E-002   8.8753927536441193E-002   0.0000000000000000     
  -5.8512210677386427E-002   9.5107592880545516E-002   0.0000000000000000     
  -6.0387773031377684E-002  0.10161749802676558        0.0000000000000000     
  -6.2195741831882673E-002  0.10828364297510135        0.0000000000000000     
  -5.9824094036387443E-002   8.3197735752973609E-002   0.0000000000000000     
  -6.2011235221090241E-002   8.9375055642360035E-002   0.0000000000000000     
  -6.4123295937708880E-002   9.5706868099653022E-002   0.0000000000000000     
  -6.6160276186243386E-002  0.10219317312485261        0.0000000000000000     
  -6.8122175966693718E-002  0.10883397071795879        0.0000000000000000     
  -6.5337803387239837E-002   8.3881628191050564E-002   0.0000000000000000     
  -6.7679206885742194E-002   9.0042289586816107E-002   0.0000000000000000     
  -6.9944542093754086E-002   9.6354050078223272E-002   0.0000000000000000     
  -7.2133809011275571E-002  0.10281690966527200        0.0000000000000000     
  -7.4247007638306564E-002  0.10943086834796235        0.0000000000000000     
  -7.1099433361502207E-002   8.4608179308683404E-002   0.0000000000000000     
  -7.3572969763864723E-002   9.0755629369809410E-002   0.0000000000000000     
  -7.5975949145522068E-002   9.7049138816256195E-002   0.0000000000000000     
  -7.8308371506474198E-002  0.10348870764802373        0.0000000000000000     
  -8.0570236846721169E-002  0.11007433586511205        0.0000000000000000     
  -7.7108983959174579E-002   8.5377389105872142E-002   0.0000000000000000     
  -7.9692523855457859E-002   9.1515074991339956E-002   0.0000000000000000     
  -8.2217517093012768E-002   9.7792134313751833E-002   0.0000000000000000     
  -8.4683963671839349E-002  0.10420856707310781        0.0000000000000000     
  -8.7091863591937560E-002  0.11076437326940786        0.0000000000000000     
  -6.2195741831882673E-002  0.10828364297510135        0.0000000000000000     
  -6.3929875548289383E-002  0.11509557475336044        0.0000000000000000     
  -6.5583932649985813E-002  0.12204284038935048        0.0000000000000000     
  -6.7157913136971961E-002  0.12912543988307146        0.0000000000000000     
  -6.8651817009247829E-002  0.13634337323452339        0.0000000000000000     
  -6.8122175966693718E-002  0.10883397071795879        0.0000000000000000     
  -7.0003389857617296E-002  0.11562023457484161        0.0000000000000000     
  -7.1798312437571427E-002  0.12254293839137116        0.0000000000000000     
  -7.3506943706556180E-002  0.12960208216754746        0.0000000000000000     
  -7.5129283664571500E-002  0.13679766590337045        0.0000000000000000     
  -7.4247007638306564E-002  0.10943086834796235        0.0000000000000000     
  -7.6275826864140389E-002  0.11618914933965965        0.0000000000000000     
  -7.8211955578070341E-002  0.12308497585372923        0.0000000000000000     
  -8.0055393780096434E-002  0.13011834789017113        0.0000000000000000     
  -8.1806141470218627E-002  0.13728926544898529        0.0000000000000000     
  -8.0570236846721169E-002  0.11007433586511205        0.0000000000000000     
  -8.2747186567858677E-002  0.11680231904781456        0.0000000000000000     
  -8.4824862071482543E-002  0.12366895277642466        0.0000000000000000     
  -8.6803263357592725E-002  0.13067423705094247        0.0000000000000000     
  -8.8682390426189237E-002  0.13781817187136786        0.0000000000000000     
  -8.7091863591937560E-002  0.11076437326940786        0.0000000000000000     
  -8.9417468968772201E-002  0.11745974369930633        0.0000000000000000     
  -9.1637031917808032E-002  0.12429486915945752        0.0000000000000000     
  -9.3750552439045093E-002  0.13126974964986146        0.0000000000000000     
  -9.5758030532483315E-002  0.13838438517051813        0.0000000000000000     
  -6.8651817009247829E-002  0.13634337323452339        0.0000000000000000     
  -7.0071184528888553E-002  0.14368323489424512        0.0000000000000000     
  -7.1421555957969216E-002  0.15113161931277544        0.0000000000000000     
  -7.2702931296489831E-002  0.15868852649011445        0.0000000000000000     
  -7.3915310544450399E-002  0.16635395642626200        0.0000000000000000     
  -7.5129283664571500E-002  0.13679766590337045        0.0000000000000000     
  -7.6671915328278856E-002  0.14411534062970516        0.0000000000000000     
  -7.8141421714339659E-002  0.15154075737741646        0.0000000000000000     
  -7.9537802822753911E-002  0.15907391614650437        0.0000000000000000     
  -8.0861058653521625E-002  0.16671481693696880        0.0000000000000000     
  -8.1806141470218627E-002  0.13728926544898529        0.0000000000000000     
  -8.3471283681047670E-002  0.14458280264920073        0.0000000000000000     
  -8.5057905445194218E-002  0.15198403360984641        0.0000000000000000     
  -8.6566006762658299E-002  0.15949295833092234        0.0000000000000000     
  -8.7995587633439898E-002  0.16710957681242850        0.0000000000000000     
  -8.8682390426189237E-002  0.13781817187136786        0.0000000000000000     
  -9.0469289587194981E-002  0.14508562095273184        0.0000000000000000     
  -9.2171007150532919E-002  0.15246144801006536        0.0000000000000000     
  -9.3787543116202993E-002  0.15994565304336839        0.0000000000000000     
  -9.5318897484205259E-002  0.16753823605264093        0.0000000000000000     
  -9.5758030532483315E-002  0.13838438517051813        0.0000000000000000     
  -9.7665933046720832E-002  0.14562379554029842        0.0000000000000000     
  -9.9480726830355734E-002  0.15297300057807323        0.0000000000000000     
 -0.10120241188338801       0.16043200028384252        0.0000000000000000     
 -0.10283098820581768       0.16800079465760631        0.0000000000000000     
  -7.3915310544450399E-002  0.16635395642626200        0.0000000000000000     
  -7.5055429465650692E-002  0.17411850454942362        0.0000000000000000     
  -7.6120023823890465E-002  0.18197276628780470        0.0000000000000000     
  -7.7109093619169747E-002  0.18991674164140526        0.0000000000000000     
  -7.8022638851488510E-002  0.19795043061022524        0.0000000000000000     
  -8.0861058653521625E-002  0.16671481693696880        0.0000000000000000     
  -8.2107943327413446E-002  0.17445475376071443        0.0000000000000000     
  -8.3275210965200019E-002  0.18228502062964588        0.0000000000000000     
  -8.4362861566881400E-002  0.19020561754376306        0.0000000000000000     
  -8.5370895132457533E-002  0.19821654450306597        0.0000000000000000     
  -8.7995587633439898E-002  0.16710957681242850        0.0000000000000000     
  -8.9344762470970854E-002  0.17482518577124329        0.0000000000000000     
  -9.0611645688683032E-002  0.18263108192424535        0.0000000000000000     
  -9.1796237286576390E-002  0.19052726527143449        0.0000000000000000     
  -9.2898537264650971E-002  0.19851373581281084        0.0000000000000000     
  -9.5318897484205259E-002  0.16753823605264093        0.0000000000000000     
  -9.6765886896322983E-002  0.17522980058101012        0.0000000000000000     
  -9.8129327994339460E-002  0.18301095017160299        0.0000000000000000     
  -9.9409220778254731E-002  0.19088168482441956        0.0000000000000000     
 -0.10060556524806878       0.19884200453945980        0.0000000000000000     
 -0.10283098820581768       0.16800079465760631        0.0000000000000000     
 -0.10437131660346978       0.17566859819001499        0.0000000000000000     
 -0.10582825788216936       0.18342462537171902        0.0000000000000000     
 -0.10720181204191645       0.19126887620271832        0.0000000000000000     
 -0.10849197908271102       0.19920135068301292        0.0000000000000000     
  -7.8022638851488510E-002  0.19795043061022524        0.0000000000000000     
  -7.8861917768413975E-002  0.20606665971946450        0.0000000000000000     
  -7.9628188617513404E-002  0.21425825549432287        0.0000000000000000     
  -8.0321451398786742E-002  0.22252521793480026        0.0000000000000000     
  -8.0941706112234002E-002  0.23086754704089674        0.0000000000000000     
  -8.5370895132457533E-002  0.19821654450306597        0.0000000000000000     
  -8.6303201005790711E-002  0.20630986111431546        0.0000000000000000     
  -8.7163668530743157E-002  0.21447762698427239        0.0000000000000000     
  -8.7952297707314914E-002  0.22271984211293669        0.0000000000000000     
  -8.8669088535505952E-002  0.23103650650030841        0.0000000000000000     
  -9.2898537264650971E-002  0.19851373581281084        0.0000000000000000     
  -9.3923701024234363E-002  0.20658301702879858        0.0000000000000000     
  -9.4876883966654182E-002  0.21472763239982201        0.0000000000000000     
  -9.5758086091910444E-002  0.22294758192588110        0.0000000000000000     
  -9.6567307400003174E-002  0.23124286560697591        0.0000000000000000     
 -0.10060556524806878       0.19884200453945980        0.0000000000000000     
 -0.10172341782374492       0.20688612746291382        0.0000000000000000     
 -0.10276783492524645       0.21500827174097181        0.0000000000000000     
 -0.10373881655257335       0.22320843737363361        0.0000000000000000     
 -0.10463636270572563       0.23148662436089934        0.0000000000000000     
 -0.10849197908271102       0.19920135068301292        0.0000000000000000     
 -0.10970235140432241       0.20721919241666123        0.0000000000000000     
 -0.11083652140651994       0.21531954500772163        0.0000000000000000     
 -0.11189448908930359       0.22350240845619412        0.0000000000000000     
 -0.11287625445267338       0.23176778276207868        0.0000000000000000     
  -8.0941706112234002E-002  0.23086754704089674        0.0000000000000000     
  -8.1478208592455054E-002  0.23930581895643535        0.0000000000000000     
  -8.1920214674049696E-002  0.24786060982523897        0.0000000000000000     
  -8.2267724357017930E-002  0.25653191964730765        0.0000000000000000     
  -8.2520737641359754E-002  0.26531974842264144        0.0000000000000000     
  -8.8669088535505952E-002  0.23103650650030841        0.0000000000000000     
  -8.9299506398077294E-002  0.23945302972550930        0.0000000000000000     
  -8.9829016677789919E-002  0.24799482136766129        0.0000000000000000     
  -9.0257619374643897E-002  0.25666188142676438        0.0000000000000000     
  -9.0585314488639157E-002  0.26545420990281848        0.0000000000000000     
  -9.6567307400003174E-002  0.23124286560697591        0.0000000000000000     
  -9.7295320239057931E-002  0.23963974208876448        0.0000000000000000     
  -9.7932896957200394E-002  0.24816447001690492        0.0000000000000000     
  -9.8480037554430563E-002  0.25681704939139732        0.0000000000000000     
  -9.8936742030748454E-002  0.26559748021224155        0.0000000000000000     
 -0.10463636270572563       0.23148662436089934        0.0000000000000000     
 -0.10546565011539699       0.23986595604620078        0.0000000000000000     
 -0.10623185551228111       0.24836955577296982        0.0000000000000000     
 -0.10693497889637796       0.25699742354120642        0.0000000000000000     
 -0.10757502026768762       0.26574955935091055        0.0000000000000000     
 -0.11287625445267338       0.23176778276207868        0.0000000000000000     
 -0.11381049602709449       0.24013167159781831        0.0000000000000000     
 -0.11472589234303207       0.24861007863585602        0.0000000000000000     
 -0.11562244340048614       0.25720300387619177        0.0000000000000000     
 -0.11650014919945667       0.26591044731882563        0.0000000000000000     
  -8.2520737641359754E-002  0.26531974842264144        0.0000000000000000     
  -8.2718247005362650E-002  0.27425049856063277        0.0000000000000000     
  -8.2899244927314042E-002  0.28335057247067402        0.0000000000000000     
  -8.3063731407213931E-002  0.29261997015276525        0.0000000000000000     
  -8.3211706445062372E-002  0.30205869160690652        0.0000000000000000     
  -9.0585314488639157E-002  0.26545420990281848        0.0000000000000000     
  -9.0842464673832932E-002  0.27443488916334730        0.0000000000000000     
  -9.1059432584282354E-002  0.28366700157587454        0.0000000000000000     
  -9.1236218219987508E-002  0.29315054714040006        0.0000000000000000     
  -9.1372821580948296E-002  0.30288552585692397        0.0000000000000000     
  -9.8936742030748454E-002  0.26559748021224155        0.0000000000000000     
  -9.9314037459516613E-002  0.27460414806646027        0.0000000000000000     
  -9.9622950914097716E-002  0.28393543854107572        0.0000000000000000     
  -9.9863482394491748E-002  0.29359135163608824        0.0000000000000000     
 -0.10003563190069870       0.30357188735149765        0.0000000000000000     
 -0.10757502026768762       0.26574955935091055        0.0000000000000000     
 -0.10813296536241375       0.27475827526997137        0.0000000000000000     
 -0.10858979991676010       0.28415588336627773        0.0000000000000000     
 -0.10894552393072673       0.29394238363982983        0.0000000000000000     
 -0.10920013740431354       0.30411777609062751        0.0000000000000000     
 -0.11650014919945667       0.26591044731882563        0.0000000000000000     
 -0.11729924838252426       0.27489727077388082        0.0000000000000000     
 -0.11795997959226949       0.28432833605148050        0.0000000000000000     
 -0.11848234282869238       0.29420364315162478        0.0000000000000000     
 -0.11886633809179288       0.30452319207431355        0.0000000000000000     
 </DataArray>
 <DataArray  type="Float64" Name="stress" NumberOfComponents="3" format="ascii">
   6414127334.0175018        52563276.486989975       -43298405.407491498     
   6083523655.5564432        102015140.60844874       -115510298.34204923     
   5739695136.5409813        107384202.88189483       -140427512.96950984     
   5382641776.9711256        68670463.307339907       -118050049.28987591     
   5012363576.8468533       -14126078.115250587       -48377907.303144880     
   5773582387.6473722       -6891425.9522025585        167269514.86394700     
   5549841502.7639694        46243273.381642818        109226695.18096223     
   5316320826.3884144        66778667.741632938        85241461.047762364     
   5073020358.5207090        54714757.127803087        95313812.464339688     
   4819940099.1608448        10051541.540107727        139443749.43069932     
   5230771693.6316767       -37025852.685044765        364913975.92820793     
   5076073337.3050289        8445602.3548998833        325059453.40275103     
   4915040238.5484848        32801249.295167446        306025423.66976863     
   4747672397.3620415        36041088.135784388        307811886.72925353     
   4573969813.7456894        18165118.876705170        330418842.58120465     
   4785695251.9704084       -37840003.711572170        549634977.78529096     
   4662219159.1796293       -11377872.471778870        531987976.32332760     
   4535853373.0211983        5451947.5425055027        521924374.89651304     
   4406597893.4951162        12649456.331285715        519444173.50486249     
   4274452720.6013832        10214653.894565821        524547372.14836341     
   4438353062.6635809       -9333879.0317642689        721432520.43519461     
   4308278968.3877716       -13227151.098395348        730012263.94268215     
   4178760229.8065596       -15269237.516375303        732938314.72800267     
   4049796846.9199481       -15460138.285677433        730210672.79117465     
   3921388819.7279382       -13799853.406318426        721829338.13218069     
   5012363576.8468533       -14126078.115250587       -48377907.303144880     
   4893925994.0968199       -34219404.958895683       -18518473.301154952     
   4780241403.1319532       -38469425.851987123        72105.661482661046     
   4671309803.9522352       -26876140.794567823        7393829.5847641146     
   4567131196.5576906        560450.21340370178        3446698.4686753168     
   4819940099.1608448        10051541.540107727        139443749.43069932     
   4678343911.0507393       -10370820.869164228        157898780.79904583     
   4540458700.2372904       -18423258.956244230        169884286.67567942     
   4406284466.7204905       -14105772.721160173        175400267.06060997     
   4275821210.5003476        2581637.8361093998        174446721.95382953     
   4573969813.7456894        18165118.876705170        330418842.58120465     
   4422927390.4116592        1527431.9426641464        336253787.74596763     
   4274553929.8857722       -6213712.2975645065        340418536.96667629     
   4128849432.1680298       -5058313.8439805508        342913090.24332833     
   3985813897.2584324        4993627.3034203053        343737447.57592988     
   4274452720.6013832        10214653.894565821        524547372.14836341     
   4127676432.1795778        1475353.4765942097        516546547.53962213     
   3982527092.0773997       -1840785.8759310246        511674856.53447872     
   3839004700.2948594        266235.83699250221        509932299.13292992     
   3697109256.8319483        7796418.6153588295        511318875.33497208     
   3921388819.7279382       -13799853.406318426        721829338.13218069     
   3792591036.3544903       -10527056.267382622        698777060.18001080     
   3664378186.8121691       -5304479.6913604736        683653245.37908316     
   3536750271.1009741        1867876.3217501640        676457893.72940278     
   3409707289.2209024        10990011.771939039        677191005.23096406     
   4567131196.5576906        560450.21340370178        3446698.4686753168     
   4364768763.9736519        4690551.8158004284       -3319977.1667747647     
   4161707399.9239464        6490881.8659510612       -5020465.0269840388     
   3957947104.4085989        5961440.3639690876       -1654765.1119678777     
   3753487877.4275780        3102227.3097512722        6777122.5782814045     
   4275821210.5003476        2581637.8361093998        174446721.95382953     
   4086273674.7959104        6111516.4167587757        167252237.88699150     
   3896026866.3236113        7310485.7712044716        164987692.03424612     
   3705080785.0834498        6178545.8994472027        167653084.39559594     
   3513435431.0754342        2715696.8014979362        175248414.97102812     
   3985813897.2584324        4993627.3034203053        343737447.57592988     
   3808691973.9731874        7806497.5242178440        336114756.89180237     
   3630870436.6178856        8287320.8447999954        333285754.86062509     
   3452349285.1925263        6436097.2651998997        335250441.48240042     
   3273128519.6970973        2252826.7853932381        342008816.75712568     
   3697109256.8319483        7796418.6153588295        511318875.33497208     
   3532023661.5055017        9775495.1381940842        503267579.84765774     
   3366238110.8067918        9421387.0868089199        499873723.45215285     
   3199752604.7358232        6734094.4612416029        501137306.14844918     
   3032567143.2925878        1713617.2614468336        507058327.93656182     
   3409707289.2209024        10990011.771939039        677191005.23096406     
   3256268737.3928437        12018509.258673310        668710706.75455928     
   3102129888.8903170        10712684.497200966        664751597.80882120     
   2947290743.7133365        7072537.4875280857        665313678.39374781     
   2791751301.8618832        1098068.2296351194        670396948.50933993     
   3753487877.4275780        3102227.3097512722        6777122.5782814045     
   3575403597.6122293        5383839.1594207287       -1221809.5548555984     
   3396190781.6279430        3903663.7793200016       -2899419.2426442434     
   3215849429.4747143       -1338298.8306107521        1744293.5149052204     
   3034379541.1525512       -10342048.670300841        12709328.717805604     
   3513435431.0754342        2715696.8014979362        175248414.97102812     
   3350841870.1466727        5899386.1848607063        165646807.89967969     
   3187583406.5292125        6866733.2725666761        161431644.24951178     
   3023660040.2230396        5617738.0645679235        162602924.02050513     
   2859071771.2281742        2152400.5609248877        169160647.21268669     
   3273128519.6970973        2252826.7853932381        342008816.75712568     
   3123354594.7287321        5537268.8246121407        331345440.47450686     
   2973379400.5518889        8150813.5022487640        325133628.58888596     
   2823202937.1665764        10093460.818316579        323373381.10028088     
   2672825204.5727968        11365210.772836804        326064698.00866735     
   3032567143.2925878        1713617.2614468336        507058327.93656182     
   2892941771.3583941        4297487.0786175728        495874088.16960680     
   2753578763.6959682        7755904.4683516026        488206533.77549493     
   2614478120.3053012        12088869.430611610        484055664.75421095     
   2475639841.1864052        17296381.965444803        483421481.10576141     
   2791751301.8618832        1098068.2296351194        670396948.50933993     
   2659603400.0356693        2180040.9469203949        659232750.98499835     
   2528181495.9614534        5682006.1708779335        650650359.80931830     
   2397485589.6392341        11603963.901479483        644649774.98230755     
   2267515681.0690136        19945914.138752460        641230996.50395060     
   3034379541.1525512       -10342048.670300841        12709328.717805604     
   2873392108.9931211       -13289263.528872132        10584375.180155126     
   2713475057.9250212       -12668541.416364431        7816856.7953583989     
   2554628387.9482636       -8479882.3327101469        4406773.5634359177     
   2396852099.0628290       -723286.27796721458        354125.48438255972     
   2859071771.2281742        2152400.5609248877        169160647.21268669     
   2697923639.6693783       -298829.86419630051        164735994.35274336     
   2537428586.0835133       -573133.71285521984        160715833.47114781     
   2377586610.4705677        1329489.0148694515        157100164.56791994     
   2218397712.8305421        5409038.3190079927        153888987.64303604     
   2672825204.5727968        11365210.772836804        326064698.00866735     
   2514507964.5445995        10307442.060195804        318853492.18829370     
   2356426499.3709178        10035589.529272795        313093835.17176378     
   2198580809.0517650        10549653.180116892        308785726.95906866     
   2040970893.5871255        11849633.012657642        305929167.55022252     
   2475639841.1864052        17296381.965444803        483421481.10576141     
   2323145083.6187725        18529552.244246483        472936868.68681157     
   2170468797.7872562        19157628.310115099        464950861.89718962     
   2017610983.6918559        19180610.163019180        459463460.73690557     
   1864571641.3325577        18598497.802955151        456474665.20595568     
   2267515681.0690136        19945914.138752460        641230996.50395060     
   2123834996.8919153        24367500.688014865        626986123.84828579     
   1979555481.3325272        26792982.629643798        616286913.64745092     
   1834677134.3908374        27222359.963600278        609133365.90142167     
   1689199956.0668526        25655632.689918399        605525480.61022246     
   2396852099.0628290       -723286.27796721458        354125.48438255972     
   2253064083.9331059        7678174.9835753441       -6974627.8954080790     
   2105863962.2703745        4705947.8017463684       -11775672.215123074     
   1955251734.0746193       -9639967.8234965801       -14049007.474754741     
   1801227399.3458400       -35359571.892140388       -13794633.674315890     
   2218397712.8305421        5409038.3190079927        153888987.64303604     
   2079736680.1564178        13192631.569746971        143120057.29603457     
   1938804339.4808660        13405198.149091005        133909835.47267780     
   1795600690.8039274        6046738.0571295023        126258322.17296441     
   1650125734.1255965       -8882748.7061380148        120165517.39687264     
   2040970893.5871255        11849633.012657642        305929167.55022252     
   1904668270.4073081        18184786.364172220        293050991.85624951     
   1767235137.7577136        20751574.816397309        280762524.14946467     
   1628671495.6383286        19549998.369337142        269063764.42987138     
   1488977344.0491540        14580057.022984684        257954712.69748092     
   1864571641.3325577        18598497.802955151        456474665.20595568     
   1727858854.6858010        22654639.366874933        442818175.78521174     
   1591156357.1008818        26745077.803572595        428782393.81522799     
   1454464148.5777895        30869813.113035858        414367319.29599172     
   1317782229.1165259        35028845.295268357        399572952.22751504     
   1689199956.0668526        25655632.689918399        605525480.61022246     
   1549308432.9918942        26602190.577867627        592421609.08294249     
   1410567997.5103841        31385707.110661328        577969444.46997321     
   1272978649.6223168        40006182.288251221        562168986.77130890     
   1136540389.3277001        52463616.110686064        545020235.98696196     
   1801227399.3458400       -35359571.892140388       -13794633.674315890     
   1770575558.0534930       -16922722.122533083       -8090579.1137952935     
   1748046618.3319993        28590466.216551304       -41287258.635675378     
   1733640580.1813061        101179993.12498766       -113384672.23994589     
   1727357443.6014631        200845858.60292506       -224382819.92663246     
   1650125734.1255965       -8882748.7061380148        120165517.39687264     
   1527469665.5228167       -14011429.044329822        135786691.92048171     
   1409033348.8791392       -5074269.5188581944        124974317.23565561     
   1294816784.1945260        17928729.870178103        87728393.342364192     
   1184819971.4690099        54997569.122871280        24048920.240641400     
   1488977344.0491540        14580057.022984684        257954712.69748092     
   1309937576.3472497       -3427994.9595671892        278939332.63715482     
   1131214410.9926839       -20380705.784321189        285957588.24232507     
   952807847.98545051       -36278075.451307058        279009479.51300764     
   774717887.32554829       -51120103.960511535        258095006.44919166     
   1317782229.1165259        35028845.295268357        399572952.22751504     
   1117979290.5267785        14827580.131697595        421367343.03619492     
   914589804.67263579       -17328842.579874575        441662554.38434345     
   707613771.55406117       -61440422.839532942        460458586.27194887     
   497051191.17108548       -117507160.64719480        477755438.69902092     
   1136540389.3277001        52463616.110686064        545020235.98696196     
   951594808.06141949        40755296.229509294        563070723.11762786     
   759159529.91898334        4081320.0944857597        592089215.66170764     
   559234554.90038311       -57558312.294423312        632075713.61919546     
   351819883.00563681       -144163600.93714711        683030216.99011636     
   1727357443.6014631        200845858.60292506       -224382819.92663246     
   1456850215.8359416        184710128.83929652       -96750433.739891157     
   1154131492.2891624        61202746.471486568        60067330.660911873     
   819201272.96108830       -169676288.50063413        246070473.27577406     
   452059557.85177946       -507926976.07689261        461258994.10470313     
   1184819971.4690099        54997569.122871280        24048920.240641400     
   977768267.50336421        11932681.116534054        155487911.05288643     
   732859057.80698752       -157323892.65890655        312767886.16850960     
   450092342.37989670       -452772152.20337236        495888845.58753020     
   129468121.22208804       -874412097.51689768        704850789.30994689     
   774717887.32554829       -51120103.960511535        258095006.44919166     
   621566295.98643661       -123980773.56157333        386753590.27923012     
   424911188.96714747       -341853162.09656262        537908764.50199902     
   184752566.26769152       -704737269.56542873        711560529.11748445     
  -98909572.111929417       -1212633095.9682002        907708884.12570024     
   497051191.17108548       -117507160.64719480        477755438.69902092     
   388244301.28517234       -223030235.19498840        597046603.93916619     
   230287885.76963580       -492385061.84153849        735489965.66136646     
   23181944.624461591       -925571640.58683884        893085523.86562884     
  -233073522.15030667       -1522589971.4308109        1069833278.5519400     
   351819883.00563681       -144163600.93714711        683030216.99011636     
   277802283.39956963       -285215703.78371835        786366952.03267992     
   148989148.21444228       -608919591.89381218        905511489.64663255     
  -34619522.549754143       -1115275265.2674696        1040463829.8319626     
  -273023728.89302278       -1804282723.9047236        1191223972.5886943     
   4438353062.6635809       -9333879.0317642689        721432520.43519461     
   4308278968.3877716       -13227151.098395348        730012263.94268215     
   4178760229.8065596       -15269237.516375303        732938314.72800267     
   4049796846.9199481       -15460138.285677433        730210672.79117465     
   3921388819.7279382       -13799853.406318426        721829338.13218069     
   4124169457.3019691        8218436.3500988483        811163190.08641267     
   3981648616.5976357       -2691428.6964948177        815933017.57907677     
   3839749410.5229282       -11529178.311005831        818401331.22887385     
   3698471839.0778422       -18294812.493437529        818568131.03580129     
   3557815902.2623863       -22988331.243780851        816433416.99985719     
   3792349900.1015220        20479966.180308104        899592670.46729553     
   3646959966.9094896        5426804.3360056877        900629907.36934042     
   3502257947.2821078       -7333312.2927982807        902717809.30780756     
   3358243841.2193766       -17800383.706102371        905856376.28269053     
   3214917648.7212939       -25974409.903906584        910045608.29399562     
   3442894391.0622454        27450710.458869934        986720961.57785404     
   3304213019.3233376        11127547.999104500        984102933.31347370     
   3166285840.0841055       -2681639.4617476463        985887748.96480525     
   3029112853.3445477       -13976851.923676491        992075408.53183818     
   2892694059.1046667       -22758089.386692047        1002665912.0145842     
   3075802930.1841378        29130669.185782552        1072548063.4180760     
   2953407773.8391790        14410802.292801619        1066352095.4114735     
   2831833088.9289207        2425840.1821590662        1067911150.1998626     
   2711078875.4533587       -6824217.1461590528        1077225227.7832501     
   2591145133.4125018       -13339369.692135811        1094294328.1616299     
   3921388819.7279382       -13799853.406318426        721829338.13218069     
   3792591036.3544903       -10527056.267382622        698777060.18001080     
   3664378186.8121691       -5304479.6913604736        683653245.37908316     
   3536750271.1009741        1867876.3217501640        676457893.72940278     
   3409707289.2209024        10990011.771939039        677191005.23096406     
   3557815902.2623863       -22988331.243780851        816433416.99985719     
   3448509291.6418242       -16700395.078403473        800422510.27942431     
   3339620600.4953237       -9019393.9994742870        790780548.90385520     
   3231149828.8228841        54671.992977499962        787507532.87316227     
   3123096976.6245093        10521802.898992658        790603462.18734324     
   3214917648.7212939       -25974409.903906584        910045608.29399562     
   3120646445.6925497       -18008064.260404706        900881222.72205234     
   3026626147.7808018       -9205368.2269078493        896526264.68860924     
   2932856754.9860611        433678.19659793377        896980734.19365942     
   2839338267.3083162        10909075.010101318        902244631.23721361     
   2892694059.1046667       -22758089.386692047        1002665912.0145842     
   2809002498.5066738       -14450063.813392401        1000153197.5078971     
   2725394828.6686149       -5862402.3736308813        1000890392.7333367     
   2641871049.5904956        3004894.9325925112        1004877497.6908988     
   2558431161.2723141        12151828.105268240        1012114512.3805902     
   2591145133.4125018       -13339369.692135811        1094294328.1616299     
   2513577450.0841908       -6026393.7373538017        1098238434.6369596     
   2435926643.1587534        1009503.5603384972        1103872933.0380423     
   2358192712.6361961        7768322.2009680271        1111197823.3648782     
   2280375658.5165114        14250062.184498429        1120213105.6174624     
   3409707289.2209024        10990011.771939039        677191005.23096406     
   3256268737.3928437        12018509.258673310        668710706.75455928     
   3102129888.8903170        10712684.497200966        664751597.80882120     
   2947290743.7133365        7072537.4875280857        665313678.39374781     
   2791751301.8618832        1098068.2296351194        670396948.50933993     
   3123096976.6245093        10521802.898992658        790603462.18734324     
   2981166384.4385614        10823573.193015218        782456949.95357966     
   2838816528.6363153        9727798.0993784666        778809231.11216474     
   2696047409.2177815        7234477.6181217432        779660305.66310704     
   2552859026.1829467        3343611.7491954565        785010173.60640669     
   2839338267.3083162        10909075.010101318        902244631.23721361     
   2708851645.7978745        10464921.421421885        894759777.14728439     
   2578226793.7293091        9559999.3056679964        891751320.31140125     
   2447463711.1026187        8194308.6628195047        893219260.72956049     
   2316562397.9177990        6367849.4928888083        899163598.40176404     
   2558431161.2723141        12151828.105268240        1012114512.3805902     
   2439324521.4707785        10942553.943912983        1005619188.3356901     
   2320360684.1692858        10209288.116032124        1003577865.4065293     
   2201539649.3678389        9952030.6216356754        1005990543.5930998     
   2082861417.0664349        10170781.460719109        1012857222.8953995     
   2280375658.5165114        14250062.184498429        1120213105.6174624     
   2172585011.4572792        12256470.760479569        1115035183.5187933     
   2065218199.9562664        11675664.530526757        1114288866.3975463     
   1958275224.0134554        12507643.494582891        1117974154.2537200     
   1851756083.6288574        14752407.652682066        1126091047.0873199     
   2791751301.8618832        1098068.2296351194        670396948.50933993     
   2659603400.0356693        2180040.9469203949        659232750.98499835     
   2528181495.9614534        5682006.1708779335        650650359.80931830     
   2397485589.6392341        11603963.901479483        644649774.98230755     
   2267515681.0690136        19945914.138752460        641230996.50395060     
   2552859026.1829467        3343611.7491954565        785010173.60640669     
   2428099167.7248187        5174930.2381812334        775670279.54491353     
   2303886239.0268750        8829347.9277670383        769258763.47059405     
   2180220240.0891037        14306864.817939162        765775625.38343930     
   2057101170.9115071        21607480.908699155        765220865.28344977     
   2316562397.9177990        6367849.4928888083        899163598.40176404     
   2200180787.5092082        9245575.1580141783        891439095.14599323     
   2084167038.8689728        13349506.717658520        886989541.51589894     
   1968521151.9970965        18679644.171828985        885814937.51147592     
   1853243126.8935728        25235987.520517230        887915283.13272774     
   2082861417.0664349        10170781.460719109        1012857222.8953995     
   1975848259.3888221        14391975.706407666        1006539197.7882289     
   1869023895.4877489        19242482.540563583        1003842693.9452367     
   1762388325.3632083        24722301.963154674        1004767711.3664279     
   1655941549.0152001        30831433.974200726        1009314250.0517935     
   1851756083.6288574        14752407.652682066        1126091047.0873199     
   1755101583.3636734        20614131.883382440        1120970587.4716227     
   1658456808.8831999        26508275.396455407        1119818220.7586164     
   1561821760.1874461        32434838.191925764        1122633946.9482884     
   1465196437.2764027        38393820.269763291        1129417766.0406532     
   2267515681.0690136        19945914.138752460        641230996.50395060     
   2123834996.8919153        24367500.688014865        626986123.84828579     
   1979555481.3325272        26792982.629643798        616286913.64745092     
   1834677134.3908374        27222359.963600278        609133365.90142167     
   1689199956.0668526        25655632.689918399        605525480.61022246     
   2057101170.9115071        21607480.908699155        765220865.28344977     
   1922578891.7777174        25716267.606740713        752703416.72953403     
   1787660759.9787903        28505545.420986772        743757417.25823331     
   1652346775.5147109        29975314.351403058        738382866.86956096     
   1516636938.3854990        30125574.398027539        736579765.56350875     
   1853243126.8935728        25235987.520517230        887915283.13272774     
   1727952928.8825223        29054077.191167474        877362067.18389785     
   1602469856.9234850        32229253.701859295        870406086.94549072     
   1476793911.0164492        34761517.052558541        867047342.41751170     
   1350925091.1614285        36650867.243304908        867285833.59994841     
   1655941549.0152001        30831433.974200726        1009314250.0517935     
   1539957108.2063322        34380929.441315591        1000962075.2113985     
   1423982772.1666157        37964107.472269237        996232922.70922291     
   1308018540.8960583        41580968.067081869        995126792.54527593     
   1192064414.3946645        45231511.225772738        997643684.71955121     
   1465196437.2764027        38393820.269763291        1129417766.0406532     
   1358591429.7491322        41696824.357124090        1123503440.8120246     
   1252199505.7081776        45710106.732200325        1121237924.5494299     
   1146020665.1535299        50433667.394965291        1122621217.2528532     
   1040054908.0851921        55867506.345441282        1127653318.9223042     
   1689199956.0668526        25655632.689918399        605525480.61022246     
   1549308432.9918942        26602190.577867627        592421609.08294249     
   1410567997.5103841        31385707.110661328        577969444.46997321     
   1272978649.6223168        40006182.288251221        562168986.77130890     
   1136540389.3277001        52463616.110686064        545020235.98696196     
   1516636938.3854990        30125574.398027539        736579765.56350875     
   1374749612.2922530        28248627.854356468        727615743.37259960     
   1233143440.0282688        27308860.741541743        719116359.12215865     
   1091818421.5935504        27306273.059615433        711081612.81218243     
   950774556.98808646        28240864.808548212        703511504.44265461     
   1350925091.1614285        36650867.243304908        867285833.59994841     
   1212221764.9817591        33504357.147557735        861446738.02053750     
   1072929658.8671663        28395247.268739164        857885211.40773761     
   933048772.81764460        21323537.606824458        856601253.76154530     
   792579106.83320379        12289228.161839664        857594865.08196521     
   1192064414.3946645        45231511.225772738        997643684.71955121     
   1061724891.0604184        42369378.457520902        993914593.02674460     
   929926654.02707958        34644866.692254841        994276001.32670152     
   796669703.29461086        22057975.929908484        998727909.61942685     
   661954038.86303794        4608706.1705477834        1007270317.9048902     
   1040054908.0851921        55867506.345441282        1127653318.9223042     
   923258990.52824032        54843691.784229428        1125019308.3912261     
   804134425.50799155        46057719.012041688        1128288728.8790574     
   682681213.02443910        29509588.028837323        1137461580.3857954     
   558899353.07759631        5199298.8346599042        1152537862.9114497     
   1136540389.3277001        52463616.110686064        545020235.98696196     
   951594808.06141949        40755296.229509294        563070723.11762786     
   759159529.91898334        4081320.0944857597        592089215.66170764     
   559234554.90038311       -57558312.294423312        632075713.61919546     
   351819883.00563681       -144163600.93714711        683030216.99011636     
   950774556.98808646        28240864.808548212        703511504.44265461     
   791593096.33886862        11088911.447292477        721384448.43511784     
   623792943.64255202       -34792015.404287398        749364164.44576061     
   447374098.89912385       -109401915.74624187        787450652.47459400     
   262336562.10858327       -212740789.57857114        835643912.52161849     
   792579106.83320379        12289228.161839664        857594865.08196521     
   656701099.95753360       -11044558.732533008        873973104.90345287     
   511075405.86380529       -66870636.353762716        899596883.34789205     
   355702024.55202335       -155189004.70183969        934466200.41529155     
   190580956.02218038       -275999663.77678668        978581056.10564554     
   661954038.86303794        4608706.1705477834        1007270317.9048902     
   546918818.91739547       -25645114.310009301        1020836692.5226349     
   421006916.58274025       -92154542.753936410        1042787372.3680955     
   284218331.85908777       -194919579.16118789        1073122357.4412818     
   136553064.74642217       -333940223.53182209        1111841647.7421894     
   558899353.07759631        5199298.8346599042        1152537862.9114497     
   462246253.21846032       -32712755.285131454        1161975211.2926676     
   353587475.79936612       -110643734.60478954        1178935631.5063705     
   232923020.82032579       -228593639.12427071        1203419123.5525670     
   100252888.28131646       -386562468.84364849        1235425687.4312532     
   351819883.00563681       -144163600.93714711        683030216.99011636     
   277802283.39956963       -285215703.78371835        786366952.03267992     
   148989148.21444228       -608919591.89381218        905511489.64663255     
  -34619522.549754143       -1115275265.2674696        1040463829.8319626     
  -273023728.89302278       -1804282723.9047236        1191223972.5886943     
   262336562.10858327       -212740789.57857114        835643912.52161849     
   223625325.67308381       -352352379.35045975        885019362.04007626     
   140673041.03451428       -639434129.79925966        945413323.79342544     
   13479708.192881227       -1073986040.9249463        1016825797.7816726     
  -157954672.85182083       -1656008112.7275131        1099256784.0048034     
   190580956.02218038       -275999663.77678668        978581056.10564554     
   173492396.08153516       -418275846.47674000        986308788.70533419     
   122717275.31382173       -672840565.26692331        1000265743.2034214     
   38255593.719041765       -1039693820.1473287        1020451919.5998988     
  -79892648.702806592       -1518835611.1179590        1046867317.8947772     
   136553064.74642217       -333940223.53182209        1111841647.7421894     
   127403494.62492299       -482986105.16254270        1090235232.0284367     
   95121851.052359194       -709138898.29681134        1070068747.8765937     
   39708134.028724909       -1012398602.9346595        1051342195.2866608     
  -38837656.445980787       -1392765219.0760684        1034055574.2585757     
   100252888.28131646       -386562468.84364849        1235425687.4312532     
   85358621.303257406       -546483155.40783465        1196798692.0094094     
   57886768.250126570       -748329128.88894355        1154822337.8129594     
   17837329.121925533       -992100389.28694463        1109496624.8419085     
  -34789696.081337452       -1277796936.6018188        1060821553.0962566     
   3075802930.1841378        29130669.185782552        1072548063.4180760     
   2953407773.8391790        14410802.292801619        1066352095.4114735     
   2831833088.9289207        2425840.1821590662        1067911150.1998626     
   2711078875.4533587       -6824217.1461590528        1077225227.7832501     
   2591145133.4125018       -13339369.692135811        1094294328.1616299     
   2696758513.9663162        28399737.671641469        1184390626.8464038     
   2594590745.6478767        16979229.432814598        1176255987.2080400     
   2493116083.6676497        7869075.6547067165        1175164463.5671899     
   2392334528.0256381        1069276.3373169899        1181116055.9238701     
   2292246078.7218399       -3420168.5193612576        1194110764.2780671     
   2310669416.0325952        25555401.642732263        1295242541.2910972     
   2226695016.3193240        16824046.231654286        1285020637.4083970     
   2143286357.8477807        9978494.9596797228        1281129942.7257466     
   2060443440.6179681        5018747.8268028498        1283570457.2431476     
   1978166264.6298852        1944804.8330304623        1292342180.9605937     
   1917535636.3829896        20597661.099058270        1405103806.7521472     
   1849720585.8535335        13945252.689324975        1392646046.0125477     
   1782343911.4693196        8754098.0970709324        1385807587.6755297     
   1715405613.2303550        5024197.3223131895        1384588431.7410886     
   1648905691.1366341        2755550.3650321960        1388988578.2092214     
   1517357175.0174830        13526516.040610671        1513974423.2295582     
   1463667454.2504928        8342848.8058140278        1499132213.0204957     
   1410288744.5322626        4195885.0668867826        1489197398.4165430     
   1357221045.8627918        1085624.8238270879        1484169979.4176915     
   1304464358.2420850       -987931.92335873842        1484049956.0239434     
   2591145133.4125018       -13339369.692135811        1094294328.1616299     
   2513577450.0841908       -6026393.7373538017        1098238434.6369596     
   2435926643.1587534        1009503.5603384972        1103872933.0380423     
   2358192712.6361961        7768322.2009680271        1111197823.3648782     
   2280375658.5165114        14250062.184498429        1120213105.6174624     
   2292246078.7218399       -3420168.5193612576        1194110764.2780671     
   2219495137.2555270        1311028.3487590551        1193140975.6883185     
   2146723214.3126717        5972286.9617449045        1194781776.3943565     
   2073930309.8932827        10563607.319618821        1199033166.3961775     
   2001116423.9973550        15084989.422362566        1205895145.6937759     
   1978166264.6298852        1944804.8330304623        1292342180.9605937     
   1912861200.3685100        4882963.2173700333        1286530996.4464574     
   1847597296.7511823        7958323.7485390902        1284250598.5981376     
   1782374553.7779016        11170886.426532745        1285500987.4156251     
   1717192971.4486737        14520651.251362920        1290282162.8989296     
   1648905691.1366341        2755550.3650321960        1388988578.2092214     
   1593675639.4231400        4689410.8684764504        1378408496.9113786     
   1538548890.4742787        6967613.9206972718        1372279399.6493826     
   1483525444.2900546        9590159.5217087269        1370601286.4232247     
   1428605300.8704660        12557047.671505094        1373374157.2329125     
   1304464358.2420850       -987931.92335873842        1484049956.0239434     
   1261938454.4194148        730371.30206787586        1468773477.0830798     
   1219577995.4819703        3000157.4782489538        1458868179.5480907     
   1177382981.4297402        5821426.6051463485        1454334063.4189734     
   1135353412.2627361        9194178.6827973127        1455171128.6957254     
   2280375658.5165114        14250062.184498429        1120213105.6174624     
   2172585011.4572792        12256470.760479569        1115035183.5187933     
   2065218199.9562664        11675664.530526757        1114288866.3975463     
   1958275224.0134554        12507643.494582891        1117974154.2537200     
   1851756083.6288574        14752407.652682066        1126091047.0873199     
   2001116423.9973550        15084989.422362566        1205895145.6937759     
   1905280004.2482669        13213005.721496344        1199693826.3515544     
   1809803067.7465034        12539299.511712313        1198228398.1805212     
   1714685614.4920568        13063870.792984128        1201498861.1806822     
   1619927644.4849253        14786719.565310061        1209505215.3520391     
   1717192971.4486737        14520651.251362920        1290282162.8989296     
   1634180168.1347911        13031092.011175871        1282982368.6171043     
   1551462495.7573361        12525302.559083700        1280722751.7002478     
   1469039954.3163099        13003282.895077467        1283503312.1483510     
   1386912543.8117027        14465033.019145966        1291324049.9614155     
   1428605300.8704660        12557047.671505094        1373374157.2329125     
   1359285503.1168499        11710729.629521489        1364900810.3154507     
   1290196483.9887605        11633673.672630727        1361771926.9567225     
   1221338243.4862118        12325879.800867021        1363987507.1567271     
   1152710781.6091914        13787348.014204502        1371547550.9154692     
   1135353412.2627361        9194178.6827973127        1455171128.6957254     
   1080596009.1944408        9251918.5765152574        1445449151.4465837     
   1026005032.4407796        9864412.8523544073        1441375923.9499469     
   971580482.00176811        11031661.510358393        1442951446.2058115     
   917322357.87738645        12753664.550461531        1450175718.2141809     
   1851756083.6288574        14752407.652682066        1126091047.0873199     
   1755101583.3636734        20614131.883382440        1120970587.4716227     
   1658456808.8831999        26508275.396455407        1119818220.7586164     
   1561821760.1874461        32434838.191925764        1122633946.9482884     
   1465196437.2764027        38393820.269763291        1129417766.0406532     
   1619927644.4849253        14786719.565310061        1209505215.3520391     
   1533630946.2941992        19662664.300208449        1204131248.5506716     
   1447380071.0655956        24691352.242175341        1202984216.4798574     
   1361175018.7991147        29872783.391221583        1206064119.1395862     
   1275015789.4947560        35206957.747341216        1213370956.5298584     
   1386912543.8117027        14465033.019145966        1291324049.9614155     
   1311713195.7750413        18577062.682137728        1285738689.3480270     
   1236595767.8779030        22962159.476875007        1284639105.2930460     
   1161560260.1202950        27620323.403377414        1288025297.7964692     
   1086606672.5022151        32551554.461644173        1295897266.8582971     
   1152710781.6091914        13787348.014204502        1371547550.9154692     
   1089348331.8061879        17357327.029147565        1365792909.8636909     
   1026103899.3201215        21320697.100548327        1364782887.1981835     
   962977484.15098536        25677458.228383183        1368517482.9189363     
   899969086.29878986        30427610.412681878        1376996697.0259604     
   917322357.87738645        12753664.550461531        1450175718.2141809     
   866536354.38764977        16003457.341265351        1444293910.0976629     
   815904465.39224792        19766965.113185525        1443415562.1952686     
   765426690.89118707        24044187.866245121        1447540674.5070024     
   715103030.88447237        28835125.600458562        1456669247.0328560     
   1465196437.2764027        38393820.269763291        1129417766.0406532     
   1358591429.7491322        41696824.357124090        1123503440.8120246     
   1252199505.7081776        45710106.732200325        1121237924.5494299     
   1146020665.1535299        50433667.394965291        1122621217.2528532     
   1040054908.0851921        55867506.345441282        1127653318.9223042     
   1275015789.4947560        35206957.747341216        1213370956.5298584     
   1178321506.6474714        37562821.720387876        1208516608.4405372     
   1081701536.4511056        40166394.529833138        1207855656.5500174     
   985155878.90568447        43017676.175758839        1211388100.8583024     
   888684534.01118910        46116666.658103466        1219113941.3653953     
   1086606672.5022151        32551554.461644173        1295897266.8582971     
   1001379077.8571311        34427067.377012670        1291940996.6003342     
   916087025.02759814        36087719.677549422        1292722709.7739549     
   830730514.01361966        37533511.363270044        1298242406.3791633     
   745309544.81519198        38764442.434164137        1308500086.4159465     
   899969086.29878986        30427610.412681878        1376996697.0259604     
   827764143.37813103        32289561.327050507        1373776605.2914183     
   755355971.43764710        33474082.175328881        1375839084.2212384     
   682744570.47733617        33981172.957517236        1383184133.8154180     
   609929940.49720395        33810833.673635900        1395811754.0739574     
   715103030.88447237        28835125.600458562        1456669247.0328560     
   657476703.21046972        31150303.570503235        1454023434.5137932     
   599508375.68125403        32325482.023170799        1457204779.8918643     
   541198048.29684007        32360660.958511114        1466213283.1670809     
   482545721.05721945        31255840.376495376        1481048944.3394351     
   1040054908.0851921        55867506.345441282        1127653318.9223042     
   923258990.52824032        54843691.784229428        1125019308.3912261     
   804134425.50799155        46057719.012041688        1128288728.8790574     
   682681213.02443910        29509588.028837323        1137461580.3857954     
   558899353.07759631        5199298.8346599042        1152537862.9114497     
   888684534.01118910        46116666.658103466        1219113941.3653953     
   786938951.83505535        44269187.255053848        1216562863.9942014     
   682900904.01837897        34780155.716872871        1219875613.1682277     
   576570390.56115210        17649572.043519437        1229052188.8874788     
   467947411.46339178       -7122563.7649484277        1244092591.1519480     
   745309544.81519198        38764442.434164137        1308500086.4159465     
   658501142.38076186        36059351.497534007        1306074154.3311810     
   569436456.12854409        25833314.501618147        1309472444.3179512     
   478115486.05853784        8086331.4464035630        1318694956.3762538     
   384538232.17074364       -17181597.668103099        1333741690.5060849     
   609929940.49720395        33810833.673635900        1395811754.0739574     
   537945562.16536450        30214184.511688888        1393553179.4021771     
   463741081.83850044        19217195.366327047        1397079222.3282366     
   387316499.51659095        819866.23748113215        1406389882.8521361     
   308671815.19965333       -24977802.874793768        1421485160.9738822     
   482545721.05721945        31255840.376495376        1481048944.3394351     
   425272211.18886310        26733686.297509223        1478999939.2071774     
   365814781.14823091        14931798.310939878        1482695947.1990736     
   304173430.93532091       -4149823.5832236707        1492136968.3151207     
   240348160.55012822       -30511179.385001570        1507323002.5553188     
   558899353.07759631        5199298.8346599042        1152537862.9114497     
   462246253.21846032       -32712755.285131454        1161975211.2926676     
   353587475.79936612       -110643734.60478954        1178935631.5063705     
   232923020.82032579       -228593639.12427071        1203419123.5525670     
   100252888.28131646       -386562468.84364849        1235425687.4312532     
   467947411.46339178       -7122563.7649484277        1244092591.1519480     
   390377804.18172616       -41457765.380584702        1242646701.7169771     
   302652919.23159319       -109643892.55778721        1247531922.6235366     
   204772756.61300540       -211680945.29649892        1258748253.8716149     
   96737316.325944901       -347568923.59679174        1276295695.4612339     
   384538232.17074364       -17181597.668103099        1333741690.5060849     
   322646513.20664805       -48961628.057547778        1323571363.1283431     
   252449916.46557999       -108424584.37024368        1318540184.6011624     
   173948441.94754040       -195570466.60617051        1318648154.9245450     
   87142089.652526975       -310399274.76534897        1323895274.0984812     
   308671815.19965333       -24977802.874793768        1421485160.9738822     
   259052380.29322743       -55224343.316020295        1404749195.5267727     
   202978467.50132498       -106985810.04216599        1391960417.4392600     
   140450076.82393646       -180262203.05326381        1383118826.7113369     
   71467208.261064202       -275053522.34931296        1378224423.3430161     
   240348160.55012822       -30511179.385001570        1507323002.5553188     
   199595405.44146693       -60245911.155978099        1486180198.9122527     
   154238572.33881688       -105327569.57358927        1467792621.1378129     
   104277661.24217933       -165756154.63782266        1452160269.2320025     
   49712672.151546553       -241531666.34870681        1439283143.1948223     
   100252888.28131646       -386562468.84364849        1235425687.4312532     
   85358621.303257406       -546483155.40783465        1196798692.0094094     
   57886768.250126570       -748329128.88894355        1154822337.8129594     
   17837329.121925533       -992100389.28694463        1109496624.8419085     
  -34789696.081337452       -1277796936.6018188        1060821553.0962566     
   96737316.325944901       -347568923.59679174        1276295695.4612339     
   79793368.376488894       -488783710.23838234        1221971125.2751932     
   51474419.386111587       -667915167.01637149        1165102490.0574613     
   11780469.354808211       -884963293.93077159        1105689789.8080297     
  -39288481.717422664       -1139928090.9816103        1043733024.5269160     
   87142089.652526975       -310399274.76534897        1323895274.0984812     
   70449299.997143149       -432217909.70465660        1255276145.0214162     
   43584094.334979773       -587944597.99989462        1184918244.6555705     
   6546472.6660226583       -777579339.65110552        1112821573.0009472     
  -40663565.009710133       -1001122134.6582490        1038986130.0575407     
   71467208.261064202       -275053522.34931296        1378224423.3430161     
   57326416.165207490       -376785753.80671775        1296713751.2480876     
   34215793.096711218       -508417421.83958524        1214269601.6072867     
   2135339.0555735230       -669948526.44793522        1130891974.4206398     
  -38914945.958212107       -861379067.63175881        1046580869.6880971     
   49712672.151546553       -241531666.34870681        1439283143.1948223     
   40424716.880678520       -322487242.54457027        1346283943.9552040     
   23369515.671312243       -429333638.53542513        1253156560.9126339     
  -1452931.4765518904       -562070854.32127702        1159900994.0670984     
  -34042624.562919766       -720698889.90213025        1066517243.4186137     
   1517357175.0174830        13526516.040610671        1513974423.2295582     
   1463667454.2504928        8342848.8058140278        1499132213.0204957     
   1410288744.5322626        4195885.0668867826        1489197398.4165430     
   1357221045.8627918        1085624.8238270879        1484169979.4176915     
   1304464358.2420850       -987931.92335873842        1484049956.0239434     
   1119113233.4831464        4473484.9516385198        1495838856.3723116     
   1078619766.3069403        517883.05733740330        1485751612.3688233     
   1038359557.3635083       -2660191.3943815231        1480624537.3668694     
   998332606.65285301       -5060738.4035129547        1480457631.3664577     
   958538914.17497277       -6683757.9700627923        1485250894.3675840     
   733472403.64344156       -798612.62894582748        1476698333.5025692     
   706325971.19069147       -3480914.8429480791        1471275344.0859985     
   679335044.15472996       -5644865.6676570177        1470865297.0673985     
   652499622.53555846       -7290465.1030646563        1475468192.4467735     
   625819706.33317673       -8417713.1491752863        1485084030.2241230     
   360434685.49836874       -2289776.7011405826        1456552854.6203327     
   346786068.90174818       -3653544.8950436264        1455703408.1720257     
   333215204.90592992       -4758137.7529340237        1459919677.5181301     
   319722093.51091379       -5603555.2748189121        1469201662.6586432     
   306306734.71670240       -6189797.4606896490        1483549363.5935650     
   79.047930106363708       -7.2649434087626972        1435402419.7255921     
   59.440107689358996       -7.0989483064836563        1439035804.6269057     
   39.617103004745488       -7.6502274295673143        1447787678.7190626     
   19.578916235526957       -8.9187794741116342        1461658042.0020649     
 -0.67445316730797167       -10.904608351822743        1480646894.4759078     
   1304464358.2420850       -987931.92335873842        1484049956.0239434     
   1261938454.4194148        730371.30206787586        1468773477.0830798     
   1219577995.4819703        3000157.4782489538        1458868179.5480907     
   1177382981.4297402        5821426.6051463485        1454334063.4189734     
   1135353412.2627361        9194178.6827973127        1455171128.6957254     
   958538914.17497277       -6683757.9700627923        1485250894.3675840     
   929285741.73807371       -4602653.0943365693        1474457343.2677393     
   900156652.89036369       -2107936.2546499372        1468418680.6779325     
   871151647.63184822        800392.54901909828        1467134906.5981615     
   842270725.96252394        4122333.3166562915        1470606021.0284305     
   625819706.33317673       -8417713.1491752863        1485084030.2241230     
   608078428.43680704       -6502057.6767263710        1478725152.1199276     
   590419872.83359814       -4310661.2270766199        1476504869.6299362     
   572844039.52354848       -1843523.8002271056        1478423182.7541447     
   555350928.50665975        899354.60382288694        1484480091.4925578     
   306306734.71670240       -6189797.4606896490        1483549363.5935650     
   298316514.51561910       -4967842.4450904578        1481576903.6396506     
   290367655.31166518       -3608017.4390585124        1483126746.4041033     
   282460157.10483897       -2110322.4426012933        1488198891.8869238     
   274594019.89514339       -474757.45570951700        1496793340.0881112     
 -0.67445316730797167       -10.904608351822743        1480646894.4759078     
  -2.5493389450740978E-002  -7.3994318685087164        1483012597.8269048     
  0.32456372754232232       -4.8905975880752459        1488284311.0004325     
  0.37572152349048271       -3.3780936839020628        1496462033.9964957     
  0.12797766509535025       -2.8619300153186371        1507545766.8150883     
   1135353412.2627361        9194178.6827973127        1455171128.6957254     
   1080596009.1944408        9251918.5765152574        1445449151.4465837     
   1026005032.4407796        9864412.8523544073        1441375923.9499469     
   971580482.00176811        11031661.510358393        1442951446.2058115     
   917322357.87738645        12753664.550461531        1450175718.2141809     
   842270725.96252394        4122333.3166562915        1470606021.0284305     
   802021136.34131312        4411177.0856025815        1463115461.0729458     
   761896366.46292222        5116086.6639477909        1461082676.1991987     
   721896416.32734084        6237062.0516597331        1464507666.4071937     
   682021285.93457592        7774103.2487545609        1473390431.6969292     
   555350928.50665975        899354.60382288694        1484480091.4925578     
   529063510.41606969        1255609.6730609834        1479172407.8302689     
   502859305.49646890        1889241.9789282084        1479131524.5789511     
   476738313.74786270        2800251.5214456022        1484357441.7386136     
   450700535.17024499        3988638.3005914986        1494850159.3092544     
   274594019.89514339       -474757.45570951700        1496793340.0881112     
   261723131.41870892       -214783.66111537814        1493619991.7185504     
   248893849.54143539        183878.79734835029        1495522469.0892053     
   236106174.26333299        721229.91971613467        1502500772.2000725     
   223360105.58439583        1397269.7059663087        1514554901.0511549     
  0.12797766509535025       -2.8619300153186371        1507545766.8150883     
 -0.65077284220789833       -2.9169363810812809        1506458212.7377985     
  -1.4021831315095108       -2.8808086868384715        1510255509.7299600     
  -2.1262473009370901       -2.7535272596822180        1518937657.7915719     
  -2.8229687818117970       -2.5351035373497246        1532504656.9226325     
   917322357.87738645        12753664.550461531        1450175718.2141809     
   866536354.38764977        16003457.341265351        1444293910.0976629     
   815904465.39224792        19766965.113185525        1443415562.1952686     
   765426690.89118707        24044187.866245121        1447540674.5070024     
   715103030.88447237        28835125.600458562        1456669247.0328560     
   682021285.93457592        7774103.2487545609        1473390431.6969292     
   643988454.70010698        10228449.362672746        1469052449.5482910     
   606071209.32896912        13068081.687696457        1469704704.3073294     
   568269549.82116759        16293000.223837584        1475347195.9740307     
   530583476.17669994        19903204.971094191        1485979924.5484085     
   450700535.17024499        3988638.3005914986        1494850159.3092544     
   425383095.31545764        5636203.4749481827        1492011053.0589938     
   400142712.69299644        7540626.0903933346        1494148960.4099507     
   374979387.30286527        9701906.1469387412        1501263881.3621211     
   349893119.14506024        12120043.644569665        1513355815.9155021     
   223360105.58439583        1397269.7059663087        1514554901.0511549     
   210720276.23370463        2226719.6780958548        1513169720.6297650     
   198118975.48433512        3184598.3212965801        1516748330.5031307     
   185556203.33628076        4270905.6355484873        1525290730.6712580     
   173031959.78955173        5485641.6208845079        1538796921.1341431     
  -2.8229687818117970       -2.5351035373497246        1532504656.9226325     
  -2.5451531450159117       -2.0278879079623451        1532528452.2606030     
  -2.2970281354661850       -1.6196382605046002        1537502814.5868754     
  -2.0785786782249818       -1.3103078146313254        1547427743.9014497     
  -1.8898216325169415       -1.0999534616473738        1562303240.2043264     
   715103030.88447237        28835125.600458562        1456669247.0328560     
   657476703.21046972        31150303.570503235        1454023434.5137932     
   599508375.68125403        32325482.023170799        1457204779.8918643     
   541198048.29684007        32360660.958511114        1466213283.1670809     
   482545721.05721945        31255840.376495376        1481048944.3394351     
   530583476.17669994        19903204.971094191        1485979924.5484085     
   487833832.34032547        21780619.047903806        1484270361.1597319     
   444827688.61016363        22803033.478756785        1488278265.2628386     
   401565044.98621976        22970448.263671085        1498003636.8577263     
   358045901.46848160        22282863.402597591        1513446475.9443932     
   349893119.14506024        12120043.644569665        1513355815.9155021     
   321706757.98815918        13465673.480731070        1512682251.6121986     
   293349396.89888221        14241303.542304665        1517616464.3953173     
   264821035.87723607        14446933.829315200        1528158454.2648602     
   236121674.92321452        14082564.341741025        1544308221.2208314     
   173031959.78955173        5485641.6208845079        1538796921.1341431     
   159095480.15395749        6205466.8689377233        1539259105.8711946     
   145073500.54740098        6640292.2137863562        1545219377.2893136     
   130966020.96989262        6790117.6554614976        1556677735.3884995     
   116773041.42142072        6654943.1939231157        1573634180.1687553     
  -1.8898216325169415       -1.0999534616473738        1562303240.2043264     
  -1.1622809857416072      -0.78747663152205805        1564000923.9367237     
 -0.44427909153796935      -0.50679494941300762        1571087003.9448283     
  0.26418114490872185      -0.25791844621575039        1583561480.2286408     
  0.96310056999101956       -4.0846035345252107E-002   1601424352.7881594     
   482545721.05721945        31255840.376495376        1481048944.3394351     
   425272211.18886310        26733686.297509223        1478999939.2071774     
   365814781.14823091        14931798.310939878        1482695947.1990736     
   304173430.93532091       -4149823.5832236707        1492136968.3151207     
   240348160.55012822       -30511179.385001570        1507323002.5553188     
   358045901.46848160        22282863.402597591        1513446475.9443932     
   315880179.66410333        19128071.023269817        1509977411.9581044     
   272076517.73223209        10513478.218962595        1512069165.2738800     
   226634915.67287424       -3560915.0103013664        1519721735.8917189     
   179555373.48601878       -23095108.664554484        1532935123.8116231     
   236121674.92321452        14082564.341741025        1544308221.2208314     
   208537467.40541071        12137251.528832242        1540056075.0994370     
   179861299.80490580        6552071.7735879198        1541180550.4580150     
   150093172.12169820       -2672974.9239976406        1547681647.2965627     
   119233084.35578635       -15537888.563934281        1559559365.6150877     
   116773041.42142072        6654943.1939231157        1573634180.1687553     
   103244074.41279377        5761227.8142265379        1569235928.6311691     
   89169127.366250560        3047578.9748108089        1570030102.7514699     
   74548200.281794786       -1486003.3243155777        1576016702.5296493     
   59381293.159428678       -7839519.0831433237        1587195727.9657125     
  0.96310056999101956       -4.0846035345252107E-002   1601424352.7881594     
  0.68624794491678220      -0.12056116178642623        1597516972.5533085     
  0.41627209920827479      -0.17735160867366234        1598617822.1542456     
  0.15316669635908647      -0.21124300797603512        1604726901.5909803     
 -0.10306297939619470      -0.22221254140782215        1615844210.8635015     
   240348160.55012822       -30511179.385001570        1507323002.5553188     
   199595405.44146693       -60245911.155978099        1486180198.9122527     
   154238572.33881688       -105327569.57358927        1467792621.1378129     
   104277661.24217933       -165756154.63782266        1452160269.2320025     
   49712672.151546553       -241531666.34870681        1439283143.1948223     
   179555373.48601878       -23095108.664554484        1532935123.8116231     
   148336002.24206051       -45592598.949834734        1507333392.0668712     
   113663572.50105247       -79600284.225280911        1484639674.0065637     
   75538084.262970626       -125118164.49097309        1464853969.6306970     
   33959537.527850822       -182146239.74679190        1447976278.9392755     
   119233084.35578635       -15537888.563934281        1559559365.6150877     
   97983633.593144491       -30667176.378515936        1530841561.8484068     
   74432143.830375373       -53469927.526853882        1505184559.5819786     
   48578615.067475252       -83946142.008963138        1482588358.8158083     
   20423047.304446779       -122095819.82482943        1463052959.5498888     
   59381293.159428678       -7839519.0831433237        1587195727.9657125     
   48538299.494708538       -15469643.442053966        1556704708.2568541     
   36544286.326788396       -26936499.478299383        1529427277.8640566     
   23399253.655670051       -42240087.191869341        1505363436.7873290     
   9103201.4813569300       -61380406.582759388        1484513185.0266705     
 -0.10306297939619470      -0.22221254140782215        1615844210.8635015     
  -5.3248614309095901E-002 -0.14045834092882445        1584922831.2922118     
  -9.7078480785242026E-003  -7.9612667191298503E-002   1557367828.8528028     
   2.7565266918866588E-002  -3.9659164231042265E-002   1533179203.5452714     
   5.8571737203950439E-002  -2.0597946425427751E-002   1512356955.3696220     
   49712672.151546553       -241531666.34870681        1439283143.1948223     
   40424716.880678520       -322487242.54457027        1346283943.9552040     
   23369515.671312243       -429333638.53542513        1253156560.9126339     
  -1452931.4765518904       -562070854.32127702        1159900994.0670984     
  -34042624.562919766       -720698889.90213025        1066517243.4186137     
   33959537.527850822       -182146239.74679190        1447976278.9392755     
   29809286.603053436       -242018207.23487365        1347495341.5320439     
   19833601.224565893       -321308289.56859350        1246229220.0306501     
   4032481.3923727274       -420016486.74799925        1144177914.4350953     
  -17594072.893508077       -538142798.77302241        1041341424.7453628     
   20423047.304446779       -122095819.82482943        1463052959.5498888     
   19533357.036564678       -161447321.71184281        1357355730.7073181     
   14760043.799778819       -213744233.49519572        1250216317.4793694     
   6103107.5941008329       -278986555.17486095        1141634719.8660319     
  -6437451.5804728121       -357174286.75084090        1031610937.8673401     
   9103201.4813569300       -61380406.582759388        1484513185.0266705     
   9596928.1812124997       -80774585.975467607        1375865111.4810264     
   8148843.3969636932       -106641470.31518887        1265117853.2587903     
   4758947.1286227480       -138981059.60188764        1152271410.3599696     
  -572760.62381280214       -177793353.83556533        1037325782.7845656     
   5.8571737203950439E-002  -2.0597946425427751E-002   1512356955.3696220     
   3.6996230255150482E-002  -2.5751653556813053E-002   1403023483.8531659     
   1.6114948203699235E-002  -2.8595441033378317E-002   1290933827.3689077     
  -4.0617234850218462E-003  -2.9087057853891075E-002   1176087985.9168613     
  -2.3524771874095816E-002  -2.7201318121027586E-002   1058485959.4970053     
   79.047930106363708       -7.2649434087626972        1435402419.7255921     
   59.440107689358996       -7.0989483064836563        1439035804.6269057     
   39.617103004745488       -7.6502274295673143        1447787678.7190626     
   19.578916235526957       -8.9187794741116342        1461658042.0020649     
 -0.67445316730797167       -10.904608351822743        1480646894.4759078     
  -360434538.40409845        2289773.9331381619        1456552884.4034712     
  -346785958.08403188        3653540.6562510133        1455703427.6416440     
  -333215130.74853474        4758130.7641306520        1459919689.3510919     
  -319722056.39760965        5603544.2567724586        1469201669.5318129     
  -306306735.03125560        6189781.1341747344        1483549368.1838105     
  -733472299.48516738        798612.04250758886        1476698392.0091667     
  -706325892.72169459        3480913.2774000764        1471275382.0199122     
  -679334991.71218300        5644861.9990914166        1470865319.7823625     
  -652499596.45663095        7290458.2075826526        1475468205.2965181     
  -625819706.95504010        8417701.9028698504        1485084038.5623775     
  -1119113204.1952729       -4473492.9368339777        1495838942.5426710     
  -1078619744.4728832       -517889.23551279306        1485751667.7617104     
  -1038359543.2738438        2660186.0546438098        1480624570.0128794     
  -998332600.59815204        5060732.9336377382        1480457649.2961819     
  -958538916.44581079        6683751.4014657140        1485250905.6116188     
  -1517357252.5344188       -13526541.004887581        1513974536.0040057     
  -1463667513.3375974       -8342866.8824800253        1499132284.8670397     
  -1410288785.4335160       -4195897.0692064762        1489197440.0426400     
  -1357221068.8221712       -1085631.5650537014        1484170001.5308006     
  -1304464363.5035658        987929.62996631861        1484049969.3315268     
 -0.67445316730797167       -10.904608351822743        1480646894.4759078     
  -2.5493389450740978E-002  -7.3994318685087164        1483012597.8269048     
  0.32456372754232232       -4.8905975880752459        1488284311.0004325     
  0.37572152349048271       -3.3780936839020628        1496462033.9964957     
  0.12797766509535025       -2.8619300153186371        1507545766.8150883     
  -306306735.03125560        6189781.1341747344        1483549368.1838105     
  -298316514.08014745        4967831.0445688367        1481576907.1964228     
  -290367654.54607964        3608009.5648295283        1483126748.9869497     
  -282460156.42904717        2110316.6949722916        1488198893.5553911     
  -274594019.72905767        474752.43497125804        1496793340.9017494     
  -625819706.95504010        8417701.9028698504        1485084038.5623775     
  -608078428.68640804        6502049.3230792582        1478725158.5987802     
  -590419872.95294833        4310654.9593790770        1476504874.3684795     
  -572844039.75466371        1843518.8117639124        1478423185.8714828     
  -555350929.09155333       -899359.11976721883        1484480093.1077816     
  -958538916.44581079        6683751.4014657140        1485250905.6116188     
  -929285743.84427166        4602647.4361096025        1474457352.0339837     
  -900156654.89603925        2107931.2930652499        1468418687.1450322     
  -871151649.60112047       -800397.02769321203        1467134910.9447618     
  -842270727.95950973       -4122337.5261448026        1470606023.4331768     
  -1304464363.5035658        987929.62996631861        1484049969.3315268     
  -1261938459.5537357       -730374.61633026600        1468773487.5020294     
  -1219578000.3753512       -3000161.4341123700        1458868187.3165989     
  -1177382985.9684148       -5821430.8233901262        1454334068.7752333     
  -1135353416.3329258       -9194182.7841568589        1455171131.8779349     
  0.12797766509535025       -2.8619300153186371        1507545766.8150883     
 -0.65077284220789833       -2.9169363810812809        1506458212.7377985     
  -1.4021831315095108       -2.8808086868384715        1510255509.7299600     
  -2.1262473009370901       -2.7535272596822180        1518937657.7915719     
  -2.8229687818117970       -2.5351035373497246        1532504656.9226325     
  -274594019.72905767        474752.43497125804        1496793340.9017494     
  -261723132.74221864        214778.49989384413        1493619992.3867362     
  -248893852.31271532       -183883.95963256061        1495522469.6711977     
  -236106178.44055268       -721234.94363023341        1502500772.7551422     
  -223360111.12572515       -1397274.4520783871        1514554901.6385663     
  -555350929.09155333       -899359.11976721883        1484480093.1077816     
  -529063512.25332540       -1255614.3091700673        1479172409.1395767     
  -502859308.55711496       -1889246.6386324763        1479131525.7008848     
  -476738318.00292420       -2800256.1081595123        1484357442.7917008     
  -450700540.59074664       -3988642.7177311182        1494850160.4120283     
  -842270727.95950973       -4122337.5261448026        1470606023.4331768     
  -802021139.18409443       -4411181.3441380560        1463115462.9963262     
  -761896370.13537502       -5116090.9177826047        1461082677.8190174     
  -721896420.81335580       -6237066.2470969260        1464507667.9012451     
  -682021291.21803010       -7774107.3320565820        1473390433.2430158     
  -1135353416.3329258       -9194182.7841568589        1455171131.8779349     
  -1080596013.5345247       -9251922.6050011516        1445449153.9569795     
  -1026005037.0475001       -9864416.7971014977        1441375926.0255957     
  -971580486.87185526       -11031665.360466957        1442951448.0837789     
  -917322363.00758266       -12753668.295072734        1450175720.1315305     
  -2.8229687818117970       -2.5351035373497246        1532504656.9226325     
  -2.5451531450159117       -2.0278879079623451        1532528452.2606030     
  -2.2970281354661850       -1.6196382605046002        1537502814.5868754     
  -2.0785786782249818       -1.3103078146313254        1547427743.9014497     
  -1.8898216325169415       -1.0999534616473738        1562303240.2043264     
  -223360111.12572515       -1397274.4520783871        1514554901.6385663     
  -210720281.27855754       -2226723.5837215334        1513169721.1628718     
  -198118980.07156479       -3184601.5159454197        1516748330.9765718     
  -185556207.50474131       -4270908.2487352863        1525290731.0796688     
  -173031963.57809740       -5485643.7821252123        1538796921.4721656     
  -450700540.59074664       -3988642.7177311182        1494850160.4120283     
  -425383100.31395793       -5636207.2301506102        1492011054.0770984     
  -400142717.28783035       -7540629.2447741777        1494148961.3326602     
  -374979391.51236582       -9701908.7616078854        1501263882.1787119     
  -349893122.98756063       -12120045.780636579        1513355816.6152563     
  -682021291.21803010       -7774107.3320565820        1473390433.2430158     
  -643988459.65135479       -10228452.967180341        1469052451.0032864     
  -606071213.94582653       -13068084.806127310        1469704705.6551404     
  -568269554.10144675       -16293002.848904103        1475347197.1985772     
  -530583480.11821562       -19903207.095507085        1485979925.6335993     
  -917322363.00758266       -12753668.295072734        1450175720.1315305     
  -866536359.29075003       -16003460.794816196        1444293911.9414318     
  -815904470.04554808       -19766968.199990571        1443415563.9440100     
  -765426695.27199304       -24044190.510654777        1447540676.1392663     
  -715103034.97006369       -28835127.726742238        1456669248.5272040     
  -1.8898216325169415       -1.0999534616473738        1562303240.2043264     
  -1.1622809857416072      -0.78747663152205805        1564000923.9367237     
 -0.44427909153796935      -0.50679494941300762        1571087003.9448283     
  0.26418114490872185      -0.25791844621575039        1583561480.2286408     
  0.96310056999101956       -4.0846035345252107E-002   1601424352.7881594     
  -173031963.57809740       -5485643.7821252123        1538796921.4721656     
  -159095482.48058885       -6205468.3508134261        1539259106.1639495     
  -145073501.43734884       -6640293.1003988087        1545219377.5294988     
  -130966020.44837356       -6790118.0308662653        1556677735.5688162     
  -116773039.51367000       -6654943.1422380954        1573634180.2818995     
  -349893122.98756063       -12120045.780636579        1513355816.6152563     
  -321706760.38278377       -13465674.889324665        1512682252.2142487     
  -293349397.87699634       -14241304.327975988        1517616464.8850694     
  -264821035.47020295       -14446934.096609816        1528158454.6277092     
  -236121673.16240299       -14082564.195218891        1544308221.4421773     
  -530583480.11821562       -19903207.095507085        1485979925.6335993     
  -487833834.86886197       -21780620.402996719        1484270362.0876269     
  -444827689.76322335       -22803034.189533681        1488278266.0115318     
  -401565044.80130285       -22970448.455131203        1498003637.4053218     
  -358045899.98309958       -22282863.199788764        1513446476.2689874     
  -715103034.97006369       -28835127.726742238        1456669248.5272040     
  -657476705.93882585       -31150304.891834527        1454023435.7840772     
  -599508377.09602380       -32325482.685050070        1457204780.9088943     
  -541198048.44167113       -32360661.106426418        1466213283.9016466     
  -482545719.97576070       -31255840.155947998        1481048944.7623429     
  0.96310056999101956       -4.0846035345252107E-002   1601424352.7881594     
  0.68624794491678220      -0.12056116178642623        1597516972.5533085     
  0.41627209920827479      -0.17735160867366234        1598617822.1542456     
  0.15316669635908647      -0.21124300797603512        1604726901.5909803     
 -0.10306297939619470      -0.22221254140782215        1615844210.8635015     
  -116773039.51367000       -6654943.1422380954        1573634180.2818995     
  -103244073.04915257       -5761227.9337554909        1569235928.7197387     
  -89169126.534152299       -3047579.2236613370        1570030102.8255663     
  -74548199.968675196        1486002.9880234152        1576016702.5993786     
  -59381293.352724619        7839518.7012819387        1587195728.0411706     
  -236121673.16240299       -14082564.195218891        1544308221.4421773     
  -208537466.15025258       -12137251.556644686        1540056075.2702518     
  -179861299.04401949       -6552071.9377964064        1541180550.5985019     
  -150093171.84370586        2672974.6613200903        1547681647.4269242     
  -119233084.54931325        15537888.240701653        1559559365.7555201     
  -358045899.98309958       -22282863.199788764        1513446476.2689874     
  -315880178.61705732       -19128070.989246130        1509977412.2048326     
  -272076517.11333072       -10513478.319761798        1512069165.4730453     
  -226634915.47192341        3560914.8086639196        1519721736.0736179     
  -179555373.69283107        23095108.396034293        1532935124.0065570     
  -482545719.97576070       -31255840.155947998        1481048944.7623429     
  -425272210.44957012       -26733686.231576636        1478999939.5234911     
  -365814780.74209434       -14931798.369581193        1482695947.4491992     
  -304173430.85332167        4149823.4300656170        1492136968.5394650     
  -240348160.78327271        30511179.167303100        1507323002.7942841     
 -0.10306297939619470      -0.22221254140782215        1615844210.8635015     
  -5.3248614309095901E-002 -0.14045834092882445        1584922831.2922118     
  -9.7078480785242026E-003  -7.9612667191298503E-002   1557367828.8528028     
   2.7565266918866588E-002  -3.9659164231042265E-002   1533179203.5452714     
   5.8571737203950439E-002  -2.0597946425427751E-002   1512356955.3696220     
  -59381293.352724619        7839518.7012819387        1587195728.0411706     
  -48538299.595462844        15469643.198121123        1556704708.3147902     
  -36544286.345045671        26936499.338808142        1529427277.9049354     
  -23399253.601468604        42240087.123363934        1505363436.8116026     
  -9103201.3647310585        61380406.551786572        1484513185.0347867     
  -119233084.54931325        15537888.240701653        1559559365.7555201     
  -97983633.699916482        30667176.168033756        1530841561.9567246     
  -74432143.857935399        53469927.403977551        1505184559.6590886     
  -48578615.023362845        83946141.948562443        1482588358.8626087     
  -20423047.196208812        122095819.80175191        1463052959.5672994     
  -179555373.69283107        23095108.396034293        1532935124.0065570     
  -148336002.36661220        45592598.769271277        1507333392.2180054     
  -113663572.54838151        79600284.115879625        1484639674.1152580     
  -75538084.238138288        125118164.43586649        1464853969.6983087     
  -33959537.435871899        182146239.72925836        1447976278.9671609     
  -240348160.78327271        30511179.167303100        1507323002.7942841     
  -199595405.59554946        60245911.001836315        1486180199.0986471     
  -154238572.41638905        105327569.47449827        1467792621.2734504     
  -104277661.24577340        165756154.58534223        1452160269.3186984     
  -49712672.083727270        241531666.33428711        1439283143.2343831     
   5.8571737203950439E-002  -2.0597946425427751E-002   1512356955.3696220     
   3.6996230255150482E-002  -2.5751653556813053E-002   1403023483.8531659     
   1.6114948203699235E-002  -2.8595441033378317E-002   1290933827.3689077     
  -4.0617234850218462E-003  -2.9087057853891075E-002   1176087985.9168613     
  -2.3524771874095816E-002  -2.7201318121027586E-002   1058485959.4970053     
  -9103201.3647310585        61380406.551786572        1484513185.0347867     
  -9596928.1059674844        80774585.937049896        1375865111.4880795     
  -8148843.3622023910        106641470.27232072        1265117853.2654970     
  -4758947.1334179789        138981059.55765435        1152271410.3670135     
   572760.58037419617        177793353.79301736        1037325782.7926598     
  -20423047.196208812        122095819.80175191        1463052959.5672994     
  -19533356.965935685        161447321.68478340        1357355730.7220390     
  -14760043.766348928        213744233.46552977        1250216317.4928086     
  -6103107.5974456221        278986555.14399809        1141634719.8796039     
   6437451.5407746285        357174286.72018647        1031610937.8824178     
  -33959537.435871899        182146239.72925836        1447976278.9671609     
  -29809286.542919084        242018207.21740901        1347495341.5550480     
  -19833601.196349293        321308289.55095518        1246229220.0508683     
  -4032481.3961538970        420016486.72991580        1144177914.4546151     
   17594072.857668847        538142798.75430369        1041341424.7663029     
  -49712672.083727270        241531666.33428711        1439283143.2343831     
  -40424716.836922780        322487242.53491527        1346283943.9870989     
  -23369515.652185827        429333638.52864802        1253156560.9396546     
   1452931.4704714417        562070854.31545150        1159900994.0920599     
   34042624.531064272        720698889.89537132        1066517243.4443059     
  -1517357252.5344188       -13526541.004887581        1513974536.0040057     
  -1463667513.3375974       -8342866.8824800253        1499132284.8670397     
  -1410288785.4335160       -4195897.0692064762        1489197440.0426400     
  -1357221068.8221712       -1085631.5650537014        1484170001.5308006     
  -1304464363.5035658        987929.62996631861        1484049969.3315268     
  -1917535811.6751053       -20597697.408936262        1405103880.5523610     
  -1849720719.9637363       -13945281.667463064        1392646093.7235920     
  -1782344004.1128955       -8754118.7944245338        1385807615.9890554     
  -1715405664.1225822       -5024208.7898035049        1384588447.3487456     
  -1648905699.9927976       -2755551.6536115408        1388988587.8026633     
  -2310669641.0345321       -25555434.878608704        1295242573.3542385     
  -2226695188.8610053       -16824075.133790731        1285020658.8379166     
  -2143286477.1157956       -9978516.8166991472        1281129956.1974928     
  -2060443505.7989028       -5018759.9273277521        1283570465.4329560     
  -1978166274.9103265       -1944804.4656819105        1292342186.5443120     
  -2696758740.6127067       -28399753.413904786        1184390614.4096527     
  -2594590920.0294099       -16979247.281459808        1176255980.2100248     
  -2493116204.4422121       -7869091.1360251904        1175164460.6679530     
  -2392334593.8511286       -1069284.9776211977        1181116055.7834358     
  -2292246088.2561502        3420171.1937592030        1194110765.5564749     
  -3075803110.4096222       -29130653.014823079        1072548003.7185960     
  -2953407913.4689379       -14410798.110455751        1066352057.8399059     
  -2831833186.0921555       -2425841.7524160147        1067911129.4004357     
  -2711078928.2792649        6824216.0593107939        1077225218.4001844     
  -2591145140.0302701        13339375.324714899        1094294324.8391542     
  -1304464363.5035658        987929.62996631861        1484049969.3315268     
  -1261938459.5537357       -730374.61633026600        1468773487.5020294     
  -1219578000.3753512       -3000161.4341123700        1458868187.3165989     
  -1177382985.9684148       -5821430.8233901262        1454334068.7752333     
  -1135353416.3329258       -9194182.7841568589        1455171131.8779349     
  -1648905699.9927976       -2755551.6536115408        1388988587.8026633     
  -1593675647.8513753       -4689413.7555597425        1378408504.4914124     
  -1538548898.2944553       -6967617.8058419824        1372279405.3424709     
  -1483525451.3220434       -9590163.8044813871        1370601290.3558371     
  -1428605306.9341269       -12557051.751444757        1373374159.5315123     
  -1978166274.9103265       -1944804.4656819105        1292342186.5443120     
  -1912861210.2394805       -4882965.1219322681        1286531000.9694121     
  -1847597305.9661908       -7958327.1033706665        1284250602.0750601     
  -1782374562.0904593       -11170890.410001993        1285500989.8612595     
  -1717192978.6122828       -14520655.041819334        1290282164.3280089     
  -2292246088.2561502        3420171.1937592030        1194110765.5564749     
  -2219495146.7180448       -1311028.7154425383        1193140976.9360273     
  -2146723223.3905501       -5972289.3266750574        1194781777.5143704     
  -2073930318.2736728       -10563610.639965415        1199033167.2915051     
  -2001116431.3674030       -15084992.655281186        1205895146.2674310     
  -2591145140.0302701        13339375.324714899        1094294324.8391542     
  -2513577457.2870731        6026395.4639095068        1098238432.3912611     
  -2435926650.5675421       -1009504.4757841825        1103872931.6603994     
  -2358192719.8716774       -7768324.4943648577        1111197822.6465714     
  -2280375665.1994791       -14250064.591833353        1120213105.3497803     
  -1135353416.3329258       -9194182.7841568589        1455171131.8779349     
  -1080596013.5345247       -9251922.6050011516        1445449153.9569795     
  -1026005037.0475001       -9864416.7971014977        1441375926.0255957     
  -971580486.87185526       -11031665.360466957        1442951448.0837789     
  -917322363.00758266       -12753668.295072734        1450175720.1315305     
  -1428605306.9341269       -12557051.751444757        1373374159.5315123     
  -1359285508.8825116       -11710733.450699568        1364900812.2105541     
  -1290196489.4671049       -11633677.270636559        1361771928.6052094     
  -1221338248.6878922       -12325883.211230814        1363987508.7154760     
  -1152710786.5448842       -13787351.272501230        1371547552.5413544     
  -1717192978.6122828       -14520655.041819334        1290282164.3280089     
  -1634180174.6616240       -13031095.425740659        1282982369.8947570     
  -1551462501.6719928       -12525305.679753900        1280722752.9031587     
  -1469039959.6433825       -13003285.803840816        1283503313.3532152     
  -1386912548.5758016       -14465035.798022747        1291324051.2449267     
  -2001116431.3674030       -15084992.655281186        1205895146.2674310     
  -1905280010.8718629       -13213008.530125499        1199693827.0095890     
  -1809803073.6621714       -12539302.024459720        1198228398.9194417     
  -1714685619.7383285       -13063873.138292432        1201498861.9969928     
  -1619927649.1003370       -14786721.871628761        1209505216.2422400     
  -2280375665.1994791       -14250064.591833353        1120213105.3497803     
  -2172585017.5132160       -12256472.763828039        1115035183.5550516     
  -2065218205.4376349       -11675666.304751039        1114288866.6540616     
  -1958275228.9727199       -12507645.214564204        1117974154.6468110     
  -1851756088.1184855       -14752409.493318796        1126091047.5333004     
  -917322363.00758266       -12753668.295072734        1450175720.1315305     
  -866536359.29075003       -16003460.794816196        1444293911.9414318     
  -815904470.04554808       -19766968.199990571        1443415563.9440100     
  -765426695.27199304       -24044190.510654777        1447540676.1392663     
  -715103034.97006369       -28835127.726742238        1456669248.5272040     
  -1152710786.5448842       -13787351.272501230        1371547552.5413544     
  -1089348336.6021881       -17357330.140652120        1365792911.4444733     
  -1026103903.9442531       -21320699.958001494        1364782888.7213640     
  -962977488.57107568       -25677460.724550009        1368517484.3720264     
  -899969090.48266065       -30427612.440298587        1376996698.3964593     
  -1386912548.5758016       -14465035.798022747        1291324051.2449267     
  -1311713200.4612651       -18577065.450793147        1285738690.6259501     
  -1236595772.4446061       -22962162.096493840        1284639106.5618374     
  -1161560264.5258362       -27620325.735155344        1288025299.0525928     
  -1086606676.7049513       -32551556.366766274        1295897268.0982118     
  -1619927649.1003370       -14786721.871628761        1209505216.2422400     
  -1533630950.8679764       -19662666.725227714        1204131249.4858592     
  -1447380075.5466166       -24691354.615496695        1202984217.4654350     
  -1361175023.1362681       -29872785.542472124        1206064120.1809719     
  -1275015793.6369298       -35206959.506142080        1213370957.6324654     
  -1851756088.1184855       -14752409.493318796        1126091047.5333004     
  -1755101587.8223162       -20614133.963937521        1120970588.0242026     
  -1658456813.2502761       -26508277.514980733        1119818221.4321527     
  -1561821764.4023716       -32434840.146476984        1122633947.7571590     
  -1465196441.2785990       -38393821.858418465        1129417766.9992197     
  -715103034.97006369       -28835127.726742238        1456669248.5272040     
  -657476705.93882585       -31150304.891834527        1454023435.7840772     
  -599508377.09602380       -32325482.685050070        1457204780.9088943     
  -541198048.44167113       -32360661.106426418        1466213283.9016466     
  -482545719.97576070       -31255840.155947998        1481048944.7623429     
  -899969090.48266065       -30427612.440298587        1376996698.3964593     
  -827764146.28416502       -32289562.588761330        1373776606.4187801     
  -755355973.10798120       -33474082.811596423        1375839085.0825980     
  -682744570.95411491       -33981173.108825624        1383184134.3879156     
  -609929939.82256818       -33810833.480449438        1395811754.3347290     
  -1086606676.7049513       -32551556.366766274        1295897268.0982118     
  -1001379080.8433125       -34427068.549823940        1291940997.5797899     
  -916087026.83786261       -36087720.253519922        1292722710.4764273     
  -830730514.68860221       -37533511.477844507        1298242406.7881248     
  -745309544.39553773       -38764442.222812951        1308500086.5148757     
  -1275015793.6369298       -35206959.506142080        1213370957.6324654     
  -1178321509.6162655       -37562822.775038242        1208516609.2671182     
  -1081701538.2856622       -40166395.010805547        1207855657.0903871     
  -985155879.64513350       -43017676.213486671        1211388101.1022694     
  -888684533.69465947       -46116666.383018702        1219113941.3027709     
  -1465196441.2785990       -38393821.858418465        1129417766.9992197     
  -1358591432.6030259       -41696825.264384747        1123503441.4807537     
  -1252199507.4513946       -45710107.083492696        1121237924.9244683     
  -1146020665.8236966       -50433667.315710366        1122621217.3303592     
  -1040054907.7199392       -55867505.961065233        1127653318.6984243     
  -482545719.97576070       -31255840.155947998        1481048944.7623429     
  -425272210.44957012       -26733686.231576636        1478999939.5234911     
  -365814780.74209434       -14931798.369581193        1482695947.4491992     
  -304173430.85332167        4149823.4300656170        1492136968.5394650     
  -240348160.78327271        30511179.167303100        1507323002.7942841     
  -609929939.82256818       -33810833.480449438        1395811754.3347290     
  -537945561.73610961       -30214184.445749670        1393553179.6127422     
  -463741081.64721572       -19217195.402930215        1397079222.5163314     
  -387316499.55587363       -819866.35194973648        1406389883.0454922     
  -308671815.46209133        24977802.707163498        1421485161.2002337     
  -745309544.39553773       -38764442.222812951        1308500086.5148757     
  -658501142.14589620       -36059351.396908462        1306074154.4344256     
  -569436456.07266533       -25833314.492365181        1309472444.4405768     
  -478115486.17584091       -8086331.5091765821        1318694956.5333185     
  -384538232.45542014        17181597.552664205        1333741690.7126539     
  -888684533.69465947       -46116666.383018702        1219113941.3027709     
  -786938951.67893076       -44269187.085045844        1216562863.9885471     
  -682900904.01845682       -34780155.637922317        1219875613.2219350     
  -576570390.71323287       -17649572.041630775        1229052189.0029321     
  -467947411.76326334        7122563.7038105428        1244092591.3315487     
  -1040054907.7199392       -55867505.961065233        1127653318.6984243     
  -923258990.33520412       -54843691.510141522        1125019308.2750983     
  -804134425.48457253       -46057718.839548379        1128288728.8604031     
  -682681213.16804957       -29509587.949321896        1137461580.4543369     
  -558899353.38561285       -5199298.8393883407        1152537863.0569103     
  -240348160.78327271        30511179.167303100        1507323002.7942841     
  -199595405.59554946        60245911.001836315        1486180199.0986471     
  -154238572.41638905        105327569.47449827        1467792621.2734504     
  -104277661.24577340        165756154.58534223        1452160269.3186984     
  -49712672.083727270        241531666.33428711        1439283143.2343831     
  -308671815.46209133        24977802.707163498        1421485161.2002337     
  -259052380.47670522        55224343.195146278        1404749195.7008905     
  -202978467.60710347        106985809.96384475        1391960417.5631189     
  -140450076.85328954        180262203.01324829        1383118826.7869391     
  -71467208.215276107        275053522.34332526        1378224423.3723309     
  -384538232.45542014        17181597.552664205        1333741690.7126539     
  -322646513.41195226        48961627.972268820        1323571363.2844849     
  -252449916.59151572        108424584.31510267        1318540184.7090406     
  -173948441.99410352        195570466.58119184        1318648154.9863214     
  -87142089.619722545        310399274.77050406        1323895274.1163175     
  -467947411.76326334        7122563.7038105428        1244092591.3315487     
  -390377804.40131676        41457765.333142772        1242646701.8494482     
  -302652919.36963999        109643892.52823994        1247531922.7112119     
  -204772756.66822022        211680945.28914452        1258748253.9168396     
  -96737316.297084540        347568923.61577660        1276295695.4663312     
  -558899353.38561285       -5199298.8393883407        1152537863.0569103     
  -462246253.44479102        32712755.277770489        1161975211.3957672     
  -353587475.94147074        110643734.60326025        1178935631.5696313     
  -232923020.87564886        228593639.13708735        1203419123.5784993     
  -100252888.24733230        386562468.87923002        1235425687.4223704     
  -49712672.083727270        241531666.33428711        1439283143.2343831     
  -40424716.836922780        322487242.53491527        1346283943.9870989     
  -23369515.652185827        429333638.52864802        1253156560.9396546     
   1452931.4704714417        562070854.31545150        1159900994.0920599     
   34042624.531064272        720698889.89537132        1066517243.4443059     
  -71467208.215276107        275053522.34332526        1378224423.3723309     
  -57326416.137626886        376785753.80499333        1296713751.2721443     
  -34215793.087240726        508417421.84245646        1214269601.6279037     
  -2135339.0641137660        669948526.45572245        1130891974.4396095     
   38914945.931740075        861379067.64474046        1046580869.7072638     
  -87142089.619722545        310399274.77050406        1323895274.1163175     
  -70449299.979496121        432217909.71274179        1255276145.0371583     
  -43584094.331725746        587944598.01345658        1184918244.6700606     
  -6546472.6764064133        777579339.67266130        1112821573.0150025     
   40663564.986445963        1001122134.6903185        1038986130.0720214     
  -96737316.297084540        347568923.61577660        1276295695.4663312     
  -79793368.362535328        488783710.25812930        1221971125.2821414     
  -51474419.385643363        667915167.04162979        1165102490.0661209     
  -11780469.366404593        884963293.96628511        1105689789.8182619     
   39288481.695183039        1139928091.0321062        1043733024.5385715     
  -100252888.24733230        386562468.87923002        1235425687.4223704     
  -85358621.286741465        546483155.44118011        1196798692.0071034     
  -57886768.249005079        748329128.92695165        1154822337.8160942     
  -17837329.134098172        992100389.33662903        1109496624.8493595     
   34789696.057950974        1277796936.6701026        1060821553.1069045     
  -3075803110.4096222       -29130653.014823079        1072548003.7185960     
  -2953407913.4689379       -14410798.110455751        1066352057.8399059     
  -2831833186.0921555       -2425841.7524160147        1067911129.4004357     
  -2711078928.2792649        6824216.0593107939        1077225218.4001844     
  -2591145140.0302701        13339375.324714899        1094294324.8391542     
  -3442894508.9413347       -27450700.054868937        986720884.47741902     
  -3304213111.4827800       -11127548.057909489        984102883.93724811     
  -3166285904.9400516        2681634.2196180820        985887720.87331665     
  -3029112889.3131518        13976846.777726889        992075395.28562188     
  -2892694064.6020794        22758089.616402984        1002665907.1741641     
  -3792349943.8544269       -20479958.009330273        899592578.43662071     
  -3646960002.9150858       -5426806.0309078693        900629848.32438433     
  -3502257974.2435126        7333305.0549829006        902717775.72540474     
  -3358243857.8396950        17800375.248339415        905856360.63967896     
  -3214917653.7036405        25974404.549165368        910045603.06720936     
  -4124169415.1488953       -8218426.8782045841        811163085.59621119     
  -3981648587.7658725        2691427.9705524445        815932951.00131774     
  -3839749394.0025406        11529170.753676176        818401293.95670390     
  -3698471833.8588991        18294801.471155405        818568114.46235800     
  -3557815907.3349490        22988320.122998476        816433412.51828396     
  -4438352922.8247433        9333893.3385088444        721432405.95617855     
  -4308278866.0351219        13227153.946477413        730012191.96804953     
  -4178760164.2171249        15269231.315701962        732938275.56720507     
  -4049796817.3707566        15460125.446177006        730210656.75365520     
  -3921388825.4960032        13799836.337918043        721829335.52739763     
  -2591145140.0302701        13339375.324714899        1094294324.8391542     
  -2513577457.2870731        6026395.4639095068        1098238432.3912611     
  -2435926650.5675421       -1009504.4757841825        1103872931.6603994     
  -2358192719.8716774       -7768324.4943648577        1111197822.6465714     
  -2280375665.1994791       -14250064.591833353        1120213105.3497803     
  -2892694064.6020794        22758089.616402984        1002665907.1741641     
  -2809002504.2186179        14450062.814046502        1000153193.8724498     
  -2725394834.4639964        5862400.5822211504        1000890390.1788758     
  -2641871055.3382235       -3004897.0790958405        1004877496.0934452     
  -2558431166.8412881       -12151830.169874549        1012114511.6161604     
  -3214917653.7036405        25974404.549165368        910045603.06720936     
  -3120646450.2767448        18008060.426209569        900881218.53896451     
  -3026626152.0838671        9205365.5231918097        896526261.50997496     
  -2932856759.1250114       -433680.15989255905        896980731.98023534     
  -2839338271.4001708       -10909076.623037815        902244629.94974828     
  -3557815907.3349490        22988320.122998476        816433412.51828396     
  -3448509295.4614501        16700388.300397396        800422506.39080930     
  -3339620603.4271502        9019390.3471350670        790780545.65369833     
  -3231149831.2320409       -54673.736763358116        787507530.30694151     
  -3123096978.8761301       -10521803.951322317        790603460.35055101     
  -3921388825.4960032        13799836.337918043        721829335.52739763     
  -3792591039.7727342        10527046.436616421        698777057.42798328     
  -3664378188.4938393        5304475.0540742874        683653242.61004114     
  -3536750271.6593151       -1867877.8097107410        676457891.07356465     
  -3409707289.2691641       -10990012.154732466        677191002.81856036     
  -2280375665.1994791       -14250064.591833353        1120213105.3497803     
  -2172585017.5132160       -12256472.763828039        1115035183.5550516     
  -2065218205.4376349       -11675666.304751039        1114288866.6540616     
  -1958275228.9727199       -12507645.214564204        1117974154.6468110     
  -1851756088.1184855       -14752409.493318796        1126091047.5333004     
  -2558431166.8412881       -12151830.169874549        1012114511.6161604     
  -2439324526.6975193       -10942555.731542468        1005619187.9401881     
  -2320360689.0886068       -10209289.742728591        1003577865.2738670     
  -2201539654.0145411       -9952032.2034028769        1005990543.6171968     
  -2082861421.4753265       -10170783.113580823        1012857222.9701811     
  -2839338271.4001708       -10909076.623037815        902244629.94974828     
  -2708851649.8962908       -10464922.903597116        894759776.31432569     
  -2578226797.8514338       -9560000.7142455578        891751319.80446815     
  -2447463715.2656097       -8194310.0550025702        893219260.42017436     
  -2316562402.1388111       -6367850.9258458614        899163598.16144919     
  -3123096978.8761301       -10521803.951322317        790603460.35055101     
  -2981166387.1095243       -10823574.279990792        782456948.67746913     
  -2838816531.7261238       -9727799.2193334103        778809230.24586630     
  -2696047412.7259274       -7234478.7693735361        779660305.05573976     
  -2552859030.1089458       -3343612.9301075935        785010173.10709202     
  -3409707289.2691641       -10990012.154732466        677191002.81856036     
  -3256268738.3372283       -12018509.860723615        668710705.02961349     
  -3102129890.7126694       -10712685.257970333        664751596.59806025     
  -2947290746.3955088       -7072538.3465367556        665313677.52389395     
  -2791751305.3857174       -1098069.1263504028        670396947.80712080     
  -1851756088.1184855       -14752409.493318796        1126091047.5333004     
  -1755101587.8223162       -20614133.963937521        1120970588.0242026     
  -1658456813.2502761       -26508277.514980733        1119818221.4321527     
  -1561821764.4023716       -32434840.146476984        1122633947.7571590     
  -1465196441.2785990       -38393821.858418465        1129417766.9992197     
  -2082861421.4753265       -10170783.113580823        1012857222.9701811     
  -1975848263.6911678       -14391977.467979670        1006539198.0629971     
  -1869023899.6475561       -19242484.290863395        1003842694.4334670     
  -1762388329.3444939       -24722303.582252860        1004767712.0815973     
  -1655941552.7819841       -30831435.342142284        1009314251.0073893     
  -2316562402.1388111       -6367850.9258458614        899163598.16144919     
  -2200180791.5506487       -9245576.5692173243        891439095.17035460     
  -2084167042.7194529       -13349508.069137812        886989541.81752336     
  -1968521155.6452169       -18679645.425605774        885814938.10295677     
  -1853243130.3279521       -25235988.638634205        887915284.02665305     
  -2552859030.1089458       -3343612.9301075935        785010173.10709202     
  -2428099171.4007554       -5174931.2676327229        775670279.34627199     
  -2303886242.4659586       -8829348.8497883081        769258763.58432221     
  -2180220243.3045340       -14306865.676528692        765775625.82124090     
  -2057101173.9165084       -21607481.747919321        765220866.05702734     
  -2791751305.3857174       -1098069.1263504028        670396947.80712080     
  -2659603403.2414989       -2180041.5632522106        659232750.59075475     
  -2528181498.8870783       -5682006.6328254938        650650359.73386264     
  -2397485592.3224573       -11603964.335048914        644649775.23644364     
  -2267515683.5476336       -19945914.669948339        641230997.09850061     
  -1465196441.2785990       -38393821.858418465        1129417766.9992197     
  -1358591432.6030259       -41696825.264384747        1123503441.4807537     
  -1252199507.4513946       -45710107.083492696        1121237924.9244683     
  -1146020665.8236966       -50433667.315710366        1122621217.3303592     
  -1040054907.7199392       -55867505.961065233        1127653318.6984243     
  -1655941552.7819841       -30831435.342142284        1009314251.0073893     
  -1539957110.8896687       -34380930.277025342        1000962075.8720993     
  -1423982773.7890761       -37964107.850992203        996232923.06342280     
  -1308018541.4802089       -41580968.064049304        995126792.58135307     
  -1192064413.9630651       -45231510.916165352        997643684.42588711     
  -1853243130.3279521       -25235988.638634205        887915284.02665305     
  -1727952931.3205175       -29054077.932939410        877362067.79546118     
  -1602469858.3725893       -32229254.092260242        870406087.25530958     
  -1476793911.4841719       -34761517.116616488        867047342.40619779     
  -1350925090.6552627       -36650867.006006956        867285833.24812853     
  -2057101173.9165084       -21607481.747919321        765220866.05702734     
  -1922578893.8955736       -25716268.232099891        752703417.25084651     
  -1787660761.2019260       -28505545.807255745        743757417.50013375     
  -1652346775.8355904       -29975314.473437190        738382866.80490041     
  -1516636937.7965384       -30125574.230565369        736579765.16512954     
  -2267515683.5476336       -19945914.669948339        641230997.09850061     
  -2123834998.6148319       -24367501.174540758        626986124.23824310     
  -1979555482.2770965       -26792982.996023178        616286913.79789603     
  -1834677134.5344501       -27222360.134460688        609133365.77744913     
  -1689199955.3868799       -25655632.589836776        605525480.17690754     
  -1040054907.7199392       -55867505.961065233        1127653318.6984243     
  -923258990.33520412       -54843691.510141522        1125019308.2750983     
  -804134425.48457253       -46057718.839548379        1128288728.8604031     
  -682681213.16804957       -29509587.949321896        1137461580.4543369     
  -558899353.38561285       -5199298.8393883407        1152537863.0569103     
  -1192064413.9630651       -45231510.916165352        997643684.42588711     
  -1061724890.8192575       -42369378.236229300        993914592.84644198     
  -929926653.97553122       -34644866.556558132        994276001.25095177     
  -796669703.43189836       -22057975.877194405        998727909.63942480     
  -661954039.18835306       -4608706.1981366873        1007270318.0118564     
  -1350925090.6552627       -36650867.006006956        867285833.24812853     
  -1212221764.6800046       -33504356.975295067        861446737.78556645     
  -1072929658.7708259       -28395247.164849579        857885211.28229332     
  -933048772.92772615       -21323537.574674189        856601253.73830795     
  -792579107.15070975       -12289228.204763293        857594865.15360916     
  -1516636937.7965384       -30125574.230565369        736579765.16512954     
  -1374749611.9174695       -28248627.727394640        727615743.09247231     
  -1233143439.8704634       -27308860.664443493        719116358.95443189     
  -1091818421.6555405       -27306273.041759789        711081612.75100410     
  -950774557.27267134       -28240864.859264791        703511504.48219109     
  -1689199955.3868799       -25655632.589836776        605525480.17690754     
  -1549308432.5316296       -26602190.492492735        592421608.76716685     
  -1410567997.2744501       -31385707.055360377        577969444.26736224     
  -1272978649.6153190       -40006182.278400838        562168986.67750382     
  -1136540389.5542550       -52463616.161666155        545020235.99758935     
  -558899353.38561285       -5199298.8393883407        1152537863.0569103     
  -462246253.44479102        32712755.277770489        1161975211.3957672     
  -353587475.94147074        110643734.60326025        1178935631.5696313     
  -232923020.87564886        228593639.13708735        1203419123.5784993     
  -100252888.24733230        386562468.87923002        1235425687.4223704     
  -661954039.18835306       -4608706.1981366873        1007270318.0118564     
  -546918819.15471423        25645114.289016873        1020836692.5974612     
  -421006916.73016846        92154542.745849460        1042787372.4110090     
  -284218331.91472721        194919579.17234057        1073122357.4524890     
  -136553064.70838243        333940223.56850713        1111841647.7219083     
  -792579107.15070975       -12289228.204763293        857594865.15360916     
  -656701100.18730021        11044558.703464448        873973104.95244324     
  -511075406.00459003        66870636.342700720        899596883.37214315     
  -355702024.60256916        155189004.71296448        934466200.41271222     
  -190580955.98124745        275999663.81422973        978581056.07414567     
  -950774557.27267134       -28240864.859264791        703511504.48219109     
  -791593096.54255819       -11088911.478906274        721384448.46071577     
  -623792943.76471901        34792015.393856764        749364164.45304358     
  -447374098.93918663        109401915.75893587        787450652.45916319     
  -262336562.06593522        212740789.61641723        835643912.47909248     
  -1136540389.5542550       -52463616.161666155        545020235.99758935     
  -951594808.22046447       -40755296.258038163        563070723.12227798     
  -759159530.01056981       -4081320.1007187068        592089215.65370119     
  -559234554.92455626        57558312.310324490        632075713.59185255     
  -351819882.96243477        144163600.97506112        683030216.93673849     
  -100252888.24733230        386562468.87923002        1235425687.4223704     
  -85358621.286741465        546483155.44118011        1196798692.0071034     
  -57886768.249005079        748329128.92695165        1154822337.8160942     
  -17837329.134098172        992100389.33662903        1109496624.8493595     
   34789696.057950974        1277796936.6701026        1060821553.1069045     
  -136553064.70838243        333940223.56850713        1111841647.7219083     
  -127403494.60667691        482986105.19581759        1090235232.0167670     
  -95121851.052441448        709138898.33158040        1070068747.8731302     
  -39708134.045655549        1012398602.9758352        1051342195.2909992     
   38837656.413657844        1392765219.1285152        1034055574.2703701     
  -190580955.98124745        275999663.81422973        978581056.07414567     
  -173492396.06062424        418275846.51025820        986308788.68375659     
  -122717275.31207943        672840565.29934800        1000265743.1920993     
  -38255593.735613763        1039693820.1815244        1020451919.5991771     
   79892648.668781042        1518835611.1567523        1046867317.9049870     
  -262336562.06593522        212740789.61641723        835643912.47909248     
  -223625325.64857849        352352379.38449335        885019362.00805891     
  -140673041.02791974        639434129.83024871        945413323.77300394     
  -13479708.203954816        1073986040.9536967        1016825797.7739053     
   157954672.82331187        1656008112.7548118        1099256784.0107789     
  -351819882.96243477        144163600.97506112        683030216.93673849     
  -277802283.37053716        285215703.81855381        786366951.98968613     
  -148989148.19996816        608919591.92429018        905511489.61583662     
   34619522.549300253        1115275265.2923660        1040463829.8151785     
   273023728.87725085        1804282723.9226937        1191223972.5877209     
  -4438352922.8247433        9333893.3385088444        721432405.95617855     
  -4308278866.0351219        13227153.946477413        730012191.96804953     
  -4178760164.2171249        15269231.315701962        732938275.56720507     
  -4049796817.3707566        15460125.446177006        730210656.75365520     
  -3921388825.4960032        13799836.337918043        721829335.52739763     
  -4785695041.1402264        37840011.166943789        549634909.13620102     
  -4662219001.0624237        11377877.676156521        531987931.02683002     
  -4535853268.2768450       -5451946.7887041569        521924348.80540669     
  -4406597842.7834902       -12649462.227640629        519444162.47192311     
  -4274452724.5823555       -10214668.640655518        524547372.02638984     
  -5230771474.5537758        37025834.465955257        364913959.21405929     
  -5076073170.3287802       -8445608.8658816814        325059439.27608192     
  -4915040125.7166042       -32801250.907123566        306025413.52670276     
  -4747672340.7172537       -36041091.657778978        307811881.96592790     
  -4573969815.3307257       -18165131.117830992        330418844.59375376     
  -5773582223.0653934        6891363.2355530262        167269556.18974733     
  -5549841373.8341913       -46243305.679636240        109226716.71579473     
  -5316320736.5364084       -66778681.039561033        85241469.731105670     
  -5073020311.1720428       -54714762.844214201        95313815.235668838     
  -4819940097.7411013       -10051551.093610287        139443753.22948688     
  -6414127286.6750841       -52563402.524277449       -43298299.936733730     
  -6083523611.5786533       -102015212.76509881       -115510236.65401633     
  -5739695100.7362452       -107384237.18599629       -140427482.58139026     
  -5382641754.1478577       -68670475.786959887       -118050037.71885821     
  -5012363571.8134871        14126071.432014227       -48377902.066408195     
  -3921388825.4960032        13799836.337918043        721829335.52739763     
  -3792591039.7727342        10527046.436616421        698777057.42798328     
  -3664378188.4938393        5304475.0540742874        683653242.61004114     
  -3536750271.6593151       -1867877.8097107410        676457891.07356465     
  -3409707289.2691641       -10990012.154732466        677191002.81856036     
  -4274452724.5823555       -10214668.640655518        524547372.02638984     
  -4127676433.8028665       -1475361.7809395790        516546546.77394599     
  -3982527091.8855243        1840782.2049655914        511674855.18458092     
  -3839004698.8303123       -266236.68291306496        509932297.25829279     
  -3697109254.6372476       -7796418.4446034431        511318872.99508595     
  -4573969815.3307257       -18165131.117830992        330418844.59375376     
  -4422927389.8332739       -1527438.5985717773        336253788.70088100     
  -4274553927.6157351        6213709.6543087959        340418536.85269725     
  -4128849428.6781020        5058313.6408433914        342913089.04920506     
  -3985813893.0203753       -4993626.6389842033        343737445.29040426     
  -4819940097.7411013       -10051551.093610287        139443753.22948688     
  -4678343907.8639469        10370815.983706713        157898783.20879203     
  -4540458695.6844683        18423257.402108431        169884287.61440364     
  -4406284461.2026691        14105773.161572933        175400266.44630364     
  -4275821204.4185486       -2581636.7378804684        174446719.70450893     
  -5012363571.8134871        14126071.432014227       -48377902.066408195     
  -4893925987.8948927        34219401.965906382       -18518469.702322181     
  -4780241396.0917368        38469425.448312759        72107.469673437634     
  -4671309796.4040194        26876141.879258633        7393829.4495777013     
  -4567131188.8317556       -560448.74128675461        3446696.2373986146     
  -3409707289.2691641       -10990012.154732466        677191002.81856036     
  -3256268738.3372283       -12018509.860723615        668710705.02961349     
  -3102129890.7126694       -10712685.257970333        664751596.59806025     
  -2947290746.3955088       -7072538.3465367556        665313677.52389395     
  -2791751305.3857174       -1098069.1263504028        670396947.80712080     
  -3697109254.6372476       -7796418.4446034431        511318872.99508595     
  -3532023660.6466227       -9775495.3467431068        503267578.17650491     
  -3366238111.2530270       -9421387.5723071098        499873722.32171583     
  -3199752606.4564519       -6734095.1212732792        501137305.43071175     
  -3032567146.2568974       -1713617.9936553240        507058327.50350249     
  -3985813893.0203753       -4993626.6389842033        343737445.29040426     
  -3808691971.3813558       -7806497.3603849411        336114755.27094352     
  -3630870435.6289935       -8287321.0373132229        333285753.82166708     
  -3452349285.7632990       -6436097.6697912216        335250440.94258487     
  -3273128521.7842650       -2252827.2578148842        342008816.63369268     
  -4275821204.4185486       -2581636.7378804684        174446719.70450893     
  -4086273670.5414104       -6111515.9016044140        167252236.31291756     
  -3896026863.8405843       -7310485.6530199051        164987691.09792152     
  -3705080784.3160486       -6178545.9920783043        167653084.05951214     
  -3513435431.9678173       -2715696.9188172817        175248415.19769192     
  -4567131188.8317556       -560448.74128675461        3446696.2373986146     
  -4364768758.1267958       -4690550.9704337120       -3319978.6975618000     
  -4161707395.8877835       -6490881.4194025993       -5020465.8495331183     
  -3957947102.1146979       -5961440.0881299973       -1654765.2185142199     
  -3753487876.8075624       -3102226.9766907692        6777123.1954953764     
  -2791751305.3857174       -1098069.1263504028        670396947.80712080     
  -2659603403.2414989       -2180041.5632522106        659232750.59075475     
  -2528181498.8870783       -5682006.6328254938        650650359.73386264     
  -2397485592.3224573       -11603964.335048914        644649775.23644364     
  -2267515683.5476336       -19945914.669948339        641230997.09850061     
  -3032567146.2568974       -1713617.9936553240        507058327.50350249     
  -2892941774.0112200       -4297487.4459716082        495874088.08129907     
  -2753578766.0874958       -7755904.6381329298        488206533.99661297     
  -2614478122.4857187       -12088869.570124865        484055665.24943835     
  -2475639843.2058988       -17296382.241969466        483421481.83977842     
  -3273128521.7842650       -2252827.2578148842        342008816.63369268     
  -3123354596.6427321       -5537268.8872348070        331345440.71814847     
  -2973379402.3553028       -8150813.3636645079        325133629.11815214     
  -2823202938.9219790       -10093460.687107086        323373381.83371192     
  -2672825206.3427601       -11365210.857569575        326064698.86481905     
  -3513435431.9678173       -2715696.9188172817        175248415.19769192     
  -3350841871.1360354       -5899385.8870253563        165646808.50129005     
  -3187583407.6905065       -6866732.8094112873        161431645.09848142     
  -3023660041.6312380       -5617737.6860059500        162602924.98926255     
  -2859071772.9582176       -2152400.5167483091        169160648.17362908     
  -3753487876.8075624       -3102226.9766907692        6777123.1954953764     
  -3575403597.4911346       -5383838.4453547001       -1221808.5692721887     
  -3396190782.0931048       -3903662.9753766060       -2899418.0624005203     
  -3215849430.6134825        1338299.4332532883        1744294.7161006136     
  -3034379543.0522766        10342048.780505776        12709329.766218243     
  -2267515683.5476336       -19945914.669948339        641230997.09850061     
  -2123834998.6148319       -24367501.174540758        626986124.23824310     
  -1979555482.2770965       -26792982.996023178        616286913.79789603     
  -1834677134.5344501       -27222360.134460688        609133365.77744913     
  -1689199955.3868799       -25655632.589836776        605525480.17690754     
  -2475639843.2058988       -17296382.241969466        483421481.83977842     
  -2323145084.9749584       -18529552.545600057        472936869.17793119     
  -2170468798.4553213       -19157628.553604245        464950862.12530392     
  -2017610983.6470194       -19180610.266046286        459463460.68188792     
  -1864571640.5500255       -18598497.682843924        456474664.84768492     
  -2672825206.3427601       -11365210.857569575        326064698.86481905     
  -2514507965.7013655       -10307442.226556778        318853492.76577723     
  -2356426499.8875241       -10035589.687384605        313093835.46525943     
  -2198580808.9012537       -10549653.240107656        308785726.96325797     
  -2040970892.7425373       -11849632.884687543        305929167.25978369     
  -2859071772.9582176       -2152400.5167483091        169160648.17362908     
  -2697923640.7940617        298829.78261303902        164735995.00178105     
  -2537428586.5737138        573133.60261845589        160715833.81775999     
  -2377586610.2971535       -1329489.0566672087        157100164.62157729     
  -2218397711.9643927       -5409038.1952874660        153888987.41320756     
  -3034379543.0522766        10342048.780505776        12709329.766218243     
  -2873392110.2530575        13289263.481873155        10584375.885937994     
  -2713475058.5138655        12668541.316469669        7816857.1828029621     
  -2554628387.8347201        8479882.2842575312        4406773.6568049807     
  -2396852098.2156096        723286.38525056839        354125.30795189476     
  -1689199955.3868799       -25655632.589836776        605525480.17690754     
  -1549308432.5316296       -26602190.492492735        592421608.76716685     
  -1410567997.2744501       -31385707.055360377        577969444.26736224     
  -1272978649.6153190       -40006182.278400838        562168986.67750382     
  -1136540389.5542550       -52463616.161666155        545020235.99758935     
  -1864571640.5500255       -18598497.682843924        456474664.84768492     
  -1727858854.1384499       -22654639.280810237        442818175.52714831     
  -1591156356.7906380       -26745077.758000612        428782393.65430272     
  -1454464148.5065770       -30869813.114358783        414367319.22914618     
  -1317782229.2862811       -35028845.349915206        399572952.25168705     
  -2040970892.7425373       -11849632.884687543        305929167.25978369     
  -1904668269.8096337       -18184786.288472056        293050991.65180731     
  -1767235137.4061842       -20751574.790435910        280762524.02926654     
  -1628671495.5321972       -19549998.390612125        269063764.39216822     
  -1488977344.1876750       -14580057.088984728        257954712.74050292     
  -2218397711.9643927       -5409038.1952874660        153888987.41320756     
  -2079736679.5451727       -13192631.515416026        143120057.14113748     
  -1938804339.1210890       -13405198.152678132        133909835.39224719     
  -1795600690.6921735       -6046738.1071588993        126258322.16655339     
  -1650125734.2584183        8882748.6211559772        120165517.46404758     
  -2396852098.2156096        723286.38525056839        354125.30795189476     
  -2253064083.3450599       -7678174.9616712332       -6974628.0048717996     
  -2105863961.9353621       -4705947.8447543383       -11775672.256745549     
  -1955251733.9865286        9639967.7359414101       -14049007.447683288     
  -1801227399.4985485        35359571.780460596       -13794633.577690618     
  -1136540389.5542550       -52463616.161666155        545020235.99758935     
  -951594808.22046447       -40755296.258038163        563070723.12227798     
  -759159530.01056981       -4081320.1007187068        592089215.65370119     
  -559234554.92455626        57558312.310324490        632075713.59185255     
  -351819882.96243477        144163600.97506112        683030216.93673849     
  -1317782229.2862811       -35028845.349915206        399572952.25168705     
  -1117979290.6393797       -14827580.155852318        421367343.04617506     
  -914589804.72983098        17328842.580357671        441662554.37699211     
  -707613771.55763423        61440422.858732104        460458586.24414140     
  -497051191.12278932        117507160.67926955        477755438.64761591     
  -1488977344.1876750       -14580057.088984728        257954712.74050292     
  -1309937576.4288015        3427994.9351816177        278939332.65574700     
  -1131214411.0207512        20380705.789950609        285957588.23690826     
  -952807847.96352541        36278075.475309253        279009479.48401111     
  -774717887.25711608        51120103.991279721        258095006.39703724     
  -1650125734.2584183        8882748.6211559772        120165517.46404758     
  -1527469665.5887427        14011429.015052915        135786691.95099050     
  -1409033348.8833385        5074269.5280295610        124974317.23346578     
  -1294816784.1422193       -17928729.839941204        87728393.311465144     
  -1184819971.3653977       -54997569.088893235        24048920.184990402     
  -1801227399.4985485        35359571.780460596       -13794633.577690618     
  -1770575558.1191900        16922722.083799124       -8090579.0680780169     
  -1748046618.3175747       -28590466.205339313       -41287258.633352876     
  -1733640580.0937328       -101179993.08706254       -113384672.27349053     
  -1727357443.4476390       -200845858.56126755       -224382819.98851117     
  -351819882.96243477        144163600.97506112        683030216.93673849     
  -277802283.37053716        285215703.81855381        786366951.98968613     
  -148989148.19996816        608919591.92429018        905511489.61583662     
   34619522.549300253        1115275265.2923660        1040463829.8151785     
   273023728.87725085        1804282723.9226937        1191223972.5877209     
  -497051191.12278932        117507160.67926955        477755438.64761591     
  -388244301.25182933        223030235.21883354        597046603.90228736     
  -230287885.75019333        492385061.86064219        735489965.63779271     
  -23181944.617879450        925571640.60469961        893085523.85413051     
   233073522.14510554        1522589971.4509799        1069833278.5513123     
  -774717887.25711608        51120103.991279721        258095006.39703724     
  -621566295.94239497        123980773.57638457        386753590.24741453     
  -424911188.94503534        341853162.10360754        537908764.48626745     
  -184752566.26501030        704737269.57305384        711560529.11357987     
   98909572.097668290        1212633095.9846790        907708884.12937164     
  -1184819971.3653977       -54997569.088893235        24048920.184990402     
  -977768267.44227040       -11932681.108944058        155487911.02505869     
  -732859057.78449142        157323892.65318951        312767886.16122621     
  -450092342.39207983        452772152.19743693        495888845.59350580     
  -129468121.26503152        874412097.52378535        704850789.32188475     
  -1727357443.4476390       -200845858.56126755       -224382819.98851117     
  -1456850215.7514071       -184710128.83695775       -96750433.764771253     
  -1154131492.2685676       -61202746.490611196        60067330.662698902     
  -819201272.99910283        169676288.47784132        246070473.29390541     
  -452059557.94300902        507926976.06833535        461258994.12887353     
 </DataArray>
 <DataArray  type="Float64" Name="VM" NumberOfComponents="1" format="ascii">
   6388448094.9818544     
   6036479398.0084934     
   5691962640.3934374     
   5352543981.0893373     
   5020140882.2619286     
   5784291362.4760866     
   5530101962.9947004     
   5285310588.5584335     
   5048585381.5035896     
   4820975984.4479952     
   5287296458.1443844     
   5103010121.6543217     
   4927314855.7954407     
   4759708535.8485727     
   4600649188.7334270     
   4898132038.1473112     
   4757992927.7049160     
   4622389151.7226171     
   4491323934.4587717     
   4364955690.6759529     
   4615396702.9243069     
   4496352143.7258062     
   4374662548.1160460     
   4250097271.4110050     
   4122463836.4050879     
   5020140882.2619286     
   4911229850.0847387     
   4799591745.8417635     
   4684823198.1130438     
   4566854899.1852341     
   4820975984.4479952     
   4691516135.0666113     
   4559203514.2142534     
   4423798320.7616367     
   4285196616.6796150     
   4600649188.7334270     
   4460351235.3453026     
   4318108972.5682869     
   4173856298.2781692     
   4027567502.7721691     
   4364955690.6759529     
   4222805481.0740981     
   4080844261.1392875     
   3939165892.4491782     
   3797919747.2411380     
   4122463836.4050879     
   3986057017.4911466     
   3853476162.2352233     
   3724887327.5542030     
   3600627004.8388333     
   4566854899.1852341     
   4362429169.2737169     
   4158474850.0192752     
   3954970792.4564595     
   3751956087.8801889     
   4285196616.6796150     
   4093484640.3218274     
   3902852771.1041651     
   3713366728.0318942     
   3525170988.5950885     
   4027567502.7721691     
   3849075517.4388757     
   3672388432.9026852     
   3497672930.6878948     
   3325193480.4309740     
   3797919747.2411380     
   3633262197.5830550     
   3471246802.9669390     
   3312148916.0498466     
   3156357742.6280608     
   3600627004.8388333     
   3450480700.8157930     
   3303903226.6025758     
   3161274236.2007642     
   3023095633.5358701     
   3751956087.8801889     
   3572715347.1972513     
   3394244348.4168100     
   3216520206.5752811     
   3039643472.4723887     
   3525170988.5950885     
   3360167365.7946076     
   3196408510.7922020     
   3033955273.3058434     
   2872975484.0363870     
   3325193480.4309740     
   3172924382.0966258     
   3022242820.1155281     
   2873289377.1706166     
   2726298054.5547576     
   3156357742.6280608     
   3015687569.1851673     
   2876792750.0877571     
   2739884223.3633914     
   2605256448.2177134     
   3023095633.5358701     
   2893347613.6922994     
   2765394454.8680305     
   2639502124.5348034     
   2516014527.5681882     
   3039643472.4723887     
   2880118082.3884859     
   2719865155.2654018     
   2558890250.8722100     
   2397213902.5070491     
   2872975484.0363870     
   2713118522.7422647     
   2552936971.6480770     
   2392446502.5724702     
   2231672855.3498187     
   2726298054.5547576     
   2569424264.3844585     
   2413147670.5246992     
   2257591743.3428702     
   2102925536.6911492     
   2605256448.2177134     
   2454650164.6752896     
   2306135012.1665978     
   2160033097.6256886     
   2016780215.6239054     
   2516014527.5681882     
   2374626521.5522971     
   2237352956.4566674     
   2104748767.7469666     
   1977549122.6407049     
   2397213902.5070491     
   2249267266.6220870     
   2103613816.0361388     
   1960240536.3163564     
   1819321837.6511786     
   2231672855.3498187     
   2087939548.1990473     
   1946008078.5785947     
   1805874959.2864888     
   1667624282.8022320     
   2102925536.6911492     
   1962420080.5748239     
   1823008648.5543277     
   1684725035.7386620     
   1547636467.6437478     
   2016780215.6239054     
   1880193938.2915878     
   1743990044.4379568     
   1608297452.0638835     
   1473293000.7289450     
   1977549122.6407049     
   1847360113.1371925     
   1717137589.2468684     
   1587214550.7687788     
   1458077721.4587853     
   1819321837.6511786     
   1779152471.2282395     
   1735402212.7480960     
   1696733792.3118889     
   1681729216.5041676     
   1667624282.8022320     
   1552441950.3415296     
   1428077827.4812400     
   1294892403.4940946     
   1159049580.8275187     
   1547636467.6437478     
   1397805465.1349735     
   1244359912.4511042     
   1085017879.0763257     
   917738430.04053676     
   1473293000.7289450     
   1328974016.6743681     
   1199091747.1914015     
   1088133536.6570168     
   1002010813.9327953     
   1458077721.4587853     
   1348909582.7014587     
   1274735421.1383770     
   1243705739.7581015     
   1262881952.9525869     
   1681729216.5041676     
   1384022157.0831215     
   1129581122.8903003     
   1010213756.3337476     
   1153360516.0683808     
   1159049580.8275187     
   1008481654.9268243     
   985190690.88709116     
   1161504308.4568818     
   1544348052.6450706     
   917738430.04053676     
   963074857.68088067     
   1144861499.6093302     
   1476463785.1121156     
   1957582019.5342977     
   1002010813.9327953     
   1164671749.0117824     
   1425377964.9968839     
   1808723879.9076753     
   2334814299.2727904     
   1262881952.9525869     
   1446677099.3787420     
   1715679579.8316560     
   2110479110.3040259     
   2663533323.5519962     
   4615396702.9243069     
   4496352143.7258062     
   4374662548.1160460     
   4250097271.4110050     
   4122463836.4050879     
   4353033906.8183355     
   4226285525.2237110     
   4098465545.7937889     
   3969490250.5065470     
   3839278744.9483633     
   4090534306.7125397     
   3964083475.7139544     
   3838781836.4360957     
   3714784502.9094677     
   3592272925.9300809     
   3831529746.7844906     
   3713025109.0569110     
   3598581388.5529852     
   3488652797.4476027     
   3383791635.6545262     
   3580906325.0247526     
   3477295579.6772466     
   3381378066.3984609     
   3293894170.1174293     
   3215776036.0435214     
   4122463836.4050879     
   3986057017.4911466     
   3853476162.2352233     
   3724887327.5542030     
   3600627004.8388333     
   3839278744.9483633     
   3724528868.2226348     
   3613761210.7469883     
   3507229235.2919216     
   3405311487.3947663     
   3592272925.9300809     
   3497101122.8558326     
   3405831736.1901026     
   3318749814.2914524     
   3236220383.9928727     
   3383791635.6545262     
   3306389777.6535907     
   3232511939.0043354     
   3162418296.6876841     
   3096410085.3599410     
   3215776036.0435214     
   3154621799.8895335     
   3096269838.0811629     
   3040903784.0597777     
   2988720950.3866968     
   3600627004.8388333     
   3450480700.8157930     
   3303903226.6025758     
   3161274236.2007642     
   3023095633.5358701     
   3405311487.3947663     
   3269850137.9226232     
   3138628671.0408120     
   3012113884.3770509     
   2890897358.2377443     
   3236220383.9928727     
   3116315775.1275177     
   3001392709.8871803     
   2891991084.6998868     
   2788769603.6667190     
   3096410085.3599410     
   2992915180.2580957     
   2895167404.3561578     
   2803750524.2162914     
   2719351036.7600050     
   2988720950.3866968     
   2902336646.5438008     
   2822422500.7996922     
   2749564240.8393488     
   2684426103.5013905     
   3023095633.5358701     
   2893347613.6922994     
   2765394454.8680305     
   2639502124.5348034     
   2516014527.5681882     
   2890897358.2377443     
   2772745976.8454118     
   2657612665.9279728     
   2545900585.3962584     
   2438108335.2292686     
   2788769603.6667190     
   2684125560.1436806     
   2583865165.5276284     
   2488505071.4952779     
   2398657785.5299926     
   2719351036.7600050     
   2629659784.6486554     
   2545732978.5198197     
   2468142614.7304597     
   2397537007.9761043     
   2684426103.5013905     
   2610431341.5181432     
   2543461693.9127507     
   2484069791.6462245     
   2432852989.2524257     
   2516014527.5681882     
   2374626521.5522971     
   2237352956.4566674     
   2104748767.7469666     
   1977549122.6407049     
   2438108335.2292686     
   2312404953.4892831     
   2192056249.5238838     
   2077798485.4817567     
   1970546839.6612151     
   2398657785.5299926     
   2290361101.8475380     
   2188634786.3792782     
   2094303297.9828761     
   2008328524.7480962     
   2397537007.9761043     
   2307700157.0349412     
   2225432111.4676976     
   2151530804.5151119     
   2086869269.4356146     
   2432852989.2524257     
   2361702837.8861074     
   2298777564.9768906     
   2244759249.2270899     
   2200349094.7914972     
   1977549122.6407049     
   1847360113.1371925     
   1717137589.2468684     
   1587214550.7687788     
   1458077721.4587853     
   1970546839.6612151     
   1854770525.2385728     
   1743300831.4553757     
   1637043306.2587593     
   1537109111.1509361     
   2008328524.7480962     
   1912135164.1100178     
   1824669654.4402401     
   1747122184.8954804     
   1680773434.4884245     
   2086869269.4356146     
   2011881939.7508352     
   1949230864.7613871     
   1899991726.7368977     
   1865190102.3951375     
   2200349094.7914972     
   2145177241.0142286     
   2104952079.6199281     
   2080441143.9913476     
   2072322419.6917946     
   1458077721.4587853     
   1348909582.7014587     
   1274735421.1383770     
   1243705739.7581015     
   1262881952.9525869     
   1537109111.1509361     
   1476194856.9592602     
   1447988635.1228411     
   1456465426.0426352     
   1504922273.1859236     
   1680773434.4884245     
   1652306949.4240398     
   1651565726.1180382     
   1680919343.6233604     
   1742974424.6815929     
   1865190102.3951375     
   1854757752.4854996     
   1867285060.0178034     
   1904979843.0067463     
   1970872629.6520786     
   2072322419.6917946     
   2068918134.3184590     
   2084719656.8333495     
   2122358515.2460377     
   2185649806.2189488     
   1262881952.9525869     
   1446677099.3787420     
   1715679579.8316560     
   2110479110.3040259     
   2663533323.5519962     
   1504922273.1859236     
   1613298860.9237058     
   1788864196.3057318     
   2066375775.6450074     
   2476052253.0736260     
   1742974424.6815929     
   1787746361.7930756     
   1884658533.5010180     
   2060623011.4032145     
   2340874664.0580883     
   1970872629.6520786     
   1968979413.1336191     
   2003627241.7370975     
   2093487368.3207269     
   2257216067.1729093     
   2185649806.2189488     
   2156283448.3603177     
   2146511032.7404118     
   2166847030.9428797     
   2228351020.2849650     
   3580906325.0247526     
   3477295579.6772466     
   3381378066.3984609     
   3293894170.1174293     
   3215776036.0435214     
   3377139213.0432048     
   3292243873.4710107     
   3215447987.3276005     
   3147350152.6390815     
   3088680171.6816964     
   3211503676.7940812     
   3142423561.5255656     
   3081602018.5002079     
   3029483597.8921647     
   2986593936.8356647     
   3092057657.0474896     
   3035499122.5911570     
   2987074095.1169491     
   2947079656.2200370     
   2915856947.7648425     
   3026282681.7113175     
   2978652890.1220932     
   2938731225.0824332     
   2906691985.1386852     
   2882729570.3620582     
   3215776036.0435214     
   3154621799.8895335     
   3096269838.0811629     
   3040903784.0597777     
   2988720950.3866968     
   3088680171.6816964     
   3032162054.6485977     
   2979621764.5247073     
   2931285031.6961355     
   2887396229.5522165     
   2986593936.8356647     
   2935167354.4750814     
   2889095728.4994411     
   2848615716.6048875     
   2813985069.2427654     
   2915856947.7648425     
   2869212537.8704815     
   2829472295.9348183     
   2796847533.9899015     
   2771570213.3484302     
   2882729570.3620582     
   2839622174.4275727     
   2805104215.1512203     
   2779329636.6961927     
   2762470326.1549430     
   2988720950.3866968     
   2902336646.5438008     
   2822422500.7996922     
   2749564240.8393488     
   2684426103.5013905     
   2887396229.5522165     
   2814762482.6029973     
   2749564437.8613830     
   2692343872.9484787     
   2643698054.3432412     
   2813985069.2427654     
   2754550916.8823366     
   2703426071.1077919     
   2661068843.0630522     
   2627970188.5005937     
   2771570213.3484302     
   2724103276.5214825     
   2685703060.2682152     
   2656718036.0302267     
   2637511604.8207693     
   2762470326.1549430     
   2725022109.0930748     
   2697286851.3441105     
   2679495999.6009102     
   2671885585.8135529     
   2684426103.5013905     
   2610431341.5181432     
   2543461693.9127507     
   2484069791.6462245     
   2432852989.2524257     
   2643698054.3432412     
   2583031440.1009192     
   2530077871.7520494     
   2485316822.2429953     
   2449249395.3775663     
   2627970188.5005937     
   2579911000.1758809     
   2540116992.8204670     
   2508969898.8648009     
   2486855867.7370663     
   2637511604.8207693     
   2600815969.5504193     
   2572812375.8760071     
   2553777291.7549043     
   2543982310.8443112     
   2671885585.8135529     
   2644849425.3502979     
   2626843796.2726569     
   2618047763.5065632     
   2618633156.6849017     
   2432852989.2524257     
   2361702837.8861074     
   2298777564.9768906     
   2244759249.2270899     
   2200349094.7914972     
   2449249395.3775663     
   2393142000.9163523     
   2346271374.6950092     
   2309196159.3437309     
   2282459240.7334547     
   2486855867.7370663     
   2444750570.4355311     
   2412644665.5634880     
   2390949969.2307501     
   2380045150.6422849     
   2543982310.8443112     
   2514218454.2118297     
   2495034642.4281707     
   2486702525.7181001     
   2489459142.7559037     
   2618633156.6849017     
   2599099421.3625927     
   2590639524.0747547     
   2593409568.2156358     
   2607539617.1531916     
   2200349094.7914972     
   2145177241.0142286     
   2104952079.6199281     
   2080441143.9913476     
   2072322419.6917946     
   2282459240.7334547     
   2241979289.1968737     
   2215423534.8951983     
   2203242281.5128837     
   2205823570.0445690     
   2380045150.6422849     
   2351311973.5646062     
   2335459067.0638199     
   2332737184.1662393     
   2343367775.5475512     
   2489459142.7559037     
   2469821072.4245505     
   2462113796.9227209     
   2466474144.0006614     
   2483036913.2364898     
   2607539617.1531916     
   2594710872.1844234     
   2593018117.1171432     
   2602540904.5465050     
   2623375569.4306979     
   2072322419.6917946     
   2068918134.3184590     
   2084719656.8333495     
   2122358515.2460377     
   2185649806.2189488     
   2205823570.0445690     
   2191531483.5949535     
   2192216301.0860701     
   2209848115.8255739     
   2247348939.6811194     
   2343367775.5475512     
   2319012456.1891432     
   2306188041.6198988     
   2306300916.0296822     
   2321440584.0629268     
   2483036913.2364898     
   2450392778.3961010     
   2426318909.1171317     
   2411761097.7472010     
   2408096134.4339309     
   2623375569.4306979     
   2584896023.7627187     
   2552327279.9678683     
   2526250569.5564861     
   2507473624.7903671     
   2185649806.2189488     
   2156283448.3603177     
   2146511032.7404118     
   2166847030.9428797     
   2228351020.2849650     
   2247348939.6811194     
   2182640256.3633132     
   2134369290.5908480     
   2112196446.3289101     
   2127047125.2201355     
   2321440584.0629268     
   2224720089.2031236     
   2141330706.8204441     
   2079634210.0615227     
   2049796671.4707308     
   2408096134.4339309     
   2282816956.5730739     
   2168042180.5864916     
   2070511079.0438745     
   1998990320.5613439     
   2507473624.7903671     
   2357140218.1607943     
   2214974249.3107891     
   2085957826.5067008     
   1976969499.0032494     
   3026282681.7113175     
   2978652890.1220932     
   2938731225.0824332     
   2906691985.1386852     
   2882729570.3620582     
   2821352469.6349487     
   2790203546.4349718     
   2767256212.2260628     
   2752636971.9879489     
   2746481170.9485092     
   2660917523.9982443     
   2644866833.9350877     
   2637365520.3904142     
   2638481588.8659849     
   2648284891.0154643     
   2548604005.2233901     
   2545340480.5914059     
   2550830627.6418304     
   2565093716.4187694     
   2588148807.2811365     
   2486189920.2720337     
   2492483127.5245619     
   2507641818.1136231     
   2531665992.0392208     
   2564555649.3013463     
   2882729570.3620582     
   2839622174.4275727     
   2805104215.1512203     
   2779329636.6961927     
   2762470326.1549430     
   2746481170.9485092     
   2718445093.3311863     
   2698322475.4045405     
   2686198628.7295423     
   2682165367.0169830     
   2648284891.0154643     
   2633180517.8214021     
   2625139843.5537333     
   2624197985.2391138     
   2630391497.7301154     
   2588148807.2811365     
   2583739494.5949082     
   2585414644.1727295     
   2593181848.8608899     
   2607048786.5614305     
   2564555649.3013463     
   2568653167.7009091     
   2577784042.7603893     
   2591948274.4797950     
   2611145862.8591161     
   2762470326.1549430     
   2725022109.0930748     
   2697286851.3441105     
   2679495999.6009102     
   2671885585.8135529     
   2682165367.0169830     
   2657412286.7283483     
   2642139678.3290286     
   2636478511.0070825     
   2640558550.7431302     
   2630391497.7301154     
   2615931672.1977410     
   2610634257.8882937     
   2614556046.1672535     
   2627751928.2805734     
   2607048786.5614305     
   2600241776.5446291     
   2602242260.5324941     
   2613063732.5266671     
   2632718982.2908311     
   2611145862.8591161     
   2609262163.9412713     
   2615839275.2631235     
   2630877196.8246708     
   2654375928.6259108     
   2671885585.8135529     
   2644849425.3502979     
   2626843796.2726569     
   2618047763.5065632     
   2618633156.6849017     
   2640558550.7431302     
   2623467942.6735620     
   2615276018.1391349     
   2616081989.0082030     
   2625978609.8827868     
   2627751928.2805734     
   2618563718.1936960     
   2618128543.9539332     
   2626489173.3090487     
   2643684710.2299957     
   2632718982.2908311     
   2629255900.1366057     
   2634427230.9192348     
   2648243246.2694893     
   2670713173.2044902     
   2654375928.6259108     
   2654417143.3602591     
   2663032991.6446195     
   2680223473.4789920     
   2705988588.8633771     
   2618633156.6849017     
   2599099421.3625927     
   2590639524.0747547     
   2593409568.2156358     
   2607539617.1531916     
   2625978609.8827868     
   2614766994.5011921     
   2614032290.3085437     
   2623852641.7988472     
   2644291173.8859286     
   2643684710.2299957     
   2638932994.1030297     
   2644155480.4121418     
   2659382978.6214943     
   2684639680.0498466     
   2670713173.2044902     
   2670640073.6369467     
   2680155938.6455054     
   2699267612.7457261     
   2727980335.7980156     
   2705988588.8633771     
   2708929063.3430729     
   2721202513.9436073     
   2742808940.6649837     
   2773748343.5071979     
   2607539617.1531916     
   2594710872.1844234     
   2593018117.1171432     
   2602540904.5465050     
   2623375569.4306979     
   2644291173.8859286     
   2633286795.3121486     
   2632552976.8456006     
   2642128981.7902641     
   2662065109.7409253     
   2684639680.0498466     
   2675149016.3808632     
   2675243357.1540055     
   2684937940.5367360     
   2704253469.8872218     
   2727980335.7980156     
   2719853289.6343699     
   2720785225.2047524     
   2730779442.0644560     
   2749840714.1933641     
   2773748343.5071979     
   2766980562.4159460     
   2768887289.8562608     
   2779468525.8281598     
   2798724270.3316231     
   2623375569.4306979     
   2584896023.7627187     
   2552327279.9678683     
   2526250569.5564861     
   2507473624.7903671     
   2662065109.7409253     
   2616678647.2587080     
   2576968791.1464000     
   2543266246.5302939     
   2516032992.2359385     
   2704253469.8872218     
   2654048570.0115142     
   2609429196.9189692     
   2570542656.5236320     
   2537595307.7917924     
   2749840714.1933641     
   2696912084.7183175     
   2649620506.7595682     
   2608002562.6905994     
   2572109517.5656295     
   2798724270.3316231     
   2745166869.8740268     
   2697440205.6462860     
   2655544277.6483955     
   2619479085.8803620     
   2507473624.7903671     
   2357140218.1607943     
   2214974249.3107891     
   2085957826.5067008     
   1976969499.0032494     
   2516032992.2359385     
   2348170965.3803458     
   2183865127.6448116     
   2026216453.9744382     
   1879791208.7026103     
   2537595307.7917924     
   2357295937.5001330     
   2176736514.1350446     
   1997389028.6233578     
   1821532047.7841377     
   2572109517.5656295     
   2384618677.6175742     
   2194055003.7278700     
   2000796840.1162629     
   1805448229.8253288     
   2619479085.8803620     
   2430107958.2459755     
   2235962978.2122984     
   2037044145.7793541     
   1833351460.9471061     
   2486189920.2720337     
   2492483127.5245619     
   2507641818.1136231     
   2531665992.0392208     
   2564555649.3013463     
   2548604035.2204766     
   2545340498.5234013     
   2550830637.7330866     
   2565093722.8517485     
   2588148814.2070799     
   2660917592.5969305     
   2644866876.0219307     
   2637365544.3503399     
   2638481603.0660815     
   2648284903.8264236     
   2821352593.5285563     
   2790203625.2917538     
   2767256258.3273540     
   2752636997.7140460     
   2746481188.8233390     
   3026282883.5124650     
   2978653023.1626024     
   2938731305.1007028     
   2906692028.1566525     
   2882729592.7766747     
   2564555649.3013463     
   2568653167.7009091     
   2577784042.7603893     
   2591948274.4797950     
   2611145862.8591161     
   2588148814.2070799     
   2583739499.9827528     
   2585414648.0780072     
   2593181851.3418460     
   2607048787.6800070     
   2648284903.8264236     
   2633180527.8092337     
   2625139850.8611031     
   2624197990.0104151     
   2630391500.1130142     
   2746481188.8233390     
   2718445107.3404336     
   2698322485.8010759     
   2686198635.7650146     
   2682165370.9435787     
   2882729592.7766747     
   2839622192.1404138     
   2805104228.5410376     
   2779329646.1377616     
   2762470332.0206470     
   2611145862.8591161     
   2609262163.9412713     
   2615839275.2631235     
   2630877196.8246708     
   2654375928.6259108     
   2607048787.6800070     
   2600241777.5691752     
   2602242261.5543690     
   2613063733.6354322     
   2632718983.5744572     
   2630391500.1130142     
   2615931674.3233204     
   2610634259.9383173     
   2614556048.3211865     
   2627751930.7160668     
   2682165370.9435787     
   2657412290.1253190     
   2642139681.4666271     
   2636478514.1553841     
   2640558554.1727657     
   2762470332.0206470     
   2725022114.0164981     
   2697286855.6797323     
   2679496003.7085462     
   2671885590.0596409     
   2654375928.6259108     
   2654417143.3602591     
   2663032991.6446195     
   2680223473.4789920     
   2705988588.8633771     
   2632718983.5744572     
   2629255901.3060160     
   2634427231.9629149     
   2648243247.1765556     
   2670713173.9647613     
   2627751930.7160668     
   2618563720.4436798     
   2618128545.9973569     
   2626489175.1255245     
   2643684711.7998886     
   2640558554.1727657     
   2623467945.8951969     
   2615276021.1240535     
   2616081991.7276416     
   2625978612.3079729     
   2671885590.0596409     
   2644849429.4175501     
   2626843800.1270494     
   2618047767.1124392     
   2618633160.0049858     
   2705988588.8633771     
   2708929063.3430729     
   2721202513.9436073     
   2742808940.6649837     
   2773748343.5071979     
   2670713173.9647613     
   2670640074.2383494     
   2680155939.0862060     
   2699267613.0248833     
   2727980335.9154615     
   2643684711.7998886     
   2638932995.3454890     
   2644155481.3219528     
   2659382979.1957221     
   2684639680.2872515     
   2625978612.3079729     
   2614766996.4274421     
   2614032291.7242413     
   2623852642.6962767     
   2644291174.2604222     
   2618633160.0049858     
   2599099424.0170474     
   2590639526.0412021     
   2593409569.4772530     
   2607539617.6979227     
   2773748343.5071979     
   2766980562.4159460     
   2768887289.8562608     
   2779468525.8281598     
   2798724270.3316231     
   2727980335.9154615     
   2719853289.7353382     
   2720785225.3024211     
   2730779442.1717787     
   2749840714.3232646     
   2684639680.2872515     
   2675149016.5799179     
   2675243357.3414631     
   2684937940.7388868     
   2704253470.1302919     
   2644291174.2604222     
   2633286795.6165805     
   2632552977.1212525     
   2642128982.0778508     
   2662065110.0811410     
   2607539617.6979227     
   2594710872.6126876     
   2593018117.4862852     
   2602540904.9135370     
   2623375569.8528194     
   2798724270.3316231     
   2745166869.8740268     
   2697440205.6462860     
   2655544277.6483955     
   2619479085.8803620     
   2749840714.3232646     
   2696912084.8171506     
   2649620506.8283210     
   2608002562.7302904     
   2572109517.5770841     
   2704253470.1302919     
   2654048570.1971869     
   2609429197.0492043     
   2570542656.6005130     
   2537595307.8172278     
   2662065110.0811410     
   2616678647.5197716     
   2576968791.3312888     
   2543266246.6422439     
   2516032992.2781243     
   2623375569.8528194     
   2584896024.0883694     
   2552327280.2010803     
   2526250569.7017322     
   2507473624.8523474     
   2619479085.8803620     
   2430107958.2459755     
   2235962978.2122984     
   2037044145.7793541     
   1833351460.9471061     
   2572109517.5770841     
   2384618677.6268272     
   2194055003.7363348     
   2000796840.1254854     
   1805448229.8372221     
   2537595307.8172278     
   2357295937.5205932     
   2176736514.1533198     
   1997389028.6425152     
   1821532047.8075500     
   2516032992.2781243     
   2348170965.4141755     
   2183865127.6744170     
   2026216454.0041387     
   1879791208.7369342     
   2507473624.8523474     
   2357140218.2102971     
   2214974249.3532462     
   2085957826.5475876     
   1976969499.0476823     
   3026282883.5124650     
   2978653023.1626024     
   2938731305.1007028     
   2906692028.1566525     
   2882729592.7766747     
   3092057854.7636013     
   3035499260.9764624     
   2987074183.5529175     
   2947079704.4798207     
   2915856966.1153650     
   3211503864.8896222     
   3142423699.5294108     
   3081602110.5311704     
   3029483648.4846687     
   2986593951.0114360     
   3377139373.8369508     
   3292243996.0081081     
   3215448071.6803989     
   3147350199.2235975     
   3088680181.2408953     
   3580906432.2656569     
   3477295665.1746640     
   3381378127.3726687     
   3293894203.9957919     
   3215776040.2903929     
   2882729592.7766747     
   2839622192.1404138     
   2805104228.5410376     
   2779329646.1377616     
   2762470332.0206470     
   2915856966.1153650     
   2869212552.6725430     
   2829472307.4141073     
   2796847542.3681984     
   2771570218.8442101     
   2986593951.0114360     
   2935167366.2298388     
   2889095737.9529824     
   2848615723.8700790     
   2813985074.4245992     
   3088680181.2408953     
   3032162062.9118237     
   2979621771.5560694     
   2931285037.5463529     
   2887396234.2561378     
   3215776040.2903929     
   3154621803.9813356     
   3096269842.0754023     
   3040903787.9907446     
   2988720954.2619219     
   2762470332.0206470     
   2725022114.0164981     
   2697286855.6797323     
   2679496003.7085462     
   2671885590.0596409     
   2771570218.8442101     
   2724103281.2977395     
   2685703064.5470405     
   2656718040.0422173     
   2637511608.8064675     
   2813985074.4245992     
   2754550921.5275950     
   2703426075.3170424     
   2661068846.9455776     
   2627970192.1758204     
   2887396234.2561378     
   2814762486.9748988     
   2749564441.8922071     
   2692343876.6343875     
   2643698057.6865444     
   2988720954.2619219     
   2902336650.3647027     
   2822422504.4612117     
   2749564244.2349420     
   2684426106.5225844     
   2671885590.0596409     
   2644849429.4175501     
   2626843800.1270494     
   2618047767.1124392     
   2618633160.0049858     
   2637511608.8064675     
   2600815973.4027519     
   2572812379.5789113     
   2553777295.2899251     
   2543982314.1904502     
   2627970192.1758204     
   2579911003.7683582     
   2540116996.3340850     
   2508969902.3006220     
   2486855871.0929828     
   2643698057.6865444     
   2583031443.4055347     
   2530077875.0437956     
   2485316825.5451603     
   2449249398.7103043     
   2684426106.5225844     
   2610431344.5271435     
   2543461696.9585433     
   2484069794.7765188     
   2432852992.5128727     
   2618633160.0049858     
   2599099424.0170474     
   2590639526.0412021     
   2593409569.4772530     
   2607539617.6979227     
   2543982314.1904502     
   2514218456.8064189     
   2495034644.2598133     
   2486702526.7823672     
   2489459143.0548730     
   2486855871.0929828     
   2444750572.9667735     
   2412644667.2657561     
   2390949970.1080437     
   2380045150.7071056     
   2449249398.7103043     
   2393142003.3639727     
   2346271376.2569976     
   2309196160.0289145     
   2282459240.5610576     
   2432852992.5128727     
   2361702840.2120843     
   2298777566.3692174     
   2244759249.6964374     
   2200349094.3603635     
   2607539617.6979227     
   2594710872.6126876     
   2593018117.4862852     
   2602540904.9135370     
   2623375569.8528194     
   2489459143.0548730     
   2469821072.6964784     
   2462113797.2044702     
   2466474144.3286304     
   2483036913.6470723     
   2380045150.7071056     
   2351311973.6852255     
   2335459067.2577953     
   2332737184.4502287     
   2343367775.9377012     
   2282459240.5610576     
   2241979289.1608901     
   2215423534.9948688     
   2203242281.7455177     
   2205823570.4058728     
   2200349094.3603635     
   2145177240.8028839     
   2104952079.6104145     
   2080441144.1617954     
   2072322420.0165505     
   2623375569.8528194     
   2584896024.0883694     
   2552327280.2010803     
   2526250569.7017322     
   2507473624.8523474     
   2483036913.6470723     
   2450392778.7079043     
   2426318909.3347540     
   2411761097.8759227     
   2408096134.4795175     
   2343367775.9377012     
   2319012456.4794941     
   2306188041.8160691     
   2306300916.1380715     
   2321440584.0908041     
   2205823570.4058728     
   2191531483.8563652     
   2192216301.2547445     
   2209848115.9095707     
   2247348939.6896749     
   2072322420.0165505     
   2068918134.5435901     
   2084719656.9683363     
   2122358515.3012848     
   2185649806.2064309     
   2507473624.8523474     
   2357140218.2102971     
   2214974249.3532462     
   2085957826.5475876     
   1976969499.0476823     
   2408096134.4795175     
   2282816956.6107936     
   2168042180.6205692     
   2070511079.0788717     
   1998990320.6021042     
   2321440584.0908041     
   2224720089.2291961     
   2141330706.8478475     
   2079634210.0941534     
   2049796671.5133147     
   2247348939.6896749     
   2182640256.3776937     
   2134369290.6131537     
   2112196446.3624516     
   2127047125.2694373     
   2185649806.2064309     
   2156283448.3628421     
   2146511032.7590084     
   2166847030.9801645     
   2228351020.3451352     
   3580906432.2656569     
   3477295665.1746640     
   3381378127.3726687     
   3293894203.9957919     
   3215776040.2903929     
   3831529797.3183107     
   3713025151.6451812     
   3598581420.2435741     
   3488652815.1950941     
   3383791636.1694474     
   4090534290.1949444     
   3964083467.7925506     
   3838781834.0527692     
   3714784502.6671586     
   3592272923.9998512     
   4353033812.9768877     
   4226285459.1484551     
   4098465504.4035621     
   3969490230.1931624     
   3839278741.5858397     
   4615396521.5334702     
   4496352011.8200026     
   4374662462.6829739     
   4250097228.7705388     
   4122463832.3581247     
   3215776040.2903929     
   3154621803.9813356     
   3096269842.0754023     
   3040903787.9907446     
   2988720954.2619219     
   3383791636.1694474     
   3306389778.7908125     
   3232511940.7645245     
   3162418299.0692291     
   3096410088.3559718     
   3592272923.9998512     
   3497101121.9950919     
   3405831736.3010683     
   3318749815.2869105     
   3236220385.7970681     
   3839278741.5858397     
   3724528866.0924597     
   3613761209.6296682     
   3507229234.9795389     
   3405311487.6976666     
   4122463832.3581247     
   3986057014.5978875     
   3853476160.1504970     
   3724887325.9316068     
   3600627003.3432379     
   2988720954.2619219     
   2902336650.3647027     
   2822422504.4612117     
   2749564244.2349420     
   2684426106.5225844     
   3096410088.3559718     
   2992915183.3878884     
   2895167407.5060353     
   2803750527.2672334     
   2719351039.5854545     
   3236220385.7970681     
   3116315777.3264852     
   3001392712.3692093     
   2891991087.3452659     
   2788769606.3438525     
   3405311487.6976666     
   3269850138.9453497     
   3138628672.6827865     
   3012113886.5287728     
   2890897360.7755914     
   3600627003.3432379     
   3450480700.4204984     
   3303903227.2251706     
   3161274237.7506714     
   3023095635.9085102     
   2684426106.5225844     
   2610431344.5271435     
   2543461696.9585433     
   2484069794.7765188     
   2432852992.5128727     
   2719351039.5854545     
   2629659787.5328960     
   2545732981.5064178     
   2468142617.8649559     
   2397537011.3055863     
   2788769606.3438525     
   2684125562.9002447     
   2583865168.3960609     
   2488505074.5125651     
   2398657788.7379289     
   2890897360.7755914     
   2772745979.4454732     
   2657612668.6057744     
   2545900588.1730537     
   2438108338.1331396     
   3023095635.9085102     
   2893347616.0856481     
   2765394457.2762203     
   2639502126.9573064     
   2516014530.0116048     
   2432852992.5128727     
   2361702840.2120843     
   2298777566.3692174     
   2244759249.6964374     
   2200349094.3603635     
   2397537011.3055863     
   2307700159.3989220     
   2225432112.8529949     
   2151530804.9155226     
   2086869268.8543046     
   2398657788.7379289     
   2290361104.1038151     
   2188634787.6620770     
   2094303298.2732344     
   2008328524.0319223     
   2438108338.1331396     
   2312404955.4943929     
   2192056250.6071663     
   2077798485.6189206     
   1970546838.8275695     
   2516014530.0116048     
   2374626523.1807208     
   2237352957.2533708     
   2104748767.6913283     
   1977549121.7076936     
   2200349094.3603635     
   2145177240.8028839     
   2104952079.6104145     
   2080441144.1617954     
   2072322420.0165505     
   2086869268.8543046     
   2011881939.4126172     
   1949230864.6512933     
   1899991726.8356409     
   1865190102.6786590     
   2008328524.0319223     
   1912135163.6553717     
   1824669654.2363315     
   1747122184.9276109     
   1680773434.7368455     
   1970546838.8275695     
   1854770524.6790798     
   1743300831.1634836     
   1637043306.2255208     
   1537109111.3638833     
   1977549121.7076936     
   1847360112.4852772     
   1717137588.8723264     
   1587214550.6672831     
   1458077721.6251867     
   2072322420.0165505     
   2068918134.5435901     
   2084719656.9683363     
   2122358515.3012848     
   2185649806.2064309     
   1865190102.6786590     
   1854757752.6772847     
   1867285060.1252656     
   1904979843.0388072     
   1970872629.6193833     
   1680773434.7368455     
   1652306949.5878954     
   1651565726.2019231     
   1680919343.6342921     
   1742974424.6287963     
   1537109111.3638833     
   1476194857.0970104     
   1447988635.1857481     
   1456465426.0343206     
   1504922273.1132827     
   1458077721.6251867     
   1348909582.8078775     
   1274735421.1797814     
   1243705739.7321525     
   1262881952.8610864     
   2185649806.2064309     
   2156283448.3628421     
   2146511032.7590084     
   2166847030.9801645     
   2228351020.3451352     
   1970872629.6193833     
   1968979413.1200550     
   2003627241.7446976     
   2093487368.3519807     
   2257216067.2304449     
   1742974424.6287963     
   1787746361.7623553     
   1884658533.4951980     
   2060623011.4242017     
   2340874664.1061716     
   1504922273.1132827     
   1613298860.8747327     
   1788864196.2839520     
   2066375775.6515276     
   2476052253.1066866     
   1262881952.8610864     
   1446677099.3104074     
   1715679579.7912099     
   2110479110.2922671     
   2663533323.5656672     
   4615396521.5334702     
   4496352011.8200026     
   4374662462.6829739     
   4250097228.7705388     
   4122463832.3581247     
   4898131811.9320841     
   4757992759.9499445     
   4622389040.5318928     
   4491323878.0712023     
   4364955687.3400879     
   5287296228.0410671     
   5103009949.7705307     
   4927314740.9370680     
   4759708476.9074726     
   4600649184.7030296     
   5784291170.3109474     
   5530101819.4832363     
   5285310492.6470490     
   5048585331.5292063     
   4820975978.6038637     
   6388447983.2644472     
   6036479315.3782434     
   5691962585.7283487     
   5352543951.4037542     
   5020140873.7226353     
   4122463832.3581247     
   3986057014.5978875     
   3853476160.1504970     
   3724887325.9316068     
   3600627003.3432379     
   4364955687.3400879     
   4222805478.3238215     
   4080844258.6513052     
   3939165889.8817453     
   3797919744.2446404     
   4600649184.7030296     
   4460351231.6900816     
   4318108968.9804564     
   4173856294.4287210     
   4027567498.3234425     
   4820975978.6038637     
   4691516129.6818838     
   4559203508.9957333     
   4423798315.4045315     
   4285196610.8855014     
   5020140873.7226353     
   4911229842.3302717     
   4799591738.5975399     
   4684823191.1113129     
   4566854892.1901760     
   3600627003.3432379     
   3450480700.4204984     
   3303903227.2251706     
   3161274237.7506714     
   3023095635.9085102     
   3797919744.2446404     
   3633262195.9540076     
   3471246802.6766195     
   3312148917.0670757     
   3156357744.9152503     
   4027567498.3234425     
   3849075514.5329728     
   3672388431.5484843     
   3497672930.8965931     
   3325193482.2144756     
   4285196610.8855014     
   4093484636.1414113     
   3902852768.5678287     
   3713366727.1752648     
   3525170989.4595871     
   4566854892.1901760     
   4362429163.8523655     
   4158474846.2088547     
   3954970790.3003025     
   3751956087.4298444     
   3023095635.9085102     
   2893347616.0856481     
   2765394457.2762203     
   2639502126.9573064     
   2516014530.0116048     
   3156357744.9152503     
   3015687571.5088878     
   2876792752.4054089     
   2739884225.6357269     
   2605256450.4090858     
   3325193482.2144756     
   3172924384.0246706     
   3022242822.1259661     
   2873289379.2039676     
   2726298056.5523200     
   3525170989.4595871     
   3360167367.0173106     
   3196408512.3076148     
   3033955275.0516572     
   2872975485.9490991     
   3751956087.4298444     
   3572715347.4313707     
   3394244349.2802238     
   3216520208.0175123     
   3039643474.4405890     
   2516014530.0116048     
   2374626523.1807208     
   2237352957.2533708     
   2104748767.6913283     
   1977549121.7076936     
   2605256450.4090858     
   2454650166.0972428     
   2306135012.8180008     
   2160033097.5016966     
   2016780214.7151845     
   2726298056.5523200     
   2569424265.6484342     
   2413147671.0657868     
   2257591743.1694326     
   2102925535.8084443     
   2872975485.9490991     
   2713118523.9383640     
   2552936972.1460075     
   2392446502.3900056     
   2231672854.5035186     
   3039643474.4405890     
   2880118083.6325064     
   2719865155.8072791     
   2558890250.7348032     
   2397213901.7134171     
   1977549121.7076936     
   1847360112.4852772     
   1717137588.8723264     
   1587214550.6672831     
   1458077721.6251867     
   2016780214.7151845     
   1880193937.6480546     
   1743990044.0586736     
   1608297451.9479260     
   1473293000.8752911     
   2102925535.8084443     
   1962420079.9419532     
   1823008648.1723065     
   1684725035.6085765     
   1547636467.7667508     
   2231672854.5035186     
   2087939547.5869973     
   1946008078.2030227     
   1805874959.1495082     
   1667624282.9060378     
   2397213901.7134171     
   2249267266.0459661     
   2103613815.6804106     
   1960240536.1835945     
   1819321837.7441993     
   1458077721.6251867     
   1348909582.8078775     
   1274735421.1797814     
   1243705739.7321525     
   1262881952.8610864     
   1473293000.8752911     
   1328974016.7680666     
   1199091747.2275076     
   1088133536.6314664     
   1002010813.8441935     
   1547636467.7667508     
   1397805465.2111433     
   1244359912.4757657     
   1085017879.0456777     
   917738429.95156157     
   1667624282.9060378     
   1552441950.4000311     
   1428077827.4893730     
   1294892403.4505718     
   1159049580.7363517     
   1819321837.7441993     
   1779152471.2736666     
   1735402212.7389817     
   1696733792.2488601     
   1681729216.3965425     
   1262881952.8610864     
   1446677099.3104074     
   1715679579.7912099     
   2110479110.2922671     
   2663533323.5656672     
   1002010813.8441935     
   1164671748.9492998     
   1425377964.9620349     
   1808723879.8981285     
   2334814299.2852502     
   917738429.95156157     
   963074857.61797810     
   1144861499.5790586     
   1476463785.1096117     
   1957582019.5528929     
   1159049580.7363517     
   1008481654.8586708     
   985190690.85858452     
   1161504308.4681673     
   1544348052.6813622     
   1681729216.3965425     
   1384022157.0059164     
   1129581122.8613672     
   1010213756.3679466     
   1153360516.1477802     
 </DataArray>
 <DataArray  type="Float64" Name="strain" NumberOfComponents="3" format="ascii">
  0.10663930585119008       -3.1194582061971010E-002  -1.8762642343246316E-003
  0.10088198522289848       -2.8717365934308070E-002  -5.0054462614887996E-003
   9.5124664594606889E-002  -2.6908738968006662E-002  -6.0851922286787596E-003
   8.9367343966315405E-002  -2.5768701163066635E-002  -5.1155021358946229E-003
   8.3610023338023809E-002  -2.5297252519488445E-002  -2.0963759831362783E-003
   9.6260830257217211E-002  -2.8982769037440237E-002   7.2483456441043703E-003
   9.2266142012491281E-002  -2.6978486290792469E-002   4.7331567911750305E-003
   8.8271453767765407E-002  -2.5468626336248190E-002   3.6937966454030358E-003
   8.4276765523039476E-002  -2.4453189173806830E-002   4.1302652067880530E-003
   8.0282077278313546E-002  -2.3932174803469097E-002   6.0425624753303042E-003
   8.7364657490619835E-002  -2.6770956012909131E-002   1.5812938956889011E-002
   8.4558994276642652E-002  -2.5239606647276813E-002   1.4085909647452544E-002
   8.1753331062665580E-002  -2.4028513704489635E-002   1.3261101692356642E-002
   7.8947667848688424E-002  -2.3137677184547130E-002   1.3338515091600986E-002
   7.6142004634711297E-002  -2.2567097087450028E-002   1.4318149845185535E-002
   7.9950787551398006E-002  -2.4559142988378246E-002   2.3817515704029277E-002
   7.7760542015352721E-002  -2.3500727003761129E-002   2.3052812307344198E-002
   7.5570296479307450E-002  -2.2588401072730899E-002   2.2616722912182231E-002
   7.3380050943262179E-002  -2.1822165195287489E-002   2.2509247518544041E-002
   7.1189805407216894E-002  -2.1202019371430819E-002   2.2730386126429081E-002
   7.4019220439551836E-002  -2.2347329963847307E-002   3.1262075885525098E-002
   7.1870785228621503E-002  -2.1761847360245445E-002   3.1633864770849562E-002
   6.9722350017691198E-002  -2.1148288440972385E-002   3.1760660304880117E-002
   6.7573914806760851E-002  -2.0506653206027695E-002   3.1642462487617568E-002
   6.5425479595830560E-002  -1.9836941655411666E-002   3.1279271319061164E-002
   8.3610023338023809E-002  -2.5297252519488445E-002  -2.0963759831362783E-003
   8.1736530259741480E-002  -2.5039953386465696E-002  -8.0246717638338128E-004
   7.9863037181459151E-002  -2.4542364113192883E-002   3.1245786642486451E-006
   7.7989544103176767E-002  -2.3804484699670642E-002   3.2039928200644496E-004
   7.6116051024894493E-002  -2.2826315145898390E-002   1.4935693364259706E-004
   8.0282077278313546E-002  -2.3932174803469097E-002   6.0425624753303042E-003
   7.8024252621858137E-002  -2.3564566569739764E-002   6.8422805012919863E-003
   7.5766427965402727E-002  -2.3009347817123854E-002   7.3616524226127744E-003
   7.3508603308947304E-002  -2.2266518545621790E-002   7.6006782392930988E-003
   7.1250778652491908E-002  -2.1336078755233245E-002   7.5593579513326126E-003
   7.6142004634711297E-002  -2.2567097087450028E-002   1.4318149845185535E-002
   7.3707819347147652E-002  -2.2089179753013888E-002   1.4570997468991931E-002
   7.1273634059584035E-002  -2.1476331521054937E-002   1.4751469935222639E-002
   6.8839448772020403E-002  -2.0728552391573160E-002   1.4859567243877561E-002
   6.6405263484456772E-002  -1.9845842364568489E-002   1.4895289394956962E-002
   7.1189805407216894E-002  -2.1202019371430819E-002   2.2730386126429081E-002
   6.8787230435609983E-002  -2.0613792936287983E-002   2.2383683726716959E-002
   6.6384655464002990E-002  -1.9943315224985853E-002   2.2172577116494077E-002
   6.3982080492396023E-002  -1.9190586237524419E-002   2.2097066295760297E-002
   6.1579505520789009E-002  -1.8355605973903760E-002   2.2157151264515458E-002
   6.5425479595830560E-002  -1.9836941655411666E-002   3.1279271319061164E-002
   6.3262485887245090E-002  -1.9138406119562162E-002   3.0280339274467133E-002
   6.1099492178659620E-002  -1.8410298928916852E-002   2.9624973966426937E-002
   5.8936498470074150E-002  -1.7652620083475699E-002   2.9313175394940785E-002
   5.6773504761488680E-002  -1.6865369583238865E-002   2.9344943560008441E-002
   7.6116051024894493E-002  -2.2826315145898390E-002   1.4935693364259706E-004
   7.2722693307148534E-002  -2.1745667956271586E-002  -1.4386567722690646E-004
   6.9329335589402685E-002  -2.0700355635187212E-002  -2.1755348450264167E-004
   6.5935977871656809E-002  -1.9690378182643513E-002  -7.1706488185274697E-005
   6.2542620153910877E-002  -1.8715735598642036E-002   2.9367531172552752E-004
   7.1250778652491908E-002  -2.1336078755233245E-002   7.5593579513326126E-003
   6.8074003664514715E-002  -2.0329509767033571E-002   7.2475969751029656E-003
   6.4897228676537494E-002  -1.9358292902097979E-002   7.1494666548173325E-003
   6.1720453688560259E-002  -1.8422428160426461E-002   7.2649669904758241E-003
   5.8543678700583079E-002  -1.7521915542018873E-002   7.5940979820778853E-003
   6.6405263484456772E-002  -1.9845842364568489E-002   1.4895289394956962E-002
   6.3439167078598702E-002  -1.8913351577795640E-002   1.4564972798644771E-002
   6.0473070672740756E-002  -1.8016230169009426E-002   1.4442382710627089E-002
   5.7506974266882775E-002  -1.7154478138209302E-002   1.4527519130904019E-002
   5.4540877861024656E-002  -1.6328095485395600E-002   1.4820382059475445E-002
   6.1579505520789009E-002  -1.8355605973903760E-002   2.2157151264515458E-002
   5.8818183549400729E-002  -1.7497193388557611E-002   2.1808261793398502E-002
   5.6056861578012485E-002  -1.6674167435920477E-002   2.1661194682926623E-002
   5.3295539606624177E-002  -1.5886528115991755E-002   2.1715949933099464E-002
   5.0534217635235898E-002  -1.5134275428772159E-002   2.1972527543917680E-002
   5.6773504761488680E-002  -1.6865369583238865E-002   2.9344943560008441E-002
   5.4211053076920701E-002  -1.6081035199319665E-002   2.8977463959364236E-002
   5.1648601392352611E-002  -1.5332104702831570E-002   2.8805902571715586E-002
   4.9086149707784632E-002  -1.4618578093774547E-002   2.8830259397062408E-002
   4.6523698023216542E-002  -1.3940455372148830E-002   2.9050534435404729E-002
   6.2542620153910877E-002  -1.8715735598642036E-002   2.9367531172552752E-004
   5.9563140764406719E-002  -1.7787287335404134E-002  -5.2945080710409265E-005
   5.6583661374902450E-002  -1.6915892845151048E-002  -1.2564150051458389E-004
   5.3604181985398291E-002  -1.6101552127883750E-002   7.5586052312559548E-005
   5.0624702595894022E-002  -1.5344265183601102E-002   5.5073757777157617E-004
   5.8543678700583079E-002  -1.7521915542018873E-002   7.5940979820778853E-003
   5.5817867571520241E-002  -1.6655886247652352E-002   7.1780283423194535E-003
   5.3092056442457375E-002  -1.5823471478103285E-002   6.9953712508121768E-003
   5.0366245313394495E-002  -1.5024671233372401E-002   7.0461267075552225E-003
   4.7640434184331615E-002  -1.4259485513458792E-002   7.3302947125497564E-003
   5.4540877861024656E-002  -1.6328095485395600E-002   1.4820382059475445E-002
   5.2028223568022475E-002  -1.5524485159900125E-002   1.4358302420561964E-002
   4.9515569275020238E-002  -1.4731050111055299E-002   1.4089123905518391E-002
   4.7002914982018029E-002  -1.3947790338860941E-002   1.4012846514345506E-002
   4.4490260689015765E-002  -1.3174705843316703E-002   1.4129470247042253E-002
   5.0534217635235898E-002  -1.5134275428772159E-002   2.1972527543917680E-002
   4.8194208753913476E-002  -1.4393084072148343E-002   2.1487877154016295E-002
   4.5854199872591046E-002  -1.3638628744007314E-002   2.1155616463604782E-002
   4.3514190991268631E-002  -1.2870909444349647E-002   2.0975745472682474E-002
   4.1174182109946202E-002  -1.2089926173174614E-002   2.0948264181249662E-002
   4.6523698023216542E-002  -1.3940455372148830E-002   2.9050534435404729E-002
   4.4315823129193216E-002  -1.3261682984396339E-002   2.8566752542683260E-002
   4.2107948235169834E-002  -1.2546207376959301E-002   2.8194848925070459E-002
   3.9900073341146508E-002  -1.1794028549838180E-002   2.7934823582566659E-002
   3.7692198447123126E-002  -1.1005146503032526E-002   2.7786676515171194E-002
   5.0624702595894022E-002  -1.5344265183601102E-002   5.5073757777157617E-004
   4.7956314800863042E-002  -1.4588448270446808E-002   4.5865625780672215E-004
   4.5287927005832174E-002  -1.3778517646564514E-002   3.3873046113219729E-004
   4.2619539210801277E-002  -1.2914473311953154E-002   1.9096018774888979E-004
   3.9951151415770325E-002  -1.1996315266613600E-002   1.5345437656577587E-005
   4.7640434184331615E-002  -1.4259485513458792E-002   7.3302947125497564E-003
   4.4966888143810613E-002  -1.3494598696083493E-002   7.1385597552855451E-003
   4.2293342103289500E-002  -1.2696695158965154E-002   6.9643527837497388E-003
   3.9619796062768442E-002  -1.1865774902105011E-002   6.8076737979431978E-003
   3.6946250022247329E-002  -1.1001837925502578E-002   6.6685227978648953E-003
   4.4490260689015765E-002  -1.3174705843316703E-002   1.4129470247042253E-002
   4.1856928865442344E-002  -1.2400749121719734E-002   1.3816984661492726E-002
   3.9223597041868938E-002  -1.1614872671366711E-002   1.3567399524109763E-002
   3.6590265218295497E-002  -1.0817076492256876E-002   1.3380714834892976E-002
   3.3956933394722139E-002  -1.0007360584391334E-002   1.3256930593842975E-002
   4.1174182109946202E-002  -1.2089926173174614E-002   2.0948264181249662E-002
   3.8626436965758307E-002  -1.1306899547356419E-002   2.0493930976428501E-002
   3.6078691821570363E-002  -1.0533050183767698E-002   2.0147870682211549E-002
   3.3530946677382503E-002  -9.7683780824089593E-003   1.9910083298599241E-002
   3.0983201533194518E-002  -9.0128832432802009E-003   1.9780568825591413E-002
   3.7692198447123126E-002  -1.1005146503032526E-002   2.7786676515171194E-002
   3.5275412444758514E-002  -1.0213049972992660E-002   2.7169398700092384E-002
   3.2858626442393901E-002  -9.4512276961685737E-003   2.6705766258056207E-002
   3.0441840440029289E-002  -8.7196796725608483E-003   2.6395779189061608E-002
   2.8025054437664620E-002  -8.0184059021689569E-003   2.6239437493109641E-002
   3.9951151415770325E-002  -1.1996315266613600E-002   1.5345437656577587E-005
   3.7512677190633892E-002  -1.1137350836605941E-002  -3.0223387546768343E-004
   3.5074202965497514E-002  -1.0450887347989435E-002  -5.1027912932199992E-004
   3.2635728740361136E-002  -9.9369248007647043E-003  -6.0879032390603882E-004
   3.0197254515224703E-002  -9.5954631949315417E-003  -5.9776745922035524E-004
   3.6946250022247329E-002  -1.1001837925502578E-002   6.6685227978648953E-003
   3.4596314844758225E-002  -1.0178806207952973E-002   6.2018691494948319E-003
   3.2246379667268982E-002  -9.4706017282528143E-003   5.8027595371493712E-003
   2.9896444489779808E-002  -8.8772244864008115E-003   5.4711939608284577E-003
   2.7546509312290635E-002  -8.3986744823969506E-003   5.2071724205311476E-003
   3.3956933394722139E-002  -1.0007360584391334E-002   1.3256930593842975E-002
   3.1653547241634272E-002  -9.2202615793003373E-003   1.2698876313770813E-002
   2.9350161088546572E-002  -8.4903161085152778E-003   1.2166376046476801E-002
   2.7046774935458789E-002  -7.8175241720360236E-003   1.1659429791961093E-002
   2.4743388782370979E-002  -7.2018857698626926E-003   1.1178037550224174E-002
   3.0983201533194518E-002  -9.0128832432802009E-003   1.9780568825591413E-002
   2.8684374381262312E-002  -8.2617169506477572E-003   1.9188787617359176E-002
   2.6385547229330168E-002  -7.5100304887781993E-003   1.8580570398659881E-002
   2.4086720077397979E-002  -6.7578238576716833E-003   1.7955917169492974E-002
   2.1787892925465756E-002  -6.0050970573281570E-003   1.7314827929858986E-002
   2.8025054437664620E-002  -8.0184059021689569E-003   2.6239437493109641E-002
   2.5688796263642233E-002  -7.3031723219950107E-003   2.5671603060260839E-002
   2.3352538089619762E-002  -6.5297448690408988E-003   2.5045342593698838E-002
   2.1016279915597361E-002  -5.6981235433073985E-003   2.4360656093423388E-002
   1.8680021741574904E-002  -4.8083083447937325E-003   2.3617543559435017E-002
   3.0197254515224703E-002  -9.5954631949315417E-003  -5.9776745922035524E-004
   2.9594206244837551E-002  -9.1349231589763491E-003  -3.5059176159779604E-004
   2.8991157974450565E-002  -8.2637253213841411E-003  -1.7891145408792664E-003
   2.8388109704063497E-002  -6.9818696821567355E-003  -4.9133357970643221E-003
   2.7785061433676428E-002  -5.2893562412918982E-003  -9.7232555301540735E-003
   2.7546509312290635E-002  -8.3986744823969506E-003   5.2071724205311476E-003
   2.5527884903935261E-002  -7.8708721450195807E-003   5.8840899832208748E-003
   2.3509260495579942E-002  -7.1297379030433317E-003   5.4155537468784098E-003
   2.1490636087224541E-002  -6.1752717564696608E-003   3.8015637115024481E-003
   1.9472011678869139E-002  -5.0074737052971940E-003   1.0421198770944606E-003
   2.4743388782370979E-002  -7.2018857698626926E-003   1.1178037550224174E-002
   2.1849432913918665E-002  -6.6068211310623681E-003   1.2087371080943377E-002
   1.8955477045466337E-002  -5.9957504847021059E-003   1.2391495490500753E-002
   1.6061521177014045E-002  -5.3686738307823709E-003   1.2090410778896998E-002
   1.3167565308561696E-002  -4.7255911693029340E-003   1.1184116946131639E-002
   2.1787892925465756E-002  -6.0050970573281570E-003   1.7314827929858986E-002
   1.8558850274787819E-002  -5.3427701171055997E-003   1.8259251531568446E-002
   1.5329807624109969E-002  -4.8617630663610883E-003   1.9138710689988216E-002
   1.2100764973432017E-002  -4.5620759050958547E-003   1.9953205405117785E-002
   8.8717223227540651E-003  -4.4437086333086739E-003   2.0702735676957573E-002
   1.8680021741574904E-002  -4.8083083447937325E-003   2.3617543559435017E-002
   1.5656136986542779E-002  -4.0787191031486092E-003   2.4399731335097208E-002
   1.2632252231510627E-002  -3.7277756480201540E-003   2.5657199345340664E-002
   9.6083674764785021E-003  -3.7554779794089707E-003   2.7389947590165137E-002
   6.5844827214463497E-003  -4.1618260973139698E-003   2.9597976069571708E-002
   2.7785061433676428E-002  -5.2893562412918982E-003  -9.7232555301540735E-003
   2.3357286286402545E-002  -4.2057489318580998E-003  -4.1925187953952836E-003
   1.8929511139128607E-002  -4.7506116869210357E-003   2.6029176619728478E-003
   1.4501735991854642E-002  -6.9239445064826766E-003   1.0663053841950210E-002
   1.0073960844580787E-002  -1.0725747390540441E-002   1.9987889744537135E-002
   1.9472011678869139E-002  -5.0074737052971940E-003   1.0421198770944606E-003
   1.6236474386140065E-002  -4.6899633189079193E-003   6.7378094789584120E-003
   1.3000937093410991E-002  -6.2863601666833802E-003   1.3553275067302084E-002
   9.7653998006818066E-003  -9.7966642486223554E-003   2.1488516642126310E-002
   6.5298625079526218E-003  -1.5220875564725400E-002   3.0543534203431033E-002
   1.3167565308561696E-002  -4.7255911693029340E-003   1.1184116946131639E-002
   1.0979342134248476E-002  -5.1741777059584049E-003   1.6759322245433306E-002
   8.7911189599352707E-003  -7.8221086464451139E-003   2.3309379795086627E-002
   6.6028957856220025E-003  -1.2669383990762270E-002   3.0834289595090991E-002
   4.4146726113088453E-003  -1.9716003738910359E-002   3.9334051645447010E-002
   8.8717223227540651E-003  -4.4437086333086739E-003   2.0702735676957573E-002
   7.5858895307278143E-003  -5.6583920930090015E-003   2.5872019504030536E-002
   6.3000567387016225E-003  -9.3578571262071530E-003   3.1871231845325879E-002
   5.0142239466752208E-003  -1.5542103732902955E-002   3.8700372700843914E-002
   3.7283911546489440E-003  -2.4211131913095318E-002   4.6359442070584067E-002
   6.5844827214463497E-003  -4.1618260973139698E-003   2.9597976069571708E-002
   6.0561165755780855E-003  -6.1426064800598201E-003   3.4075901254749463E-002
   5.5277504297097657E-003  -1.0893605605969081E-002   3.9238831218020742E-002
   4.9993842838414460E-003  -1.8414823475042391E-002   4.5086765959385044E-002
   4.4710181379732372E-003  -2.8706260087280278E-002   5.1619705478843425E-002
   7.4019220439551836E-002  -2.2347329963847307E-002   3.1262075885525098E-002
   7.1870785228621503E-002  -2.1761847360245445E-002   3.1633864770849562E-002
   6.9722350017691198E-002  -2.1148288440972385E-002   3.1760660304880117E-002
   6.7573914806760851E-002  -2.0506653206027695E-002   3.1642462487617568E-002
   6.5425479595830560E-002  -1.9836941655411666E-002   3.1279271319061164E-002
   6.8695065439948994E-002  -2.0483873347341530E-002   3.5150404903744548E-002
   6.6374267420109739E-002  -1.9953100227929760E-002   3.5357097428426659E-002
   6.4053469400270499E-002  -1.9390900024464738E-002   3.5464057686584533E-002
   6.1732671380431224E-002  -1.8797272736946504E-002   3.5471285678218056E-002
   5.9411873360592005E-002  -1.8172218365374943E-002   3.5378781403327147E-002
   6.3103431837457161E-002  -1.8620416730835809E-002   3.8982349053582804E-002
   6.0755532093478129E-002  -1.8144353095614019E-002   3.9027295986004754E-002
   5.8407632349499118E-002  -1.7633511607957175E-002   3.9117771736671664E-002
   5.6059732605520121E-002  -1.7087892267865258E-002   3.9253776305583257E-002
   5.3711832861541103E-002  -1.6507495075338247E-002   3.9435309692739812E-002
   5.7244319632076407E-002  -1.6756960114330061E-002   4.2757908335040340E-002
   5.5014579248726769E-002  -1.6335605963298278E-002   4.2644460443583859E-002
   5.2784838865377159E-002  -1.5876123191449654E-002   4.2721802455141560E-002
   5.0555098482027508E-002  -1.5378511798784012E-002   4.2989934369712990E-002
   4.8325358098677912E-002  -1.4842771785301537E-002   4.3448856187298650E-002
   5.1117728823806718E-002  -1.4893503497824312E-002   4.6477082748116627E-002
   4.9151408885855646E-002  -1.4526858830982536E-002   4.6208590801163851E-002
   4.7185088947904547E-002  -1.4118734774941952E-002   4.6276149841994046E-002
   4.5218769009953433E-002  -1.3669131329702777E-002   4.6679759870607504E-002
   4.3252449072002375E-002  -1.3178048495264771E-002   4.7419420887003960E-002
   6.5425479595830560E-002  -1.9836941655411666E-002   3.1279271319061164E-002
   6.3262485887245090E-002  -1.9138406119562162E-002   3.0280339274467133E-002
   6.1099492178659620E-002  -1.8410298928916852E-002   2.9624973966426937E-002
   5.8936498470074150E-002  -1.7652620083475699E-002   2.9313175394940785E-002
   5.6773504761488680E-002  -1.6865369583238865E-002   2.9344943560008441E-002
   5.9411873360592005E-002  -1.8172218365374943E-002   3.5378781403327147E-002
   5.7558656836089087E-002  -1.7520886376182515E-002   3.4684975445441718E-002
   5.5705440311586099E-002  -1.6848426235801191E-002   3.4267157119167058E-002
   5.3852223787083181E-002  -1.6154837944231462E-002   3.4125326424503701E-002
   5.1999007262580194E-002  -1.5440121501472670E-002   3.4259483361451543E-002
   5.3711832861541103E-002  -1.6507495075338247E-002   3.9435309692739812E-002
   5.2100814416177851E-002  -1.5903366632802826E-002   3.9038186317955602E-002
   5.0489795970814572E-002  -1.5286553542685807E-002   3.8849471469839733E-002
   4.8878777525451361E-002  -1.4657055804987006E-002   3.8869165148391907E-002
   4.7267759080088095E-002  -1.4014873419706558E-002   3.9097267353612589E-002
   4.8325358098677912E-002  -1.4842771785301537E-002   4.3448856187298650E-002
   4.6888958627511523E-002  -1.4285846889423241E-002   4.3339971892008874E-002
   4.5452559156345072E-002  -1.3724680849570257E-002   4.3371917018444589E-002
   4.4016159685178635E-002  -1.3159273665742604E-002   4.3544691566605613E-002
   4.2579760214012226E-002  -1.2589625337940433E-002   4.3858295536492245E-002
   4.3252449072002375E-002  -1.3178048495264771E-002   4.7419420887003960E-002
   4.1923089470089950E-002  -1.2668327146043518E-002   4.7590332167601584E-002
   4.0593729868177525E-002  -1.2162808156454791E-002   4.7834493764981834E-002
   3.9264370266265100E-002  -1.1661491526498181E-002   4.8151905679144721E-002
   3.7935010664352703E-002  -1.1164377256174252E-002   4.8542567910090040E-002
   5.6773504761488680E-002  -1.6865369583238865E-002   2.9344943560008441E-002
   5.4211053076920701E-002  -1.6081035199319665E-002   2.8977463959364236E-002
   5.1648601392352611E-002  -1.5332104702831570E-002   2.8805902571715586E-002
   4.9086149707784632E-002  -1.4618578093774547E-002   2.8830259397062408E-002
   4.6523698023216542E-002  -1.3940455372148830E-002   2.9050534435404729E-002
   5.1999007262580194E-002  -1.5440121501472670E-002   3.4259483361451543E-002
   4.9631988541344277E-002  -1.4725439035642551E-002   3.3906467831321785E-002
   4.7264969820108360E-002  -1.4031952674858600E-002   3.3748400014860472E-002
   4.4897951098872416E-002  -1.3359662419120212E-002   3.3785279912067971E-002
   4.2530932377636471E-002  -1.2708568268428144E-002   3.4017107522944290E-002
   4.7267759080088095E-002  -1.4014873419706558E-002   3.9097267353612589E-002
   4.5095202822857464E-002  -1.3369842871965673E-002   3.8772923676382326E-002
   4.2922646565626818E-002  -1.2731800646885415E-002   3.8642557213494057E-002
   4.0750090308396214E-002  -1.2100746744466101E-002   3.8706167964947621E-002
   3.8577534051165541E-002  -1.1476681164707514E-002   3.8963755930743110E-002
   4.2579760214012226E-002  -1.2589625337940433E-002   4.3858295536492245E-002
   4.0600695921460081E-002  -1.2014246708288677E-002   4.3576831494546574E-002
   3.8621631628907936E-002  -1.1431648618912559E-002   4.3488374167616271E-002
   3.6642567336355805E-002  -1.0841831069811934E-002   4.3592923555700991E-002
   3.4663503043803653E-002  -1.0244794060986856E-002   4.3890479658800642E-002
   3.7935010664352703E-002  -1.1164377256174252E-002   4.8542567910090040E-002
   3.6148467837152254E-002  -1.0658650544611736E-002   4.8318191285814382E-002
   3.4361925009951805E-002  -1.0131496590939218E-002   4.8285850877227005E-002
   3.2575382182751342E-002  -9.5829153951575603E-003   4.8445546684327864E-002
   3.0788839355550879E-002  -9.0129069572662535E-003   4.8797278707117198E-002
   4.6523698023216542E-002  -1.3940455372148830E-002   2.9050534435404729E-002
   4.4315823129193216E-002  -1.3261682984396339E-002   2.8566752542683260E-002
   4.2107948235169834E-002  -1.2546207376959301E-002   2.8194848925070459E-002
   3.9900073341146508E-002  -1.1794028549838180E-002   2.7934823582566659E-002
   3.7692198447123126E-002  -1.1005146503032526E-002   2.7786676515171194E-002
   4.2530932377636471E-002  -1.2708568268428144E-002   3.4017107522944290E-002
   4.0442444810889405E-002  -1.2054247001321072E-002   3.3612378780279589E-002
   3.8353957244142409E-002  -1.1372275396338255E-002   3.3334546417059074E-002
   3.6265469677395364E-002  -1.0662653453479866E-002   3.3183610433282371E-002
   3.4176982110648291E-002  -9.9253811727458841E-003   3.3159570828949492E-002
   3.8577534051165541E-002  -1.1476681164707514E-002   3.8963755930743110E-002
   3.6623451916030066E-002  -1.0846811018245806E-002   3.8629027456326376E-002
   3.4669369780894591E-002  -1.0198343415717223E-002   3.8436213465688956E-002
   3.2715287645759129E-002  -9.5312783571216662E-003   3.8385313958830623E-002
   3.0761205510623627E-002  -8.8456158424592424E-003   3.8476328935751536E-002
   3.4663503043803653E-002  -1.0244794060986856E-002   4.3890479658800642E-002
   3.2858844444614996E-002  -9.6393750351706498E-003   4.3616698570823252E-002
   3.1054185845426328E-002  -9.0244114350960178E-003   4.3499850070960258E-002
   2.9249527246237701E-002  -8.3999032607634649E-003   4.3539934159211875E-002
   2.7444868647049002E-002  -7.7658505121726562E-003   4.3736950835577715E-002
   3.0788839355550879E-002  -9.0129069572662535E-003   4.8797278707117198E-002
   2.9148622396644314E-002  -8.4319390520953275E-003   4.8575392123770322E-002
   2.7508405437737721E-002  -7.8504794544750761E-003   4.8525456232873382E-002
   2.5868188478831142E-002  -7.2685281644051351E-003   4.8647471034425835E-002
   2.4227971519924563E-002  -6.6860851818859590E-003   4.8941436528428306E-002
   3.7692198447123126E-002  -1.1005146503032526E-002   2.7786676515171194E-002
   3.5275412444758514E-002  -1.0213049972992660E-002   2.7169398700092384E-002
   3.2858626442393901E-002  -9.4512276961685737E-003   2.6705766258056207E-002
   3.0441840440029289E-002  -8.7196796725608483E-003   2.6395779189061608E-002
   2.8025054437664620E-002  -8.0184059021689569E-003   2.6239437493109641E-002
   3.4176982110648291E-002  -9.9253811727458841E-003   3.3159570828949492E-002
   3.1914400191594916E-002  -9.1842899987762405E-003   3.2617148058279810E-002
   2.9651818272541569E-002  -8.4632113762108385E-003   3.2229488081190111E-002
   2.7389236353488167E-002  -7.7621453050501707E-003   3.1996590897680977E-002
   2.5126654434434847E-002  -7.0810917852937028E-003   3.1918456507752047E-002
   3.0761205510623627E-002  -8.8456158424592424E-003   3.8476328935751536E-002
   2.8653945095419533E-002  -8.1555300245598206E-003   3.8019022911302242E-002
   2.6546684680215454E-002  -7.4751950562531033E-003   3.7717597100971265E-002
   2.4439424265011361E-002  -6.8046109375396041E-003   3.7572051504758841E-002
   2.2332163849807282E-002  -6.1437776684187262E-003   3.7582386122664430E-002
   2.7444868647049002E-002  -7.7658505121726562E-003   4.3736950835577715E-002
   2.5494047156232290E-002  -7.1267700503430675E-003   4.3375023259160601E-002
   2.3543225665415581E-002  -6.4871787362952571E-003   4.3170093317399662E-002
   2.1592404174598893E-002  -5.8470765700289265E-003   4.3122161010295292E-002
   1.9641582683782213E-002  -5.2064635515437774E-003   4.3231226337847220E-002
   2.4227971519924563E-002  -6.6860851818859590E-003   4.8941436528428306E-002
   2.2434706374033248E-002  -6.0980100761269251E-003   4.8685149101854397E-002
   2.0641441228141960E-002  -5.4991624163375497E-003   4.8586976730475295E-002
   1.8848176082250673E-002  -4.8895422025182281E-003   4.8646919414290307E-002
   1.7054910936359330E-002  -4.2691494346686065E-003   4.8864977153299849E-002
   2.8025054437664620E-002  -8.0184059021689569E-003   2.6239437493109641E-002
   2.5688796263642233E-002  -7.3031723219950107E-003   2.5671603060260839E-002
   2.3352538089619762E-002  -6.5297448690408988E-003   2.5045342593698838E-002
   2.1016279915597361E-002  -5.6981235433073985E-003   2.4360656093423388E-002
   1.8680021741574904E-002  -4.8083083447937325E-003   2.3617543559435017E-002
   2.5126654434434847E-002  -7.0810917852937028E-003   3.1918456507752047E-002
   2.2771250398932436E-002  -6.4029375972219915E-003   3.1530015546145984E-002
   2.0415846363430107E-002  -5.7105695211156493E-003   3.1161708895293544E-002
   1.8060442327927764E-002  -5.0039875569741626E-003   3.0813536555194573E-002
   1.5705038292425366E-002  -4.2831917047979617E-003   3.0485498525848365E-002
   2.2332163849807282E-002  -6.1437776684187262E-003   3.7582386122664430E-002
   2.0036174297291529E-002  -5.5027028724494997E-003   3.7329358647556626E-002
   1.7740184744775740E-002  -4.8913941731901778E-003   3.7175025827668629E-002
   1.5444195192259955E-002  -4.3098515706411489E-003   3.7119387663000297E-002
   1.3148205639744198E-002  -3.7580750648020245E-003   3.7162444153551827E-002
   1.9641582683782213E-002  -5.2064635515437774E-003   4.3231226337847220E-002
   1.7483567958719370E-002  -4.6024681476767443E-003   4.3069632364492266E-002
   1.5325553233656719E-002  -4.0722188252644842E-003   4.3085293390823731E-002
   1.3167538508593972E-002  -3.6157155843079131E-003   4.3278209416841830E-002
   1.1009523783531226E-002  -3.2329584248060594E-003   4.3648380442545244E-002
   1.7054910936359330E-002  -4.2691494346686065E-003   4.8864977153299849E-002
   1.5113431383216192E-002  -3.7022334229040443E-003   4.8750836696953126E-002
   1.3171951830072984E-002  -3.2530434773392625E-003   4.8892511584759157E-002
   1.1230472276929797E-002  -2.9215795979749062E-003   4.9290001816717804E-002
   9.2889927237866377E-003  -2.7078417848103165E-003   4.9943307392829484E-002
   1.8680021741574904E-002  -4.8083083447937325E-003   2.3617543559435017E-002
   1.5656136986542779E-002  -4.0787191031486092E-003   2.4399731335097208E-002
   1.2632252231510627E-002  -3.7277756480201540E-003   2.5657199345340664E-002
   9.6083674764785021E-003  -3.7554779794089707E-003   2.7389947590165137E-002
   6.5844827214463497E-003  -4.1618260973139698E-003   2.9597976069571708E-002
   1.5705038292425366E-002  -4.2831917047979617E-003   3.0485498525848365E-002
   1.3137773715078016E-002  -3.7731502909061354E-003   3.1259992765521771E-002
   1.0570509137730638E-002  -3.6988316416175504E-003   3.2472447125982962E-002
   8.0032445603832741E-003  -4.0602357569329839E-003   3.4122861607232408E-002
   5.4359799830359101E-003  -4.8573626368524359E-003   3.6211236209270137E-002
   1.3148205639744198E-002  -3.7580750648020245E-003   3.7162444153551827E-002
   1.1000241126288224E-002  -3.4675814786632175E-003   3.7872167879149626E-002
   8.8522766128322355E-003  -3.6698876352150717E-003   3.8982531611741991E-002
   6.7043120993762542E-003  -4.3649935344574446E-003   4.0493535351329303E-002
   4.5563475859202729E-003  -5.5528991763906799E-003   4.2405179097911305E-002
   1.1009523783531226E-002  -3.2329584248060594E-003   4.3648380442545244E-002
   9.2435392201733052E-003  -3.1620126664204662E-003   4.4236256675980842E-002
   7.4775546568153529E-003  -3.6409436288126415E-003   4.5187452802617475E-002
   5.7115700934574024E-003  -4.6697513119819036E-003   4.6501968822455546E-002
   3.9455855300994797E-003  -6.2484357159291459E-003   4.8179804735494880E-002
   9.2889927237866377E-003  -2.7078417848103165E-003   4.9943307392829484E-002
   7.8676679967333296E-003  -2.8564438541778259E-003   5.0352259156015600E-002
   6.4463432696800493E-003  -3.6119996224099893E-003   5.1087210698609387E-002
   5.0250185426267829E-003  -4.9745090895061406E-003   5.2148162020611233E-002
   3.6036938155735165E-003  -6.9439722554673899E-003   5.3535113122020972E-002
   6.5844827214463497E-003  -4.1618260973139698E-003   2.9597976069571708E-002
   6.0561165755780855E-003  -6.1426064800598201E-003   3.4075901254749463E-002
   5.5277504297097657E-003  -1.0893605605969081E-002   3.9238831218020742E-002
   4.9993842838414460E-003  -1.8414823475042391E-002   4.5086765959385044E-002
   4.4710181379732372E-003  -2.8706260087280278E-002   5.1619705478843425E-002
   5.4359799830359101E-003  -4.8573626368524359E-003   3.6211236209270137E-002
   5.4888506579703622E-003  -6.9906662842064149E-003   3.8350839021736638E-002
   5.5417213329048698E-003  -1.1360600701826901E-002   4.0967910697715104E-002
   5.5945920078394190E-003  -1.7967165889713511E-002   4.4062451237205813E-002
   5.6474626827738850E-003  -2.6810361847866115E-002   4.7634460640208154E-002
   4.5563475859202729E-003  -5.5528991763906799E-003   4.2405179097911305E-002
   4.9829191670759526E-003  -7.8387260883533427E-003   4.2740047510564483E-002
   5.4094907482316462E-003  -1.1827595797684498E-002   4.3344848872148262E-002
   5.8360623293873398E-003  -1.7519508304384021E-002   4.4219583182662281E-002
   6.2626339105430195E-003  -2.4914463608451953E-002   4.5364250442107013E-002
   3.9455855300994797E-003  -6.2484357159291459E-003   4.8179804735494880E-002
   4.5383221028947630E-003  -8.6867858925003261E-003   4.7243526721232255E-002
   5.1310586756900430E-003  -1.2294590893541985E-002   4.6369645741319063E-002
   5.7237952484853784E-003  -1.7071850719054614E-002   4.5558161795755302E-002
   6.3165318212806618E-003  -2.3018565369037902E-002   4.4809074884538280E-002
   3.6036938155735165E-003  -6.9439722554673899E-003   5.3535113122020972E-002
   4.1550594654267969E-003  -9.5348456966468653E-003   5.1861276653741073E-002
   4.7064251152801606E-003  -1.2761585989399693E-002   5.0042301305228243E-002
   5.2577907651334826E-003  -1.6624193133725373E-002   4.8078187076482704E-002
   5.8091564149868047E-003  -2.1122667129623629E-002   4.5968933967504455E-002
   5.1117728823806718E-002  -1.4893503497824312E-002   4.6477082748116627E-002
   4.9151408885855646E-002  -1.4526858830982536E-002   4.6208590801163851E-002
   4.7185088947904547E-002  -1.4118734774941952E-002   4.6276149841994046E-002
   4.5218769009953433E-002  -1.3669131329702777E-002   4.6679759870607504E-002
   4.3252449072002375E-002  -1.3178048495264771E-002   4.7419420887003960E-002
   4.4803976544413732E-002  -1.3010463608637557E-002   5.1323593830010839E-002
   4.3158282946967205E-002  -1.2689966571025807E-002   5.0971092779015070E-002
   4.1512589349520623E-002  -1.2334429157426469E-002   5.0923793421244895E-002
   3.9866895752074055E-002  -1.1943851367839577E-002   5.1181695756701034E-002
   3.8221202154627473E-002  -1.1518233202265221E-002   5.1744799785382906E-002
   3.8383379925662930E-002  -1.1127423719450774E-002   5.6127176789280878E-002
   3.7027463374163801E-002  -1.0853074311069050E-002   5.5684227621030535E-002
   3.5671546822664615E-002  -1.0550123539910909E-002   5.5515630851449026E-002
   3.4315630271165458E-002  -1.0218571405976462E-002   5.5621386480536397E-002
   3.2959713719666273E-002  -9.8584179092655877E-003   5.6001494508292393E-002
   3.1855938967554537E-002  -9.2443838302639775E-003   6.0887831625926384E-002
   3.0758950167445599E-002  -9.0161820511122509E-003   6.0347995327210406E-002
   2.9661961367336637E-002  -8.7658179223954157E-003   6.0051662132606286E-002
   2.8564972567227682E-002  -8.4932914441132219E-003   5.9998832042113842E-002
   2.7467983767118741E-002  -8.1986026162659681E-003   6.0189505055732929E-002
   2.5221653670088329E-002  -7.3613439410772363E-003   6.5605558339947523E-002
   2.4352743326812476E-002  -7.1792897911555631E-003   6.4962395897554814E-002
   2.3483832983536609E-002  -6.9815123048798666E-003   6.4531887264716870E-002
   2.2614922640260729E-002  -6.7680114822501747E-003   6.4314032441433300E-002
   2.1746012296984876E-002  -6.5387873232664040E-003   6.4308831427704216E-002
   4.3252449072002375E-002  -1.3178048495264771E-002   4.7419420887003960E-002
   4.1923089470089950E-002  -1.2668327146043518E-002   4.7590332167601584E-002
   4.0593729868177525E-002  -1.2162808156454791E-002   4.7834493764981834E-002
   3.9264370266265100E-002  -1.1661491526498181E-002   4.8151905679144721E-002
   3.7935010664352703E-002  -1.1164377256174252E-002   4.8542567910090040E-002
   3.8221202154627473E-002  -1.1518233202265221E-002   5.1744799785382906E-002
   3.6985030479181655E-002  -1.1075625213798318E-002   5.1702775613160473E-002
   3.5748858803735802E-002  -1.0634077955534275E-002   5.1773876977088781E-002
   3.4512687128289948E-002  -1.0193591427472766E-002   5.1958103877167698E-002
   3.3276515452844102E-002  -9.7541656296140644E-003   5.2255456313396953E-002
   3.2959713719666273E-002  -9.8584179092655877E-003   5.6001494508292393E-002
   3.1856605190054982E-002  -9.4829232815530490E-003   5.5749676512679820E-002
   3.0753496660443677E-002  -9.1053477546135936E-003   5.5650859272585965E-002
   2.9650388130832362E-002  -8.7256913284472944E-003   5.5705042788010424E-002
   2.8547279601221082E-002  -8.3439540030539883E-003   5.5912227058953615E-002
   2.7467983767118741E-002  -8.1986026162659681E-003   6.0189505055732929E-002
   2.6537813602709952E-002  -7.8902213493077591E-003   5.9731034866159743E-002
   2.5607643438301159E-002  -7.5766175536931060E-003   5.9465440651473245E-002
   2.4677473273892369E-002  -7.2577912294217953E-003   5.9392722411673073E-002
   2.3747303109483576E-002  -6.9337423764939121E-003   5.9512880146759539E-002
   2.1746012296984876E-002  -6.5387873232664040E-003   6.4308831427704216E-002
   2.1028655717146572E-002  -6.2975194170626081E-003   6.3646850673600125E-002
   2.0311299137308260E-002  -6.0478873527723687E-003   6.3217621113750594E-002
   1.9593942557469938E-002  -5.7898911303962616E-003   6.3021142748155512E-002
   1.8876585977631616E-002  -5.5235307499337249E-003   6.3057415576814768E-002
   3.7935010664352703E-002  -1.1164377256174252E-002   4.8542567910090040E-002
   3.6148467837152254E-002  -1.0658650544611736E-002   4.8318191285814382E-002
   3.4361925009951805E-002  -1.0131496590939218E-002   4.8285850877227005E-002
   3.2575382182751342E-002  -9.5829153951575603E-003   4.8445546684327864E-002
   3.0788839355550879E-002  -9.0129069572662535E-003   4.8797278707117198E-002
   3.3276515452844102E-002  -9.7541656296140644E-003   5.2255456313396953E-002
   3.1688601708863631E-002  -9.3061832592163940E-003   5.1986732475234027E-002
   3.0100687964883160E-002  -8.8400270135373105E-003   5.1923230587822583E-002
   2.8512774220902697E-002  -8.3556968925772163E-003   5.2064950651162900E-002
   2.6924860476922205E-002  -7.8531928963361253E-003   5.2411892665255033E-002
   2.8547279601221082E-002  -8.3439540030539883E-003   5.5912227058953615E-002
   2.7171180675523973E-002  -7.9537159738210239E-003   5.5595902640074524E-002
   2.5795081749826851E-002  -7.5485574361352850E-003   5.5497985907010737E-002
   2.4418982824129781E-002  -7.1284783899969260E-003   5.5618476859761873E-002
   2.3042883898432648E-002  -6.6934788354060804E-003   5.5957375498328008E-002
   2.3747303109483576E-002  -6.9337423764939121E-003   5.9512880146759539E-002
   2.2596204737133221E-002  -6.6012486884255567E-003   5.9145701780336193E-002
   2.1445106364782855E-002  -6.2570878587332908E-003   5.9010116834791314E-002
   2.0294007992432528E-002  -5.9012598874166088E-003   5.9106125310124845E-002
   1.9142909620082169E-002  -5.5337647744758828E-003   5.9433727206336995E-002
   1.8876585977631616E-002  -5.5235307499337249E-003   6.3057415576814768E-002
   1.7963673893691440E-002  -5.2487814030302837E-003   6.2636129896018633E-002
   1.7050761809751222E-002  -4.9656182813313243E-003   6.2459623371164369E-002
   1.6137849725811011E-002  -4.6740413848362014E-003   6.2527896002251837E-002
   1.5224937641870800E-002  -4.3740507135459072E-003   6.2840947789281176E-002
   3.0788839355550879E-002  -9.0129069572662535E-003   4.8797278707117198E-002
   2.9148622396644314E-002  -8.4319390520953275E-003   4.8575392123770322E-002
   2.7508405437737721E-002  -7.8504794544750761E-003   4.8525456232873382E-002
   2.5868188478831142E-002  -7.2685281644051351E-003   4.8647471034425835E-002
   2.4227971519924563E-002  -6.6860851818859590E-003   4.8941436528428306E-002
   2.6924860476922205E-002  -7.8531928963361253E-003   5.2411892665255033E-002
   2.5462202450068944E-002  -7.3404436598008549E-003   5.2179020770529105E-002
   2.3999544423215717E-002  -6.8253778179583890E-003   5.2129316047460489E-002
   2.2536886396362473E-002  -6.3079953708085473E-003   5.2262778496048740E-002
   2.1074228369509229E-002  -5.7882963183514269E-003   5.2579408116293858E-002
   2.3042883898432648E-002  -6.6934788354060804E-003   5.5957375498328008E-002
   2.1769001282839998E-002  -6.2489482675062435E-003   5.5715343205081175E-002
   2.0495118667247340E-002  -5.8002761814415979E-003   5.5667694562698662E-002
   1.9221236051654694E-002  -5.3474625772118502E-003   5.5814429571180338E-002
   1.7947353436062033E-002  -4.8905074548170058E-003   5.6155548230526209E-002
   1.9142909620082169E-002  -5.5337647744758828E-003   5.9433727206336995E-002
   1.8069018894957392E-002  -5.1574528752118126E-003   5.9184359427426600E-002
   1.6995128169832618E-002  -4.7751745449248033E-003   5.9140591778587957E-002
   1.5921237444707841E-002  -4.3869297836152078E-003   5.9302424259820567E-002
   1.4847346719583088E-002  -3.9927185912825847E-003   5.9669856871124950E-002
   1.5224937641870800E-002  -4.3740507135459072E-003   6.2840947789281176E-002
   1.4362255286421169E-002  -4.0659574829171596E-003   6.2586069437565395E-002
   1.3499572930971537E-002  -3.7500729084081474E-003   6.2548007695128305E-002
   1.2636890575521892E-002  -3.4263969900185168E-003   6.2726762561970101E-002
   1.1774208220072246E-002  -3.0949297277480525E-003   6.3122334038090422E-002
   2.4227971519924563E-002  -6.6860851818859590E-003   4.8941436528428306E-002
   2.2434706374033248E-002  -6.0980100761269251E-003   4.8685149101854397E-002
   2.0641441228141960E-002  -5.4991624163375497E-003   4.8586976730475295E-002
   1.8848176082250673E-002  -4.8895422025182281E-003   4.8646919414290307E-002
   1.7054910936359330E-002  -4.2691494346686065E-003   4.8864977153299849E-002
   2.1074228369509229E-002  -5.7882963183514269E-003   5.2579408116293858E-002
   1.9450877668855920E-002  -5.2655605045642262E-003   5.2369053032423285E-002
   1.7827526968202598E-002  -4.7390677734249764E-003   5.2340411783834084E-002
   1.6204176267549282E-002  -4.2088181249324425E-003   5.2493484370526436E-002
   1.4580825566895966E-002  -3.6748115590875541E-003   5.2828270792500465E-002
   1.7947353436062033E-002  -4.8905074548170058E-003   5.6155548230526209E-002
   1.6517515960733788E-002  -4.4331109330021101E-003   5.5984109852681152E-002
   1.5087678485405556E-002  -3.9789731305121673E-003   5.6017984090204712E-002
   1.3657841010077311E-002  -3.5280940473469309E-003   5.6257170943097075E-002
   1.2228003534749045E-002  -3.0804736835065571E-003   5.6701670411357680E-002
   1.4847346719583088E-002  -3.9927185912825847E-003   5.9669856871124950E-002
   1.3634621249666933E-002  -3.6006613614398136E-003   5.9530319562628123E-002
   1.2421895779750806E-002  -3.2188784875994206E-003   5.9619693649586997E-002
   1.1209170309834683E-002  -2.8473699697613934E-003   5.9937979132001447E-002
   9.9964448399185533E-003  -2.4861358079254214E-003   6.0485176009871487E-002
   1.1774208220072246E-002  -3.0949297277480525E-003   6.3122334038090422E-002
   1.0802193535655313E-002  -2.7682117898772951E-003   6.3007682162264378E-002
   9.8301788512383803E-003  -2.4587838446867571E-003   6.3145540461980787E-002
   8.8581641668214472E-003  -2.1666458921756823E-003   6.3535908937240176E-002
   7.8861494824045142E-003  -1.8917979323445078E-003   6.4178787588042185E-002
   1.7054910936359330E-002  -4.2691494346686065E-003   4.8864977153299849E-002
   1.5113431383216192E-002  -3.7022334229040443E-003   4.8750836696953126E-002
   1.3171951830072984E-002  -3.2530434773392625E-003   4.8892511584759157E-002
   1.1230472276929797E-002  -2.9215795979749062E-003   4.9290001816717804E-002
   9.2889927237866377E-003  -2.7078417848103165E-003   4.9943307392829484E-002
   1.4580825566895966E-002  -3.6748115590875541E-003   5.2828270792500465E-002
   1.2894303260975654E-002  -3.1968749715910461E-003   5.2717724106415398E-002
   1.1207780955055285E-002  -2.8348352581440139E-003   5.2861276570623200E-002
   9.5212586491349380E-003  -2.5886924187471030E-003   5.3258928185124080E-002
   7.8347363432146044E-003  -2.4584464533994321E-003   5.3910678949917745E-002
   1.2228003534749045E-002  -3.0804736835065571E-003   5.6701670411357680E-002
   1.0794722282191693E-002  -2.6915165202782421E-003   5.6596546687684518E-002
   9.3614410296343105E-003  -2.4166270389490846E-003   5.6743805920444548E-002
   7.9281597770769468E-003  -2.2558052395192964E-003   5.7143448109637666E-002
   6.4948785245195761E-003  -2.2090511219887699E-003   5.7795473255263685E-002
   9.9964448399185533E-003  -2.4861358079254214E-003   6.0485176009871487E-002
   8.8146884468642966E-003  -2.1861580689653409E-003   6.0387304440761007E-002
   7.6329320538100391E-003  -1.9984188197537181E-003   6.0540099634223590E-002
   6.4511756607557764E-003  -1.9229180602916025E-003   6.0943561590259238E-002
   5.2694192677015250E-003  -1.9596557905781631E-003   6.1597690308868233E-002
   7.8861494824045142E-003  -1.8917979323445078E-003   6.4178787588042185E-002
   6.9542017549935053E-003  -1.6807996176524953E-003   6.4089997365644358E-002
   6.0222540275824826E-003  -1.5802106005588235E-003   6.4250157711959854E-002
   5.0903063001714668E-003  -1.5900308810636657E-003   6.4659268626988564E-002
   4.1583585727604788E-003  -1.7102604591673343E-003   6.5317330110730487E-002
   9.2889927237866377E-003  -2.7078417848103165E-003   4.9943307392829484E-002
   7.8676679967333296E-003  -2.8564438541778259E-003   5.0352259156015600E-002
   6.4463432696800493E-003  -3.6119996224099893E-003   5.1087210698609387E-002
   5.0250185426267829E-003  -4.9745090895061406E-003   5.2148162020611233E-002
   3.6036938155735165E-003  -6.9439722554673899E-003   5.3535113122020972E-002
   7.8347363432146044E-003  -2.4584464533994321E-003   5.3910678949917745E-002
   6.7135855632650260E-003  -2.6428517772517091E-003   5.3848023741069007E-002
   5.5924347833154892E-003  -3.3406628054544196E-003   5.4059716647019918E-002
   4.4712840033659176E-003  -4.5518795380066757E-003   5.4545757667769978E-002
   3.3501332234163739E-003  -6.2765019749095874E-003   5.5306146803320133E-002
   6.4948785245195761E-003  -2.2090511219887699E-003   5.7795473255263685E-002
   5.6222500270652065E-003  -2.4292597003257033E-003   5.7354759068894867E-002
   4.7496215296108854E-003  -3.0693259884986279E-003   5.7136741332717039E-002
   3.8769930321565262E-003  -4.1292499865072108E-003   5.7141420046730285E-002
   3.0043645347021947E-003  -5.6090316943517848E-003   5.7368795210934187E-002
   5.2694192677015250E-003  -1.9596557905781631E-003   6.1597690308868233E-002
   4.5936613881338920E-003  -2.2156676233998085E-003   6.0872465139493487E-002
   3.9179035085662468E-003  -2.7979891715427252E-003   6.0318284755701265E-002
   3.2421456289985938E-003  -3.7066204350074128E-003   5.9935149157491263E-002
   2.5663877494309685E-003  -4.9415614137938713E-003   5.9723058344864036E-002
   4.1583585727604788E-003  -1.7102604591673343E-003   6.5317330110730487E-002
   3.6278196464710061E-003  -2.0020755464736362E-003   6.4401141952864283E-002
   3.0972807201815611E-003  -2.5266523545872388E-003   6.3604346915971888E-002
   2.5667417938921022E-003  -3.2839908835079409E-003   6.2926945000053441E-002
   2.0362028676026434E-003  -4.2740911332361797E-003   6.2368936205108971E-002
   3.6036938155735165E-003  -6.9439722554673899E-003   5.3535113122020972E-002
   4.1550594654267969E-003  -9.5348456966468653E-003   5.1861276653741073E-002
   4.7064251152801606E-003  -1.2761585989399693E-002   5.0042301305228243E-002
   5.2577907651334826E-003  -1.6624193133725373E-002   4.8078187076482704E-002
   5.8091564149868047E-003  -2.1122667129623629E-002   4.5968933967504455E-002
   3.3501332234163739E-003  -6.2765019749095874E-003   5.5306146803320133E-002
   3.7738080241333932E-003  -8.5453620125221508E-003   5.2952082095258368E-002
   4.1974828248503848E-003  -1.1389291547203417E-002   5.0487774569156652E-002
   4.6211576255673278E-003  -1.4808290578953567E-002   4.7913224225014622E-002
   5.0448324262843403E-003  -1.8802359107773059E-002   4.5228431062833030E-002
   3.0043645347021947E-003  -5.6090316943517848E-003   5.7368795210934187E-002
   3.3352445484756688E-003  -7.5558783283966591E-003   5.4395299617594706E-002
   3.6661245622491359E-003  -1.0016997105006475E-002   5.1346457268408058E-002
   3.9970045760225718E-003  -1.2992388024181872E-002   4.8222268163374382E-002
   4.3278845897960772E-003  -1.6482051085922267E-002   4.5022732302493429E-002
   2.5663877494309685E-003  -4.9415614137938713E-003   5.9723058344864036E-002
   2.8393690384537137E-003  -6.5663946442713339E-003   5.6190929220750460E-002
   3.1123503274764468E-003  -8.6447026628099777E-003   5.2618349402982420E-002
   3.3853316164992346E-003  -1.1176485469410122E-002   4.9005318891561053E-002
   3.6583129055219252E-003  -1.4161743064071586E-002   4.5351837686484209E-002
   2.0362028676026434E-003  -4.2740911332361797E-003   6.2368936205108971E-002
   2.2861814940674935E-003  -5.5769109601462308E-003   5.8338970904725507E-002
   2.5361601205323298E-003  -7.2724082206136464E-003   5.4303450972880807E-002
   2.7861387469971868E-003  -9.3605829146385239E-003   5.0262376409574261E-002
   3.0361173734619884E-003  -1.1841435042220905E-002   4.6215747214806591E-002
   2.5221653670088329E-002  -7.3613439410772363E-003   6.5605558339947523E-002
   2.4352743326812476E-002  -7.1792897911555631E-003   6.4962395897554814E-002
   2.3483832983536609E-002  -6.9815123048798666E-003   6.4531887264716870E-002
   2.2614922640260729E-002  -6.7680114822501747E-003   6.4314032441433300E-002
   2.1746012296984876E-002  -6.5387873232664040E-003   6.4308831427704216E-002
   1.8629519799960914E-002  -5.5210080848884235E-003   6.4819683776133508E-002
   1.7974406689828984E-002  -5.3844674472457443E-003   6.4382569869315676E-002
   1.7319293579697047E-002  -5.2361343100572333E-003   6.4160396619231008E-002
   1.6664180469565113E-002  -5.0760086733228141E-003   6.4153164025879839E-002
   1.6009067359433193E-002  -4.9040905370425769E-003   6.4360872089261972E-002
   1.2228533123868755E-002  -3.6806722286996385E-003   6.3990261118444663E-002
   1.1789504094059600E-002  -3.5896451033359256E-003   6.3755264910393267E-002
   1.1350475064250451E-002  -3.4907563152345999E-003   6.3737496206253935E-002
   1.0911446034441299E-002  -3.3840058643955367E-003   6.3936955006026849E-002
   1.0472417004632157E-002  -3.2693937508188053E-003   6.4353641309711995E-002
   6.0186936418118488E-003  -1.8403363725108535E-003   6.3117290366881088E-002
   5.7980355395043544E-003  -1.7948227594261346E-003   6.3080481020787782E-002
   5.5773774371968357E-003  -1.7453783204118833E-003   6.3263186025785637E-002
   5.3567193348893248E-003  -1.6920030554682178E-003   6.3665405381874540E-002
   5.1360612325818218E-003  -1.6346969645950060E-003   6.4287139089054479E-002
   1.3537902188165418E-009  -5.1632204067786347E-010   6.2200771521442322E-002
   1.0261632030217349E-009  -4.1551634355485589E-010   6.2358218200499249E-002
   6.9853618722692801E-010  -3.2558930551651599E-010   6.2737466077826043E-002
   3.7090916796267415E-010  -2.4654090574616205E-010   6.3338515153422814E-002
   4.3282155637314190E-011  -1.7837120669383921E-010   6.4161365427289341E-002
   2.1746012296984876E-002  -6.5387873232664040E-003   6.4308831427704216E-002
   2.1028655717146572E-002  -6.2975194170626081E-003   6.3646850673600125E-002
   2.0311299137308260E-002  -6.0478873527723687E-003   6.3217621113750594E-002
   1.9593942557469938E-002  -5.7898911303962616E-003   6.3021142748155512E-002
   1.8876585977631616E-002  -5.5235307499337249E-003   6.3057415576814768E-002
   1.6009067359433193E-002  -4.9040905370425769E-003   6.4360872089261972E-002
   1.5511108961106246E-002  -4.7231395935959791E-003   6.3893151541602036E-002
   1.5013150562779312E-002  -4.5359155353626515E-003   6.3631476162710407E-002
   1.4515192164452375E-002  -4.3424183623422558E-003   6.3575845952587001E-002
   1.4017233766125452E-002  -4.1426480745350158E-003   6.3726260911231986E-002
   1.0472417004632157E-002  -3.2693937508188053E-003   6.4353641309711995E-002
   1.0167150762330417E-002  -3.1487597701294751E-003   6.4078089925196868E-002
   9.8618845200286864E-003  -3.0239437179526013E-003   6.3981877683963906E-002
   9.5566182777269450E-003  -2.8949455942881945E-003   6.4065004586012941E-002
   9.2513520354252157E-003  -2.7617653991362512E-003   6.4327470631344169E-002
   5.1360612325818218E-003  -1.6346969645950060E-003   6.4287139089054479E-002
   4.9967811208191035E-003  -1.5743799466629363E-003   6.4201665824384857E-002
   4.8575010090563791E-003  -1.5119719005426344E-003   6.4268825677511146E-002
   4.7182208972936564E-003  -1.4474728262342165E-003   6.4488618648433360E-002
   4.5789407855309373E-003  -1.3808827237375421E-003   6.4861044737151485E-002
   4.3282155637314190E-011  -1.7837120669383921E-010   6.4161365427289341E-002
   3.6572269518364564E-011  -1.2319639752789158E-010   6.4263879239165878E-002
   2.9862383399414938E-011  -8.3132778438965715E-011   6.4492320143352072E-002
   2.3152493811018360E-011  -5.8180169015820127E-011   6.4846688139848147E-002
   1.6442611161515686E-011  -4.8338721914120697E-011   6.5326983228653823E-002
   1.8876585977631616E-002  -5.5235307499337249E-003   6.3057415576814768E-002
   1.7963673893691440E-002  -5.2487814030302837E-003   6.2636129896018633E-002
   1.7050761809751222E-002  -4.9656182813313243E-003   6.2459623371164369E-002
   1.6137849725811011E-002  -4.6740413848362014E-003   6.2527896002251837E-002
   1.5224937641870800E-002  -4.3740507135459072E-003   6.2840947789281176E-002
   1.4017233766125452E-002  -4.1426480745350158E-003   6.3726260911231986E-002
   1.3344963053593874E-002  -3.9365860636131900E-003   6.3401669979827657E-002
   1.2672692341062299E-002  -3.7242137212488147E-003   6.3313582635298613E-002
   1.2000421628530716E-002  -3.5055310474423756E-003   6.3461998877645059E-002
   1.1328150915999161E-002  -3.2805380421936370E-003   6.3846918706866929E-002
   9.2513520354252157E-003  -2.7617653991362512E-003   6.4327470631344169E-002
   8.8114471252358564E-003  -2.6243907241959991E-003   6.4097471005978318E-002
   8.3715422150465076E-003  -2.4828091611668740E-003   6.4095699398421219E-002
   7.9316373048571500E-003  -2.3370207100485534E-003   6.4322155808673259E-002
   7.4917323946677924E-003  -2.1870253708413667E-003   6.4776840236734357E-002
   4.5789407855309373E-003  -1.3808827237375421E-003   6.4861044737151485E-002
   4.3631261086173930E-003  -1.3121953847788012E-003   6.4723532974470518E-002
   4.1473114317038479E-003  -1.2414046010847044E-003   6.4805973660532229E-002
   3.9314967547903028E-003  -1.1685103726547293E-003   6.5108366795336478E-002
   3.7156820778767655E-003  -1.0935126994892075E-003   6.5630712378883377E-002
   1.6442611161515686E-011  -4.8338721914120697E-011   6.5326983228653823E-002
   3.7384678686080974E-012  -4.5361742140315187E-011   6.5279855885304605E-002
  -8.9656754242994907E-012  -4.1002562456426972E-011   6.5444405421631602E-002
  -2.1669818717207079E-011  -3.5260884490018185E-011   6.5820631837634785E-002
  -3.4373962010114667E-011  -2.8136881713436424E-011   6.6408535133314073E-002
   1.5224937641870800E-002  -4.3740507135459072E-003   6.2840947789281176E-002
   1.4362255286421169E-002  -4.0659574829171596E-003   6.2586069437565395E-002
   1.3499572930971537E-002  -3.7500729084081474E-003   6.2548007695128305E-002
   1.2636890575521892E-002  -3.4263969900185168E-003   6.2726762561970101E-002
   1.1774208220072246E-002  -3.0949297277480525E-003   6.3122334038090422E-002
   1.1328150915999161E-002  -3.2805380421936370E-003   6.3846918706866929E-002
   1.0681998664855086E-002  -3.0494681174559890E-003   6.3658939480425947E-002
   1.0035846413711004E-002  -2.8125546851832384E-003   6.3687203853317609E-002
   9.3896941625669396E-003  -2.5697977453752116E-003   6.3931711825541332E-002
   8.7435419114228613E-003  -2.3211972980319295E-003   6.4392463397097699E-002
   7.4917323946677924E-003  -2.1870253708413667E-003   6.4776840236734357E-002
   7.0615372378828867E-003  -2.0329787519948184E-003   6.4653812299223068E-002
   6.6313420810979740E-003  -1.8750364619584264E-003   6.4746454951097862E-002
   6.2011469243130612E-003  -1.7131985007320140E-003   6.5054768192358586E-002
   5.7709517675281555E-003  -1.5474648683158065E-003   6.5578752023005088E-002
   3.7156820778767655E-003  -1.0935126994892075E-003   6.5630712378883377E-002
   3.5008710055045977E-003  -1.0164893865335922E-003   6.5570687893956481E-002
   3.2860599331324359E-003  -9.3751823873339940E-004   6.5725760988468995E-002
   3.0712488607602707E-003  -8.5659925608892913E-004   6.6095931662421184E-002
   2.8564377883881064E-003  -7.7373243859968355E-004   6.6681199915812867E-002
  -3.4373962010114667E-011  -2.8136881713436424E-011   6.6408535133314073E-002
  -3.2279779543786802E-011  -2.1072366074292859E-011   6.6409566264626130E-002
  -3.0185610955246744E-011  -1.5508830331079082E-011   6.6625121965431272E-002
  -2.8091438897259735E-011  -1.1445570186063847E-011   6.7055202235729486E-002
  -2.5997259900378822E-011  -8.8834495315381901E-012   6.7699807075520813E-002
   1.1774208220072246E-002  -3.0949297277480525E-003   6.3122334038090422E-002
   1.0802193535655313E-002  -2.7682117898772951E-003   6.3007682162264378E-002
   9.8301788512383803E-003  -2.4587838446867571E-003   6.3145540461980787E-002
   8.8581641668214472E-003  -2.1666458921756823E-003   6.3535908937240176E-002
   7.8861494824045142E-003  -1.8917979323445078E-003   6.4178787588042185E-002
   8.7435419114228613E-003  -2.3211972980319295E-003   6.4392463397097699E-002
   8.0216607770992390E-003  -2.0761588442365642E-003   6.4318382316921718E-002
   7.2997796427756098E-003  -1.8440878850715381E-003   6.4492058161389670E-002
   6.5778985084519737E-003  -1.6249844205365807E-003   6.4913490930501472E-002
   5.8560173741283722E-003  -1.4188484506324484E-003   6.5582680624257039E-002
   5.7709517675281555E-003  -1.5474648683158065E-003   6.5578752023005088E-002
   5.2944509323989974E-003  -1.3841058985952781E-003   6.5549564236528607E-002
   4.8179500972698464E-003  -1.2293919254559998E-003   6.5763380123797080E-002
   4.3414492621406918E-003  -1.0833229488975936E-003   6.6220199684810604E-002
   3.8649484270115372E-003  -9.4589896892038894E-004   6.6920022919569361E-002
   2.8564377883881064E-003  -7.7373243859968355E-004   6.6681199915812867E-002
   2.6205640015546025E-003  -6.9205295295415858E-004   6.6701227921085099E-002
   2.3846902147210847E-003  -6.1469596584056568E-004   6.6959506349203585E-002
   2.1488164278875696E-003  -5.4166147725843820E-004   6.7456035200168310E-002
   1.9129426410540631E-003  -4.7294948720838503E-004   6.8190814473979400E-002
  -2.5997259900378822E-011  -8.8834495315381901E-012   6.7699807075520813E-002
  -1.5433966604749827E-011  -7.3132055966595999E-012   6.7773373370591361E-002
  -4.8706767785677840E-012  -6.2251870325269465E-012   6.8080436837609226E-002
   5.6926113128907829E-012  -5.6195464948061158E-012   6.8620997476574436E-002
   1.6255906343243254E-011  -5.4962701057093000E-012   6.9395055287486906E-002
   7.8861494824045142E-003  -1.8917979323445078E-003   6.4178787588042185E-002
   6.9542017549935053E-003  -1.6807996176524953E-003   6.4089997365644358E-002
   6.0222540275824826E-003  -1.5802106005588235E-003   6.4250157711959854E-002
   5.0903063001714668E-003  -1.5900308810636657E-003   6.4659268626988564E-002
   4.1583585727604788E-003  -1.7102604591673343E-003   6.5317330110730487E-002
   5.8560173741283722E-003  -1.4188484506324484E-003   6.5582680624257039E-002
   5.1690293059520401E-003  -1.2605997145993530E-003   6.5432354518184521E-002
   4.4820412377757218E-003  -1.1851579516784505E-003   6.5522997161868130E-002
   3.7950531695994105E-003  -1.1925231618693938E-003   6.5854608555307823E-002
   3.1080651014230853E-003  -1.2826953451726686E-003   6.6427188698503670E-002
   3.8649484270115372E-003  -9.4589896892038894E-004   6.6920022919569361E-002
   3.4149381991126840E-003  -8.4039981154651611E-004   6.6735763254308939E-002
   2.9649279712138238E-003  -7.9010530279806368E-004   6.6784490519847320E-002
   2.5149177433149584E-003  -7.9501544267511839E-004   6.7066204716184380E-002
   2.0649075154161103E-003  -8.5513023117783638E-004   6.7580905843320466E-002
   1.9129426410540631E-003  -4.7294948720838503E-004   6.8190814473979400E-002
   1.6919284344754301E-003  -4.2019990849352651E-004   6.8000223574017332E-002
   1.4709142278967885E-003  -3.9505265391773930E-004   6.8034637785897023E-002
   1.2499000213181577E-003  -3.9750772348090026E-004   6.8294057109618139E-002
   1.0288858147395278E-003  -4.2756511718286538E-004   6.8778481545180875E-002
   1.6255906343243254E-011  -5.4962701057093000E-012   6.9395055287486906E-002
   1.2040271557545168E-011  -5.4405924210243484E-012   6.9225735477310035E-002
   7.8246263635062263E-012  -5.0372206406024134E-012   6.9273438960017308E-002
   3.6089933125316165E-012  -4.2865502813960177E-012   6.9538165735609142E-002
  -6.0665361623080116E-013  -3.1882274598160620E-012   7.0019915804085064E-002
   4.1583585727604788E-003  -1.7102604591673343E-003   6.5317330110730487E-002
   3.6278196464710061E-003  -2.0020755464736362E-003   6.4401141952864283E-002
   3.0972807201815611E-003  -2.5266523545872388E-003   6.3604346915971888E-002
   2.5667417938921022E-003  -3.2839908835079409E-003   6.2926945000053441E-002
   2.0362028676026434E-003  -4.2740911332361797E-003   6.2368936205108971E-002
   3.1080651014230853E-003  -1.2826953451726686E-003   6.6427188698503670E-002
   2.7002296987835156E-003  -1.5015566603742148E-003   6.5317780322897756E-002
   2.2923942961439459E-003  -1.8949892662599443E-003   6.4334385873617755E-002
   1.8845588935043761E-003  -2.4629931628310717E-003   6.3477005350663543E-002
   1.4767234908648064E-003  -3.2055683500857857E-003   6.2745638754035271E-002
   2.0649075154161103E-003  -8.5513023117783638E-004   6.7580905843320466E-002
   1.7863964417783214E-003  -1.0010377742743215E-003   6.6336467680097627E-002
   1.5078853681405255E-003  -1.2633261779327748E-003   6.5224664248552403E-002
   1.2293742945027365E-003  -1.6419954421534287E-003   6.4245495548685028E-002
   9.5086322086492675E-004  -2.1370455669360577E-003   6.3398961580495183E-002
   1.0288858147395278E-003  -4.2756511718286538E-004   6.8778481545180875E-002
   8.8631987545541215E-004  -5.0051888817444212E-004   6.7457204024463674E-002
   7.4375393617130345E-004  -6.3166308960559830E-004   6.6275182040775787E-002
   6.0118799688718087E-004  -8.2099772147617260E-004   6.5232415594117590E-002
   4.5862205760307910E-004  -1.0685227837861078E-003   6.4328904684489055E-002
  -6.0665361623080116E-013  -3.1882274598160620E-012   7.0019915804085064E-002
  -1.8518520050747611E-013  -2.0747292772682613E-012   6.8679989355995841E-002
   2.3626586798108917E-013  -1.2783385461290209E-012   6.7485939250288118E-002
   6.5771693646965446E-013  -7.9881240511170404E-013   6.6437765486961758E-002
   1.0791853521929795E-012  -6.3615779311021470E-013   6.5535468066016955E-002
   2.0362028676026434E-003  -4.2740911332361797E-003   6.2368936205108971E-002
   2.2861814940674935E-003  -5.5769109601462308E-003   5.8338970904725507E-002
   2.5361601205323298E-003  -7.2724082206136464E-003   5.4303450972880807E-002
   2.7861387469971868E-003  -9.3605829146385239E-003   5.0262376409574261E-002
   3.0361173734619884E-003  -1.1841435042220905E-002   4.6215747214806591E-002
   1.4767234908648064E-003  -3.2055683500857857E-003   6.2745638754035271E-002
   1.7069124795585922E-003  -4.1826832202631614E-003   5.8391464799721904E-002
   1.9371014682523988E-003  -5.4543061655993874E-003   5.4003266201328171E-002
   2.1672904569462088E-003  -7.0204371860951853E-003   4.9581042958854127E-002
   2.3974794456399773E-003  -8.8810762817495004E-003   4.5124795072299051E-002
   9.5086322086492675E-004  -2.1370455669360577E-003   6.3398961580495183E-002
   1.1327925591686251E-003  -2.7884554803802031E-003   5.8818748330650455E-002
   1.3147218974722923E-003  -3.6362041105854892E-003   5.4176040424106009E-002
   1.4966512357759854E-003  -4.6802914575515206E-003   4.9470837860861386E-002
   1.6785805740796578E-003  -5.9207175212783181E-003   4.4703140640918071E-002
   4.5862205760307910E-004  -1.0685227837861078E-003   6.4328904684489055E-002
   5.6382173289754641E-004  -1.3942277404971892E-003   5.9620821497511148E-002
   6.6902140819200592E-004  -1.8181020555712996E-003   5.4821773641214246E-002
   7.7422108348648407E-004  -2.3401457290079079E-003   4.9931761115598688E-002
   8.7942075878094661E-004  -2.9603587608070248E-003   4.4950783920664511E-002
   1.0791853521929795E-012  -6.3615779311021470E-013   6.5535468066016955E-002
   7.4536210536990666E-013  -6.1417537722263660E-013   6.0797684300303856E-002
   4.1155967522854553E-013  -5.5716542490813481E-013   5.5940465852652665E-002
   7.7739897852424633E-014  -4.6447568013974205E-013   5.0963812723063995E-002
  -2.5607294062979236E-013  -3.3573144264664734E-013   4.5867724911536900E-002
   1.3537902188165418E-009  -5.1632204067786347E-010   6.2200771521442322E-002
   1.0261632030217349E-009  -4.1551634355485589E-010   6.2358218200499249E-002
   6.9853618722692801E-010  -3.2558930551651599E-010   6.2737466077826043E-002
   3.7090916796267415E-010  -2.4654090574616205E-010   6.3338515153422814E-002
   4.3282155637314190E-011  -1.7837120669383921E-010   6.4161365427289341E-002
  -6.0186911764006645E-003   1.8403355909061281E-003   6.3117291657483754E-002
  -5.7980336713484536E-003   1.7948221346910098E-003   6.3080481864471238E-002
  -5.5773761662962322E-003   1.7453778331448511E-003   6.3263186538547317E-002
  -5.3567186612440230E-003   1.6920026862675894E-003   6.3665405679711892E-002
  -5.1360611561917999E-003   1.6346966940591900E-003   6.4287139287965117E-002
  -1.2228531384965328E-002   3.6806716981342968E-003   6.3990263653730561E-002
  -1.1789502778415244E-002   3.5896446848984742E-003   6.3755266554196194E-002
  -1.1350474171865172E-002   3.4907559918791048E-003   6.3737497190569037E-002
  -1.0911445565315096E-002   3.3840056190761990E-003   6.3936955562849118E-002
  -1.0472416958765017E-002   3.2693935664896978E-003   6.4353641671036355E-002
  -1.8629519271903712E-002   5.5210078053624656E-003   6.4819687510182411E-002
  -1.7974406295037156E-002   5.3844672351058692E-003   6.4382572269674115E-002
  -1.7319293318170614E-002   5.2361341506132822E-003   6.4160398033891439E-002
  -1.6664180341304059E-002   5.0760085518847236E-003   6.4153164802834547E-002
  -1.6009067364437510E-002   4.9040904389201501E-003   6.4360872576503483E-002
  -2.5221654837215876E-002   7.3613439125906344E-003   6.5605563226840247E-002
  -2.4352744221214223E-002   7.1792897853133197E-003   6.4962399010905059E-002
  -2.3483833605212570E-002   6.9815123093474735E-003   6.4531889068514398E-002
  -2.2614922989210917E-002   6.7680114846932933E-003   6.4314033399668027E-002
  -2.1746012373209264E-002   6.5387873113506023E-003   6.4308832004366157E-002
   4.3282155637314190E-011  -1.7837120669383921E-010   6.4161365427289341E-002
   3.6572269518364564E-011  -1.2319639752789158E-010   6.4263879239165878E-002
   2.9862383399414938E-011  -8.3132778438965715E-011   6.4492320143352072E-002
   2.3152493811018360E-011  -5.8180169015820127E-011   6.4846688139848147E-002
   1.6442611161515686E-011  -4.8338721914120697E-011   6.5326983228653823E-002
  -5.1360611561917999E-003   1.6346966940591900E-003   6.4287139287965117E-002
  -4.9967810565586350E-003   1.5743797544768845E-003   6.4201665978511652E-002
  -4.8575009569254753E-003   1.5119717654775572E-003   6.4268825789434492E-002
  -4.7182208572923139E-003   1.4474727270614406E-003   6.4488618720733609E-002
  -4.5789407576591508E-003   1.3808826392281426E-003   6.4861044772409143E-002
  -1.0472416958765017E-002   3.2693935664896978E-003   6.4353641671036355E-002
  -1.0167150724722197E-002   3.1487596321500277E-003   6.4078090205947139E-002
  -9.8618844906793682E-003   3.0239436140877263E-003   6.3981877889300778E-002
  -9.5566182566365482E-003   2.8949455123027171E-003   6.4065004721097593E-002
  -9.2513520225937194E-003   2.7617653267949793E-003   6.4327470701337208E-002
  -1.6009067364437510E-002   4.9040904389201501E-003   6.4360872576503483E-002
  -1.5511108967918409E-002   4.7231395098231849E-003   6.3893151921472630E-002
  -1.5013150571399313E-002   4.5359154626979509E-003   6.3631476442951390E-002
  -1.4515192174880209E-002   4.3424182975440491E-003   6.3575846140939682E-002
  -1.4017233778361105E-002   4.1426480143618022E-003   6.3726261015437657E-002
  -2.1746012373209264E-002   6.5387873113506023E-003   6.4308832004366157E-002
  -2.1028655786147279E-002   6.2975193874965085E-003   6.3646851125087944E-002
  -2.0311299199085291E-002   6.0478873113082171E-003   6.3217621450385952E-002
  -1.9593942612023296E-002   5.7898910827855719E-003   6.3021142980260111E-002
  -1.8876586024961312E-002   5.5235307019286806E-003   6.3057415714710519E-002
   1.6442611161515686E-011  -4.8338721914120697E-011   6.5326983228653823E-002
   3.7384678686080974E-012  -4.5361742140315187E-011   6.5279855885304605E-002
  -8.9656754242994907E-012  -4.1002562456426972E-011   6.5444405421631602E-002
  -2.1669818717207079E-011  -3.5260884490018185E-011   6.5820631837634785E-002
  -3.4373962010114667E-011  -2.8136881713436424E-011   6.6408535133314073E-002
  -4.5789407576591508E-003   1.3808826392281426E-003   6.4861044772409143E-002
  -4.3631261048697797E-003   1.3121953053759905E-003   6.4723533003425232E-002
  -4.1473114520804259E-003   1.2414045289030340E-003   6.4805973685751903E-002
  -3.9314967992910600E-003   1.1685103098089261E-003   6.5108366819389502E-002
  -3.7156821465016941E-003   1.0935126480939861E-003   6.5630712404337876E-002
  -9.2513520225937194E-003   2.7617653267949793E-003   6.4327470701337208E-002
  -8.8114471326762398E-003   2.6243906561137925E-003   6.4097471062714989E-002
  -8.3715422427587532E-003   2.4828090988083668E-003   6.4095699447038343E-002
  -7.9316373528412719E-003   2.3370206548786292E-003   6.4322155854307034E-002
  -7.4917324629237888E-003   2.1870253243248816E-003   6.4776840284521228E-002
  -1.4017233778361105E-002   4.1426480143618022E-003   6.3726261015437657E-002
  -1.3344963079680883E-002   3.9365860068515043E-003   6.3401670063174140E-002
  -1.2672692381000670E-002   3.7242136687138314E-003   6.3313582705490756E-002
  -1.2000421682320446E-002   3.5055309999484970E-003   6.3461998942387285E-002
  -1.1328150983640220E-002   3.2805380005558743E-003   6.3846918773864017E-002
  -1.8876586024961312E-002   5.5235307019286806E-003   6.3057415714710519E-002
  -1.7963673945883739E-002   5.2487813575892717E-003   6.2636130004802448E-002
  -1.7050761866806163E-002   4.9656182386191433E-003   6.2459623461109143E-002
  -1.6137849787728586E-002   4.6740413450181602E-003   6.2527896083630422E-002
  -1.5224937708651014E-002   4.3740506767867005E-003   6.2840947872366326E-002
  -3.4373962010114667E-011  -2.8136881713436424E-011   6.6408535133314073E-002
  -3.2279779543786802E-011  -2.1072366074292859E-011   6.6409566264626130E-002
  -3.0185610955246744E-011  -1.5508830331079082E-011   6.6625121965431272E-002
  -2.8091438897259735E-011  -1.1445570186063847E-011   6.7055202235729486E-002
  -2.5997259900378822E-011  -8.8834495315381901E-012   6.7699807075520813E-002
  -3.7156821465016941E-003   1.0935126480939861E-003   6.5630712404337876E-002
  -3.5008710700573514E-003   1.0164893466640956E-003   6.5570687917057779E-002
  -3.2860599936130191E-003   9.3751820842540023E-004   6.5725761008984779E-002
  -3.0712489171686791E-003   8.5659923337811847E-004   6.6095931680118986E-002
  -2.8564378407243303E-003   7.7373242152173338E-004   6.6681199930460511E-002
  -7.4917324629237888E-003   2.1870253243248816E-003   6.4776840284521228E-002
  -7.0615373024152123E-003   2.0329787144006128E-003   6.4653812343340930E-002
  -6.6313421419066350E-003   1.8750364323595822E-003   6.4746454991081948E-002
  -6.2011469813980577E-003   1.7131984782016978E-003   6.5054768227744184E-002
  -5.7709518208894951E-003   1.5474648519271939E-003   6.5578752053327777E-002
  -1.1328150983640220E-002   3.2805380005558743E-003   6.3846918773864017E-002
  -1.0681998729353347E-002   3.0494680821371023E-003   6.3658939543475748E-002
  -1.0035846475066472E-002   2.8125546562936775E-003   6.3687203911722751E-002
  -9.3896942207795913E-003   2.5697977230254984E-003   6.3931711878605010E-002
  -8.7435419664927249E-003   2.3211972823326266E-003   6.4392463444122638E-002
  -1.5224937708651014E-002   4.3740506767867005E-003   6.2840947872366326E-002
  -1.4362255350871753E-002   4.0659574498734807E-003   6.2586069517462040E-002
  -1.3499572993092516E-002   3.7500728802278976E-003   6.2548007770907105E-002
  -1.2636890635313277E-002   3.4263969678490526E-003   6.2726762632701535E-002
  -1.1774208277534018E-002   3.0949297127379483E-003   6.3122334102845512E-002
  -2.5997259900378822E-011  -8.8834495315381901E-012   6.7699807075520813E-002
  -1.5433966604749827E-011  -7.3132055966595999E-012   6.7773373370591361E-002
  -4.8706767785677840E-012  -6.2251870325269465E-012   6.8080436837609226E-002
   5.6926113128907829E-012  -5.6195464948061158E-012   6.8620997476574436E-002
   1.6255906343243254E-011  -5.4962701057093000E-012   6.9395055287486906E-002
  -2.8564378407243303E-003   7.7373242152173338E-004   6.6681199930460511E-002
  -2.6205640329224136E-003   6.9205293988938710E-004   6.6701227933771146E-002
  -2.3846902251204866E-003   6.1469595551343070E-004   6.6959506359611620E-002
  -2.1488164173185612E-003   5.4166146839409665E-004   6.7456035207982032E-002
  -1.9129426095166428E-003   4.7294947853104841E-004   6.8190814478882311E-002
  -5.7709518208894951E-003   1.5474648519271939E-003   6.5578752053327777E-002
  -5.2944509652664397E-003   1.3841058870918410E-003   6.5549564262617446E-002
  -4.8179501096433921E-003   1.2293919172520484E-003   6.5763380145019673E-002
  -4.3414492540203332E-003   1.0833229424075178E-003   6.6220199700534069E-002
  -3.8649483983972891E-003   9.4589896255836692E-004   6.6920022929161022E-002
  -8.7435419664927249E-003   2.3211972823326266E-003   6.4392463444122638E-002
  -8.0216608124660492E-003   2.0761588342943643E-003   6.4318382357130499E-002
  -7.2997796584393874E-003   1.8440878789905552E-003   6.4492058193833052E-002
  -6.5778985044127256E-003   1.6249844164209944E-003   6.4913490954230615E-002
  -5.8560173503860499E-003   1.4188484465856854E-003   6.5582680638322788E-002
  -1.1774208277534018E-002   3.0949297127379483E-003   6.3122334102845512E-002
  -1.0802193574521259E-002   2.7682117814968876E-003   6.3007682217310013E-002
  -9.8301788715084784E-003   2.4587838407292839E-003   6.3145540506052089E-002
  -8.8581641684957191E-003   2.1666458904345820E-003   6.3535908969071353E-002
  -7.8861494654829389E-003   1.8917979306130039E-003   6.4178787606368193E-002
   1.6255906343243254E-011  -5.4962701057093000E-012   6.9395055287486906E-002
   1.2040271557545168E-011  -5.4405924210243484E-012   6.9225735477310035E-002
   7.8246263635062263E-012  -5.0372206406024134E-012   6.9273438960017308E-002
   3.6089933125316165E-012  -4.2865502813960177E-012   6.9538165735609142E-002
  -6.0665361623080116E-013  -3.1882274598160620E-012   7.0019915804085064E-002
  -1.9129426095166428E-003   4.7294947853104841E-004   6.8190814478882311E-002
  -1.6919284111504319E-003   4.2019989968317129E-004   6.8000223577855345E-002
  -1.4709142127842315E-003   3.9505264560973918E-004   6.8034637789107871E-002
  -1.2499000144180370E-003   3.9750771631043291E-004   6.8294057112639736E-002
  -1.0288858160518201E-003   4.2756511178498879E-004   6.8778481548450732E-002
  -3.8649483983972891E-003   9.4589896255836692E-004   6.6920022929161022E-002
  -3.4149381780543197E-003   8.4039980480718479E-004   6.6735763261710906E-002
  -2.9649279577113425E-003   7.9010529625682391E-004   6.6784490525935089E-002
  -2.5149177373683649E-003   7.9501543690719753E-004   6.7066204721833389E-002
  -2.0649075170253960E-003   8.5513022675826056E-004   6.7580905849405876E-002
  -5.8560173503860499E-003   1.4188484465856854E-003   6.5582680638322788E-002
  -5.1690292886713909E-003   1.2605997099311844E-003   6.5432354528876080E-002
  -4.4820412269567034E-003   1.1851579469039572E-003   6.5522997170498629E-002
  -3.7950531652420432E-003   1.1925231575040159E-003   6.5854608563190115E-002
  -3.1080651035273561E-003   1.2826953417313935E-003   6.6427188706950802E-002
  -7.8861494654829389E-003   1.8917979306130039E-003   6.4178787606368193E-002
  -6.9542017430016187E-003   1.6807996150549065E-003   6.4089997379351282E-002
  -6.0222540205203332E-003   1.5802105975507852E-003   6.4250157722798629E-002
  -5.0903062980390233E-003   1.5900308781010355E-003   6.4659268636710149E-002
  -4.1583585755577274E-003   1.7102604567047486E-003   6.5317330121085648E-002
  -6.0665361623080116E-013  -3.1882274598160620E-012   7.0019915804085064E-002
  -1.8518520050747611E-013  -2.0747292772682613E-012   6.8679989355995841E-002
   2.3626586798108917E-013  -1.2783385461290209E-012   6.7485939250288118E-002
   6.5771693646965446E-013  -7.9881240511170404E-013   6.6437765486961758E-002
   1.0791853521929795E-012  -6.3615779311021470E-013   6.5535468066016955E-002
  -1.0288858160518201E-003   4.2756511178498879E-004   6.8778481548450732E-002
  -8.8631987591498637E-004   5.0051888461266625E-004   6.7457204026974249E-002
  -7.4375393577813531E-004   6.3166308737203081E-004   6.6275182042547204E-002
  -6.0118799564129639E-004   8.2099772006340860E-004   6.5232415595169443E-002
  -4.5862205550445054E-004   1.0685227826867649E-003   6.4328904684840760E-002
  -2.0649075170253960E-003   8.5513022675826056E-004   6.7580905849405876E-002
  -1.7863964425054437E-003   1.0010377713001450E-003   6.6336467684791400E-002
  -1.5078853679854776E-003   1.2633261760226361E-003   6.5224664251893841E-002
  -1.2293742934655263E-003   1.6419954409261882E-003   6.4245495550713044E-002
  -9.5086321894557319E-004   2.1370455660102428E-003   6.3398961581249635E-002
  -3.1080651035273561E-003   1.2826953417313935E-003   6.6427188706950802E-002
  -2.7002296999565595E-003   1.5015566579875822E-003   6.5317780329446906E-002
  -2.2923942963857563E-003   1.8949892646732344E-003   6.4334385878327849E-002
  -1.8845588928149705E-003   2.4629931617884664E-003   6.3477005353593380E-002
  -1.4767234892441566E-003   3.2055683493336651E-003   6.2745638755243638E-002
  -4.1583585755577274E-003   1.7102604567047486E-003   6.5317330121085648E-002
  -3.6278196482683392E-003   2.0020755446750194E-003   6.4401141960941377E-002
  -3.0972807209789753E-003   2.5266523533235830E-003   6.3604346921849519E-002
  -2.5667417936896010E-003   3.2839908826512373E-003   6.2926945003810270E-002
  -2.0362028664002232E-003   4.2740911326567543E-003   6.2368936206823267E-002
   1.0791853521929795E-012  -6.3615779311021470E-013   6.5535468066016955E-002
   7.4536210536990666E-013  -6.1417537722263660E-013   6.0797684300303856E-002
   4.1155967522854553E-013  -5.5716542490813481E-013   5.5940465852652665E-002
   7.7739897852424633E-014  -4.6447568013974205E-013   5.0963812723063995E-002
  -2.5607294062979236E-013  -3.3573144264664734E-013   4.5867724911536900E-002
  -4.5862205550445054E-004   1.0685227826867649E-003   6.4328904684840760E-002
  -5.6382173145137424E-004   1.3942277394806690E-003   5.9620821497816778E-002
  -6.6902140739831008E-004   1.8181020546830240E-003   5.4821773641504867E-002
  -7.7422108334523811E-004   2.3401457282946625E-003   4.9931761115903917E-002
  -8.7942075929218350E-004   2.9603587603150849E-003   4.4950783921015258E-002
  -9.5086321894557319E-004   2.1370455660102428E-003   6.3398961581249635E-002
  -1.1327925578561784E-003   2.7884554795760685E-003   5.8818748331288362E-002
  -1.3147218967667976E-003   3.6362041099239073E-003   5.4176040424688376E-002
  -1.4966512356774176E-003   4.6802914570538631E-003   4.9470837861449499E-002
  -1.6785805745880220E-003   5.9207175209659013E-003   4.4703140641571437E-002
  -1.4767234892441566E-003   3.2055683493336651E-003   6.2745638755243638E-002
  -1.7069124784690299E-003   4.1826832196714125E-003   5.8391464800718745E-002
  -1.9371014676939306E-003   5.4543061651643326E-003   5.4003266202204296E-002
  -2.1672904569188106E-003   7.0204371858126995E-003   4.9581042959699992E-002
  -2.3974794461437045E-003   8.8810762816167177E-003   4.5124795073206464E-002
  -2.0362028664002232E-003   4.2740911326567543E-003   6.2368936206823267E-002
  -2.2861814932899557E-003   5.5769109597665345E-003   5.8338970906107623E-002
  -2.5361601201796709E-003   7.2724082204050633E-003   5.4303450974051704E-002
  -2.7861387470693999E-003   9.3605829145718342E-003   5.0262376410655923E-002
  -3.0361173739591185E-003   1.1841435042267534E-002   4.6215747215919922E-002
  -2.5221654837215876E-002   7.3613439125906344E-003   6.5605563226840247E-002
  -2.4352744221214223E-002   7.1792897853133197E-003   6.4962399010905059E-002
  -2.3483833605212570E-002   6.9815123093474735E-003   6.4531889068514398E-002
  -2.2614922989210917E-002   6.7680114846932933E-003   6.4314033399668027E-002
  -2.1746012373209264E-002   6.5387873113506023E-003   6.4308832004366157E-002
  -3.1855941707540407E-002   9.2443841015599215E-003   6.0887834823935644E-002
  -3.0758952257724959E-002   9.0161822386942980E-003   6.0347997394688990E-002
  -2.9661962807909472E-002   8.7658180406574027E-003   6.0051663359525734E-002
  -2.8564973358094020E-002   8.4932915074495199E-003   5.9998832718445645E-002
  -2.7467983908278568E-002   8.1986026390704625E-003   6.0189505471448745E-002
  -3.8383383509515825E-002   1.1127424290529181E-002   5.6127178178683665E-002
  -3.7027466105347795E-002   1.0853074692075179E-002   5.5684228549643056E-002
  -3.5671548701179764E-002   1.0550123771967325E-002   5.5515631435224692E-002
  -3.4315631297011741E-002   1.0218571530205717E-002   5.5621386835428097E-002
  -3.2959713892843696E-002   9.8584179667902672E-003   5.6001494750253525E-002
  -4.4803980243142257E-002   1.3010464479498454E-002   5.1323593291084948E-002
  -4.3158285764082871E-002   1.2689967145456053E-002   5.0971092475767747E-002
  -4.1512591285023409E-002   1.2334429503277306E-002   5.0923793295611301E-002
  -3.9866896805964037E-002   1.1943851552961956E-002   5.1181695750615548E-002
  -3.8221202326904638E-002   1.1518233294510072E-002   5.1744799840780578E-002
  -5.1117731908419589E-002   1.4893504668467727E-002   4.6477080161139162E-002
  -4.9151411233930020E-002   1.4526859598837094E-002   4.6208589173062586E-002
  -4.7185090559440507E-002   1.4118735234587176E-002   4.6276148940685546E-002
  -4.5218769884950966E-002   1.3669131575718169E-002   4.6679759464007986E-002
  -4.3252449210461411E-002   1.3178048622229932E-002   4.7419420743030016E-002
  -2.1746012373209264E-002   6.5387873113506023E-003   6.4308832004366157E-002
  -2.1028655786147279E-002   6.2975193874965085E-003   6.3646851125087944E-002
  -2.0311299199085291E-002   6.0478873113082171E-003   6.3217621450385952E-002
  -1.9593942612023296E-002   5.7898910827855719E-003   6.3021142980260111E-002
  -1.8876586024961312E-002   5.5235307019286806E-003   6.3057415714710519E-002
  -2.7467983908278568E-002   8.1986026390704625E-003   6.0189505471448745E-002
  -2.6537813728745124E-002   7.8902213433308804E-003   5.9731035194627871E-002
  -2.5607643549211710E-002   7.5766175280415765E-003   5.9465440898173738E-002
  -2.4677473369678314E-002   7.2577911932021934E-003   5.9392722582086277E-002
  -2.3747303190144887E-002   6.9337423388132202E-003   5.9512880246365529E-002
  -3.2959713892843696E-002   9.8584179667902672E-003   5.6001494750253525E-002
  -3.1856605345048347E-002   9.4829232991651968E-003   5.5749676708674520E-002
  -3.0753496797252994E-002   9.1053477447747763E-003   5.5650859423252604E-002
  -2.9650388249457642E-002   8.7256913036189276E-003   5.5705042893987908E-002
  -2.8547279701662286E-002   8.3439539756977599E-003   5.5912227120880384E-002
  -3.8221202326904638E-002   1.1518233294510072E-002   5.1744799840780578E-002
  -3.6985030635056863E-002   1.1075625254999513E-002   5.1702775667227849E-002
  -3.5748858943209130E-002   1.0634077961508167E-002   5.1773877025622715E-002
  -3.4512687251361383E-002   1.0193591414035606E-002   5.1958103915965219E-002
  -3.3276515559513643E-002   9.7541656125823273E-003   5.2255456338255346E-002
  -4.3252449210461411E-002   1.3178048622229932E-002   4.7419420743030016E-002
  -4.1923089598770766E-002   1.2668327210833857E-002   4.7590332070287983E-002
  -4.0593729987080114E-002   1.2162808178241308E-002   4.7834493705283976E-002
  -3.9264370375389462E-002   1.1661491524452304E-002   4.8151905648018092E-002
  -3.7935010763698818E-002   1.1164377249466839E-002   4.8542567898490485E-002
  -1.8876586024961312E-002   5.5235307019286806E-003   6.3057415714710519E-002
  -1.7963673945883739E-002   5.2487813575892717E-003   6.2636130004802448E-002
  -1.7050761866806163E-002   4.9656182386191433E-003   6.2459623461109143E-002
  -1.6137849787728586E-002   4.6740413450181602E-003   6.2527896083630422E-002
  -1.5224937708651014E-002   4.3740506767867005E-003   6.2840947872366326E-002
  -2.3747303190144887E-002   6.9337423388132202E-003   5.9512880246365529E-002
  -2.2596204814121695E-002   6.6012486535675652E-003   5.9145701862457351E-002
  -2.1445106438098563E-002   6.2570878261582474E-003   5.9010116906225735E-002
  -2.0294008062075382E-002   5.9012598565856139E-003   5.9106125377670626E-002
  -1.9142909686052232E-002   5.5337647448494010E-003   5.9433727276792025E-002
  -2.8547279701662286E-002   8.3439539756977599E-003   5.5912227120880384E-002
  -2.7171180767231698E-002   7.9537159495457754E-003   5.5595902695439472E-002
  -2.5795081832801114E-002   7.5485574136974001E-003   5.5497985959136874E-002
  -2.4418982898370505E-002   7.1284783681528994E-003   5.5618476911972664E-002
  -2.3042883963939914E-002   6.6934788129119627E-003   5.5957375553946823E-002
  -3.3276515559513643E-002   9.7541656125823273E-003   5.2255456338255346E-002
  -3.1688601805213754E-002   9.3061832455238885E-003   5.1986732503748856E-002
  -3.0100688050913892E-002   8.8400270012365285E-003   5.1923230619842477E-002
  -2.8512774296614012E-002   8.3556968797201016E-003   5.2064950686536354E-002
  -2.6924860542314140E-002   7.8531928809745383E-003   5.2411892703830398E-002
  -3.7935010763698818E-002   1.1164377249466839E-002   4.8542567898490485E-002
  -3.6148467928067793E-002   1.0658650541502279E-002   4.8318191287385570E-002
  -3.4361925092436824E-002   1.0131496588775657E-002   4.8285850888342668E-002
  -3.2575382256805840E-002   9.5829153912875276E-003   4.8445546701361808E-002
  -3.0788839421174830E-002   9.0129069490371139E-003   4.8797278726443016E-002
  -1.5224937708651014E-002   4.3740506767867005E-003   6.2840947872366326E-002
  -1.4362255350871753E-002   4.0659574498734807E-003   6.2586069517462040E-002
  -1.3499572993092516E-002   3.7500728802278976E-003   6.2548007770907105E-002
  -1.2636890635313277E-002   3.4263969678490526E-003   6.2726762632701535E-002
  -1.1774208277534018E-002   3.0949297127379483E-003   6.3122334102845512E-002
  -1.9142909686052232E-002   5.5337647448494010E-003   5.9433727276792025E-002
  -1.8069018959333206E-002   5.1574528473334047E-003   5.9184359495927180E-002
  -1.6995128232614211E-002   4.7751745204212409E-003   5.9140591844592444E-002
  -1.5921237505895178E-002   4.3869297641128784E-003   5.9302424322787817E-002
  -1.4847346779176186E-002   3.9927185784083274E-003   5.9669856930513243E-002
  -2.3042883963939914E-002   6.6934788129119627E-003   5.5957375553946823E-002
  -2.1769001347100452E-002   6.2489482447931066E-003   5.5715343260457836E-002
  -2.0495118730260966E-002   5.8002761606147993E-003   5.5667694617679626E-002
  -1.9221236113421494E-002   5.3474625603765914E-003   5.5814429625612352E-002
  -1.7947353496582021E-002   4.8905074440786511E-003   5.6155548284255841E-002
  -2.6924860542314140E-002   7.8531928809745383E-003   5.2411892703830398E-002
  -2.5462202514173467E-002   7.3404436422527530E-003   5.2179020811053897E-002
  -2.3999544486032795E-002   6.8253778008081391E-003   5.2129316090168853E-002
  -2.2536886457892109E-002   6.3079953566401387E-003   5.2262778541175448E-002
  -2.1074228429751450E-002   5.7882963097489470E-003   5.2579408164073499E-002
  -3.0788839421174830E-002   9.0129069490371139E-003   4.8797278726443016E-002
  -2.9148622460552248E-002   8.4319390397126215E-003   4.8575392147715446E-002
  -2.7508405499929695E-002   7.8504794410017009E-003   4.8525456262059952E-002
  -2.5868188539307141E-002   7.2685281529039081E-003   4.8647471069476894E-002
  -2.4227971578684560E-002   6.6860851754193540E-003   4.8941436569966190E-002
  -1.1774208277534018E-002   3.0949297127379483E-003   6.3122334102845512E-002
  -1.0802193574521259E-002   2.7682117814968876E-003   6.3007682217310013E-002
  -9.8301788715084784E-003   2.4587838407292839E-003   6.3145540506052089E-002
  -8.8581641684957191E-003   2.1666458904345820E-003   6.3535908969071353E-002
  -7.8861494654829389E-003   1.8917979306130039E-003   6.4178787606368193E-002
  -1.4847346779176186E-002   3.9927185784083274E-003   5.9669856930513243E-002
  -1.3634621291792277E-002   3.6006613549414701E-003   5.9530319611480476E-002
  -1.2421895804408372E-002   3.2188784853466323E-003   5.9619693686912584E-002
  -1.1209170317024455E-002   2.8473699696234811E-003   5.9937979156809679E-002
  -9.9964448296405543E-003   2.4861358077720164E-003   6.0485176021171594E-002
  -1.7947353496582021E-002   4.8905074440786511E-003   5.6155548284255841E-002
  -1.6517516004639424E-002   4.4331109283861636E-003   5.5984109895124229E-002
  -1.5087678512696778E-002   3.9789731299639808E-003   5.6017984120645181E-002
  -1.3657841020754147E-002   3.5280940488122692E-003   5.6257170960818739E-002
  -1.2228003528811565E-002   3.0804736849308068E-003   5.6701670415644612E-002
  -2.1074228429751450E-002   5.7882963097489470E-003   5.2579408164073499E-002
  -1.9450877713062569E-002   5.2655605018306906E-003   5.2369053068241786E-002
  -1.7827526996373674E-002   4.7390677745815513E-003   5.2340411807250103E-002
  -1.6204176279684793E-002   4.2088181280008907E-003   5.2493484381098340E-002
  -1.4580825562995899E-002   3.6748115620896527E-003   5.2828270789786740E-002
  -2.4227971578684560E-002   6.6860851754193540E-003   4.8941436569966190E-002
  -2.2434706417061842E-002   6.0980100752753841E-003   4.8685149130832661E-002
  -2.0641441255439111E-002   5.4991624191987609E-003   4.8586976746726962E-002
  -1.8848176093816393E-002   4.8895422071899772E-003   4.8646919417648898E-002
  -1.7054910932193662E-002   4.2691494392486096E-003   4.8864977143598387E-002
  -7.8861494654829389E-003   1.8917979306130039E-003   6.4178787606368193E-002
  -6.9542017430016187E-003   1.6807996150549065E-003   6.4089997379351282E-002
  -6.0222540205203332E-003   1.5802105975507852E-003   6.4250157722798629E-002
  -5.0903062980390233E-003   1.5900308781010355E-003   6.4659268636710149E-002
  -4.1583585755577274E-003   1.7102604567047486E-003   6.5317330121085648E-002
  -9.9964448296405543E-003   2.4861358077720164E-003   6.0485176021171594E-002
  -8.8146884400397453E-003   2.1861580679180537E-003   6.0387304449885493E-002
  -7.6329320504389449E-003   1.9984188181872420E-003   6.0540099642374362E-002
  -6.4511756608381455E-003   1.9229180585802058E-003   6.0943561598637994E-002
  -5.2694192712373390E-003   1.9596557890965149E-003   6.1597690318676790E-002
  -1.2228003528811565E-002   3.0804736849308068E-003   5.6701670415644612E-002
  -1.0794722278780394E-002   2.6915165207810066E-003   5.6596546692158439E-002
  -9.3614410287492632E-003   2.4166270388239069E-003   5.6743805925758325E-002
  -7.9281597787181322E-003   2.2558052390595947E-003   5.7143448116443805E-002
  -6.4948785286869891E-003   2.2090511214881703E-003   5.7795473264214997E-002
  -1.4580825562995899E-002   3.6748115620896527E-003   5.2828270789786740E-002
  -1.2894303259223618E-002   3.1968749736438901E-003   5.2717724106170372E-002
  -1.1207780955451337E-002   2.8348352594602458E-003   5.2861276572950519E-002
  -9.5212586516790609E-003   2.5886924195389852E-003   5.3258928190127057E-002
  -7.8347363479067747E-003   2.4584464538798256E-003   5.3910678957700443E-002
  -1.7054910932193662E-002   4.2691494392486096E-003   4.8864977143598387E-002
  -1.5113431381369363E-002   3.7022334265069956E-003   4.8750836691920929E-002
  -1.3171951830545134E-002   3.2530434800970565E-003   4.8892511583950804E-002
  -1.1230472279720884E-002   2.9215796000182162E-003   4.9290001819687929E-002
  -9.2889927288966057E-003   2.7078417862715920E-003   4.9943307399132775E-002
  -4.1583585755577274E-003   1.7102604567047486E-003   6.5317330121085648E-002
  -3.6278196482683392E-003   2.0020755446750194E-003   6.4401141960941377E-002
  -3.0972807209789753E-003   2.5266523533235830E-003   6.3604346921849519E-002
  -2.5667417936896010E-003   3.2839908826512373E-003   6.2926945003810270E-002
  -2.0362028664002232E-003   4.2740911326567543E-003   6.2368936206823267E-002
  -5.2694192712373390E-003   1.9596557890965149E-003   6.1597690318676790E-002
  -4.5936613905874848E-003   2.2156676223026306E-003   6.0872465147038590E-002
  -3.9179035099376151E-003   2.7979891707662630E-003   6.0318284761068486E-002
  -3.2421456292877340E-003   3.7066204344872525E-003   5.9935149160767365E-002
  -2.5663877486378946E-003   4.9415614134651342E-003   5.9723058346134339E-002
  -6.4948785286869891E-003   2.2090511214881703E-003   5.7795473264214997E-002
  -5.6222500300605483E-003   2.4292596999309080E-003   5.7354759075661010E-002
  -4.7496215314341093E-003   3.0693259882092899E-003   5.7136741337391758E-002
  -3.8769930328076850E-003   4.1292499863237152E-003   5.7141420049407261E-002
  -3.0043645341812295E-003   5.6090316942736806E-003   5.7368795211707097E-002
  -7.8347363479067747E-003   2.4584464538798256E-003   5.3910678957700443E-002
  -6.7135855666876597E-003   2.6428517775589633E-003   5.3848023746809422E-002
  -5.5924347854685325E-003   3.3406628056521989E-003   5.4059716650819184E-002
  -4.4712840042493924E-003   4.5518795381601761E-003   5.4545757669729716E-002
  -3.3501332230302921E-003   6.2765019750816997E-003   5.5306146803541019E-002
  -9.2889927288966057E-003   2.7078417862715920E-003   4.9943307399132775E-002
  -7.8676680004687027E-003   2.8564438551867966E-003   5.0352259160483248E-002
  -6.4463432720408137E-003   3.6119996230950246E-003   5.1087210701350694E-002
  -5.0250185436129177E-003   4.9745090899963665E-003   5.2148162021734973E-002
  -3.6036938151850217E-003   6.9439722558904959E-003   5.3535113121636058E-002
  -2.0362028664002232E-003   4.2740911326567543E-003   6.2368936206823267E-002
  -2.2861814932899557E-003   5.5769109597665345E-003   5.8338970906107623E-002
  -2.5361601201796709E-003   7.2724082204050633E-003   5.4303450974051704E-002
  -2.7861387470693999E-003   9.3605829145718342E-003   5.0262376410655923E-002
  -3.0361173739591185E-003   1.1841435042267534E-002   4.6215747215919922E-002
  -2.5663877486378946E-003   4.9415614134651342E-003   5.9723058346134339E-002
  -2.8393690379854147E-003   6.5663946441046894E-003   5.6190929221792918E-002
  -3.1123503273329609E-003   8.6447026628104773E-003   5.2618349403875830E-002
  -3.3853316166805080E-003   1.1176485469582609E-002   4.9005318892383076E-002
  -3.6583129060280342E-003   1.4161743064420307E-002   4.5351837687314767E-002
  -3.0043645341812295E-003   5.6090316942736806E-003   5.7368795211707097E-002
  -3.3352445482219776E-003   7.5558783284431774E-003   5.4395299618276854E-002
  -3.6661245622627119E-003   1.0016997105216238E-002   5.1346457269035958E-002
  -3.9970045763034132E-003   1.2992388024593054E-002   4.8222268163983444E-002
  -4.3278845903441596E-003   1.6482051086573080E-002   4.5022732303120927E-002
  -3.3501332230302921E-003   6.2765019750816997E-003   5.5306146803541019E-002
  -3.7738080239995688E-003   8.5453620127814989E-003   5.2952082095559461E-002
  -4.1974828249688725E-003   1.1389291547622048E-002   5.0487774569531907E-002
  -4.6211576259381684E-003   1.4808290579603442E-002   4.7913224225458011E-002
  -5.0448324269074798E-003   1.8802359108725852E-002   4.5228431063338098E-002
  -3.6036938151850217E-003   6.9439722558904959E-003   5.3535113121636058E-002
  -4.1550594653182588E-003   9.5348456971200424E-003   5.1861276653641153E-002
  -4.7064251154515097E-003   1.2761585990027552E-002   5.0042301305364079E-002
  -5.2577907655847814E-003   1.6624193134614308E-002   4.8078187076805584E-002
  -5.8091564157179976E-003   2.1122667130878625E-002   4.5968933967965864E-002
  -5.1117731908419589E-002   1.4893504668467727E-002   4.6477080161139162E-002
  -4.9151411233930020E-002   1.4526859598837094E-002   4.6208589173062586E-002
  -4.7185090559440507E-002   1.4118735234587176E-002   4.6276148940685546E-002
  -4.5218769884950966E-002   1.3669131575718169E-002   4.6679759464007986E-002
  -4.3252449210461411E-002   1.3178048622229932E-002   4.7419420743030016E-002
  -5.7244321648747903E-002   1.6756960877125526E-002   4.2757904994021489E-002
  -5.5014580784423450E-002   1.6335606423115406E-002   4.2644458303947419E-002
  -5.2784839920098955E-002   1.5876123428360561E-002   4.2721801237843721E-002
  -5.0555099055774495E-002   1.5378511892861206E-002   4.2989933795710283E-002
  -4.8325358191450001E-002   1.4842771816617112E-002   4.3448855977547107E-002
  -6.3103432607527127E-002   1.8620417085783297E-002   3.8982345065586899E-002
  -6.0755532685096897E-002   1.8144353247393635E-002   3.9027293427389989E-002
  -5.8407632762666792E-002   1.7633511622133946E-002   3.9117770281434205E-002
  -5.6059732840236617E-002   1.7087892210004132E-002   3.9253775627719423E-002
  -5.3711832917806498E-002   1.6507495011004292E-002   3.9435309466245738E-002
  -6.8695064784757232E-002   2.0483873294441068E-002   3.5150400375835819E-002
  -6.6374266935950638E-002   1.9953100071671906E-002   3.5357094543390435E-002
  -6.4053469087144058E-002   1.9390899815907303E-002   3.5464056071457167E-002
  -6.1732671238337429E-002   1.8797272527147087E-002   3.5471284960035515E-002
  -5.9411873389530814E-002   1.8172218205391388E-002   3.5378781209125638E-002
  -7.4019218180438273E-002   2.2347329503098867E-002   3.1262070924767738E-002
  -7.1870783536984423E-002   2.1761846895950232E-002   3.1633861651948814E-002
  -6.9722348893530600E-002   2.1148288009680660E-002   3.1760658607912218E-002
  -6.7573914250076833E-002   2.0506652844290069E-002   3.1642461792658394E-002
  -6.5425479606622983E-002   1.9836941399778651E-002   3.1279271206187231E-002
  -4.3252449210461411E-002   1.3178048622229932E-002   4.7419420743030016E-002
  -4.1923089598770766E-002   1.2668327210833857E-002   4.7590332070287983E-002
  -4.0593729987080114E-002   1.2162808178241308E-002   4.7834493705283976E-002
  -3.9264370375389462E-002   1.1661491524452304E-002   4.8151905648018092E-002
  -3.7935010763698818E-002   1.1164377249466839E-002   4.8542567898490485E-002
  -4.8325358191450001E-002   1.4842771816617112E-002   4.3448855977547107E-002
  -4.6888958717713862E-002   1.4285846901327198E-002   4.3339971734472821E-002
  -4.5452559243977717E-002   1.3724680848690336E-002   4.3371916907751287E-002
  -4.4016159770241578E-002   1.3159273658706188E-002   4.3544691497382625E-002
  -4.2579760296505433E-002   1.2589625331375198E-002   4.3858295503366951E-002
  -5.3711832917806498E-002   1.6507495011004292E-002   3.9435309466245738E-002
  -5.2100814473410133E-002   1.5903366591820553E-002   3.9038186136688462E-002
  -5.0489796029013746E-002   1.5286553519139198E-002   3.8849471332098914E-002
  -4.8878777584617394E-002   1.4657055792960182E-002   3.8869165052476867E-002
  -4.7267759140220994E-002   1.4014873413283557E-002   3.9097267297822424E-002
  -5.9411873389530814E-002   1.8172218205391388E-002   3.5378781209125638E-002
  -5.7558656865859488E-002   1.7520886282313873E-002   3.4684975276935072E-002
  -5.5705440342188182E-002   1.6848426189588005E-002   3.4267156978326926E-002
  -5.3852223818516870E-002   1.6154837927214151E-002   3.4125326313300799E-002
  -5.1999007294845558E-002   1.5440121495191944E-002   3.4259483281857211E-002
  -6.5425479606622983E-002   1.9836941399778651E-002   3.1279271206187231E-002
  -6.3262485895061990E-002   1.9138405972807276E-002   3.0280339155212610E-002
  -6.1099492183501025E-002   1.8410298860037103E-002   2.9624973846435115E-002
  -5.8936498471940033E-002   1.7652620061468064E-002   2.9313175279854470E-002
  -5.6773504760379068E-002   1.6865369577100275E-002   2.9344943455470951E-002
  -3.7935010763698818E-002   1.1164377249466839E-002   4.8542567898490485E-002
  -3.6148467928067793E-002   1.0658650541502279E-002   4.8318191287385570E-002
  -3.4361925092436824E-002   1.0131496588775657E-002   4.8285850888342668E-002
  -3.2575382256805840E-002   9.5829153912875276E-003   4.8445546701361808E-002
  -3.0788839421174830E-002   9.0129069490371139E-003   4.8797278726443016E-002
  -4.2579760296505433E-002   1.2589625331375198E-002   4.3858295503366951E-002
  -4.0600695999634277E-002   1.2014246704628556E-002   4.3576831477408151E-002
  -3.8621631702763143E-002   1.1431648616397561E-002   4.3488374161867571E-002
  -3.6642567405892001E-002   1.0841831066682656E-002   4.3592923556745197E-002
  -3.4663503109020874E-002   1.0244794055483619E-002   4.3890479662041182E-002
  -4.7267759140220994E-002   1.4014873413283557E-002   3.9097267297822424E-002
  -4.5095202883753523E-002   1.3369842867754833E-002   3.8772923640287449E-002
  -4.2922646627286003E-002   1.2731800644019742E-002   3.8642557191526955E-002
  -4.0750090370818483E-002   1.2100746742078006E-002   3.8706167951540887E-002
  -3.8577534114350956E-002   1.1476681161929958E-002   3.8963755920329468E-002
  -5.1999007294845558E-002   1.5440121495191944E-002   3.4259483281857211E-002
  -4.9631988580425453E-002   1.4725439030881110E-002   3.3906467776023665E-002
  -4.7264969866005396E-002   1.4031952671641729E-002   3.3748399977320875E-002
  -4.4897951151585257E-002   1.3359662417473411E-002   3.3785279885748726E-002
  -4.2530932437165228E-002   1.2708568268376269E-002   3.4017107501307320E-002
  -5.6773504760379068E-002   1.6865369577100275E-002   2.9344943455470951E-002
  -5.4211053089650185E-002   1.6081035194007415E-002   2.8977463884616583E-002
  -5.1648601418921303E-002   1.5332104699263840E-002   2.8805902519249277E-002
  -4.9086149748192462E-002   1.4618578092868598E-002   2.8830259359368740E-002
  -4.6523698077463538E-002   1.3940455374822747E-002   2.9050534404975237E-002
  -3.0788839421174830E-002   9.0129069490371139E-003   4.8797278726443016E-002
  -2.9148622460552248E-002   8.4319390397126215E-003   4.8575392147715446E-002
  -2.7508405499929695E-002   7.8504794410017009E-003   4.8525456262059952E-002
  -2.5868188539307141E-002   7.2685281529039081E-003   4.8647471069476894E-002
  -2.4227971578684560E-002   6.6860851754193540E-003   4.8941436569966190E-002
  -3.4663503109020874E-002   1.0244794055483619E-002   4.3890479662041182E-002
  -3.2858844507512898E-002   9.6393750273228440E-003   4.3616698582729874E-002
  -3.1054185906004950E-002   9.0244114267233888E-003   4.3499850092116904E-002
  -2.9249527304496967E-002   8.3999032536849205E-003   4.3539934190202551E-002
  -2.7444868702989025E-002   7.7658505082075502E-003   4.3736950876986869E-002
  -3.8577534114350956E-002   1.1476681161929958E-002   3.8963755920329468E-002
  -3.6623451976331392E-002   1.0846811014932956E-002   3.8629027457382031E-002
  -3.4669369838311856E-002   1.0198343412444966E-002   3.8436213478759348E-002
  -3.2715287700292257E-002   9.5312783544659885E-003   3.8385313984461461E-002
  -3.0761205562272700E-002   8.8456158409958574E-003   3.8476328974488300E-002
  -4.2530932437165228E-002   1.2708568268376269E-002   3.4017107501307320E-002
  -4.0442444867007765E-002   1.2054247002543234E-002   3.3612378771671787E-002
  -3.8353957296850365E-002   1.1372275398166654E-002   3.3334546421987299E-002
  -3.6265469726692930E-002   1.0662653455247195E-002   3.3183610452253771E-002
  -3.4176982156535543E-002   9.9253811737838871E-003   3.3159570862471184E-002
  -4.6523698077463538E-002   1.3940455374822747E-002   2.9050534404975237E-002
  -4.4315823179542052E-002   1.3261682990153290E-002   2.8566752525599370E-002
  -4.2107948281620511E-002   1.2546207383888300E-002   2.8194848921800714E-002
  -3.9900073383699053E-002   1.1794028556028142E-002   2.7934823593579225E-002
  -3.7692198485777484E-002   1.1005146506572361E-002   2.7786676540935029E-002
  -2.4227971578684560E-002   6.6860851754193540E-003   4.8941436569966190E-002
  -2.2434706417061842E-002   6.0980100752753841E-003   4.8685149130832661E-002
  -2.0641441255439111E-002   5.4991624191987609E-003   4.8586976746726962E-002
  -1.8848176093816393E-002   4.8895422071899772E-003   4.8646919417648898E-002
  -1.7054910932193662E-002   4.2691494392486096E-003   4.8864977143598387E-002
  -2.7444868702989025E-002   7.7658505082075502E-003   4.3736950876986869E-002
  -2.5494047196776018E-002   7.1267700498312547E-003   4.3375023287790970E-002
  -2.3543225690562976E-002   6.4871787380955115E-003   4.3170093332748322E-002
  -2.1592404184349902E-002   5.8470765730002233E-003   4.3122161011858631E-002
  -1.9641582678136926E-002   5.2064635545459037E-003   4.3231226325121774E-002
  -3.0761205562272700E-002   8.8456158409958574E-003   3.8476328974488300E-002
  -2.8653945132343931E-002   8.1555300243869311E-003   3.8019022937803321E-002
  -2.6546684702415189E-002   7.4751950569919429E-003   3.7717597114396748E-002
  -2.4439424272486448E-002   6.8046109388105840E-003   3.7572051504268573E-002
  -2.2332163842557679E-002   6.1437776698428648E-003   3.7582386107418903E-002
  -3.4176982156535543E-002   9.9253811737838871E-003   3.3159570862471184E-002
  -3.1914400223765731E-002   9.1842899989428711E-003   3.2617148080870018E-002
  -2.9651818290995821E-002   8.4632113758887004E-003   3.2229488091672462E-002
  -2.7389236358225988E-002   7.7621453046206653E-003   3.1996590894879016E-002
  -2.5126654425456148E-002   7.0810917851399369E-003   3.1918456490488946E-002
  -3.7692198485777484E-002   1.1005146506572361E-002   2.7786676540935029E-002
  -3.5275412471041157E-002   1.0213049973498478E-002   2.7169398716990534E-002
  -3.2858626456304829E-002   9.4512276947850971E-003   2.6705766264575492E-002
  -3.0441840441568530E-002   8.7196796704312393E-003   2.6395779183689461E-002
  -2.8025054426832147E-002   8.0184059004371200E-003   2.6239437474332661E-002
  -1.7054910932193662E-002   4.2691494392486096E-003   4.8864977143598387E-002
  -1.5113431381369363E-002   3.7022334265069956E-003   4.8750836691920929E-002
  -1.3171951830545134E-002   3.2530434800970565E-003   4.8892511583950804E-002
  -1.1230472279720884E-002   2.9215796000182162E-003   4.9290001819687929E-002
  -9.2889927288966057E-003   2.7078417862715920E-003   4.9943307399132775E-002
  -1.9641582678136926E-002   5.2064635545459037E-003   4.3231226325121774E-002
  -1.7483567955806481E-002   4.6024681501591336E-003   4.3069632356679155E-002
  -1.5325553233476064E-002   4.0722188272683535E-003   4.3085293387541246E-002
  -1.3167538511145667E-002   3.6157155858729181E-003   4.3278209417708408E-002
  -1.1009523788815201E-002   3.2329584259728206E-003   4.3648380447180446E-002
  -2.2332163842557679E-002   6.1437776698428648E-003   3.7582386107418903E-002
  -2.0036174293123599E-002   5.5027028738117711E-003   3.7329358637374549E-002
  -1.7740184743689515E-002   4.8913941744399697E-003   3.7175025822232713E-002
  -1.5444195194255399E-002   4.3098515717273946E-003   3.7119387661993346E-002
  -1.3148205644821345E-002   3.7580750656741602E-003   3.7162444156656399E-002
  -2.5126654425456148E-002   7.0810917851399369E-003   3.1918456490488946E-002
  -2.2771250393320851E-002   6.4029375974641034E-003   3.1530015534007132E-002
  -2.0415846361185506E-002   5.7105695216115929E-003   3.1161708888025382E-002
  -1.8060442329050210E-002   5.0039875575817062E-003   3.0813536552543513E-002
  -1.5705038296914865E-002   4.2831917053756108E-003   3.0485498527561612E-002
  -2.8025054426832147E-002   8.0184059004371200E-003   2.6239437474332661E-002
  -2.5688796256398028E-002   7.3031723211166022E-003   2.5671603046577229E-002
  -2.3352538085964034E-002   6.5297448687829107E-003   2.5045342584919028E-002
  -2.1016279915529977E-002   5.6981235434365798E-003   2.4360656089358501E-002
  -1.8680021745095921E-002   4.8083083450768394E-003   2.3617543559895537E-002
  -9.2889927288966057E-003   2.7078417862715920E-003   4.9943307399132775E-002
  -7.8676680004687027E-003   2.8564438551867966E-003   5.0352259160483248E-002
  -6.4463432720408137E-003   3.6119996230950246E-003   5.1087210701350694E-002
  -5.0250185436129177E-003   4.9745090899963665E-003   5.2148162021734973E-002
  -3.6036938151850217E-003   6.9439722558904959E-003   5.3535113121636058E-002
  -1.1009523788815201E-002   3.2329584259728206E-003   4.3648380447180446E-002
  -9.2435392240236558E-003   3.1620126672571858E-003   4.4236256679223318E-002
  -7.4775546592320552E-003   3.6409436294149999E-003   4.5187452804477057E-002
  -5.7115700944404893E-003   4.6697513124459786E-003   4.6501968822941192E-002
  -3.9455855296489095E-003   6.2484357163503645E-003   4.8179804734616027E-002
  -1.3148205644821345E-002   3.7580750656741602E-003   3.7162444156656399E-002
  -1.1000241129972325E-002   3.4675814793275750E-003   3.7872167881272539E-002
  -8.8522766151233369E-003   3.6698876357346283E-003   3.8982531612792873E-002
  -6.7043121002743084E-003   4.3649935348955872E-003   4.0493535351217531E-002
  -4.5563475854252730E-003   5.5528991768100666E-003   4.2405179096546314E-002
  -1.5705038296914865E-002   4.2831917053756108E-003   3.0485498527561612E-002
  -1.3137773718314772E-002   3.7731502913976867E-003   3.1259992766631016E-002
  -1.0570509139714600E-002   3.6988316420545411E-003   3.2472447126298556E-002
  -8.0032445611144566E-003   4.0602357573448645E-003   3.4122861606563741E-002
  -5.4359799825143395E-003   4.8573626372699630E-003   3.6211236207427340E-002
  -1.8680021745095921E-002   4.8083083450768394E-003   2.3617543559895537E-002
  -1.5656136989050884E-002   4.0787191034683534E-003   2.4399731335298713E-002
  -1.2632252233005903E-002   3.7277756483742042E-003   2.5657199344993720E-002
  -9.6083674769608940E-003   3.7554779797948565E-003   2.7389947588980279E-002
  -6.5844827209158852E-003   4.1618260977298593E-003   2.9597976067258669E-002
  -3.6036938151850217E-003   6.9439722558904959E-003   5.3535113121636058E-002
  -4.1550594653182588E-003   9.5348456971200424E-003   5.1861276653641153E-002
  -4.7064251154515097E-003   1.2761585990027552E-002   5.0042301305364079E-002
  -5.2577907655847814E-003   1.6624193134614308E-002   4.8078187076805584E-002
  -5.8091564157179976E-003   2.1122667130878625E-002   4.5968933967965864E-002
  -3.9455855296489095E-003   6.2484357163503645E-003   4.8179804734616027E-002
  -4.5383221027570364E-003   8.6867858929636776E-003   4.7243526720726570E-002
  -5.1310586758652604E-003   1.2294590894121882E-002   4.6369645741168974E-002
  -5.7237952489734359E-003   1.7071850719825532E-002   4.5558161795943297E-002
  -6.3165318220816113E-003   2.3018565370073629E-002   4.4809074885049371E-002
  -4.5563475854252730E-003   5.5528991768100666E-003   4.2405179096546314E-002
  -4.9829191668950279E-003   7.8387260888074239E-003   4.2740047509629453E-002
  -5.4094907483647307E-003   1.1827595798216198E-002   4.3344848871657640E-002
  -5.8360623298345186E-003   1.7519508305036808E-002   4.4219583182631007E-002
  -6.2626339113040774E-003   2.4914463609268633E-002   4.5364250442549436E-002
  -5.4359799825143395E-003   4.8573626372699630E-003   3.6211236207427340E-002
  -5.4888506577321083E-003   6.9906662846511147E-003   3.8350839020349220E-002
  -5.5417213329499058E-003   1.1360600702310410E-002   4.0967910696830173E-002
  -5.5945920081677310E-003   1.7967165890248056E-002   4.4062451236869228E-002
  -5.6474626833855276E-003   2.6810361848463637E-002   4.7634460640467086E-002
  -6.5844827209158852E-003   4.1618260977298593E-003   2.9597976067258669E-002
  -6.0561165752683888E-003   6.1426064804952496E-003   3.4075901252886398E-002
  -5.5277504296209201E-003   1.0893605606404677E-002   3.9238831216686254E-002
  -4.9993842839734931E-003   1.8414823475459599E-002   4.5086765958657737E-002
  -4.4710181383259551E-003   2.8706260087658642E-002   5.1619705478801237E-002
  -7.4019218180438273E-002   2.2347329503098867E-002   3.1262070924767738E-002
  -7.1870783536984423E-002   2.1761846895950232E-002   3.1633861651948814E-002
  -6.9722348893530600E-002   2.1148288009680660E-002   3.1760658607912218E-002
  -6.7573914250076833E-002   2.0506652844290069E-002   3.1642461792658394E-002
  -6.5425479606622983E-002   1.9836941399778651E-002   3.1279271206187231E-002
  -7.9950784074838493E-002   2.4559142058483530E-002   2.3817512729235379E-002
  -7.7760539406087847E-002   2.3500726299914731E-002   2.3052810344495966E-002
  -7.5570294737337229E-002   2.2588400561572491E-002   2.2616721781567622E-002
  -7.3380050068586639E-002   2.1822164843456775E-002   2.2509247040450001E-002
  -7.1189805399835979E-002   2.1202019145567519E-002   2.2730386121143559E-002
  -8.7364653748226051E-002   2.6770954613868136E-002   1.5812938232609236E-002
  -8.4558991461150257E-002   2.5239605703879203E-002   1.4085909035296884E-002
  -8.1753329174074449E-002   2.4028513113464295E-002   1.3261101252823787E-002
  -7.8947666886998669E-002   2.3137676842623286E-002   1.3338514885190209E-002
  -7.6142004599922930E-002   2.2567096891356442E-002   1.4318149932395996E-002
  -9.6260827200601001E-002   2.8982767169252854E-002   7.2483474348890506E-003
  -9.2266139702171679E-002   2.6978485107843689E-002   4.7331577243511051E-003
  -8.8271452203742343E-002   2.5468625665356029E-002   3.6937970216812457E-003
  -8.4276764705312979E-002   2.4453188841789979E-002   4.1302653268789832E-003
  -8.0282077206883642E-002   2.3932174637145337E-002   6.0425626399444321E-003
 -0.10663930443196334        3.1194579724637461E-002  -1.8762596639251283E-003
 -0.10088198412915206        2.8717364511808285E-002  -5.0054435883407078E-003
  -9.5124663826340772E-002   2.6908738217247957E-002  -6.0851909118602443E-003
  -8.9367343523529486E-002   2.5768700840956622E-002  -5.1155016344838558E-003
  -8.3610023220718199E-002   2.5297252382934343E-002  -2.0963757562110219E-003
  -6.5425479606622983E-002   1.9836941399778651E-002   3.1279271206187231E-002
  -6.3262485895061990E-002   1.9138405972807276E-002   3.0280339155212610E-002
  -6.1099492183501025E-002   1.8410298860037103E-002   2.9624973846435115E-002
  -5.8936498471940033E-002   1.7652620061468064E-002   2.9313175279854470E-002
  -5.6773504760379068E-002   1.6865369577100275E-002   2.9344943455470951E-002
  -7.1189805399835979E-002   2.1202019145567519E-002   2.2730386121143559E-002
  -6.8787230421143084E-002   2.0613792805998676E-002   2.2383683693537659E-002
  -6.6384655442450230E-002   1.9943315162843714E-002   2.2172577057998508E-002
  -6.3982080463757307E-002   1.9190586216103010E-002   2.2097066214526020E-002
  -6.1579505485064440E-002   1.8355605965776178E-002   2.2157151163120392E-002
  -7.6142004599922930E-002   2.2567096891356442E-002   1.4318149932395996E-002
  -7.3707819304228372E-002   2.2089179639190173E-002   1.4570997510371511E-002
  -7.1273634008533787E-002   2.1476331465650485E-002   1.4751469930283548E-002
  -6.8839448712839243E-002   2.0728552370737896E-002   1.4859567192132220E-002
  -6.6405263417144658E-002   1.9845842354452137E-002   1.4895289295917519E-002
  -8.0282077206883642E-002   2.3932174637145337E-002   6.0425626399444321E-003
  -7.8024252544317649E-002   2.3564566472381511E-002   6.8422806057143216E-003
  -7.5766427881751669E-002   2.3009347768457481E-002   7.3616524632908239E-003
  -7.3508603219185689E-002   2.2266518525372897E-002   7.6006782126731573E-003
  -7.1250778556619737E-002   2.1336078743128067E-002   7.5593578538620532E-003
  -8.3610023220718199E-002   2.5297252382934343E-002  -2.0963757562110219E-003
  -8.1736530141411079E-002   2.5039953305572904E-002  -8.0246702043396123E-004
  -7.9863037062103848E-002   2.4542364071263895E-002   3.1246570191822975E-006
  -7.7989543982796616E-002   2.3804484680007738E-002   3.2039927614836705E-004
  -7.6116050903489496E-002   2.2826315131803998E-002   1.4935683695393998E-004
  -5.6773504760379068E-002   1.6865369577100275E-002   2.9344943455470951E-002
  -5.4211053089650185E-002   1.6081035194007415E-002   2.8977463884616583E-002
  -5.1648601418921303E-002   1.5332104699263840E-002   2.8805902519249277E-002
  -4.9086149748192462E-002   1.4618578092868598E-002   2.8830259359368740E-002
  -4.6523698077463538E-002   1.3940455374822747E-002   2.9050534404975237E-002
  -6.1579505485064440E-002   1.8355605965776178E-002   2.2157151163120392E-002
  -5.8818183534043333E-002   1.7497193380787396E-002   2.1808261720981881E-002
  -5.6056861583022255E-002   1.6674167430060019E-002   2.1661194633941019E-002
  -5.3295539632001163E-002   1.5886528113594370E-002   2.1715949901997510E-002
  -5.0534217680980015E-002   1.5134275431390232E-002   2.1972527525151775E-002
  -6.6405263417144658E-002   1.9845842354452137E-002   1.4895289295917519E-002
  -6.3439167036220670E-002   1.8913351567567030E-002   1.4564972728407552E-002
  -6.0473070655296661E-002   1.8016230160856413E-002   1.4442382665605574E-002
  -5.7506974274372694E-002   1.7154478134319973E-002   1.4527519107512012E-002
  -5.4540877893448678E-002   1.6328095487957744E-002   1.4820382054126682E-002
  -7.1250778556619737E-002   2.1336078743128067E-002   7.5593578538620532E-003
  -6.8074003596182153E-002   2.0329509754346976E-002   7.2475969068930939E-003
  -6.4897228635744639E-002   1.9358292891652588E-002   7.1494666142432658E-003
  -6.1720453675307090E-002   1.8422428155045606E-002   7.2649669759121934E-003
  -5.8543678714869533E-002   1.7521915544525465E-002   7.5940979918999833E-003
  -7.6116050903489496E-002   2.2826315131803998E-002   1.4935683695393998E-004
  -7.2722693213927769E-002   2.1745667941126756E-002  -1.4386574356101134E-004
  -6.9329335524366043E-002   2.0700355622448874E-002  -2.1755352014643514E-004
  -6.5935977834804316E-002   1.9690378175771323E-002  -7.1706492802282862E-005
  -6.2542620145242589E-002   1.8715735601092964E-002   2.9367533847146632E-004
  -4.6523698077463538E-002   1.3940455374822747E-002   2.9050534404975237E-002
  -4.4315823179542052E-002   1.3261682990153290E-002   2.8566752525599370E-002
  -4.2107948281620511E-002   1.2546207383888300E-002   2.8194848921800714E-002
  -3.9900073383699053E-002   1.1794028556028142E-002   2.7934823593579225E-002
  -3.7692198485777484E-002   1.1005146506572361E-002   2.7786676540935029E-002
  -5.0534217680980015E-002   1.5134275431390232E-002   2.1972527525151775E-002
  -4.8194208796290480E-002   1.4393084079289908E-002   2.1487877150189627E-002
  -4.5854199911600932E-002   1.3638628753135262E-002   2.1155616473186561E-002
  -4.3514191026911363E-002   1.2870909452926516E-002   2.0975745494142328E-002
  -4.1174182142221794E-002   1.2089926178663335E-002   2.0948264213057066E-002
  -5.4540877893448678E-002   1.6328095487957744E-002   1.4820382054126682E-002
  -5.2028223599609368E-002   1.5524485168426416E-002   1.4358302431119768E-002
  -4.9515569305770057E-002   1.4731050122382107E-002   1.4089123928453261E-002
  -4.7002915011930782E-002   1.3947790349824777E-002   1.4012846546127517E-002
  -4.4490260718091493E-002   1.3174705850754309E-002   1.4129470284142159E-002
  -5.8543678714869533E-002   1.7521915544525465E-002   7.5940979918999833E-003
  -5.5817867589498804E-002   1.6655886257563091E-002   7.1780283683892353E-003
  -5.3092056464128054E-002   1.5823471491629010E-002   6.9953712876008618E-003
  -5.0366245338757276E-002   1.5024671246722760E-002   7.0461267495347110E-003
  -4.7640434213386554E-002   1.4259485522845283E-002   7.3302947541905930E-003
  -6.2542620145242589E-002   1.8715735601092964E-002   2.9367533847146632E-004
  -5.9563140765958811E-002   1.7787287346699765E-002  -5.2945038001794842E-005
  -5.6583661386674866E-002   1.6915892860875914E-002  -1.2564144937068922E-004
  -5.3604182007390977E-002   1.6101552143621634E-002   7.5586104364359918E-005
  -5.0624702628107143E-002   1.5344265194936479E-002   5.5073762320279052E-004
  -3.7692198485777484E-002   1.1005146506572361E-002   2.7786676540935029E-002
  -3.5275412471041157E-002   1.0213049973498478E-002   2.7169398716990534E-002
  -3.2858626456304829E-002   9.4512276947850971E-003   2.6705766264575492E-002
  -3.0441840441568530E-002   8.7196796704312393E-003   2.6395779183689461E-002
  -2.8025054426832147E-002   8.0184059004371200E-003   2.6239437474332661E-002
  -4.1174182142221794E-002   1.2089926178663335E-002   2.0948264213057066E-002
  -3.8626436986854640E-002   1.1306899549114791E-002   2.0493930997710352E-002
  -3.6078691831487333E-002   1.0533050183049869E-002   2.0147870692096503E-002
  -3.3530946676120096E-002   9.7683780804676615E-003   1.9910083296215145E-002
  -3.0983201520752873E-002   9.0128832413693960E-003   1.9780568810066346E-002
  -4.4490260718091493E-002   1.3174705850754309E-002   1.4129470284142159E-002
  -4.1856928883889977E-002   1.2400749124730881E-002   1.3816984686517014E-002
  -3.9223597049688481E-002   1.1614872671314544E-002   1.3567399536827909E-002
  -3.6590265215487028E-002   1.0817076490504476E-002   1.3380714835074511E-002
  -3.3956933381285519E-002   1.0007360582301228E-002   1.3256930581257292E-002
  -4.7640434213386554E-002   1.4259485522845283E-002   7.3302947541905930E-003
  -4.4966888162147431E-002   1.3494598700347193E-002   7.1385597834105127E-003
  -4.2293342110908329E-002   1.2696695159578879E-002   6.9643527987695991E-003
  -3.9619796059669227E-002   1.1865774900541316E-002   6.8076738002683500E-003
  -3.6946250008430104E-002   1.1001837923233837E-002   6.6685227879056605E-003
  -5.0624702628107143E-002   1.5344265194936479E-002   5.5073762320279052E-004
  -4.7956314821626989E-002   1.4588448275963173E-002   4.5865628839064643E-004
  -4.5287927015146778E-002   1.3778517647843824E-002   3.3873047792146171E-004
  -4.2619539208666624E-002   1.2914473310577892E-002   1.9096019179488249E-004
  -3.9951151402186413E-002   1.1996315264165558E-002   1.5345430011248773E-005
  -2.8025054426832147E-002   8.0184059004371200E-003   2.6239437474332661E-002
  -2.5688796256398028E-002   7.3031723211166022E-003   2.5671603046577229E-002
  -2.3352538085964034E-002   6.5297448687829107E-003   2.5045342584919028E-002
  -2.1016279915529977E-002   5.6981235434365798E-003   2.4360656089358501E-002
  -1.8680021745095921E-002   4.8083083450768394E-003   2.3617543559895537E-002
  -3.0983201520752873E-002   9.0128832413693960E-003   1.9780568810066346E-002
  -2.8684374372570112E-002   8.2617169493454101E-003   1.9188787606176427E-002
  -2.6385547224387296E-002   7.5100304879865132E-003   1.8580570391686452E-002
  -2.4086720076204493E-002   6.7578238572935725E-003   1.7955917166596336E-002
  -2.1787892928021774E-002   6.0050970572661511E-003   1.7314827930906440E-002
  -3.3956933381285519E-002   1.0007360582301228E-002   1.3256930581257292E-002
  -3.1653547232051535E-002   9.2202615775736352E-003   1.2698876304911649E-002
  -2.9350161082817561E-002   8.4903161071903238E-003   1.2166376041268218E-002
  -2.7046774933583560E-002   7.8175241711507838E-003   1.1659429790327289E-002
  -2.4743388784349660E-002   7.2018857694552962E-003   1.1178037552088460E-002
  -3.6946250008430104E-002   1.1001837923233837E-002   6.6685227879056605E-003
  -3.4596314834842462E-002   1.0178806205802263E-002   6.2018691427826247E-003
  -3.2246379661254758E-002   9.4706017263941414E-003   5.8027595336640446E-003
  -2.9896444487667099E-002   8.8772244850082189E-003   5.4711939605506469E-003
  -2.7546509314079419E-002   8.3986744816446912E-003   5.2071724234420622E-003
  -3.9951151402186413E-002   1.1996315264165558E-002   1.5345430011248773E-005
  -3.7512677180942644E-002   1.1137350834030779E-002  -3.0223388021111131E-004
  -3.5074202959698930E-002   1.0450887345597570E-002  -5.1027913112564049E-004
  -3.2635728738455189E-002   9.9369247988650017E-003  -6.0879032273294248E-004
  -3.0197254517211447E-002   9.5954631938337531E-003  -5.9776745503326012E-004
  -1.8680021745095921E-002   4.8083083450768394E-003   2.3617543559895537E-002
  -1.5656136989050884E-002   4.0787191034683534E-003   2.4399731335298713E-002
  -1.2632252233005903E-002   3.7277756483742042E-003   2.5657199344993720E-002
  -9.6083674769608940E-003   3.7554779797948565E-003   2.7389947588980279E-002
  -6.5844827209158852E-003   4.1618260977298593E-003   2.9597976067258669E-002
  -2.1787892928021774E-002   6.0050970572661511E-003   1.7314827930906440E-002
  -1.8558850276543734E-002   5.3427701172660269E-003   1.8259251532000920E-002
  -1.5329807625065639E-002   4.8617630666551170E-003   1.9138710689669658E-002
  -1.2100764973587565E-002   4.5620759054337059E-003   1.9953205403912794E-002
  -8.8717223221095043E-003   4.4437086336017728E-003   2.0702735674730022E-002
  -2.4743388784349660E-002   7.2018857694552962E-003   1.1178037552088460E-002
  -2.1849432915155932E-002   6.6068211310637004E-003   1.2087371081749038E-002
  -1.8955477045962274E-002   5.9957504849362658E-003   1.2391495490266025E-002
  -1.6061521176768637E-002   5.3686738310727809E-003   1.2090410777640483E-002
  -1.3167565307574999E-002   4.7255911694735753E-003   1.1184116943871614E-002
  -2.7546509314079419E-002   8.3986744816446912E-003   5.2071724234420622E-003
  -2.5527884904887645E-002   7.8708721448612629E-003   5.8840899845429215E-003
  -2.3509260495695791E-002   7.1297379032171856E-003   5.4155537467835170E-003
  -2.1490636086503950E-002   6.1752717567120762E-003   3.8015637101634896E-003
  -1.9472011677312159E-002   5.0074737053454332E-003   1.0421198746829174E-003
  -3.0197254517211447E-002   9.5954631938337531E-003  -5.9776745503326012E-004
  -2.9594206245738830E-002   9.1349231586592694E-003  -3.5059175961671407E-004
  -2.8991157974266213E-002   8.2637253214988826E-003  -1.7891145407786246E-003
  -2.8388109702793568E-002   6.9818696823509552E-003  -4.9133357985179232E-003
  -2.7785061431320979E-002   5.2893562412170692E-003  -9.7232555328354842E-003
  -6.5844827209158852E-003   4.1618260977298593E-003   2.9597976067258669E-002
  -6.0561165752683888E-003   6.1426064804952496E-003   3.4075901252886398E-002
  -5.5277504296209201E-003   1.0893605606404677E-002   3.9238831216686254E-002
  -4.9993842839734931E-003   1.8414823475459599E-002   4.5086765958657737E-002
  -4.4710181383259551E-003   2.8706260087658642E-002   5.1619705478801237E-002
  -8.8717223221095043E-003   4.4437086336017728E-003   2.0702735674730022E-002
  -7.5858895302913232E-003   5.6583920932397058E-003   2.5872019502432453E-002
  -6.3000567384731004E-003   9.3578571264283372E-003   3.1871231844304349E-002
  -5.0142239466548222E-003   1.5542103733167723E-002   3.8700372700345653E-002
  -3.7283911548364745E-003   2.4211131913457473E-002   4.6359442070556867E-002
  -1.3167565307574999E-002   4.7255911694735753E-003   1.1184116943871614E-002
  -1.0979342133588504E-002   5.1741777059850502E-003   1.6759322244054631E-002
  -8.7911189596019609E-003   7.8221086464519696E-003   2.3309379794404922E-002
  -6.6028957856154417E-003   1.2669383990875950E-002   3.0834289594921793E-002
  -4.4146726116289225E-003   1.9716003739256305E-002   3.9334051645606105E-002
  -1.9472011677312159E-002   5.0074737053454332E-003   1.0421198746829174E-003
  -1.6236474385159787E-002   4.6899633187289513E-003   6.7378094777525432E-003
  -1.3000937093007472E-002   6.2863601664756158E-003   1.3553275066986469E-002
  -9.7653998008551818E-003   9.7966642485843476E-003   2.1488516642385252E-002
  -6.5298625087027856E-003   1.5220875565054914E-002   3.0543534203948342E-002
  -2.7785061431320979E-002   5.2893562412170692E-003  -9.7232555328354842E-003
  -2.3357286285005330E-002   4.2057489314744068E-003  -4.1925187964734212E-003
  -1.8929511138689736E-002   4.7506116864993175E-003   2.6029176620502859E-003
  -1.4501735992374254E-002   6.9239445062928701E-003   1.0663053842735901E-002
  -1.0073960846058494E-002   1.0725747390853968E-002   1.9987889745584519E-002
 </DataArray>
 </PointData>
 </Piece>
 </UnstructuredGrid>
 </VTKFile>
